p cnf 120 182
1 2 0
3 4 0
5 6 0
7 8 0
9 10 0
11 12 0
13 14 0
15 16 0
17 18 0
19 20 0
21 22 0
23 24 0
25 26 0
27 28 0
29 30 0
31 32 0
33 34 0
35 36 0
37 38 0
39 40 0
41 42 0
43 44 0
45 46 0
47 48 0
49 50 0
51 52 0
53 54 0
55 56 0
57 58 0
59 60 0
61 62 0
63 64 0
65 66 0
67 68 0
69 70 0
71 72 0
73 74 0
75 76 0
77 78 0
79 80 0
81 82 0
83 84 0
85 86 0
87 88 0
89 90 0
91 92 0
93 94 0
95 96 0
97 98 0
99 100 0
101 102 0
103 104 0
105 106 0
107 108 0
109 110 0
111 112 0
113 114 0
115 116 0
117 118 0
119 120 0
-41 -83 0
-42 -84 0
-35 -53 -107 0
-36 -54 -108 0
-47 -95 0
-48 -96 0
-11 -15 -47 0
-12 -16 -48 0
-29 -59 0
-30 -60 0
-25 -51 0
-26 -52 0
-13 -27 0
-14 -28 0
-23 -41 -55 0
-24 -42 -56 0
-15 -19 -79 0
-16 -20 -80 0
-23 -39 -59 0
-24 -40 -60 0
-31 -47 -95 0
-32 -48 -96 0
-35 -71 0
-36 -72 0
-5 -7 -23 0
-6 -8 -24 0
-39 -59 -119 0
-40 -60 -120 0
-39 -79 0
-40 -80 0
-23 -35 -71 0
-24 -36 -72 0
-27 -55 0
-28 -56 0
-3 -7 0
-4 -8 0
-55 -111 0
-56 -112 0
-11 -23 0
-12 -24 0
-7 -11 -23 0
-8 -12 -24 0
-17 -23 -71 0
-18 -24 -72 0
-23 -47 0
-24 -48 0
-47 -83 -111 0
-48 -84 -112 0
-51 -103 0
-52 -104 0
-19 -39 0
-20 -40 0
-19 -23 -119 0
-20 -24 -120 0
-5 -11 0
-6 -12 0
-27 -41 -83 0
-28 -42 -84 0
-3 -5 -11 0
-4 -6 -12 0
-11 -19 -29 0
-12 -20 -30 0
-37 -75 0
-38 -76 0
-47 -79 -119 0
-48 -80 -120 0
-53 -107 0
-54 -108 0
-21 -43 0
-22 -44 0
-9 -19 0
-10 -20 0
-43 -87 0
-44 -88 0
-29 -47 -79 0
-30 -48 -80 0
-23 -29 -119 0
-24 -30 -120 0
-11 -13 -83 0
-12 -14 -84 0
-15 -31 0
-16 -32 0
-35 -59 -89 0
-36 -60 -90 0
-7 -9 -39 0
-8 -10 -40 0
-17 -35 0
-18 -36 0
-31 -63 0
-32 -64 0
-45 -91 0
-46 -92 0
-1 -3 0
-2 -4 0
-9 -11 -59 0
-10 -12 -60 0
-19 -27 -69 0
-20 -28 -70 0
-29 -39 -119 0
-30 -40 -120 0
-19 -29 -59 0
-20 -30 -60 0
-11 -17 -35 0
-12 -18 -36 0
-15 -23 -47 0
-16 -24 -48 0
-39 -71 -89 0
-40 -72 -90 0
-59 -119 0
-60 -120 0
-23 -31 -95 0
-24 -32 -96 0
-49 -99 0
-50 -100 0
-57 -115 0
-58 -116 0
-33 -67 0
-34 -68 0
-13 -15 -111 0
-14 -16 -112 0
-7 -15 0
-8 -16 0
