p cnf 80 216
1 2 0
3 4 0
5 6 0
7 8 0
9 10 0
11 12 0
13 14 0
15 16 0
17 18 0
19 20 0
21 22 0
23 24 0
25 26 0
27 28 0
29 30 0
31 32 0
33 34 0
35 36 0
37 38 0
39 40 0
41 42 0
43 44 0
45 46 0
47 48 0
49 50 0
51 52 0
53 54 0
55 56 0
57 58 0
59 60 0
61 62 0
63 64 0
65 66 0
67 68 0
69 70 0
71 72 0
73 74 0
75 76 0
77 78 0
79 80 0
-11 -21 -43 -65 0
-12 -22 -44 -66 0
-9 -23 -29 -39 0
-10 -24 -30 -40 0
-3 -7 -15 0
-4 -8 -16 0
-11 -19 -59 0
-12 -20 -60 0
-11 -19 -47 -79 0
-12 -20 -48 -80 0
-11 -23 -39 -59 0
-12 -24 -40 -60 0
-5 -11 -15 -47 0
-6 -12 -16 -48 0
-15 -31 -63 0
-16 -32 -64 0
-15 -39 -47 -59 0
-16 -40 -48 -60 0
-7 -19 -23 -29 0
-8 -20 -24 -30 0
-9 -29 0
-10 -30 0
-9 -15 -47 -59 0
-10 -16 -48 -60 0
-3 -9 -19 0
-4 -10 -20 0
-5 -7 -47 0
-6 -8 -48 0
-13 -41 0
-14 -42 0
-5 -15 -23 0
-6 -16 -24 0
-7 -17 -71 0
-8 -18 -72 0
-13 -27 -55 0
-14 -28 -56 0
-5 -9 -23 -39 0
-6 -10 -24 -40 0
-7 -11 -41 -55 0
-8 -12 -42 -56 0
-7 -9 -79 0
-8 -10 -80 0
-5 -7 -39 -59 0
-6 -8 -40 -60 0
-9 -19 -39 0
-10 -20 -40 0
-3 -5 -19 -29 0
-4 -6 -20 -30 0
-7 -11 -35 -71 0
-8 -12 -36 -72 0
-15 -35 -47 -71 0
-16 -36 -48 -72 0
-3 -5 -23 0
-4 -6 -24 0
-17 -47 -71 0
-18 -48 -72 0
-3 -5 -17 -35 0
-4 -6 -18 -36 0
-13 -29 -41 -69 0
-14 -30 -42 -70 0
-15 -41 -47 -55 0
-16 -42 -48 -56 0
-23 -71 0
-24 -72 0
-23 -59 -79 0
-24 -60 -80 0
-7 -15 -31 0
-8 -16 -32 0
-15 -27 -69 -79 0
-16 -28 -70 -80 0
-7 -15 -19 -79 0
-8 -16 -20 -80 0
-5 -13 -41 0
-6 -14 -42 0
-11 -27 -41 0
-12 -28 -42 0
-7 -23 0
-8 -24 0
-17 -39 -59 -71 0
-18 -40 -60 -72 0
-9 -13 -69 0
-10 -14 -70 0
-1 -3 -5 -11 0
-2 -4 -6 -12 0
-7 -15 -23 -47 0
-8 -16 -24 -48 0
-5 -17 0
-6 -18 0
-19 -39 -79 0
-20 -40 -80 0
-3 -11 0
-4 -12 0
-15 -39 -79 0
-16 -40 -80 0
-9 -15 -39 -79 0
-10 -16 -40 -80 0
-11 -23 -41 -55 0
-12 -24 -42 -56 0
-7 -19 -39 0
-8 -20 -40 0
-11 -29 -39 0
-12 -30 -40 0
-25 -77 0
-26 -78 0
-19 -59 0
-20 -60 0
-5 -9 -29 0
-6 -10 -30 0
-5 -7 -35 -71 0
-6 -8 -36 -72 0
-19 -47 -59 -79 0
-20 -48 -60 -80 0
-11 -29 -59 0
-12 -30 -60 0
-19 -55 -69 0
-20 -56 -70 0
-11 -27 -29 -69 0
-12 -28 -30 -70 0
-15 -29 -59 -79 0
-16 -30 -60 -80 0
-11 -31 -47 0
-12 -32 -48 0
-9 -19 -29 -59 0
-10 -20 -30 -60 0
-7 -17 -23 -35 0
-8 -18 -24 -36 0
-5 -11 -23 0
-6 -12 -24 0
-5 -7 -41 -55 0
-6 -8 -42 -56 0
-9 -23 -59 0
-10 -24 -60 0
-9 -17 -35 -59 0
-10 -18 -36 -60 0
-21 -65 0
-22 -66 0
-11 -23 -35 -71 0
-12 -24 -36 -72 0
-11 -17 -71 0
-12 -18 -72 0
-7 -11 -47 0
-8 -12 -48 0
-11 -35 0
-12 -36 0
-1 -5 0
-2 -6 0
-3 -7 -9 -39 0
-4 -8 -10 -40 0
-15 -47 0
-16 -48 0
-5 -11 -17 -35 0
-6 -12 -18 -36 0
-3 -7 -11 -23 0
-4 -8 -12 -24 0
-5 -9 -19 -59 0
-6 -10 -20 -60 0
-17 -35 -71 0
-18 -36 -72 0
-17 -53 0
-18 -54 0
-1 -3 -7 0
-2 -4 -8 0
-9 -19 -27 -69 0
-10 -20 -28 -70 0
-11 -23 -47 0
-12 -24 -48 0
-5 -11 -19 -29 0
-6 -12 -20 -30 0
-3 -5 -15 -47 0
-4 -6 -16 -48 0
-17 -41 -55 -71 0
-18 -42 -56 -72 0
-7 -13 -27 -55 0
-8 -14 -28 -56 0
-7 -11 -39 -59 0
-8 -12 -40 -60 0
