c peaceable queens n=9 m=13 symbreak=False lines=True
p cnf 1982 4074
-53 1 0
-134 -1 0
-53 10 0
-134 -10 0
-53 19 0
-134 -19 0
-53 44 0
-134 -44 0
-54 1 0
-135 -1 0
-54 11 0
-135 -11 0
-54 20 0
-135 -20 0
-54 43 0
-135 -43 0
-55 1 0
-136 -1 0
-55 12 0
-136 -12 0
-55 21 0
-136 -21 0
-55 42 0
-136 -42 0
-56 1 0
-137 -1 0
-56 13 0
-137 -13 0
-56 22 0
-137 -22 0
-56 41 0
-137 -41 0
-57 1 0
-138 -1 0
-57 14 0
-138 -14 0
-57 23 0
-138 -23 0
-57 40 0
-138 -40 0
-58 1 0
-139 -1 0
-58 15 0
-139 -15 0
-58 24 0
-139 -24 0
-58 39 0
-139 -39 0
-59 1 0
-140 -1 0
-59 16 0
-140 -16 0
-59 25 0
-140 -25 0
-59 38 0
-140 -38 0
-60 1 0
-141 -1 0
-60 17 0
-141 -17 0
-60 26 0
-141 -26 0
-60 37 0
-141 -37 0
-61 1 0
-142 -1 0
-61 18 0
-142 -18 0
-61 27 0
-142 -27 0
-61 36 0
-142 -36 0
-62 2 0
-143 -2 0
-62 10 0
-143 -10 0
-62 20 0
-143 -20 0
-62 45 0
-143 -45 0
-63 2 0
-144 -2 0
-63 11 0
-144 -11 0
-63 21 0
-144 -21 0
-63 44 0
-144 -44 0
-64 2 0
-145 -2 0
-64 12 0
-145 -12 0
-64 22 0
-145 -22 0
-64 43 0
-145 -43 0
-65 2 0
-146 -2 0
-65 13 0
-146 -13 0
-65 23 0
-146 -23 0
-65 42 0
-146 -42 0
-66 2 0
-147 -2 0
-66 14 0
-147 -14 0
-66 24 0
-147 -24 0
-66 41 0
-147 -41 0
-67 2 0
-148 -2 0
-67 15 0
-148 -15 0
-67 25 0
-148 -25 0
-67 40 0
-148 -40 0
-68 2 0
-149 -2 0
-68 16 0
-149 -16 0
-68 26 0
-149 -26 0
-68 39 0
-149 -39 0
-69 2 0
-150 -2 0
-69 17 0
-150 -17 0
-69 27 0
-150 -27 0
-69 38 0
-150 -38 0
-70 2 0
-151 -2 0
-70 18 0
-151 -18 0
-70 28 0
-151 -28 0
-70 37 0
-151 -37 0
-71 3 0
-152 -3 0
-71 10 0
-152 -10 0
-71 21 0
-152 -21 0
-71 46 0
-152 -46 0
-72 3 0
-153 -3 0
-72 11 0
-153 -11 0
-72 22 0
-153 -22 0
-72 45 0
-153 -45 0
-73 3 0
-154 -3 0
-73 12 0
-154 -12 0
-73 23 0
-154 -23 0
-73 44 0
-154 -44 0
-74 3 0
-155 -3 0
-74 13 0
-155 -13 0
-74 24 0
-155 -24 0
-74 43 0
-155 -43 0
-75 3 0
-156 -3 0
-75 14 0
-156 -14 0
-75 25 0
-156 -25 0
-75 42 0
-156 -42 0
-76 3 0
-157 -3 0
-76 15 0
-157 -15 0
-76 26 0
-157 -26 0
-76 41 0
-157 -41 0
-77 3 0
-158 -3 0
-77 16 0
-158 -16 0
-77 27 0
-158 -27 0
-77 40 0
-158 -40 0
-78 3 0
-159 -3 0
-78 17 0
-159 -17 0
-78 28 0
-159 -28 0
-78 39 0
-159 -39 0
-79 3 0
-160 -3 0
-79 18 0
-160 -18 0
-79 29 0
-160 -29 0
-79 38 0
-160 -38 0
-80 4 0
-161 -4 0
-80 10 0
-161 -10 0
-80 22 0
-161 -22 0
-80 47 0
-161 -47 0
-81 4 0
-162 -4 0
-81 11 0
-162 -11 0
-81 23 0
-162 -23 0
-81 46 0
-162 -46 0
-82 4 0
-163 -4 0
-82 12 0
-163 -12 0
-82 24 0
-163 -24 0
-82 45 0
-163 -45 0
-83 4 0
-164 -4 0
-83 13 0
-164 -13 0
-83 25 0
-164 -25 0
-83 44 0
-164 -44 0
-84 4 0
-165 -4 0
-84 14 0
-165 -14 0
-84 26 0
-165 -26 0
-84 43 0
-165 -43 0
-85 4 0
-166 -4 0
-85 15 0
-166 -15 0
-85 27 0
-166 -27 0
-85 42 0
-166 -42 0
-86 4 0
-167 -4 0
-86 16 0
-167 -16 0
-86 28 0
-167 -28 0
-86 41 0
-167 -41 0
-87 4 0
-168 -4 0
-87 17 0
-168 -17 0
-87 29 0
-168 -29 0
-87 40 0
-168 -40 0
-88 4 0
-169 -4 0
-88 18 0
-169 -18 0
-88 30 0
-169 -30 0
-88 39 0
-169 -39 0
-89 5 0
-170 -5 0
-89 10 0
-170 -10 0
-89 23 0
-170 -23 0
-89 48 0
-170 -48 0
-90 5 0
-171 -5 0
-90 11 0
-171 -11 0
-90 24 0
-171 -24 0
-90 47 0
-171 -47 0
-91 5 0
-172 -5 0
-91 12 0
-172 -12 0
-91 25 0
-172 -25 0
-91 46 0
-172 -46 0
-92 5 0
-173 -5 0
-92 13 0
-173 -13 0
-92 26 0
-173 -26 0
-92 45 0
-173 -45 0
-93 5 0
-174 -5 0
-93 14 0
-174 -14 0
-93 27 0
-174 -27 0
-93 44 0
-174 -44 0
-94 5 0
-175 -5 0
-94 15 0
-175 -15 0
-94 28 0
-175 -28 0
-94 43 0
-175 -43 0
-95 5 0
-176 -5 0
-95 16 0
-176 -16 0
-95 29 0
-176 -29 0
-95 42 0
-176 -42 0
-96 5 0
-177 -5 0
-96 17 0
-177 -17 0
-96 30 0
-177 -30 0
-96 41 0
-177 -41 0
-97 5 0
-178 -5 0
-97 18 0
-178 -18 0
-97 31 0
-178 -31 0
-97 40 0
-178 -40 0
-98 6 0
-179 -6 0
-98 10 0
-179 -10 0
-98 24 0
-179 -24 0
-98 49 0
-179 -49 0
-99 6 0
-180 -6 0
-99 11 0
-180 -11 0
-99 25 0
-180 -25 0
-99 48 0
-180 -48 0
-100 6 0
-181 -6 0
-100 12 0
-181 -12 0
-100 26 0
-181 -26 0
-100 47 0
-181 -47 0
-101 6 0
-182 -6 0
-101 13 0
-182 -13 0
-101 27 0
-182 -27 0
-101 46 0
-182 -46 0
-102 6 0
-183 -6 0
-102 14 0
-183 -14 0
-102 28 0
-183 -28 0
-102 45 0
-183 -45 0
-103 6 0
-184 -6 0
-103 15 0
-184 -15 0
-103 29 0
-184 -29 0
-103 44 0
-184 -44 0
-104 6 0
-185 -6 0
-104 16 0
-185 -16 0
-104 30 0
-185 -30 0
-104 43 0
-185 -43 0
-105 6 0
-186 -6 0
-105 17 0
-186 -17 0
-105 31 0
-186 -31 0
-105 42 0
-186 -42 0
-106 6 0
-187 -6 0
-106 18 0
-187 -18 0
-106 32 0
-187 -32 0
-106 41 0
-187 -41 0
-107 7 0
-188 -7 0
-107 10 0
-188 -10 0
-107 25 0
-188 -25 0
-107 50 0
-188 -50 0
-108 7 0
-189 -7 0
-108 11 0
-189 -11 0
-108 26 0
-189 -26 0
-108 49 0
-189 -49 0
-109 7 0
-190 -7 0
-109 12 0
-190 -12 0
-109 27 0
-190 -27 0
-109 48 0
-190 -48 0
-110 7 0
-191 -7 0
-110 13 0
-191 -13 0
-110 28 0
-191 -28 0
-110 47 0
-191 -47 0
-111 7 0
-192 -7 0
-111 14 0
-192 -14 0
-111 29 0
-192 -29 0
-111 46 0
-192 -46 0
-112 7 0
-193 -7 0
-112 15 0
-193 -15 0
-112 30 0
-193 -30 0
-112 45 0
-193 -45 0
-113 7 0
-194 -7 0
-113 16 0
-194 -16 0
-113 31 0
-194 -31 0
-113 44 0
-194 -44 0
-114 7 0
-195 -7 0
-114 17 0
-195 -17 0
-114 32 0
-195 -32 0
-114 43 0
-195 -43 0
-115 7 0
-196 -7 0
-115 18 0
-196 -18 0
-115 33 0
-196 -33 0
-115 42 0
-196 -42 0
-116 8 0
-197 -8 0
-116 10 0
-197 -10 0
-116 26 0
-197 -26 0
-116 51 0
-197 -51 0
-117 8 0
-198 -8 0
-117 11 0
-198 -11 0
-117 27 0
-198 -27 0
-117 50 0
-198 -50 0
-118 8 0
-199 -8 0
-118 12 0
-199 -12 0
-118 28 0
-199 -28 0
-118 49 0
-199 -49 0
-119 8 0
-200 -8 0
-119 13 0
-200 -13 0
-119 29 0
-200 -29 0
-119 48 0
-200 -48 0
-120 8 0
-201 -8 0
-120 14 0
-201 -14 0
-120 30 0
-201 -30 0
-120 47 0
-201 -47 0
-121 8 0
-202 -8 0
-121 15 0
-202 -15 0
-121 31 0
-202 -31 0
-121 46 0
-202 -46 0
-122 8 0
-203 -8 0
-122 16 0
-203 -16 0
-122 32 0
-203 -32 0
-122 45 0
-203 -45 0
-123 8 0
-204 -8 0
-123 17 0
-204 -17 0
-123 33 0
-204 -33 0
-123 44 0
-204 -44 0
-124 8 0
-205 -8 0
-124 18 0
-205 -18 0
-124 34 0
-205 -34 0
-124 43 0
-205 -43 0
-125 9 0
-206 -9 0
-125 10 0
-206 -10 0
-125 27 0
-206 -27 0
-125 52 0
-206 -52 0
-126 9 0
-207 -9 0
-126 11 0
-207 -11 0
-126 28 0
-207 -28 0
-126 51 0
-207 -51 0
-127 9 0
-208 -9 0
-127 12 0
-208 -12 0
-127 29 0
-208 -29 0
-127 50 0
-208 -50 0
-128 9 0
-209 -9 0
-128 13 0
-209 -13 0
-128 30 0
-209 -30 0
-128 49 0
-209 -49 0
-129 9 0
-210 -9 0
-129 14 0
-210 -14 0
-129 31 0
-210 -31 0
-129 48 0
-210 -48 0
-130 9 0
-211 -9 0
-130 15 0
-211 -15 0
-130 32 0
-211 -32 0
-130 47 0
-211 -47 0
-131 9 0
-212 -9 0
-131 16 0
-212 -16 0
-131 33 0
-212 -33 0
-131 46 0
-212 -46 0
-132 9 0
-213 -9 0
-132 17 0
-213 -17 0
-132 34 0
-213 -34 0
-132 45 0
-213 -45 0
-133 9 0
-214 -9 0
-133 18 0
-214 -18 0
-133 35 0
-214 -35 0
-133 44 0
-214 -44 0
53 215 0
-215 216 0
54 -215 217 0
-217 218 0
55 -217 219 0
-219 220 0
56 -219 221 0
-221 222 0
57 -221 223 0
-223 224 0
58 -223 225 0
-225 226 0
59 -225 227 0
-227 228 0
60 -227 229 0
-229 230 0
61 -229 231 0
-231 232 0
62 -231 233 0
-233 234 0
63 -233 235 0
-235 236 0
64 -235 237 0
-237 238 0
65 -237 239 0
-239 240 0
66 -239 241 0
-241 242 0
67 -241 243 0
-243 244 0
68 -243 245 0
-245 246 0
69 -245 247 0
-247 248 0
70 -247 249 0
-249 250 0
71 -249 251 0
-251 252 0
72 -251 253 0
-253 254 0
73 -253 255 0
-255 256 0
74 -255 257 0
-257 258 0
75 -257 259 0
-259 260 0
76 -259 261 0
-261 262 0
77 -261 263 0
-263 264 0
78 -263 265 0
-265 266 0
79 -265 267 0
-267 268 0
80 -267 269 0
-269 270 0
81 -269 271 0
-271 272 0
82 -271 273 0
-273 274 0
83 -273 275 0
-275 276 0
84 -275 277 0
-277 278 0
85 -277 279 0
-279 280 0
86 -279 281 0
-281 282 0
87 -281 283 0
-283 284 0
88 -283 285 0
-285 286 0
89 -285 287 0
-287 288 0
90 -287 289 0
-289 290 0
91 -289 291 0
-291 292 0
92 -291 293 0
-293 294 0
93 -293 295 0
-295 296 0
94 -295 297 0
-297 298 0
95 -297 299 0
-299 300 0
96 -299 301 0
-301 302 0
97 -301 303 0
-303 304 0
98 -303 305 0
-305 306 0
99 -305 307 0
-307 308 0
100 -307 309 0
-309 310 0
101 -309 311 0
-311 312 0
102 -311 313 0
-313 314 0
103 -313 315 0
-315 316 0
104 -315 317 0
-317 318 0
105 -317 319 0
-319 320 0
106 -319 321 0
-321 322 0
107 -321 323 0
-323 324 0
108 -323 325 0
-325 326 0
109 -325 327 0
-327 328 0
110 -327 329 0
-329 330 0
111 -329 331 0
-331 332 0
112 -331 333 0
-333 334 0
113 -333 335 0
-335 336 0
114 -335 337 0
-337 338 0
115 -337 339 0
-339 340 0
116 -339 341 0
-341 342 0
117 -341 343 0
-343 344 0
118 -343 345 0
-345 346 0
119 -345 347 0
-347 348 0
120 -347 349 0
-349 350 0
121 -349 0
54 216 0
-216 351 0
55 -216 218 0
-218 352 0
56 -218 220 0
-220 353 0
57 -220 222 0
-222 354 0
58 -222 224 0
-224 355 0
59 -224 226 0
-226 356 0
60 -226 228 0
-228 357 0
61 -228 230 0
-230 358 0
62 -230 232 0
-232 359 0
63 -232 234 0
-234 360 0
64 -234 236 0
-236 361 0
65 -236 238 0
-238 362 0
66 -238 240 0
-240 363 0
67 -240 242 0
-242 364 0
68 -242 244 0
-244 365 0
69 -244 246 0
-246 366 0
70 -246 248 0
-248 367 0
71 -248 250 0
-250 368 0
72 -250 252 0
-252 369 0
73 -252 254 0
-254 370 0
74 -254 256 0
-256 371 0
75 -256 258 0
-258 372 0
76 -258 260 0
-260 373 0
77 -260 262 0
-262 374 0
78 -262 264 0
-264 375 0
79 -264 266 0
-266 376 0
80 -266 268 0
-268 377 0
81 -268 270 0
-270 378 0
82 -270 272 0
-272 379 0
83 -272 274 0
-274 380 0
84 -274 276 0
-276 381 0
85 -276 278 0
-278 382 0
86 -278 280 0
-280 383 0
87 -280 282 0
-282 384 0
88 -282 284 0
-284 385 0
89 -284 286 0
-286 386 0
90 -286 288 0
-288 387 0
91 -288 290 0
-290 388 0
92 -290 292 0
-292 389 0
93 -292 294 0
-294 390 0
94 -294 296 0
-296 391 0
95 -296 298 0
-298 392 0
96 -298 300 0
-300 393 0
97 -300 302 0
-302 394 0
98 -302 304 0
-304 395 0
99 -304 306 0
-306 396 0
100 -306 308 0
-308 397 0
101 -308 310 0
-310 398 0
102 -310 312 0
-312 399 0
103 -312 314 0
-314 400 0
104 -314 316 0
-316 401 0
105 -316 318 0
-318 402 0
106 -318 320 0
-320 403 0
107 -320 322 0
-322 404 0
108 -322 324 0
-324 405 0
109 -324 326 0
-326 406 0
110 -326 328 0
-328 407 0
111 -328 330 0
-330 408 0
112 -330 332 0
-332 409 0
113 -332 334 0
-334 410 0
114 -334 336 0
-336 411 0
115 -336 338 0
-338 412 0
116 -338 340 0
-340 413 0
117 -340 342 0
-342 414 0
118 -342 344 0
-344 415 0
119 -344 346 0
-346 416 0
120 -346 348 0
-348 417 0
121 -348 350 0
-350 418 0
122 -350 0
55 351 0
-351 419 0
56 -351 352 0
-352 420 0
57 -352 353 0
-353 421 0
58 -353 354 0
-354 422 0
59 -354 355 0
-355 423 0
60 -355 356 0
-356 424 0
61 -356 357 0
-357 425 0
62 -357 358 0
-358 426 0
63 -358 359 0
-359 427 0
64 -359 360 0
-360 428 0
65 -360 361 0
-361 429 0
66 -361 362 0
-362 430 0
67 -362 363 0
-363 431 0
68 -363 364 0
-364 432 0
69 -364 365 0
-365 433 0
70 -365 366 0
-366 434 0
71 -366 367 0
-367 435 0
72 -367 368 0
-368 436 0
73 -368 369 0
-369 437 0
74 -369 370 0
-370 438 0
75 -370 371 0
-371 439 0
76 -371 372 0
-372 440 0
77 -372 373 0
-373 441 0
78 -373 374 0
-374 442 0
79 -374 375 0
-375 443 0
80 -375 376 0
-376 444 0
81 -376 377 0
-377 445 0
82 -377 378 0
-378 446 0
83 -378 379 0
-379 447 0
84 -379 380 0
-380 448 0
85 -380 381 0
-381 449 0
86 -381 382 0
-382 450 0
87 -382 383 0
-383 451 0
88 -383 384 0
-384 452 0
89 -384 385 0
-385 453 0
90 -385 386 0
-386 454 0
91 -386 387 0
-387 455 0
92 -387 388 0
-388 456 0
93 -388 389 0
-389 457 0
94 -389 390 0
-390 458 0
95 -390 391 0
-391 459 0
96 -391 392 0
-392 460 0
97 -392 393 0
-393 461 0
98 -393 394 0
-394 462 0
99 -394 395 0
-395 463 0
100 -395 396 0
-396 464 0
101 -396 397 0
-397 465 0
102 -397 398 0
-398 466 0
103 -398 399 0
-399 467 0
104 -399 400 0
-400 468 0
105 -400 401 0
-401 469 0
106 -401 402 0
-402 470 0
107 -402 403 0
-403 471 0
108 -403 404 0
-404 472 0
109 -404 405 0
-405 473 0
110 -405 406 0
-406 474 0
111 -406 407 0
-407 475 0
112 -407 408 0
-408 476 0
113 -408 409 0
-409 477 0
114 -409 410 0
-410 478 0
115 -410 411 0
-411 479 0
116 -411 412 0
-412 480 0
117 -412 413 0
-413 481 0
118 -413 414 0
-414 482 0
119 -414 415 0
-415 483 0
120 -415 416 0
-416 484 0
121 -416 417 0
-417 485 0
122 -417 418 0
-418 486 0
123 -418 0
56 419 0
-419 487 0
57 -419 420 0
-420 488 0
58 -420 421 0
-421 489 0
59 -421 422 0
-422 490 0
60 -422 423 0
-423 491 0
61 -423 424 0
-424 492 0
62 -424 425 0
-425 493 0
63 -425 426 0
-426 494 0
64 -426 427 0
-427 495 0
65 -427 428 0
-428 496 0
66 -428 429 0
-429 497 0
67 -429 430 0
-430 498 0
68 -430 431 0
-431 499 0
69 -431 432 0
-432 500 0
70 -432 433 0
-433 501 0
71 -433 434 0
-434 502 0
72 -434 435 0
-435 503 0
73 -435 436 0
-436 504 0
74 -436 437 0
-437 505 0
75 -437 438 0
-438 506 0
76 -438 439 0
-439 507 0
77 -439 440 0
-440 508 0
78 -440 441 0
-441 509 0
79 -441 442 0
-442 510 0
80 -442 443 0
-443 511 0
81 -443 444 0
-444 512 0
82 -444 445 0
-445 513 0
83 -445 446 0
-446 514 0
84 -446 447 0
-447 515 0
85 -447 448 0
-448 516 0
86 -448 449 0
-449 517 0
87 -449 450 0
-450 518 0
88 -450 451 0
-451 519 0
89 -451 452 0
-452 520 0
90 -452 453 0
-453 521 0
91 -453 454 0
-454 522 0
92 -454 455 0
-455 523 0
93 -455 456 0
-456 524 0
94 -456 457 0
-457 525 0
95 -457 458 0
-458 526 0
96 -458 459 0
-459 527 0
97 -459 460 0
-460 528 0
98 -460 461 0
-461 529 0
99 -461 462 0
-462 530 0
100 -462 463 0
-463 531 0
101 -463 464 0
-464 532 0
102 -464 465 0
-465 533 0
103 -465 466 0
-466 534 0
104 -466 467 0
-467 535 0
105 -467 468 0
-468 536 0
106 -468 469 0
-469 537 0
107 -469 470 0
-470 538 0
108 -470 471 0
-471 539 0
109 -471 472 0
-472 540 0
110 -472 473 0
-473 541 0
111 -473 474 0
-474 542 0
112 -474 475 0
-475 543 0
113 -475 476 0
-476 544 0
114 -476 477 0
-477 545 0
115 -477 478 0
-478 546 0
116 -478 479 0
-479 547 0
117 -479 480 0
-480 548 0
118 -480 481 0
-481 549 0
119 -481 482 0
-482 550 0
120 -482 483 0
-483 551 0
121 -483 484 0
-484 552 0
122 -484 485 0
-485 553 0
123 -485 486 0
-486 554 0
124 -486 0
57 487 0
-487 555 0
58 -487 488 0
-488 556 0
59 -488 489 0
-489 557 0
60 -489 490 0
-490 558 0
61 -490 491 0
-491 559 0
62 -491 492 0
-492 560 0
63 -492 493 0
-493 561 0
64 -493 494 0
-494 562 0
65 -494 495 0
-495 563 0
66 -495 496 0
-496 564 0
67 -496 497 0
-497 565 0
68 -497 498 0
-498 566 0
69 -498 499 0
-499 567 0
70 -499 500 0
-500 568 0
71 -500 501 0
-501 569 0
72 -501 502 0
-502 570 0
73 -502 503 0
-503 571 0
74 -503 504 0
-504 572 0
75 -504 505 0
-505 573 0
76 -505 506 0
-506 574 0
77 -506 507 0
-507 575 0
78 -507 508 0
-508 576 0
79 -508 509 0
-509 577 0
80 -509 510 0
-510 578 0
81 -510 511 0
-511 579 0
82 -511 512 0
-512 580 0
83 -512 513 0
-513 581 0
84 -513 514 0
-514 582 0
85 -514 515 0
-515 583 0
86 -515 516 0
-516 584 0
87 -516 517 0
-517 585 0
88 -517 518 0
-518 586 0
89 -518 519 0
-519 587 0
90 -519 520 0
-520 588 0
91 -520 521 0
-521 589 0
92 -521 522 0
-522 590 0
93 -522 523 0
-523 591 0
94 -523 524 0
-524 592 0
95 -524 525 0
-525 593 0
96 -525 526 0
-526 594 0
97 -526 527 0
-527 595 0
98 -527 528 0
-528 596 0
99 -528 529 0
-529 597 0
100 -529 530 0
-530 598 0
101 -530 531 0
-531 599 0
102 -531 532 0
-532 600 0
103 -532 533 0
-533 601 0
104 -533 534 0
-534 602 0
105 -534 535 0
-535 603 0
106 -535 536 0
-536 604 0
107 -536 537 0
-537 605 0
108 -537 538 0
-538 606 0
109 -538 539 0
-539 607 0
110 -539 540 0
-540 608 0
111 -540 541 0
-541 609 0
112 -541 542 0
-542 610 0
113 -542 543 0
-543 611 0
114 -543 544 0
-544 612 0
115 -544 545 0
-545 613 0
116 -545 546 0
-546 614 0
117 -546 547 0
-547 615 0
118 -547 548 0
-548 616 0
119 -548 549 0
-549 617 0
120 -549 550 0
-550 618 0
121 -550 551 0
-551 619 0
122 -551 552 0
-552 620 0
123 -552 553 0
-553 621 0
124 -553 554 0
-554 622 0
125 -554 0
58 555 0
-555 623 0
59 -555 556 0
-556 624 0
60 -556 557 0
-557 625 0
61 -557 558 0
-558 626 0
62 -558 559 0
-559 627 0
63 -559 560 0
-560 628 0
64 -560 561 0
-561 629 0
65 -561 562 0
-562 630 0
66 -562 563 0
-563 631 0
67 -563 564 0
-564 632 0
68 -564 565 0
-565 633 0
69 -565 566 0
-566 634 0
70 -566 567 0
-567 635 0
71 -567 568 0
-568 636 0
72 -568 569 0
-569 637 0
73 -569 570 0
-570 638 0
74 -570 571 0
-571 639 0
75 -571 572 0
-572 640 0
76 -572 573 0
-573 641 0
77 -573 574 0
-574 642 0
78 -574 575 0
-575 643 0
79 -575 576 0
-576 644 0
80 -576 577 0
-577 645 0
81 -577 578 0
-578 646 0
82 -578 579 0
-579 647 0
83 -579 580 0
-580 648 0
84 -580 581 0
-581 649 0
85 -581 582 0
-582 650 0
86 -582 583 0
-583 651 0
87 -583 584 0
-584 652 0
88 -584 585 0
-585 653 0
89 -585 586 0
-586 654 0
90 -586 587 0
-587 655 0
91 -587 588 0
-588 656 0
92 -588 589 0
-589 657 0
93 -589 590 0
-590 658 0
94 -590 591 0
-591 659 0
95 -591 592 0
-592 660 0
96 -592 593 0
-593 661 0
97 -593 594 0
-594 662 0
98 -594 595 0
-595 663 0
99 -595 596 0
-596 664 0
100 -596 597 0
-597 665 0
101 -597 598 0
-598 666 0
102 -598 599 0
-599 667 0
103 -599 600 0
-600 668 0
104 -600 601 0
-601 669 0
105 -601 602 0
-602 670 0
106 -602 603 0
-603 671 0
107 -603 604 0
-604 672 0
108 -604 605 0
-605 673 0
109 -605 606 0
-606 674 0
110 -606 607 0
-607 675 0
111 -607 608 0
-608 676 0
112 -608 609 0
-609 677 0
113 -609 610 0
-610 678 0
114 -610 611 0
-611 679 0
115 -611 612 0
-612 680 0
116 -612 613 0
-613 681 0
117 -613 614 0
-614 682 0
118 -614 615 0
-615 683 0
119 -615 616 0
-616 684 0
120 -616 617 0
-617 685 0
121 -617 618 0
-618 686 0
122 -618 619 0
-619 687 0
123 -619 620 0
-620 688 0
124 -620 621 0
-621 689 0
125 -621 622 0
-622 690 0
126 -622 0
59 623 0
-623 691 0
60 -623 624 0
-624 692 0
61 -624 625 0
-625 693 0
62 -625 626 0
-626 694 0
63 -626 627 0
-627 695 0
64 -627 628 0
-628 696 0
65 -628 629 0
-629 697 0
66 -629 630 0
-630 698 0
67 -630 631 0
-631 699 0
68 -631 632 0
-632 700 0
69 -632 633 0
-633 701 0
70 -633 634 0
-634 702 0
71 -634 635 0
-635 703 0
72 -635 636 0
-636 704 0
73 -636 637 0
-637 705 0
74 -637 638 0
-638 706 0
75 -638 639 0
-639 707 0
76 -639 640 0
-640 708 0
77 -640 641 0
-641 709 0
78 -641 642 0
-642 710 0
79 -642 643 0
-643 711 0
80 -643 644 0
-644 712 0
81 -644 645 0
-645 713 0
82 -645 646 0
-646 714 0
83 -646 647 0
-647 715 0
84 -647 648 0
-648 716 0
85 -648 649 0
-649 717 0
86 -649 650 0
-650 718 0
87 -650 651 0
-651 719 0
88 -651 652 0
-652 720 0
89 -652 653 0
-653 721 0
90 -653 654 0
-654 722 0
91 -654 655 0
-655 723 0
92 -655 656 0
-656 724 0
93 -656 657 0
-657 725 0
94 -657 658 0
-658 726 0
95 -658 659 0
-659 727 0
96 -659 660 0
-660 728 0
97 -660 661 0
-661 729 0
98 -661 662 0
-662 730 0
99 -662 663 0
-663 731 0
100 -663 664 0
-664 732 0
101 -664 665 0
-665 733 0
102 -665 666 0
-666 734 0
103 -666 667 0
-667 735 0
104 -667 668 0
-668 736 0
105 -668 669 0
-669 737 0
106 -669 670 0
-670 738 0
107 -670 671 0
-671 739 0
108 -671 672 0
-672 740 0
109 -672 673 0
-673 741 0
110 -673 674 0
-674 742 0
111 -674 675 0
-675 743 0
112 -675 676 0
-676 744 0
113 -676 677 0
-677 745 0
114 -677 678 0
-678 746 0
115 -678 679 0
-679 747 0
116 -679 680 0
-680 748 0
117 -680 681 0
-681 749 0
118 -681 682 0
-682 750 0
119 -682 683 0
-683 751 0
120 -683 684 0
-684 752 0
121 -684 685 0
-685 753 0
122 -685 686 0
-686 754 0
123 -686 687 0
-687 755 0
124 -687 688 0
-688 756 0
125 -688 689 0
-689 757 0
126 -689 690 0
-690 758 0
127 -690 0
60 691 0
-691 759 0
61 -691 692 0
-692 760 0
62 -692 693 0
-693 761 0
63 -693 694 0
-694 762 0
64 -694 695 0
-695 763 0
65 -695 696 0
-696 764 0
66 -696 697 0
-697 765 0
67 -697 698 0
-698 766 0
68 -698 699 0
-699 767 0
69 -699 700 0
-700 768 0
70 -700 701 0
-701 769 0
71 -701 702 0
-702 770 0
72 -702 703 0
-703 771 0
73 -703 704 0
-704 772 0
74 -704 705 0
-705 773 0
75 -705 706 0
-706 774 0
76 -706 707 0
-707 775 0
77 -707 708 0
-708 776 0
78 -708 709 0
-709 777 0
79 -709 710 0
-710 778 0
80 -710 711 0
-711 779 0
81 -711 712 0
-712 780 0
82 -712 713 0
-713 781 0
83 -713 714 0
-714 782 0
84 -714 715 0
-715 783 0
85 -715 716 0
-716 784 0
86 -716 717 0
-717 785 0
87 -717 718 0
-718 786 0
88 -718 719 0
-719 787 0
89 -719 720 0
-720 788 0
90 -720 721 0
-721 789 0
91 -721 722 0
-722 790 0
92 -722 723 0
-723 791 0
93 -723 724 0
-724 792 0
94 -724 725 0
-725 793 0
95 -725 726 0
-726 794 0
96 -726 727 0
-727 795 0
97 -727 728 0
-728 796 0
98 -728 729 0
-729 797 0
99 -729 730 0
-730 798 0
100 -730 731 0
-731 799 0
101 -731 732 0
-732 800 0
102 -732 733 0
-733 801 0
103 -733 734 0
-734 802 0
104 -734 735 0
-735 803 0
105 -735 736 0
-736 804 0
106 -736 737 0
-737 805 0
107 -737 738 0
-738 806 0
108 -738 739 0
-739 807 0
109 -739 740 0
-740 808 0
110 -740 741 0
-741 809 0
111 -741 742 0
-742 810 0
112 -742 743 0
-743 811 0
113 -743 744 0
-744 812 0
114 -744 745 0
-745 813 0
115 -745 746 0
-746 814 0
116 -746 747 0
-747 815 0
117 -747 748 0
-748 816 0
118 -748 749 0
-749 817 0
119 -749 750 0
-750 818 0
120 -750 751 0
-751 819 0
121 -751 752 0
-752 820 0
122 -752 753 0
-753 821 0
123 -753 754 0
-754 822 0
124 -754 755 0
-755 823 0
125 -755 756 0
-756 824 0
126 -756 757 0
-757 825 0
127 -757 758 0
-758 826 0
128 -758 0
61 759 0
-759 827 0
62 -759 760 0
-760 828 0
63 -760 761 0
-761 829 0
64 -761 762 0
-762 830 0
65 -762 763 0
-763 831 0
66 -763 764 0
-764 832 0
67 -764 765 0
-765 833 0
68 -765 766 0
-766 834 0
69 -766 767 0
-767 835 0
70 -767 768 0
-768 836 0
71 -768 769 0
-769 837 0
72 -769 770 0
-770 838 0
73 -770 771 0
-771 839 0
74 -771 772 0
-772 840 0
75 -772 773 0
-773 841 0
76 -773 774 0
-774 842 0
77 -774 775 0
-775 843 0
78 -775 776 0
-776 844 0
79 -776 777 0
-777 845 0
80 -777 778 0
-778 846 0
81 -778 779 0
-779 847 0
82 -779 780 0
-780 848 0
83 -780 781 0
-781 849 0
84 -781 782 0
-782 850 0
85 -782 783 0
-783 851 0
86 -783 784 0
-784 852 0
87 -784 785 0
-785 853 0
88 -785 786 0
-786 854 0
89 -786 787 0
-787 855 0
90 -787 788 0
-788 856 0
91 -788 789 0
-789 857 0
92 -789 790 0
-790 858 0
93 -790 791 0
-791 859 0
94 -791 792 0
-792 860 0
95 -792 793 0
-793 861 0
96 -793 794 0
-794 862 0
97 -794 795 0
-795 863 0
98 -795 796 0
-796 864 0
99 -796 797 0
-797 865 0
100 -797 798 0
-798 866 0
101 -798 799 0
-799 867 0
102 -799 800 0
-800 868 0
103 -800 801 0
-801 869 0
104 -801 802 0
-802 870 0
105 -802 803 0
-803 871 0
106 -803 804 0
-804 872 0
107 -804 805 0
-805 873 0
108 -805 806 0
-806 874 0
109 -806 807 0
-807 875 0
110 -807 808 0
-808 876 0
111 -808 809 0
-809 877 0
112 -809 810 0
-810 878 0
113 -810 811 0
-811 879 0
114 -811 812 0
-812 880 0
115 -812 813 0
-813 881 0
116 -813 814 0
-814 882 0
117 -814 815 0
-815 883 0
118 -815 816 0
-816 884 0
119 -816 817 0
-817 885 0
120 -817 818 0
-818 886 0
121 -818 819 0
-819 887 0
122 -819 820 0
-820 888 0
123 -820 821 0
-821 889 0
124 -821 822 0
-822 890 0
125 -822 823 0
-823 891 0
126 -823 824 0
-824 892 0
127 -824 825 0
-825 893 0
128 -825 826 0
-826 894 0
129 -826 0
62 827 0
-827 895 0
63 -827 828 0
-828 896 0
64 -828 829 0
-829 897 0
65 -829 830 0
-830 898 0
66 -830 831 0
-831 899 0
67 -831 832 0
-832 900 0
68 -832 833 0
-833 901 0
69 -833 834 0
-834 902 0
70 -834 835 0
-835 903 0
71 -835 836 0
-836 904 0
72 -836 837 0
-837 905 0
73 -837 838 0
-838 906 0
74 -838 839 0
-839 907 0
75 -839 840 0
-840 908 0
76 -840 841 0
-841 909 0
77 -841 842 0
-842 910 0
78 -842 843 0
-843 911 0
79 -843 844 0
-844 912 0
80 -844 845 0
-845 913 0
81 -845 846 0
-846 914 0
82 -846 847 0
-847 915 0
83 -847 848 0
-848 916 0
84 -848 849 0
-849 917 0
85 -849 850 0
-850 918 0
86 -850 851 0
-851 919 0
87 -851 852 0
-852 920 0
88 -852 853 0
-853 921 0
89 -853 854 0
-854 922 0
90 -854 855 0
-855 923 0
91 -855 856 0
-856 924 0
92 -856 857 0
-857 925 0
93 -857 858 0
-858 926 0
94 -858 859 0
-859 927 0
95 -859 860 0
-860 928 0
96 -860 861 0
-861 929 0
97 -861 862 0
-862 930 0
98 -862 863 0
-863 931 0
99 -863 864 0
-864 932 0
100 -864 865 0
-865 933 0
101 -865 866 0
-866 934 0
102 -866 867 0
-867 935 0
103 -867 868 0
-868 936 0
104 -868 869 0
-869 937 0
105 -869 870 0
-870 938 0
106 -870 871 0
-871 939 0
107 -871 872 0
-872 940 0
108 -872 873 0
-873 941 0
109 -873 874 0
-874 942 0
110 -874 875 0
-875 943 0
111 -875 876 0
-876 944 0
112 -876 877 0
-877 945 0
113 -877 878 0
-878 946 0
114 -878 879 0
-879 947 0
115 -879 880 0
-880 948 0
116 -880 881 0
-881 949 0
117 -881 882 0
-882 950 0
118 -882 883 0
-883 951 0
119 -883 884 0
-884 952 0
120 -884 885 0
-885 953 0
121 -885 886 0
-886 954 0
122 -886 887 0
-887 955 0
123 -887 888 0
-888 956 0
124 -888 889 0
-889 957 0
125 -889 890 0
-890 958 0
126 -890 891 0
-891 959 0
127 -891 892 0
-892 960 0
128 -892 893 0
-893 961 0
129 -893 894 0
-894 962 0
130 -894 0
63 895 0
-895 963 0
64 -895 896 0
-896 964 0
65 -896 897 0
-897 965 0
66 -897 898 0
-898 966 0
67 -898 899 0
-899 967 0
68 -899 900 0
-900 968 0
69 -900 901 0
-901 969 0
70 -901 902 0
-902 970 0
71 -902 903 0
-903 971 0
72 -903 904 0
-904 972 0
73 -904 905 0
-905 973 0
74 -905 906 0
-906 974 0
75 -906 907 0
-907 975 0
76 -907 908 0
-908 976 0
77 -908 909 0
-909 977 0
78 -909 910 0
-910 978 0
79 -910 911 0
-911 979 0
80 -911 912 0
-912 980 0
81 -912 913 0
-913 981 0
82 -913 914 0
-914 982 0
83 -914 915 0
-915 983 0
84 -915 916 0
-916 984 0
85 -916 917 0
-917 985 0
86 -917 918 0
-918 986 0
87 -918 919 0
-919 987 0
88 -919 920 0
-920 988 0
89 -920 921 0
-921 989 0
90 -921 922 0
-922 990 0
91 -922 923 0
-923 991 0
92 -923 924 0
-924 992 0
93 -924 925 0
-925 993 0
94 -925 926 0
-926 994 0
95 -926 927 0
-927 995 0
96 -927 928 0
-928 996 0
97 -928 929 0
-929 997 0
98 -929 930 0
-930 998 0
99 -930 931 0
-931 999 0
100 -931 932 0
-932 1000 0
101 -932 933 0
-933 1001 0
102 -933 934 0
-934 1002 0
103 -934 935 0
-935 1003 0
104 -935 936 0
-936 1004 0
105 -936 937 0
-937 1005 0
106 -937 938 0
-938 1006 0
107 -938 939 0
-939 1007 0
108 -939 940 0
-940 1008 0
109 -940 941 0
-941 1009 0
110 -941 942 0
-942 1010 0
111 -942 943 0
-943 1011 0
112 -943 944 0
-944 1012 0
113 -944 945 0
-945 1013 0
114 -945 946 0
-946 1014 0
115 -946 947 0
-947 1015 0
116 -947 948 0
-948 1016 0
117 -948 949 0
-949 1017 0
118 -949 950 0
-950 1018 0
119 -950 951 0
-951 1019 0
120 -951 952 0
-952 1020 0
121 -952 953 0
-953 1021 0
122 -953 954 0
-954 1022 0
123 -954 955 0
-955 1023 0
124 -955 956 0
-956 1024 0
125 -956 957 0
-957 1025 0
126 -957 958 0
-958 1026 0
127 -958 959 0
-959 1027 0
128 -959 960 0
-960 1028 0
129 -960 961 0
-961 1029 0
130 -961 962 0
-962 1030 0
131 -962 0
64 963 0
-963 1031 0
65 -963 964 0
-964 1032 0
66 -964 965 0
-965 1033 0
67 -965 966 0
-966 1034 0
68 -966 967 0
-967 1035 0
69 -967 968 0
-968 1036 0
70 -968 969 0
-969 1037 0
71 -969 970 0
-970 1038 0
72 -970 971 0
-971 1039 0
73 -971 972 0
-972 1040 0
74 -972 973 0
-973 1041 0
75 -973 974 0
-974 1042 0
76 -974 975 0
-975 1043 0
77 -975 976 0
-976 1044 0
78 -976 977 0
-977 1045 0
79 -977 978 0
-978 1046 0
80 -978 979 0
-979 1047 0
81 -979 980 0
-980 1048 0
82 -980 981 0
-981 1049 0
83 -981 982 0
-982 1050 0
84 -982 983 0
-983 1051 0
85 -983 984 0
-984 1052 0
86 -984 985 0
-985 1053 0
87 -985 986 0
-986 1054 0
88 -986 987 0
-987 1055 0
89 -987 988 0
-988 1056 0
90 -988 989 0
-989 1057 0
91 -989 990 0
-990 1058 0
92 -990 991 0
-991 1059 0
93 -991 992 0
-992 1060 0
94 -992 993 0
-993 1061 0
95 -993 994 0
-994 1062 0
96 -994 995 0
-995 1063 0
97 -995 996 0
-996 1064 0
98 -996 997 0
-997 1065 0
99 -997 998 0
-998 1066 0
100 -998 999 0
-999 1067 0
101 -999 1000 0
-1000 1068 0
102 -1000 1001 0
-1001 1069 0
103 -1001 1002 0
-1002 1070 0
104 -1002 1003 0
-1003 1071 0
105 -1003 1004 0
-1004 1072 0
106 -1004 1005 0
-1005 1073 0
107 -1005 1006 0
-1006 1074 0
108 -1006 1007 0
-1007 1075 0
109 -1007 1008 0
-1008 1076 0
110 -1008 1009 0
-1009 1077 0
111 -1009 1010 0
-1010 1078 0
112 -1010 1011 0
-1011 1079 0
113 -1011 1012 0
-1012 1080 0
114 -1012 1013 0
-1013 1081 0
115 -1013 1014 0
-1014 1082 0
116 -1014 1015 0
-1015 1083 0
117 -1015 1016 0
-1016 1084 0
118 -1016 1017 0
-1017 1085 0
119 -1017 1018 0
-1018 1086 0
120 -1018 1019 0
-1019 1087 0
121 -1019 1020 0
-1020 1088 0
122 -1020 1021 0
-1021 1089 0
123 -1021 1022 0
-1022 1090 0
124 -1022 1023 0
-1023 1091 0
125 -1023 1024 0
-1024 1092 0
126 -1024 1025 0
-1025 1093 0
127 -1025 1026 0
-1026 1094 0
128 -1026 1027 0
-1027 1095 0
129 -1027 1028 0
-1028 1096 0
130 -1028 1029 0
-1029 1097 0
131 -1029 1030 0
-1030 1098 0
132 -1030 0
65 1031 0
66 -1031 1032 0
67 -1032 1033 0
68 -1033 1034 0
69 -1034 1035 0
70 -1035 1036 0
71 -1036 1037 0
72 -1037 1038 0
73 -1038 1039 0
74 -1039 1040 0
75 -1040 1041 0
76 -1041 1042 0
77 -1042 1043 0
78 -1043 1044 0
79 -1044 1045 0
80 -1045 1046 0
81 -1046 1047 0
82 -1047 1048 0
83 -1048 1049 0
84 -1049 1050 0
85 -1050 1051 0
86 -1051 1052 0
87 -1052 1053 0
88 -1053 1054 0
89 -1054 1055 0
90 -1055 1056 0
91 -1056 1057 0
92 -1057 1058 0
93 -1058 1059 0
94 -1059 1060 0
95 -1060 1061 0
96 -1061 1062 0
97 -1062 1063 0
98 -1063 1064 0
99 -1064 1065 0
100 -1065 1066 0
101 -1066 1067 0
102 -1067 1068 0
103 -1068 1069 0
104 -1069 1070 0
105 -1070 1071 0
106 -1071 1072 0
107 -1072 1073 0
108 -1073 1074 0
109 -1074 1075 0
110 -1075 1076 0
111 -1076 1077 0
112 -1077 1078 0
113 -1078 1079 0
114 -1079 1080 0
115 -1080 1081 0
116 -1081 1082 0
117 -1082 1083 0
118 -1083 1084 0
119 -1084 1085 0
120 -1085 1086 0
121 -1086 1087 0
122 -1087 1088 0
123 -1088 1089 0
124 -1089 1090 0
125 -1090 1091 0
126 -1091 1092 0
127 -1092 1093 0
128 -1093 1094 0
129 -1094 1095 0
130 -1095 1096 0
131 -1096 1097 0
132 -1097 1098 0
133 -1098 0
134 1099 0
-1099 1100 0
135 -1099 1101 0
-1101 1102 0
136 -1101 1103 0
-1103 1104 0
137 -1103 1105 0
-1105 1106 0
138 -1105 1107 0
-1107 1108 0
139 -1107 1109 0
-1109 1110 0
140 -1109 1111 0
-1111 1112 0
141 -1111 1113 0
-1113 1114 0
142 -1113 1115 0
-1115 1116 0
143 -1115 1117 0
-1117 1118 0
144 -1117 1119 0
-1119 1120 0
145 -1119 1121 0
-1121 1122 0
146 -1121 1123 0
-1123 1124 0
147 -1123 1125 0
-1125 1126 0
148 -1125 1127 0
-1127 1128 0
149 -1127 1129 0
-1129 1130 0
150 -1129 1131 0
-1131 1132 0
151 -1131 1133 0
-1133 1134 0
152 -1133 1135 0
-1135 1136 0
153 -1135 1137 0
-1137 1138 0
154 -1137 1139 0
-1139 1140 0
155 -1139 1141 0
-1141 1142 0
156 -1141 1143 0
-1143 1144 0
157 -1143 1145 0
-1145 1146 0
158 -1145 1147 0
-1147 1148 0
159 -1147 1149 0
-1149 1150 0
160 -1149 1151 0
-1151 1152 0
161 -1151 1153 0
-1153 1154 0
162 -1153 1155 0
-1155 1156 0
163 -1155 1157 0
-1157 1158 0
164 -1157 1159 0
-1159 1160 0
165 -1159 1161 0
-1161 1162 0
166 -1161 1163 0
-1163 1164 0
167 -1163 1165 0
-1165 1166 0
168 -1165 1167 0
-1167 1168 0
169 -1167 1169 0
-1169 1170 0
170 -1169 1171 0
-1171 1172 0
171 -1171 1173 0
-1173 1174 0
172 -1173 1175 0
-1175 1176 0
173 -1175 1177 0
-1177 1178 0
174 -1177 1179 0
-1179 1180 0
175 -1179 1181 0
-1181 1182 0
176 -1181 1183 0
-1183 1184 0
177 -1183 1185 0
-1185 1186 0
178 -1185 1187 0
-1187 1188 0
179 -1187 1189 0
-1189 1190 0
180 -1189 1191 0
-1191 1192 0
181 -1191 1193 0
-1193 1194 0
182 -1193 1195 0
-1195 1196 0
183 -1195 1197 0
-1197 1198 0
184 -1197 1199 0
-1199 1200 0
185 -1199 1201 0
-1201 1202 0
186 -1201 1203 0
-1203 1204 0
187 -1203 1205 0
-1205 1206 0
188 -1205 1207 0
-1207 1208 0
189 -1207 1209 0
-1209 1210 0
190 -1209 1211 0
-1211 1212 0
191 -1211 1213 0
-1213 1214 0
192 -1213 1215 0
-1215 1216 0
193 -1215 1217 0
-1217 1218 0
194 -1217 1219 0
-1219 1220 0
195 -1219 1221 0
-1221 1222 0
196 -1221 1223 0
-1223 1224 0
197 -1223 1225 0
-1225 1226 0
198 -1225 1227 0
-1227 1228 0
199 -1227 1229 0
-1229 1230 0
200 -1229 1231 0
-1231 1232 0
201 -1231 1233 0
-1233 1234 0
202 -1233 0
135 1100 0
-1100 1235 0
136 -1100 1102 0
-1102 1236 0
137 -1102 1104 0
-1104 1237 0
138 -1104 1106 0
-1106 1238 0
139 -1106 1108 0
-1108 1239 0
140 -1108 1110 0
-1110 1240 0
141 -1110 1112 0
-1112 1241 0
142 -1112 1114 0
-1114 1242 0
143 -1114 1116 0
-1116 1243 0
144 -1116 1118 0
-1118 1244 0
145 -1118 1120 0
-1120 1245 0
146 -1120 1122 0
-1122 1246 0
147 -1122 1124 0
-1124 1247 0
148 -1124 1126 0
-1126 1248 0
149 -1126 1128 0
-1128 1249 0
150 -1128 1130 0
-1130 1250 0
151 -1130 1132 0
-1132 1251 0
152 -1132 1134 0
-1134 1252 0
153 -1134 1136 0
-1136 1253 0
154 -1136 1138 0
-1138 1254 0
155 -1138 1140 0
-1140 1255 0
156 -1140 1142 0
-1142 1256 0
157 -1142 1144 0
-1144 1257 0
158 -1144 1146 0
-1146 1258 0
159 -1146 1148 0
-1148 1259 0
160 -1148 1150 0
-1150 1260 0
161 -1150 1152 0
-1152 1261 0
162 -1152 1154 0
-1154 1262 0
163 -1154 1156 0
-1156 1263 0
164 -1156 1158 0
-1158 1264 0
165 -1158 1160 0
-1160 1265 0
166 -1160 1162 0
-1162 1266 0
167 -1162 1164 0
-1164 1267 0
168 -1164 1166 0
-1166 1268 0
169 -1166 1168 0
-1168 1269 0
170 -1168 1170 0
-1170 1270 0
171 -1170 1172 0
-1172 1271 0
172 -1172 1174 0
-1174 1272 0
173 -1174 1176 0
-1176 1273 0
174 -1176 1178 0
-1178 1274 0
175 -1178 1180 0
-1180 1275 0
176 -1180 1182 0
-1182 1276 0
177 -1182 1184 0
-1184 1277 0
178 -1184 1186 0
-1186 1278 0
179 -1186 1188 0
-1188 1279 0
180 -1188 1190 0
-1190 1280 0
181 -1190 1192 0
-1192 1281 0
182 -1192 1194 0
-1194 1282 0
183 -1194 1196 0
-1196 1283 0
184 -1196 1198 0
-1198 1284 0
185 -1198 1200 0
-1200 1285 0
186 -1200 1202 0
-1202 1286 0
187 -1202 1204 0
-1204 1287 0
188 -1204 1206 0
-1206 1288 0
189 -1206 1208 0
-1208 1289 0
190 -1208 1210 0
-1210 1290 0
191 -1210 1212 0
-1212 1291 0
192 -1212 1214 0
-1214 1292 0
193 -1214 1216 0
-1216 1293 0
194 -1216 1218 0
-1218 1294 0
195 -1218 1220 0
-1220 1295 0
196 -1220 1222 0
-1222 1296 0
197 -1222 1224 0
-1224 1297 0
198 -1224 1226 0
-1226 1298 0
199 -1226 1228 0
-1228 1299 0
200 -1228 1230 0
-1230 1300 0
201 -1230 1232 0
-1232 1301 0
202 -1232 1234 0
-1234 1302 0
203 -1234 0
136 1235 0
-1235 1303 0
137 -1235 1236 0
-1236 1304 0
138 -1236 1237 0
-1237 1305 0
139 -1237 1238 0
-1238 1306 0
140 -1238 1239 0
-1239 1307 0
141 -1239 1240 0
-1240 1308 0
142 -1240 1241 0
-1241 1309 0
143 -1241 1242 0
-1242 1310 0
144 -1242 1243 0
-1243 1311 0
145 -1243 1244 0
-1244 1312 0
146 -1244 1245 0
-1245 1313 0
147 -1245 1246 0
-1246 1314 0
148 -1246 1247 0
-1247 1315 0
149 -1247 1248 0
-1248 1316 0
150 -1248 1249 0
-1249 1317 0
151 -1249 1250 0
-1250 1318 0
152 -1250 1251 0
-1251 1319 0
153 -1251 1252 0
-1252 1320 0
154 -1252 1253 0
-1253 1321 0
155 -1253 1254 0
-1254 1322 0
156 -1254 1255 0
-1255 1323 0
157 -1255 1256 0
-1256 1324 0
158 -1256 1257 0
-1257 1325 0
159 -1257 1258 0
-1258 1326 0
160 -1258 1259 0
-1259 1327 0
161 -1259 1260 0
-1260 1328 0
162 -1260 1261 0
-1261 1329 0
163 -1261 1262 0
-1262 1330 0
164 -1262 1263 0
-1263 1331 0
165 -1263 1264 0
-1264 1332 0
166 -1264 1265 0
-1265 1333 0
167 -1265 1266 0
-1266 1334 0
168 -1266 1267 0
-1267 1335 0
169 -1267 1268 0
-1268 1336 0
170 -1268 1269 0
-1269 1337 0
171 -1269 1270 0
-1270 1338 0
172 -1270 1271 0
-1271 1339 0
173 -1271 1272 0
-1272 1340 0
174 -1272 1273 0
-1273 1341 0
175 -1273 1274 0
-1274 1342 0
176 -1274 1275 0
-1275 1343 0
177 -1275 1276 0
-1276 1344 0
178 -1276 1277 0
-1277 1345 0
179 -1277 1278 0
-1278 1346 0
180 -1278 1279 0
-1279 1347 0
181 -1279 1280 0
-1280 1348 0
182 -1280 1281 0
-1281 1349 0
183 -1281 1282 0
-1282 1350 0
184 -1282 1283 0
-1283 1351 0
185 -1283 1284 0
-1284 1352 0
186 -1284 1285 0
-1285 1353 0
187 -1285 1286 0
-1286 1354 0
188 -1286 1287 0
-1287 1355 0
189 -1287 1288 0
-1288 1356 0
190 -1288 1289 0
-1289 1357 0
191 -1289 1290 0
-1290 1358 0
192 -1290 1291 0
-1291 1359 0
193 -1291 1292 0
-1292 1360 0
194 -1292 1293 0
-1293 1361 0
195 -1293 1294 0
-1294 1362 0
196 -1294 1295 0
-1295 1363 0
197 -1295 1296 0
-1296 1364 0
198 -1296 1297 0
-1297 1365 0
199 -1297 1298 0
-1298 1366 0
200 -1298 1299 0
-1299 1367 0
201 -1299 1300 0
-1300 1368 0
202 -1300 1301 0
-1301 1369 0
203 -1301 1302 0
-1302 1370 0
204 -1302 0
137 1303 0
-1303 1371 0
138 -1303 1304 0
-1304 1372 0
139 -1304 1305 0
-1305 1373 0
140 -1305 1306 0
-1306 1374 0
141 -1306 1307 0
-1307 1375 0
142 -1307 1308 0
-1308 1376 0
143 -1308 1309 0
-1309 1377 0
144 -1309 1310 0
-1310 1378 0
145 -1310 1311 0
-1311 1379 0
146 -1311 1312 0
-1312 1380 0
147 -1312 1313 0
-1313 1381 0
148 -1313 1314 0
-1314 1382 0
149 -1314 1315 0
-1315 1383 0
150 -1315 1316 0
-1316 1384 0
151 -1316 1317 0
-1317 1385 0
152 -1317 1318 0
-1318 1386 0
153 -1318 1319 0
-1319 1387 0
154 -1319 1320 0
-1320 1388 0
155 -1320 1321 0
-1321 1389 0
156 -1321 1322 0
-1322 1390 0
157 -1322 1323 0
-1323 1391 0
158 -1323 1324 0
-1324 1392 0
159 -1324 1325 0
-1325 1393 0
160 -1325 1326 0
-1326 1394 0
161 -1326 1327 0
-1327 1395 0
162 -1327 1328 0
-1328 1396 0
163 -1328 1329 0
-1329 1397 0
164 -1329 1330 0
-1330 1398 0
165 -1330 1331 0
-1331 1399 0
166 -1331 1332 0
-1332 1400 0
167 -1332 1333 0
-1333 1401 0
168 -1333 1334 0
-1334 1402 0
169 -1334 1335 0
-1335 1403 0
170 -1335 1336 0
-1336 1404 0
171 -1336 1337 0
-1337 1405 0
172 -1337 1338 0
-1338 1406 0
173 -1338 1339 0
-1339 1407 0
174 -1339 1340 0
-1340 1408 0
175 -1340 1341 0
-1341 1409 0
176 -1341 1342 0
-1342 1410 0
177 -1342 1343 0
-1343 1411 0
178 -1343 1344 0
-1344 1412 0
179 -1344 1345 0
-1345 1413 0
180 -1345 1346 0
-1346 1414 0
181 -1346 1347 0
-1347 1415 0
182 -1347 1348 0
-1348 1416 0
183 -1348 1349 0
-1349 1417 0
184 -1349 1350 0
-1350 1418 0
185 -1350 1351 0
-1351 1419 0
186 -1351 1352 0
-1352 1420 0
187 -1352 1353 0
-1353 1421 0
188 -1353 1354 0
-1354 1422 0
189 -1354 1355 0
-1355 1423 0
190 -1355 1356 0
-1356 1424 0
191 -1356 1357 0
-1357 1425 0
192 -1357 1358 0
-1358 1426 0
193 -1358 1359 0
-1359 1427 0
194 -1359 1360 0
-1360 1428 0
195 -1360 1361 0
-1361 1429 0
196 -1361 1362 0
-1362 1430 0
197 -1362 1363 0
-1363 1431 0
198 -1363 1364 0
-1364 1432 0
199 -1364 1365 0
-1365 1433 0
200 -1365 1366 0
-1366 1434 0
201 -1366 1367 0
-1367 1435 0
202 -1367 1368 0
-1368 1436 0
203 -1368 1369 0
-1369 1437 0
204 -1369 1370 0
-1370 1438 0
205 -1370 0
138 1371 0
-1371 1439 0
139 -1371 1372 0
-1372 1440 0
140 -1372 1373 0
-1373 1441 0
141 -1373 1374 0
-1374 1442 0
142 -1374 1375 0
-1375 1443 0
143 -1375 1376 0
-1376 1444 0
144 -1376 1377 0
-1377 1445 0
145 -1377 1378 0
-1378 1446 0
146 -1378 1379 0
-1379 1447 0
147 -1379 1380 0
-1380 1448 0
148 -1380 1381 0
-1381 1449 0
149 -1381 1382 0
-1382 1450 0
150 -1382 1383 0
-1383 1451 0
151 -1383 1384 0
-1384 1452 0
152 -1384 1385 0
-1385 1453 0
153 -1385 1386 0
-1386 1454 0
154 -1386 1387 0
-1387 1455 0
155 -1387 1388 0
-1388 1456 0
156 -1388 1389 0
-1389 1457 0
157 -1389 1390 0
-1390 1458 0
158 -1390 1391 0
-1391 1459 0
159 -1391 1392 0
-1392 1460 0
160 -1392 1393 0
-1393 1461 0
161 -1393 1394 0
-1394 1462 0
162 -1394 1395 0
-1395 1463 0
163 -1395 1396 0
-1396 1464 0
164 -1396 1397 0
-1397 1465 0
165 -1397 1398 0
-1398 1466 0
166 -1398 1399 0
-1399 1467 0
167 -1399 1400 0
-1400 1468 0
168 -1400 1401 0
-1401 1469 0
169 -1401 1402 0
-1402 1470 0
170 -1402 1403 0
-1403 1471 0
171 -1403 1404 0
-1404 1472 0
172 -1404 1405 0
-1405 1473 0
173 -1405 1406 0
-1406 1474 0
174 -1406 1407 0
-1407 1475 0
175 -1407 1408 0
-1408 1476 0
176 -1408 1409 0
-1409 1477 0
177 -1409 1410 0
-1410 1478 0
178 -1410 1411 0
-1411 1479 0
179 -1411 1412 0
-1412 1480 0
180 -1412 1413 0
-1413 1481 0
181 -1413 1414 0
-1414 1482 0
182 -1414 1415 0
-1415 1483 0
183 -1415 1416 0
-1416 1484 0
184 -1416 1417 0
-1417 1485 0
185 -1417 1418 0
-1418 1486 0
186 -1418 1419 0
-1419 1487 0
187 -1419 1420 0
-1420 1488 0
188 -1420 1421 0
-1421 1489 0
189 -1421 1422 0
-1422 1490 0
190 -1422 1423 0
-1423 1491 0
191 -1423 1424 0
-1424 1492 0
192 -1424 1425 0
-1425 1493 0
193 -1425 1426 0
-1426 1494 0
194 -1426 1427 0
-1427 1495 0
195 -1427 1428 0
-1428 1496 0
196 -1428 1429 0
-1429 1497 0
197 -1429 1430 0
-1430 1498 0
198 -1430 1431 0
-1431 1499 0
199 -1431 1432 0
-1432 1500 0
200 -1432 1433 0
-1433 1501 0
201 -1433 1434 0
-1434 1502 0
202 -1434 1435 0
-1435 1503 0
203 -1435 1436 0
-1436 1504 0
204 -1436 1437 0
-1437 1505 0
205 -1437 1438 0
-1438 1506 0
206 -1438 0
139 1439 0
-1439 1507 0
140 -1439 1440 0
-1440 1508 0
141 -1440 1441 0
-1441 1509 0
142 -1441 1442 0
-1442 1510 0
143 -1442 1443 0
-1443 1511 0
144 -1443 1444 0
-1444 1512 0
145 -1444 1445 0
-1445 1513 0
146 -1445 1446 0
-1446 1514 0
147 -1446 1447 0
-1447 1515 0
148 -1447 1448 0
-1448 1516 0
149 -1448 1449 0
-1449 1517 0
150 -1449 1450 0
-1450 1518 0
151 -1450 1451 0
-1451 1519 0
152 -1451 1452 0
-1452 1520 0
153 -1452 1453 0
-1453 1521 0
154 -1453 1454 0
-1454 1522 0
155 -1454 1455 0
-1455 1523 0
156 -1455 1456 0
-1456 1524 0
157 -1456 1457 0
-1457 1525 0
158 -1457 1458 0
-1458 1526 0
159 -1458 1459 0
-1459 1527 0
160 -1459 1460 0
-1460 1528 0
161 -1460 1461 0
-1461 1529 0
162 -1461 1462 0
-1462 1530 0
163 -1462 1463 0
-1463 1531 0
164 -1463 1464 0
-1464 1532 0
165 -1464 1465 0
-1465 1533 0
166 -1465 1466 0
-1466 1534 0
167 -1466 1467 0
-1467 1535 0
168 -1467 1468 0
-1468 1536 0
169 -1468 1469 0
-1469 1537 0
170 -1469 1470 0
-1470 1538 0
171 -1470 1471 0
-1471 1539 0
172 -1471 1472 0
-1472 1540 0
173 -1472 1473 0
-1473 1541 0
174 -1473 1474 0
-1474 1542 0
175 -1474 1475 0
-1475 1543 0
176 -1475 1476 0
-1476 1544 0
177 -1476 1477 0
-1477 1545 0
178 -1477 1478 0
-1478 1546 0
179 -1478 1479 0
-1479 1547 0
180 -1479 1480 0
-1480 1548 0
181 -1480 1481 0
-1481 1549 0
182 -1481 1482 0
-1482 1550 0
183 -1482 1483 0
-1483 1551 0
184 -1483 1484 0
-1484 1552 0
185 -1484 1485 0
-1485 1553 0
186 -1485 1486 0
-1486 1554 0
187 -1486 1487 0
-1487 1555 0
188 -1487 1488 0
-1488 1556 0
189 -1488 1489 0
-1489 1557 0
190 -1489 1490 0
-1490 1558 0
191 -1490 1491 0
-1491 1559 0
192 -1491 1492 0
-1492 1560 0
193 -1492 1493 0
-1493 1561 0
194 -1493 1494 0
-1494 1562 0
195 -1494 1495 0
-1495 1563 0
196 -1495 1496 0
-1496 1564 0
197 -1496 1497 0
-1497 1565 0
198 -1497 1498 0
-1498 1566 0
199 -1498 1499 0
-1499 1567 0
200 -1499 1500 0
-1500 1568 0
201 -1500 1501 0
-1501 1569 0
202 -1501 1502 0
-1502 1570 0
203 -1502 1503 0
-1503 1571 0
204 -1503 1504 0
-1504 1572 0
205 -1504 1505 0
-1505 1573 0
206 -1505 1506 0
-1506 1574 0
207 -1506 0
140 1507 0
-1507 1575 0
141 -1507 1508 0
-1508 1576 0
142 -1508 1509 0
-1509 1577 0
143 -1509 1510 0
-1510 1578 0
144 -1510 1511 0
-1511 1579 0
145 -1511 1512 0
-1512 1580 0
146 -1512 1513 0
-1513 1581 0
147 -1513 1514 0
-1514 1582 0
148 -1514 1515 0
-1515 1583 0
149 -1515 1516 0
-1516 1584 0
150 -1516 1517 0
-1517 1585 0
151 -1517 1518 0
-1518 1586 0
152 -1518 1519 0
-1519 1587 0
153 -1519 1520 0
-1520 1588 0
154 -1520 1521 0
-1521 1589 0
155 -1521 1522 0
-1522 1590 0
156 -1522 1523 0
-1523 1591 0
157 -1523 1524 0
-1524 1592 0
158 -1524 1525 0
-1525 1593 0
159 -1525 1526 0
-1526 1594 0
160 -1526 1527 0
-1527 1595 0
161 -1527 1528 0
-1528 1596 0
162 -1528 1529 0
-1529 1597 0
163 -1529 1530 0
-1530 1598 0
164 -1530 1531 0
-1531 1599 0
165 -1531 1532 0
-1532 1600 0
166 -1532 1533 0
-1533 1601 0
167 -1533 1534 0
-1534 1602 0
168 -1534 1535 0
-1535 1603 0
169 -1535 1536 0
-1536 1604 0
170 -1536 1537 0
-1537 1605 0
171 -1537 1538 0
-1538 1606 0
172 -1538 1539 0
-1539 1607 0
173 -1539 1540 0
-1540 1608 0
174 -1540 1541 0
-1541 1609 0
175 -1541 1542 0
-1542 1610 0
176 -1542 1543 0
-1543 1611 0
177 -1543 1544 0
-1544 1612 0
178 -1544 1545 0
-1545 1613 0
179 -1545 1546 0
-1546 1614 0
180 -1546 1547 0
-1547 1615 0
181 -1547 1548 0
-1548 1616 0
182 -1548 1549 0
-1549 1617 0
183 -1549 1550 0
-1550 1618 0
184 -1550 1551 0
-1551 1619 0
185 -1551 1552 0
-1552 1620 0
186 -1552 1553 0
-1553 1621 0
187 -1553 1554 0
-1554 1622 0
188 -1554 1555 0
-1555 1623 0
189 -1555 1556 0
-1556 1624 0
190 -1556 1557 0
-1557 1625 0
191 -1557 1558 0
-1558 1626 0
192 -1558 1559 0
-1559 1627 0
193 -1559 1560 0
-1560 1628 0
194 -1560 1561 0
-1561 1629 0
195 -1561 1562 0
-1562 1630 0
196 -1562 1563 0
-1563 1631 0
197 -1563 1564 0
-1564 1632 0
198 -1564 1565 0
-1565 1633 0
199 -1565 1566 0
-1566 1634 0
200 -1566 1567 0
-1567 1635 0
201 -1567 1568 0
-1568 1636 0
202 -1568 1569 0
-1569 1637 0
203 -1569 1570 0
-1570 1638 0
204 -1570 1571 0
-1571 1639 0
205 -1571 1572 0
-1572 1640 0
206 -1572 1573 0
-1573 1641 0
207 -1573 1574 0
-1574 1642 0
208 -1574 0
141 1575 0
-1575 1643 0
142 -1575 1576 0
-1576 1644 0
143 -1576 1577 0
-1577 1645 0
144 -1577 1578 0
-1578 1646 0
145 -1578 1579 0
-1579 1647 0
146 -1579 1580 0
-1580 1648 0
147 -1580 1581 0
-1581 1649 0
148 -1581 1582 0
-1582 1650 0
149 -1582 1583 0
-1583 1651 0
150 -1583 1584 0
-1584 1652 0
151 -1584 1585 0
-1585 1653 0
152 -1585 1586 0
-1586 1654 0
153 -1586 1587 0
-1587 1655 0
154 -1587 1588 0
-1588 1656 0
155 -1588 1589 0
-1589 1657 0
156 -1589 1590 0
-1590 1658 0
157 -1590 1591 0
-1591 1659 0
158 -1591 1592 0
-1592 1660 0
159 -1592 1593 0
-1593 1661 0
160 -1593 1594 0
-1594 1662 0
161 -1594 1595 0
-1595 1663 0
162 -1595 1596 0
-1596 1664 0
163 -1596 1597 0
-1597 1665 0
164 -1597 1598 0
-1598 1666 0
165 -1598 1599 0
-1599 1667 0
166 -1599 1600 0
-1600 1668 0
167 -1600 1601 0
-1601 1669 0
168 -1601 1602 0
-1602 1670 0
169 -1602 1603 0
-1603 1671 0
170 -1603 1604 0
-1604 1672 0
171 -1604 1605 0
-1605 1673 0
172 -1605 1606 0
-1606 1674 0
173 -1606 1607 0
-1607 1675 0
174 -1607 1608 0
-1608 1676 0
175 -1608 1609 0
-1609 1677 0
176 -1609 1610 0
-1610 1678 0
177 -1610 1611 0
-1611 1679 0
178 -1611 1612 0
-1612 1680 0
179 -1612 1613 0
-1613 1681 0
180 -1613 1614 0
-1614 1682 0
181 -1614 1615 0
-1615 1683 0
182 -1615 1616 0
-1616 1684 0
183 -1616 1617 0
-1617 1685 0
184 -1617 1618 0
-1618 1686 0
185 -1618 1619 0
-1619 1687 0
186 -1619 1620 0
-1620 1688 0
187 -1620 1621 0
-1621 1689 0
188 -1621 1622 0
-1622 1690 0
189 -1622 1623 0
-1623 1691 0
190 -1623 1624 0
-1624 1692 0
191 -1624 1625 0
-1625 1693 0
192 -1625 1626 0
-1626 1694 0
193 -1626 1627 0
-1627 1695 0
194 -1627 1628 0
-1628 1696 0
195 -1628 1629 0
-1629 1697 0
196 -1629 1630 0
-1630 1698 0
197 -1630 1631 0
-1631 1699 0
198 -1631 1632 0
-1632 1700 0
199 -1632 1633 0
-1633 1701 0
200 -1633 1634 0
-1634 1702 0
201 -1634 1635 0
-1635 1703 0
202 -1635 1636 0
-1636 1704 0
203 -1636 1637 0
-1637 1705 0
204 -1637 1638 0
-1638 1706 0
205 -1638 1639 0
-1639 1707 0
206 -1639 1640 0
-1640 1708 0
207 -1640 1641 0
-1641 1709 0
208 -1641 1642 0
-1642 1710 0
209 -1642 0
142 1643 0
-1643 1711 0
143 -1643 1644 0
-1644 1712 0
144 -1644 1645 0
-1645 1713 0
145 -1645 1646 0
-1646 1714 0
146 -1646 1647 0
-1647 1715 0
147 -1647 1648 0
-1648 1716 0
148 -1648 1649 0
-1649 1717 0
149 -1649 1650 0
-1650 1718 0
150 -1650 1651 0
-1651 1719 0
151 -1651 1652 0
-1652 1720 0
152 -1652 1653 0
-1653 1721 0
153 -1653 1654 0
-1654 1722 0
154 -1654 1655 0
-1655 1723 0
155 -1655 1656 0
-1656 1724 0
156 -1656 1657 0
-1657 1725 0
157 -1657 1658 0
-1658 1726 0
158 -1658 1659 0
-1659 1727 0
159 -1659 1660 0
-1660 1728 0
160 -1660 1661 0
-1661 1729 0
161 -1661 1662 0
-1662 1730 0
162 -1662 1663 0
-1663 1731 0
163 -1663 1664 0
-1664 1732 0
164 -1664 1665 0
-1665 1733 0
165 -1665 1666 0
-1666 1734 0
166 -1666 1667 0
-1667 1735 0
167 -1667 1668 0
-1668 1736 0
168 -1668 1669 0
-1669 1737 0
169 -1669 1670 0
-1670 1738 0
170 -1670 1671 0
-1671 1739 0
171 -1671 1672 0
-1672 1740 0
172 -1672 1673 0
-1673 1741 0
173 -1673 1674 0
-1674 1742 0
174 -1674 1675 0
-1675 1743 0
175 -1675 1676 0
-1676 1744 0
176 -1676 1677 0
-1677 1745 0
177 -1677 1678 0
-1678 1746 0
178 -1678 1679 0
-1679 1747 0
179 -1679 1680 0
-1680 1748 0
180 -1680 1681 0
-1681 1749 0
181 -1681 1682 0
-1682 1750 0
182 -1682 1683 0
-1683 1751 0
183 -1683 1684 0
-1684 1752 0
184 -1684 1685 0
-1685 1753 0
185 -1685 1686 0
-1686 1754 0
186 -1686 1687 0
-1687 1755 0
187 -1687 1688 0
-1688 1756 0
188 -1688 1689 0
-1689 1757 0
189 -1689 1690 0
-1690 1758 0
190 -1690 1691 0
-1691 1759 0
191 -1691 1692 0
-1692 1760 0
192 -1692 1693 0
-1693 1761 0
193 -1693 1694 0
-1694 1762 0
194 -1694 1695 0
-1695 1763 0
195 -1695 1696 0
-1696 1764 0
196 -1696 1697 0
-1697 1765 0
197 -1697 1698 0
-1698 1766 0
198 -1698 1699 0
-1699 1767 0
199 -1699 1700 0
-1700 1768 0
200 -1700 1701 0
-1701 1769 0
201 -1701 1702 0
-1702 1770 0
202 -1702 1703 0
-1703 1771 0
203 -1703 1704 0
-1704 1772 0
204 -1704 1705 0
-1705 1773 0
205 -1705 1706 0
-1706 1774 0
206 -1706 1707 0
-1707 1775 0
207 -1707 1708 0
-1708 1776 0
208 -1708 1709 0
-1709 1777 0
209 -1709 1710 0
-1710 1778 0
210 -1710 0
143 1711 0
-1711 1779 0
144 -1711 1712 0
-1712 1780 0
145 -1712 1713 0
-1713 1781 0
146 -1713 1714 0
-1714 1782 0
147 -1714 1715 0
-1715 1783 0
148 -1715 1716 0
-1716 1784 0
149 -1716 1717 0
-1717 1785 0
150 -1717 1718 0
-1718 1786 0
151 -1718 1719 0
-1719 1787 0
152 -1719 1720 0
-1720 1788 0
153 -1720 1721 0
-1721 1789 0
154 -1721 1722 0
-1722 1790 0
155 -1722 1723 0
-1723 1791 0
156 -1723 1724 0
-1724 1792 0
157 -1724 1725 0
-1725 1793 0
158 -1725 1726 0
-1726 1794 0
159 -1726 1727 0
-1727 1795 0
160 -1727 1728 0
-1728 1796 0
161 -1728 1729 0
-1729 1797 0
162 -1729 1730 0
-1730 1798 0
163 -1730 1731 0
-1731 1799 0
164 -1731 1732 0
-1732 1800 0
165 -1732 1733 0
-1733 1801 0
166 -1733 1734 0
-1734 1802 0
167 -1734 1735 0
-1735 1803 0
168 -1735 1736 0
-1736 1804 0
169 -1736 1737 0
-1737 1805 0
170 -1737 1738 0
-1738 1806 0
171 -1738 1739 0
-1739 1807 0
172 -1739 1740 0
-1740 1808 0
173 -1740 1741 0
-1741 1809 0
174 -1741 1742 0
-1742 1810 0
175 -1742 1743 0
-1743 1811 0
176 -1743 1744 0
-1744 1812 0
177 -1744 1745 0
-1745 1813 0
178 -1745 1746 0
-1746 1814 0
179 -1746 1747 0
-1747 1815 0
180 -1747 1748 0
-1748 1816 0
181 -1748 1749 0
-1749 1817 0
182 -1749 1750 0
-1750 1818 0
183 -1750 1751 0
-1751 1819 0
184 -1751 1752 0
-1752 1820 0
185 -1752 1753 0
-1753 1821 0
186 -1753 1754 0
-1754 1822 0
187 -1754 1755 0
-1755 1823 0
188 -1755 1756 0
-1756 1824 0
189 -1756 1757 0
-1757 1825 0
190 -1757 1758 0
-1758 1826 0
191 -1758 1759 0
-1759 1827 0
192 -1759 1760 0
-1760 1828 0
193 -1760 1761 0
-1761 1829 0
194 -1761 1762 0
-1762 1830 0
195 -1762 1763 0
-1763 1831 0
196 -1763 1764 0
-1764 1832 0
197 -1764 1765 0
-1765 1833 0
198 -1765 1766 0
-1766 1834 0
199 -1766 1767 0
-1767 1835 0
200 -1767 1768 0
-1768 1836 0
201 -1768 1769 0
-1769 1837 0
202 -1769 1770 0
-1770 1838 0
203 -1770 1771 0
-1771 1839 0
204 -1771 1772 0
-1772 1840 0
205 -1772 1773 0
-1773 1841 0
206 -1773 1774 0
-1774 1842 0
207 -1774 1775 0
-1775 1843 0
208 -1775 1776 0
-1776 1844 0
209 -1776 1777 0
-1777 1845 0
210 -1777 1778 0
-1778 1846 0
211 -1778 0
144 1779 0
-1779 1847 0
145 -1779 1780 0
-1780 1848 0
146 -1780 1781 0
-1781 1849 0
147 -1781 1782 0
-1782 1850 0
148 -1782 1783 0
-1783 1851 0
149 -1783 1784 0
-1784 1852 0
150 -1784 1785 0
-1785 1853 0
151 -1785 1786 0
-1786 1854 0
152 -1786 1787 0
-1787 1855 0
153 -1787 1788 0
-1788 1856 0
154 -1788 1789 0
-1789 1857 0
155 -1789 1790 0
-1790 1858 0
156 -1790 1791 0
-1791 1859 0
157 -1791 1792 0
-1792 1860 0
158 -1792 1793 0
-1793 1861 0
159 -1793 1794 0
-1794 1862 0
160 -1794 1795 0
-1795 1863 0
161 -1795 1796 0
-1796 1864 0
162 -1796 1797 0
-1797 1865 0
163 -1797 1798 0
-1798 1866 0
164 -1798 1799 0
-1799 1867 0
165 -1799 1800 0
-1800 1868 0
166 -1800 1801 0
-1801 1869 0
167 -1801 1802 0
-1802 1870 0
168 -1802 1803 0
-1803 1871 0
169 -1803 1804 0
-1804 1872 0
170 -1804 1805 0
-1805 1873 0
171 -1805 1806 0
-1806 1874 0
172 -1806 1807 0
-1807 1875 0
173 -1807 1808 0
-1808 1876 0
174 -1808 1809 0
-1809 1877 0
175 -1809 1810 0
-1810 1878 0
176 -1810 1811 0
-1811 1879 0
177 -1811 1812 0
-1812 1880 0
178 -1812 1813 0
-1813 1881 0
179 -1813 1814 0
-1814 1882 0
180 -1814 1815 0
-1815 1883 0
181 -1815 1816 0
-1816 1884 0
182 -1816 1817 0
-1817 1885 0
183 -1817 1818 0
-1818 1886 0
184 -1818 1819 0
-1819 1887 0
185 -1819 1820 0
-1820 1888 0
186 -1820 1821 0
-1821 1889 0
187 -1821 1822 0
-1822 1890 0
188 -1822 1823 0
-1823 1891 0
189 -1823 1824 0
-1824 1892 0
190 -1824 1825 0
-1825 1893 0
191 -1825 1826 0
-1826 1894 0
192 -1826 1827 0
-1827 1895 0
193 -1827 1828 0
-1828 1896 0
194 -1828 1829 0
-1829 1897 0
195 -1829 1830 0
-1830 1898 0
196 -1830 1831 0
-1831 1899 0
197 -1831 1832 0
-1832 1900 0
198 -1832 1833 0
-1833 1901 0
199 -1833 1834 0
-1834 1902 0
200 -1834 1835 0
-1835 1903 0
201 -1835 1836 0
-1836 1904 0
202 -1836 1837 0
-1837 1905 0
203 -1837 1838 0
-1838 1906 0
204 -1838 1839 0
-1839 1907 0
205 -1839 1840 0
-1840 1908 0
206 -1840 1841 0
-1841 1909 0
207 -1841 1842 0
-1842 1910 0
208 -1842 1843 0
-1843 1911 0
209 -1843 1844 0
-1844 1912 0
210 -1844 1845 0
-1845 1913 0
211 -1845 1846 0
-1846 1914 0
212 -1846 0
145 1847 0
-1847 1915 0
146 -1847 1848 0
-1848 1916 0
147 -1848 1849 0
-1849 1917 0
148 -1849 1850 0
-1850 1918 0
149 -1850 1851 0
-1851 1919 0
150 -1851 1852 0
-1852 1920 0
151 -1852 1853 0
-1853 1921 0
152 -1853 1854 0
-1854 1922 0
153 -1854 1855 0
-1855 1923 0
154 -1855 1856 0
-1856 1924 0
155 -1856 1857 0
-1857 1925 0
156 -1857 1858 0
-1858 1926 0
157 -1858 1859 0
-1859 1927 0
158 -1859 1860 0
-1860 1928 0
159 -1860 1861 0
-1861 1929 0
160 -1861 1862 0
-1862 1930 0
161 -1862 1863 0
-1863 1931 0
162 -1863 1864 0
-1864 1932 0
163 -1864 1865 0
-1865 1933 0
164 -1865 1866 0
-1866 1934 0
165 -1866 1867 0
-1867 1935 0
166 -1867 1868 0
-1868 1936 0
167 -1868 1869 0
-1869 1937 0
168 -1869 1870 0
-1870 1938 0
169 -1870 1871 0
-1871 1939 0
170 -1871 1872 0
-1872 1940 0
171 -1872 1873 0
-1873 1941 0
172 -1873 1874 0
-1874 1942 0
173 -1874 1875 0
-1875 1943 0
174 -1875 1876 0
-1876 1944 0
175 -1876 1877 0
-1877 1945 0
176 -1877 1878 0
-1878 1946 0
177 -1878 1879 0
-1879 1947 0
178 -1879 1880 0
-1880 1948 0
179 -1880 1881 0
-1881 1949 0
180 -1881 1882 0
-1882 1950 0
181 -1882 1883 0
-1883 1951 0
182 -1883 1884 0
-1884 1952 0
183 -1884 1885 0
-1885 1953 0
184 -1885 1886 0
-1886 1954 0
185 -1886 1887 0
-1887 1955 0
186 -1887 1888 0
-1888 1956 0
187 -1888 1889 0
-1889 1957 0
188 -1889 1890 0
-1890 1958 0
189 -1890 1891 0
-1891 1959 0
190 -1891 1892 0
-1892 1960 0
191 -1892 1893 0
-1893 1961 0
192 -1893 1894 0
-1894 1962 0
193 -1894 1895 0
-1895 1963 0
194 -1895 1896 0
-1896 1964 0
195 -1896 1897 0
-1897 1965 0
196 -1897 1898 0
-1898 1966 0
197 -1898 1899 0
-1899 1967 0
198 -1899 1900 0
-1900 1968 0
199 -1900 1901 0
-1901 1969 0
200 -1901 1902 0
-1902 1970 0
201 -1902 1903 0
-1903 1971 0
202 -1903 1904 0
-1904 1972 0
203 -1904 1905 0
-1905 1973 0
204 -1905 1906 0
-1906 1974 0
205 -1906 1907 0
-1907 1975 0
206 -1907 1908 0
-1908 1976 0
207 -1908 1909 0
-1909 1977 0
208 -1909 1910 0
-1910 1978 0
209 -1910 1911 0
-1911 1979 0
210 -1911 1912 0
-1912 1980 0
211 -1912 1913 0
-1913 1981 0
212 -1913 1914 0
-1914 1982 0
213 -1914 0
146 1915 0
147 -1915 1916 0
148 -1916 1917 0
149 -1917 1918 0
150 -1918 1919 0
151 -1919 1920 0
152 -1920 1921 0
153 -1921 1922 0
154 -1922 1923 0
155 -1923 1924 0
156 -1924 1925 0
157 -1925 1926 0
158 -1926 1927 0
159 -1927 1928 0
160 -1928 1929 0
161 -1929 1930 0
162 -1930 1931 0
163 -1931 1932 0
164 -1932 1933 0
165 -1933 1934 0
166 -1934 1935 0
167 -1935 1936 0
168 -1936 1937 0
169 -1937 1938 0
170 -1938 1939 0
171 -1939 1940 0
172 -1940 1941 0
173 -1941 1942 0
174 -1942 1943 0
175 -1943 1944 0
176 -1944 1945 0
177 -1945 1946 0
178 -1946 1947 0
179 -1947 1948 0
180 -1948 1949 0
181 -1949 1950 0
182 -1950 1951 0
183 -1951 1952 0
184 -1952 1953 0
185 -1953 1954 0
186 -1954 1955 0
187 -1955 1956 0
188 -1956 1957 0
189 -1957 1958 0
190 -1958 1959 0
191 -1959 1960 0
192 -1960 1961 0
193 -1961 1962 0
194 -1962 1963 0
195 -1963 1964 0
196 -1964 1965 0
197 -1965 1966 0
198 -1966 1967 0
199 -1967 1968 0
200 -1968 1969 0
201 -1969 1970 0
202 -1970 1971 0
203 -1971 1972 0
204 -1972 1973 0
205 -1973 1974 0
206 -1974 1975 0
207 -1975 1976 0
208 -1976 1977 0
209 -1977 1978 0
210 -1978 1979 0
211 -1979 1980 0
212 -1980 1981 0
213 -1981 1982 0
214 -1982 0
