c peaceable queens n=10 m=15 symbreak=False lines=True
p cnf 2808 5760
-59 1 0
-159 -1 0
-59 11 0
-159 -11 0
-59 21 0
-159 -21 0
-59 49 0
-159 -49 0
-60 1 0
-160 -1 0
-60 12 0
-160 -12 0
-60 22 0
-160 -22 0
-60 48 0
-160 -48 0
-61 1 0
-161 -1 0
-61 13 0
-161 -13 0
-61 23 0
-161 -23 0
-61 47 0
-161 -47 0
-62 1 0
-162 -1 0
-62 14 0
-162 -14 0
-62 24 0
-162 -24 0
-62 46 0
-162 -46 0
-63 1 0
-163 -1 0
-63 15 0
-163 -15 0
-63 25 0
-163 -25 0
-63 45 0
-163 -45 0
-64 1 0
-164 -1 0
-64 16 0
-164 -16 0
-64 26 0
-164 -26 0
-64 44 0
-164 -44 0
-65 1 0
-165 -1 0
-65 17 0
-165 -17 0
-65 27 0
-165 -27 0
-65 43 0
-165 -43 0
-66 1 0
-166 -1 0
-66 18 0
-166 -18 0
-66 28 0
-166 -28 0
-66 42 0
-166 -42 0
-67 1 0
-167 -1 0
-67 19 0
-167 -19 0
-67 29 0
-167 -29 0
-67 41 0
-167 -41 0
-68 1 0
-168 -1 0
-68 20 0
-168 -20 0
-68 30 0
-168 -30 0
-68 40 0
-168 -40 0
-69 2 0
-169 -2 0
-69 11 0
-169 -11 0
-69 22 0
-169 -22 0
-69 50 0
-169 -50 0
-70 2 0
-170 -2 0
-70 12 0
-170 -12 0
-70 23 0
-170 -23 0
-70 49 0
-170 -49 0
-71 2 0
-171 -2 0
-71 13 0
-171 -13 0
-71 24 0
-171 -24 0
-71 48 0
-171 -48 0
-72 2 0
-172 -2 0
-72 14 0
-172 -14 0
-72 25 0
-172 -25 0
-72 47 0
-172 -47 0
-73 2 0
-173 -2 0
-73 15 0
-173 -15 0
-73 26 0
-173 -26 0
-73 46 0
-173 -46 0
-74 2 0
-174 -2 0
-74 16 0
-174 -16 0
-74 27 0
-174 -27 0
-74 45 0
-174 -45 0
-75 2 0
-175 -2 0
-75 17 0
-175 -17 0
-75 28 0
-175 -28 0
-75 44 0
-175 -44 0
-76 2 0
-176 -2 0
-76 18 0
-176 -18 0
-76 29 0
-176 -29 0
-76 43 0
-176 -43 0
-77 2 0
-177 -2 0
-77 19 0
-177 -19 0
-77 30 0
-177 -30 0
-77 42 0
-177 -42 0
-78 2 0
-178 -2 0
-78 20 0
-178 -20 0
-78 31 0
-178 -31 0
-78 41 0
-178 -41 0
-79 3 0
-179 -3 0
-79 11 0
-179 -11 0
-79 23 0
-179 -23 0
-79 51 0
-179 -51 0
-80 3 0
-180 -3 0
-80 12 0
-180 -12 0
-80 24 0
-180 -24 0
-80 50 0
-180 -50 0
-81 3 0
-181 -3 0
-81 13 0
-181 -13 0
-81 25 0
-181 -25 0
-81 49 0
-181 -49 0
-82 3 0
-182 -3 0
-82 14 0
-182 -14 0
-82 26 0
-182 -26 0
-82 48 0
-182 -48 0
-83 3 0
-183 -3 0
-83 15 0
-183 -15 0
-83 27 0
-183 -27 0
-83 47 0
-183 -47 0
-84 3 0
-184 -3 0
-84 16 0
-184 -16 0
-84 28 0
-184 -28 0
-84 46 0
-184 -46 0
-85 3 0
-185 -3 0
-85 17 0
-185 -17 0
-85 29 0
-185 -29 0
-85 45 0
-185 -45 0
-86 3 0
-186 -3 0
-86 18 0
-186 -18 0
-86 30 0
-186 -30 0
-86 44 0
-186 -44 0
-87 3 0
-187 -3 0
-87 19 0
-187 -19 0
-87 31 0
-187 -31 0
-87 43 0
-187 -43 0
-88 3 0
-188 -3 0
-88 20 0
-188 -20 0
-88 32 0
-188 -32 0
-88 42 0
-188 -42 0
-89 4 0
-189 -4 0
-89 11 0
-189 -11 0
-89 24 0
-189 -24 0
-89 52 0
-189 -52 0
-90 4 0
-190 -4 0
-90 12 0
-190 -12 0
-90 25 0
-190 -25 0
-90 51 0
-190 -51 0
-91 4 0
-191 -4 0
-91 13 0
-191 -13 0
-91 26 0
-191 -26 0
-91 50 0
-191 -50 0
-92 4 0
-192 -4 0
-92 14 0
-192 -14 0
-92 27 0
-192 -27 0
-92 49 0
-192 -49 0
-93 4 0
-193 -4 0
-93 15 0
-193 -15 0
-93 28 0
-193 -28 0
-93 48 0
-193 -48 0
-94 4 0
-194 -4 0
-94 16 0
-194 -16 0
-94 29 0
-194 -29 0
-94 47 0
-194 -47 0
-95 4 0
-195 -4 0
-95 17 0
-195 -17 0
-95 30 0
-195 -30 0
-95 46 0
-195 -46 0
-96 4 0
-196 -4 0
-96 18 0
-196 -18 0
-96 31 0
-196 -31 0
-96 45 0
-196 -45 0
-97 4 0
-197 -4 0
-97 19 0
-197 -19 0
-97 32 0
-197 -32 0
-97 44 0
-197 -44 0
-98 4 0
-198 -4 0
-98 20 0
-198 -20 0
-98 33 0
-198 -33 0
-98 43 0
-198 -43 0
-99 5 0
-199 -5 0
-99 11 0
-199 -11 0
-99 25 0
-199 -25 0
-99 53 0
-199 -53 0
-100 5 0
-200 -5 0
-100 12 0
-200 -12 0
-100 26 0
-200 -26 0
-100 52 0
-200 -52 0
-101 5 0
-201 -5 0
-101 13 0
-201 -13 0
-101 27 0
-201 -27 0
-101 51 0
-201 -51 0
-102 5 0
-202 -5 0
-102 14 0
-202 -14 0
-102 28 0
-202 -28 0
-102 50 0
-202 -50 0
-103 5 0
-203 -5 0
-103 15 0
-203 -15 0
-103 29 0
-203 -29 0
-103 49 0
-203 -49 0
-104 5 0
-204 -5 0
-104 16 0
-204 -16 0
-104 30 0
-204 -30 0
-104 48 0
-204 -48 0
-105 5 0
-205 -5 0
-105 17 0
-205 -17 0
-105 31 0
-205 -31 0
-105 47 0
-205 -47 0
-106 5 0
-206 -5 0
-106 18 0
-206 -18 0
-106 32 0
-206 -32 0
-106 46 0
-206 -46 0
-107 5 0
-207 -5 0
-107 19 0
-207 -19 0
-107 33 0
-207 -33 0
-107 45 0
-207 -45 0
-108 5 0
-208 -5 0
-108 20 0
-208 -20 0
-108 34 0
-208 -34 0
-108 44 0
-208 -44 0
-109 6 0
-209 -6 0
-109 11 0
-209 -11 0
-109 26 0
-209 -26 0
-109 54 0
-209 -54 0
-110 6 0
-210 -6 0
-110 12 0
-210 -12 0
-110 27 0
-210 -27 0
-110 53 0
-210 -53 0
-111 6 0
-211 -6 0
-111 13 0
-211 -13 0
-111 28 0
-211 -28 0
-111 52 0
-211 -52 0
-112 6 0
-212 -6 0
-112 14 0
-212 -14 0
-112 29 0
-212 -29 0
-112 51 0
-212 -51 0
-113 6 0
-213 -6 0
-113 15 0
-213 -15 0
-113 30 0
-213 -30 0
-113 50 0
-213 -50 0
-114 6 0
-214 -6 0
-114 16 0
-214 -16 0
-114 31 0
-214 -31 0
-114 49 0
-214 -49 0
-115 6 0
-215 -6 0
-115 17 0
-215 -17 0
-115 32 0
-215 -32 0
-115 48 0
-215 -48 0
-116 6 0
-216 -6 0
-116 18 0
-216 -18 0
-116 33 0
-216 -33 0
-116 47 0
-216 -47 0
-117 6 0
-217 -6 0
-117 19 0
-217 -19 0
-117 34 0
-217 -34 0
-117 46 0
-217 -46 0
-118 6 0
-218 -6 0
-118 20 0
-218 -20 0
-118 35 0
-218 -35 0
-118 45 0
-218 -45 0
-119 7 0
-219 -7 0
-119 11 0
-219 -11 0
-119 27 0
-219 -27 0
-119 55 0
-219 -55 0
-120 7 0
-220 -7 0
-120 12 0
-220 -12 0
-120 28 0
-220 -28 0
-120 54 0
-220 -54 0
-121 7 0
-221 -7 0
-121 13 0
-221 -13 0
-121 29 0
-221 -29 0
-121 53 0
-221 -53 0
-122 7 0
-222 -7 0
-122 14 0
-222 -14 0
-122 30 0
-222 -30 0
-122 52 0
-222 -52 0
-123 7 0
-223 -7 0
-123 15 0
-223 -15 0
-123 31 0
-223 -31 0
-123 51 0
-223 -51 0
-124 7 0
-224 -7 0
-124 16 0
-224 -16 0
-124 32 0
-224 -32 0
-124 50 0
-224 -50 0
-125 7 0
-225 -7 0
-125 17 0
-225 -17 0
-125 33 0
-225 -33 0
-125 49 0
-225 -49 0
-126 7 0
-226 -7 0
-126 18 0
-226 -18 0
-126 34 0
-226 -34 0
-126 48 0
-226 -48 0
-127 7 0
-227 -7 0
-127 19 0
-227 -19 0
-127 35 0
-227 -35 0
-127 47 0
-227 -47 0
-128 7 0
-228 -7 0
-128 20 0
-228 -20 0
-128 36 0
-228 -36 0
-128 46 0
-228 -46 0
-129 8 0
-229 -8 0
-129 11 0
-229 -11 0
-129 28 0
-229 -28 0
-129 56 0
-229 -56 0
-130 8 0
-230 -8 0
-130 12 0
-230 -12 0
-130 29 0
-230 -29 0
-130 55 0
-230 -55 0
-131 8 0
-231 -8 0
-131 13 0
-231 -13 0
-131 30 0
-231 -30 0
-131 54 0
-231 -54 0
-132 8 0
-232 -8 0
-132 14 0
-232 -14 0
-132 31 0
-232 -31 0
-132 53 0
-232 -53 0
-133 8 0
-233 -8 0
-133 15 0
-233 -15 0
-133 32 0
-233 -32 0
-133 52 0
-233 -52 0
-134 8 0
-234 -8 0
-134 16 0
-234 -16 0
-134 33 0
-234 -33 0
-134 51 0
-234 -51 0
-135 8 0
-235 -8 0
-135 17 0
-235 -17 0
-135 34 0
-235 -34 0
-135 50 0
-235 -50 0
-136 8 0
-236 -8 0
-136 18 0
-236 -18 0
-136 35 0
-236 -35 0
-136 49 0
-236 -49 0
-137 8 0
-237 -8 0
-137 19 0
-237 -19 0
-137 36 0
-237 -36 0
-137 48 0
-237 -48 0
-138 8 0
-238 -8 0
-138 20 0
-238 -20 0
-138 37 0
-238 -37 0
-138 47 0
-238 -47 0
-139 9 0
-239 -9 0
-139 11 0
-239 -11 0
-139 29 0
-239 -29 0
-139 57 0
-239 -57 0
-140 9 0
-240 -9 0
-140 12 0
-240 -12 0
-140 30 0
-240 -30 0
-140 56 0
-240 -56 0
-141 9 0
-241 -9 0
-141 13 0
-241 -13 0
-141 31 0
-241 -31 0
-141 55 0
-241 -55 0
-142 9 0
-242 -9 0
-142 14 0
-242 -14 0
-142 32 0
-242 -32 0
-142 54 0
-242 -54 0
-143 9 0
-243 -9 0
-143 15 0
-243 -15 0
-143 33 0
-243 -33 0
-143 53 0
-243 -53 0
-144 9 0
-244 -9 0
-144 16 0
-244 -16 0
-144 34 0
-244 -34 0
-144 52 0
-244 -52 0
-145 9 0
-245 -9 0
-145 17 0
-245 -17 0
-145 35 0
-245 -35 0
-145 51 0
-245 -51 0
-146 9 0
-246 -9 0
-146 18 0
-246 -18 0
-146 36 0
-246 -36 0
-146 50 0
-246 -50 0
-147 9 0
-247 -9 0
-147 19 0
-247 -19 0
-147 37 0
-247 -37 0
-147 49 0
-247 -49 0
-148 9 0
-248 -9 0
-148 20 0
-248 -20 0
-148 38 0
-248 -38 0
-148 48 0
-248 -48 0
-149 10 0
-249 -10 0
-149 11 0
-249 -11 0
-149 30 0
-249 -30 0
-149 58 0
-249 -58 0
-150 10 0
-250 -10 0
-150 12 0
-250 -12 0
-150 31 0
-250 -31 0
-150 57 0
-250 -57 0
-151 10 0
-251 -10 0
-151 13 0
-251 -13 0
-151 32 0
-251 -32 0
-151 56 0
-251 -56 0
-152 10 0
-252 -10 0
-152 14 0
-252 -14 0
-152 33 0
-252 -33 0
-152 55 0
-252 -55 0
-153 10 0
-253 -10 0
-153 15 0
-253 -15 0
-153 34 0
-253 -34 0
-153 54 0
-253 -54 0
-154 10 0
-254 -10 0
-154 16 0
-254 -16 0
-154 35 0
-254 -35 0
-154 53 0
-254 -53 0
-155 10 0
-255 -10 0
-155 17 0
-255 -17 0
-155 36 0
-255 -36 0
-155 52 0
-255 -52 0
-156 10 0
-256 -10 0
-156 18 0
-256 -18 0
-156 37 0
-256 -37 0
-156 51 0
-256 -51 0
-157 10 0
-257 -10 0
-157 19 0
-257 -19 0
-157 38 0
-257 -38 0
-157 50 0
-257 -50 0
-158 10 0
-258 -10 0
-158 20 0
-258 -20 0
-158 39 0
-258 -39 0
-158 49 0
-258 -49 0
59 259 0
-259 260 0
60 -259 261 0
-261 262 0
61 -261 263 0
-263 264 0
62 -263 265 0
-265 266 0
63 -265 267 0
-267 268 0
64 -267 269 0
-269 270 0
65 -269 271 0
-271 272 0
66 -271 273 0
-273 274 0
67 -273 275 0
-275 276 0
68 -275 277 0
-277 278 0
69 -277 279 0
-279 280 0
70 -279 281 0
-281 282 0
71 -281 283 0
-283 284 0
72 -283 285 0
-285 286 0
73 -285 287 0
-287 288 0
74 -287 289 0
-289 290 0
75 -289 291 0
-291 292 0
76 -291 293 0
-293 294 0
77 -293 295 0
-295 296 0
78 -295 297 0
-297 298 0
79 -297 299 0
-299 300 0
80 -299 301 0
-301 302 0
81 -301 303 0
-303 304 0
82 -303 305 0
-305 306 0
83 -305 307 0
-307 308 0
84 -307 309 0
-309 310 0
85 -309 311 0
-311 312 0
86 -311 313 0
-313 314 0
87 -313 315 0
-315 316 0
88 -315 317 0
-317 318 0
89 -317 319 0
-319 320 0
90 -319 321 0
-321 322 0
91 -321 323 0
-323 324 0
92 -323 325 0
-325 326 0
93 -325 327 0
-327 328 0
94 -327 329 0
-329 330 0
95 -329 331 0
-331 332 0
96 -331 333 0
-333 334 0
97 -333 335 0
-335 336 0
98 -335 337 0
-337 338 0
99 -337 339 0
-339 340 0
100 -339 341 0
-341 342 0
101 -341 343 0
-343 344 0
102 -343 345 0
-345 346 0
103 -345 347 0
-347 348 0
104 -347 349 0
-349 350 0
105 -349 351 0
-351 352 0
106 -351 353 0
-353 354 0
107 -353 355 0
-355 356 0
108 -355 357 0
-357 358 0
109 -357 359 0
-359 360 0
110 -359 361 0
-361 362 0
111 -361 363 0
-363 364 0
112 -363 365 0
-365 366 0
113 -365 367 0
-367 368 0
114 -367 369 0
-369 370 0
115 -369 371 0
-371 372 0
116 -371 373 0
-373 374 0
117 -373 375 0
-375 376 0
118 -375 377 0
-377 378 0
119 -377 379 0
-379 380 0
120 -379 381 0
-381 382 0
121 -381 383 0
-383 384 0
122 -383 385 0
-385 386 0
123 -385 387 0
-387 388 0
124 -387 389 0
-389 390 0
125 -389 391 0
-391 392 0
126 -391 393 0
-393 394 0
127 -393 395 0
-395 396 0
128 -395 397 0
-397 398 0
129 -397 399 0
-399 400 0
130 -399 401 0
-401 402 0
131 -401 403 0
-403 404 0
132 -403 405 0
-405 406 0
133 -405 407 0
-407 408 0
134 -407 409 0
-409 410 0
135 -409 411 0
-411 412 0
136 -411 413 0
-413 414 0
137 -413 415 0
-415 416 0
138 -415 417 0
-417 418 0
139 -417 419 0
-419 420 0
140 -419 421 0
-421 422 0
141 -421 423 0
-423 424 0
142 -423 425 0
-425 426 0
143 -425 427 0
-427 428 0
144 -427 0
60 260 0
-260 429 0
61 -260 262 0
-262 430 0
62 -262 264 0
-264 431 0
63 -264 266 0
-266 432 0
64 -266 268 0
-268 433 0
65 -268 270 0
-270 434 0
66 -270 272 0
-272 435 0
67 -272 274 0
-274 436 0
68 -274 276 0
-276 437 0
69 -276 278 0
-278 438 0
70 -278 280 0
-280 439 0
71 -280 282 0
-282 440 0
72 -282 284 0
-284 441 0
73 -284 286 0
-286 442 0
74 -286 288 0
-288 443 0
75 -288 290 0
-290 444 0
76 -290 292 0
-292 445 0
77 -292 294 0
-294 446 0
78 -294 296 0
-296 447 0
79 -296 298 0
-298 448 0
80 -298 300 0
-300 449 0
81 -300 302 0
-302 450 0
82 -302 304 0
-304 451 0
83 -304 306 0
-306 452 0
84 -306 308 0
-308 453 0
85 -308 310 0
-310 454 0
86 -310 312 0
-312 455 0
87 -312 314 0
-314 456 0
88 -314 316 0
-316 457 0
89 -316 318 0
-318 458 0
90 -318 320 0
-320 459 0
91 -320 322 0
-322 460 0
92 -322 324 0
-324 461 0
93 -324 326 0
-326 462 0
94 -326 328 0
-328 463 0
95 -328 330 0
-330 464 0
96 -330 332 0
-332 465 0
97 -332 334 0
-334 466 0
98 -334 336 0
-336 467 0
99 -336 338 0
-338 468 0
100 -338 340 0
-340 469 0
101 -340 342 0
-342 470 0
102 -342 344 0
-344 471 0
103 -344 346 0
-346 472 0
104 -346 348 0
-348 473 0
105 -348 350 0
-350 474 0
106 -350 352 0
-352 475 0
107 -352 354 0
-354 476 0
108 -354 356 0
-356 477 0
109 -356 358 0
-358 478 0
110 -358 360 0
-360 479 0
111 -360 362 0
-362 480 0
112 -362 364 0
-364 481 0
113 -364 366 0
-366 482 0
114 -366 368 0
-368 483 0
115 -368 370 0
-370 484 0
116 -370 372 0
-372 485 0
117 -372 374 0
-374 486 0
118 -374 376 0
-376 487 0
119 -376 378 0
-378 488 0
120 -378 380 0
-380 489 0
121 -380 382 0
-382 490 0
122 -382 384 0
-384 491 0
123 -384 386 0
-386 492 0
124 -386 388 0
-388 493 0
125 -388 390 0
-390 494 0
126 -390 392 0
-392 495 0
127 -392 394 0
-394 496 0
128 -394 396 0
-396 497 0
129 -396 398 0
-398 498 0
130 -398 400 0
-400 499 0
131 -400 402 0
-402 500 0
132 -402 404 0
-404 501 0
133 -404 406 0
-406 502 0
134 -406 408 0
-408 503 0
135 -408 410 0
-410 504 0
136 -410 412 0
-412 505 0
137 -412 414 0
-414 506 0
138 -414 416 0
-416 507 0
139 -416 418 0
-418 508 0
140 -418 420 0
-420 509 0
141 -420 422 0
-422 510 0
142 -422 424 0
-424 511 0
143 -424 426 0
-426 512 0
144 -426 428 0
-428 513 0
145 -428 0
61 429 0
-429 514 0
62 -429 430 0
-430 515 0
63 -430 431 0
-431 516 0
64 -431 432 0
-432 517 0
65 -432 433 0
-433 518 0
66 -433 434 0
-434 519 0
67 -434 435 0
-435 520 0
68 -435 436 0
-436 521 0
69 -436 437 0
-437 522 0
70 -437 438 0
-438 523 0
71 -438 439 0
-439 524 0
72 -439 440 0
-440 525 0
73 -440 441 0
-441 526 0
74 -441 442 0
-442 527 0
75 -442 443 0
-443 528 0
76 -443 444 0
-444 529 0
77 -444 445 0
-445 530 0
78 -445 446 0
-446 531 0
79 -446 447 0
-447 532 0
80 -447 448 0
-448 533 0
81 -448 449 0
-449 534 0
82 -449 450 0
-450 535 0
83 -450 451 0
-451 536 0
84 -451 452 0
-452 537 0
85 -452 453 0
-453 538 0
86 -453 454 0
-454 539 0
87 -454 455 0
-455 540 0
88 -455 456 0
-456 541 0
89 -456 457 0
-457 542 0
90 -457 458 0
-458 543 0
91 -458 459 0
-459 544 0
92 -459 460 0
-460 545 0
93 -460 461 0
-461 546 0
94 -461 462 0
-462 547 0
95 -462 463 0
-463 548 0
96 -463 464 0
-464 549 0
97 -464 465 0
-465 550 0
98 -465 466 0
-466 551 0
99 -466 467 0
-467 552 0
100 -467 468 0
-468 553 0
101 -468 469 0
-469 554 0
102 -469 470 0
-470 555 0
103 -470 471 0
-471 556 0
104 -471 472 0
-472 557 0
105 -472 473 0
-473 558 0
106 -473 474 0
-474 559 0
107 -474 475 0
-475 560 0
108 -475 476 0
-476 561 0
109 -476 477 0
-477 562 0
110 -477 478 0
-478 563 0
111 -478 479 0
-479 564 0
112 -479 480 0
-480 565 0
113 -480 481 0
-481 566 0
114 -481 482 0
-482 567 0
115 -482 483 0
-483 568 0
116 -483 484 0
-484 569 0
117 -484 485 0
-485 570 0
118 -485 486 0
-486 571 0
119 -486 487 0
-487 572 0
120 -487 488 0
-488 573 0
121 -488 489 0
-489 574 0
122 -489 490 0
-490 575 0
123 -490 491 0
-491 576 0
124 -491 492 0
-492 577 0
125 -492 493 0
-493 578 0
126 -493 494 0
-494 579 0
127 -494 495 0
-495 580 0
128 -495 496 0
-496 581 0
129 -496 497 0
-497 582 0
130 -497 498 0
-498 583 0
131 -498 499 0
-499 584 0
132 -499 500 0
-500 585 0
133 -500 501 0
-501 586 0
134 -501 502 0
-502 587 0
135 -502 503 0
-503 588 0
136 -503 504 0
-504 589 0
137 -504 505 0
-505 590 0
138 -505 506 0
-506 591 0
139 -506 507 0
-507 592 0
140 -507 508 0
-508 593 0
141 -508 509 0
-509 594 0
142 -509 510 0
-510 595 0
143 -510 511 0
-511 596 0
144 -511 512 0
-512 597 0
145 -512 513 0
-513 598 0
146 -513 0
62 514 0
-514 599 0
63 -514 515 0
-515 600 0
64 -515 516 0
-516 601 0
65 -516 517 0
-517 602 0
66 -517 518 0
-518 603 0
67 -518 519 0
-519 604 0
68 -519 520 0
-520 605 0
69 -520 521 0
-521 606 0
70 -521 522 0
-522 607 0
71 -522 523 0
-523 608 0
72 -523 524 0
-524 609 0
73 -524 525 0
-525 610 0
74 -525 526 0
-526 611 0
75 -526 527 0
-527 612 0
76 -527 528 0
-528 613 0
77 -528 529 0
-529 614 0
78 -529 530 0
-530 615 0
79 -530 531 0
-531 616 0
80 -531 532 0
-532 617 0
81 -532 533 0
-533 618 0
82 -533 534 0
-534 619 0
83 -534 535 0
-535 620 0
84 -535 536 0
-536 621 0
85 -536 537 0
-537 622 0
86 -537 538 0
-538 623 0
87 -538 539 0
-539 624 0
88 -539 540 0
-540 625 0
89 -540 541 0
-541 626 0
90 -541 542 0
-542 627 0
91 -542 543 0
-543 628 0
92 -543 544 0
-544 629 0
93 -544 545 0
-545 630 0
94 -545 546 0
-546 631 0
95 -546 547 0
-547 632 0
96 -547 548 0
-548 633 0
97 -548 549 0
-549 634 0
98 -549 550 0
-550 635 0
99 -550 551 0
-551 636 0
100 -551 552 0
-552 637 0
101 -552 553 0
-553 638 0
102 -553 554 0
-554 639 0
103 -554 555 0
-555 640 0
104 -555 556 0
-556 641 0
105 -556 557 0
-557 642 0
106 -557 558 0
-558 643 0
107 -558 559 0
-559 644 0
108 -559 560 0
-560 645 0
109 -560 561 0
-561 646 0
110 -561 562 0
-562 647 0
111 -562 563 0
-563 648 0
112 -563 564 0
-564 649 0
113 -564 565 0
-565 650 0
114 -565 566 0
-566 651 0
115 -566 567 0
-567 652 0
116 -567 568 0
-568 653 0
117 -568 569 0
-569 654 0
118 -569 570 0
-570 655 0
119 -570 571 0
-571 656 0
120 -571 572 0
-572 657 0
121 -572 573 0
-573 658 0
122 -573 574 0
-574 659 0
123 -574 575 0
-575 660 0
124 -575 576 0
-576 661 0
125 -576 577 0
-577 662 0
126 -577 578 0
-578 663 0
127 -578 579 0
-579 664 0
128 -579 580 0
-580 665 0
129 -580 581 0
-581 666 0
130 -581 582 0
-582 667 0
131 -582 583 0
-583 668 0
132 -583 584 0
-584 669 0
133 -584 585 0
-585 670 0
134 -585 586 0
-586 671 0
135 -586 587 0
-587 672 0
136 -587 588 0
-588 673 0
137 -588 589 0
-589 674 0
138 -589 590 0
-590 675 0
139 -590 591 0
-591 676 0
140 -591 592 0
-592 677 0
141 -592 593 0
-593 678 0
142 -593 594 0
-594 679 0
143 -594 595 0
-595 680 0
144 -595 596 0
-596 681 0
145 -596 597 0
-597 682 0
146 -597 598 0
-598 683 0
147 -598 0
63 599 0
-599 684 0
64 -599 600 0
-600 685 0
65 -600 601 0
-601 686 0
66 -601 602 0
-602 687 0
67 -602 603 0
-603 688 0
68 -603 604 0
-604 689 0
69 -604 605 0
-605 690 0
70 -605 606 0
-606 691 0
71 -606 607 0
-607 692 0
72 -607 608 0
-608 693 0
73 -608 609 0
-609 694 0
74 -609 610 0
-610 695 0
75 -610 611 0
-611 696 0
76 -611 612 0
-612 697 0
77 -612 613 0
-613 698 0
78 -613 614 0
-614 699 0
79 -614 615 0
-615 700 0
80 -615 616 0
-616 701 0
81 -616 617 0
-617 702 0
82 -617 618 0
-618 703 0
83 -618 619 0
-619 704 0
84 -619 620 0
-620 705 0
85 -620 621 0
-621 706 0
86 -621 622 0
-622 707 0
87 -622 623 0
-623 708 0
88 -623 624 0
-624 709 0
89 -624 625 0
-625 710 0
90 -625 626 0
-626 711 0
91 -626 627 0
-627 712 0
92 -627 628 0
-628 713 0
93 -628 629 0
-629 714 0
94 -629 630 0
-630 715 0
95 -630 631 0
-631 716 0
96 -631 632 0
-632 717 0
97 -632 633 0
-633 718 0
98 -633 634 0
-634 719 0
99 -634 635 0
-635 720 0
100 -635 636 0
-636 721 0
101 -636 637 0
-637 722 0
102 -637 638 0
-638 723 0
103 -638 639 0
-639 724 0
104 -639 640 0
-640 725 0
105 -640 641 0
-641 726 0
106 -641 642 0
-642 727 0
107 -642 643 0
-643 728 0
108 -643 644 0
-644 729 0
109 -644 645 0
-645 730 0
110 -645 646 0
-646 731 0
111 -646 647 0
-647 732 0
112 -647 648 0
-648 733 0
113 -648 649 0
-649 734 0
114 -649 650 0
-650 735 0
115 -650 651 0
-651 736 0
116 -651 652 0
-652 737 0
117 -652 653 0
-653 738 0
118 -653 654 0
-654 739 0
119 -654 655 0
-655 740 0
120 -655 656 0
-656 741 0
121 -656 657 0
-657 742 0
122 -657 658 0
-658 743 0
123 -658 659 0
-659 744 0
124 -659 660 0
-660 745 0
125 -660 661 0
-661 746 0
126 -661 662 0
-662 747 0
127 -662 663 0
-663 748 0
128 -663 664 0
-664 749 0
129 -664 665 0
-665 750 0
130 -665 666 0
-666 751 0
131 -666 667 0
-667 752 0
132 -667 668 0
-668 753 0
133 -668 669 0
-669 754 0
134 -669 670 0
-670 755 0
135 -670 671 0
-671 756 0
136 -671 672 0
-672 757 0
137 -672 673 0
-673 758 0
138 -673 674 0
-674 759 0
139 -674 675 0
-675 760 0
140 -675 676 0
-676 761 0
141 -676 677 0
-677 762 0
142 -677 678 0
-678 763 0
143 -678 679 0
-679 764 0
144 -679 680 0
-680 765 0
145 -680 681 0
-681 766 0
146 -681 682 0
-682 767 0
147 -682 683 0
-683 768 0
148 -683 0
64 684 0
-684 769 0
65 -684 685 0
-685 770 0
66 -685 686 0
-686 771 0
67 -686 687 0
-687 772 0
68 -687 688 0
-688 773 0
69 -688 689 0
-689 774 0
70 -689 690 0
-690 775 0
71 -690 691 0
-691 776 0
72 -691 692 0
-692 777 0
73 -692 693 0
-693 778 0
74 -693 694 0
-694 779 0
75 -694 695 0
-695 780 0
76 -695 696 0
-696 781 0
77 -696 697 0
-697 782 0
78 -697 698 0
-698 783 0
79 -698 699 0
-699 784 0
80 -699 700 0
-700 785 0
81 -700 701 0
-701 786 0
82 -701 702 0
-702 787 0
83 -702 703 0
-703 788 0
84 -703 704 0
-704 789 0
85 -704 705 0
-705 790 0
86 -705 706 0
-706 791 0
87 -706 707 0
-707 792 0
88 -707 708 0
-708 793 0
89 -708 709 0
-709 794 0
90 -709 710 0
-710 795 0
91 -710 711 0
-711 796 0
92 -711 712 0
-712 797 0
93 -712 713 0
-713 798 0
94 -713 714 0
-714 799 0
95 -714 715 0
-715 800 0
96 -715 716 0
-716 801 0
97 -716 717 0
-717 802 0
98 -717 718 0
-718 803 0
99 -718 719 0
-719 804 0
100 -719 720 0
-720 805 0
101 -720 721 0
-721 806 0
102 -721 722 0
-722 807 0
103 -722 723 0
-723 808 0
104 -723 724 0
-724 809 0
105 -724 725 0
-725 810 0
106 -725 726 0
-726 811 0
107 -726 727 0
-727 812 0
108 -727 728 0
-728 813 0
109 -728 729 0
-729 814 0
110 -729 730 0
-730 815 0
111 -730 731 0
-731 816 0
112 -731 732 0
-732 817 0
113 -732 733 0
-733 818 0
114 -733 734 0
-734 819 0
115 -734 735 0
-735 820 0
116 -735 736 0
-736 821 0
117 -736 737 0
-737 822 0
118 -737 738 0
-738 823 0
119 -738 739 0
-739 824 0
120 -739 740 0
-740 825 0
121 -740 741 0
-741 826 0
122 -741 742 0
-742 827 0
123 -742 743 0
-743 828 0
124 -743 744 0
-744 829 0
125 -744 745 0
-745 830 0
126 -745 746 0
-746 831 0
127 -746 747 0
-747 832 0
128 -747 748 0
-748 833 0
129 -748 749 0
-749 834 0
130 -749 750 0
-750 835 0
131 -750 751 0
-751 836 0
132 -751 752 0
-752 837 0
133 -752 753 0
-753 838 0
134 -753 754 0
-754 839 0
135 -754 755 0
-755 840 0
136 -755 756 0
-756 841 0
137 -756 757 0
-757 842 0
138 -757 758 0
-758 843 0
139 -758 759 0
-759 844 0
140 -759 760 0
-760 845 0
141 -760 761 0
-761 846 0
142 -761 762 0
-762 847 0
143 -762 763 0
-763 848 0
144 -763 764 0
-764 849 0
145 -764 765 0
-765 850 0
146 -765 766 0
-766 851 0
147 -766 767 0
-767 852 0
148 -767 768 0
-768 853 0
149 -768 0
65 769 0
-769 854 0
66 -769 770 0
-770 855 0
67 -770 771 0
-771 856 0
68 -771 772 0
-772 857 0
69 -772 773 0
-773 858 0
70 -773 774 0
-774 859 0
71 -774 775 0
-775 860 0
72 -775 776 0
-776 861 0
73 -776 777 0
-777 862 0
74 -777 778 0
-778 863 0
75 -778 779 0
-779 864 0
76 -779 780 0
-780 865 0
77 -780 781 0
-781 866 0
78 -781 782 0
-782 867 0
79 -782 783 0
-783 868 0
80 -783 784 0
-784 869 0
81 -784 785 0
-785 870 0
82 -785 786 0
-786 871 0
83 -786 787 0
-787 872 0
84 -787 788 0
-788 873 0
85 -788 789 0
-789 874 0
86 -789 790 0
-790 875 0
87 -790 791 0
-791 876 0
88 -791 792 0
-792 877 0
89 -792 793 0
-793 878 0
90 -793 794 0
-794 879 0
91 -794 795 0
-795 880 0
92 -795 796 0
-796 881 0
93 -796 797 0
-797 882 0
94 -797 798 0
-798 883 0
95 -798 799 0
-799 884 0
96 -799 800 0
-800 885 0
97 -800 801 0
-801 886 0
98 -801 802 0
-802 887 0
99 -802 803 0
-803 888 0
100 -803 804 0
-804 889 0
101 -804 805 0
-805 890 0
102 -805 806 0
-806 891 0
103 -806 807 0
-807 892 0
104 -807 808 0
-808 893 0
105 -808 809 0
-809 894 0
106 -809 810 0
-810 895 0
107 -810 811 0
-811 896 0
108 -811 812 0
-812 897 0
109 -812 813 0
-813 898 0
110 -813 814 0
-814 899 0
111 -814 815 0
-815 900 0
112 -815 816 0
-816 901 0
113 -816 817 0
-817 902 0
114 -817 818 0
-818 903 0
115 -818 819 0
-819 904 0
116 -819 820 0
-820 905 0
117 -820 821 0
-821 906 0
118 -821 822 0
-822 907 0
119 -822 823 0
-823 908 0
120 -823 824 0
-824 909 0
121 -824 825 0
-825 910 0
122 -825 826 0
-826 911 0
123 -826 827 0
-827 912 0
124 -827 828 0
-828 913 0
125 -828 829 0
-829 914 0
126 -829 830 0
-830 915 0
127 -830 831 0
-831 916 0
128 -831 832 0
-832 917 0
129 -832 833 0
-833 918 0
130 -833 834 0
-834 919 0
131 -834 835 0
-835 920 0
132 -835 836 0
-836 921 0
133 -836 837 0
-837 922 0
134 -837 838 0
-838 923 0
135 -838 839 0
-839 924 0
136 -839 840 0
-840 925 0
137 -840 841 0
-841 926 0
138 -841 842 0
-842 927 0
139 -842 843 0
-843 928 0
140 -843 844 0
-844 929 0
141 -844 845 0
-845 930 0
142 -845 846 0
-846 931 0
143 -846 847 0
-847 932 0
144 -847 848 0
-848 933 0
145 -848 849 0
-849 934 0
146 -849 850 0
-850 935 0
147 -850 851 0
-851 936 0
148 -851 852 0
-852 937 0
149 -852 853 0
-853 938 0
150 -853 0
66 854 0
-854 939 0
67 -854 855 0
-855 940 0
68 -855 856 0
-856 941 0
69 -856 857 0
-857 942 0
70 -857 858 0
-858 943 0
71 -858 859 0
-859 944 0
72 -859 860 0
-860 945 0
73 -860 861 0
-861 946 0
74 -861 862 0
-862 947 0
75 -862 863 0
-863 948 0
76 -863 864 0
-864 949 0
77 -864 865 0
-865 950 0
78 -865 866 0
-866 951 0
79 -866 867 0
-867 952 0
80 -867 868 0
-868 953 0
81 -868 869 0
-869 954 0
82 -869 870 0
-870 955 0
83 -870 871 0
-871 956 0
84 -871 872 0
-872 957 0
85 -872 873 0
-873 958 0
86 -873 874 0
-874 959 0
87 -874 875 0
-875 960 0
88 -875 876 0
-876 961 0
89 -876 877 0
-877 962 0
90 -877 878 0
-878 963 0
91 -878 879 0
-879 964 0
92 -879 880 0
-880 965 0
93 -880 881 0
-881 966 0
94 -881 882 0
-882 967 0
95 -882 883 0
-883 968 0
96 -883 884 0
-884 969 0
97 -884 885 0
-885 970 0
98 -885 886 0
-886 971 0
99 -886 887 0
-887 972 0
100 -887 888 0
-888 973 0
101 -888 889 0
-889 974 0
102 -889 890 0
-890 975 0
103 -890 891 0
-891 976 0
104 -891 892 0
-892 977 0
105 -892 893 0
-893 978 0
106 -893 894 0
-894 979 0
107 -894 895 0
-895 980 0
108 -895 896 0
-896 981 0
109 -896 897 0
-897 982 0
110 -897 898 0
-898 983 0
111 -898 899 0
-899 984 0
112 -899 900 0
-900 985 0
113 -900 901 0
-901 986 0
114 -901 902 0
-902 987 0
115 -902 903 0
-903 988 0
116 -903 904 0
-904 989 0
117 -904 905 0
-905 990 0
118 -905 906 0
-906 991 0
119 -906 907 0
-907 992 0
120 -907 908 0
-908 993 0
121 -908 909 0
-909 994 0
122 -909 910 0
-910 995 0
123 -910 911 0
-911 996 0
124 -911 912 0
-912 997 0
125 -912 913 0
-913 998 0
126 -913 914 0
-914 999 0
127 -914 915 0
-915 1000 0
128 -915 916 0
-916 1001 0
129 -916 917 0
-917 1002 0
130 -917 918 0
-918 1003 0
131 -918 919 0
-919 1004 0
132 -919 920 0
-920 1005 0
133 -920 921 0
-921 1006 0
134 -921 922 0
-922 1007 0
135 -922 923 0
-923 1008 0
136 -923 924 0
-924 1009 0
137 -924 925 0
-925 1010 0
138 -925 926 0
-926 1011 0
139 -926 927 0
-927 1012 0
140 -927 928 0
-928 1013 0
141 -928 929 0
-929 1014 0
142 -929 930 0
-930 1015 0
143 -930 931 0
-931 1016 0
144 -931 932 0
-932 1017 0
145 -932 933 0
-933 1018 0
146 -933 934 0
-934 1019 0
147 -934 935 0
-935 1020 0
148 -935 936 0
-936 1021 0
149 -936 937 0
-937 1022 0
150 -937 938 0
-938 1023 0
151 -938 0
67 939 0
-939 1024 0
68 -939 940 0
-940 1025 0
69 -940 941 0
-941 1026 0
70 -941 942 0
-942 1027 0
71 -942 943 0
-943 1028 0
72 -943 944 0
-944 1029 0
73 -944 945 0
-945 1030 0
74 -945 946 0
-946 1031 0
75 -946 947 0
-947 1032 0
76 -947 948 0
-948 1033 0
77 -948 949 0
-949 1034 0
78 -949 950 0
-950 1035 0
79 -950 951 0
-951 1036 0
80 -951 952 0
-952 1037 0
81 -952 953 0
-953 1038 0
82 -953 954 0
-954 1039 0
83 -954 955 0
-955 1040 0
84 -955 956 0
-956 1041 0
85 -956 957 0
-957 1042 0
86 -957 958 0
-958 1043 0
87 -958 959 0
-959 1044 0
88 -959 960 0
-960 1045 0
89 -960 961 0
-961 1046 0
90 -961 962 0
-962 1047 0
91 -962 963 0
-963 1048 0
92 -963 964 0
-964 1049 0
93 -964 965 0
-965 1050 0
94 -965 966 0
-966 1051 0
95 -966 967 0
-967 1052 0
96 -967 968 0
-968 1053 0
97 -968 969 0
-969 1054 0
98 -969 970 0
-970 1055 0
99 -970 971 0
-971 1056 0
100 -971 972 0
-972 1057 0
101 -972 973 0
-973 1058 0
102 -973 974 0
-974 1059 0
103 -974 975 0
-975 1060 0
104 -975 976 0
-976 1061 0
105 -976 977 0
-977 1062 0
106 -977 978 0
-978 1063 0
107 -978 979 0
-979 1064 0
108 -979 980 0
-980 1065 0
109 -980 981 0
-981 1066 0
110 -981 982 0
-982 1067 0
111 -982 983 0
-983 1068 0
112 -983 984 0
-984 1069 0
113 -984 985 0
-985 1070 0
114 -985 986 0
-986 1071 0
115 -986 987 0
-987 1072 0
116 -987 988 0
-988 1073 0
117 -988 989 0
-989 1074 0
118 -989 990 0
-990 1075 0
119 -990 991 0
-991 1076 0
120 -991 992 0
-992 1077 0
121 -992 993 0
-993 1078 0
122 -993 994 0
-994 1079 0
123 -994 995 0
-995 1080 0
124 -995 996 0
-996 1081 0
125 -996 997 0
-997 1082 0
126 -997 998 0
-998 1083 0
127 -998 999 0
-999 1084 0
128 -999 1000 0
-1000 1085 0
129 -1000 1001 0
-1001 1086 0
130 -1001 1002 0
-1002 1087 0
131 -1002 1003 0
-1003 1088 0
132 -1003 1004 0
-1004 1089 0
133 -1004 1005 0
-1005 1090 0
134 -1005 1006 0
-1006 1091 0
135 -1006 1007 0
-1007 1092 0
136 -1007 1008 0
-1008 1093 0
137 -1008 1009 0
-1009 1094 0
138 -1009 1010 0
-1010 1095 0
139 -1010 1011 0
-1011 1096 0
140 -1011 1012 0
-1012 1097 0
141 -1012 1013 0
-1013 1098 0
142 -1013 1014 0
-1014 1099 0
143 -1014 1015 0
-1015 1100 0
144 -1015 1016 0
-1016 1101 0
145 -1016 1017 0
-1017 1102 0
146 -1017 1018 0
-1018 1103 0
147 -1018 1019 0
-1019 1104 0
148 -1019 1020 0
-1020 1105 0
149 -1020 1021 0
-1021 1106 0
150 -1021 1022 0
-1022 1107 0
151 -1022 1023 0
-1023 1108 0
152 -1023 0
68 1024 0
-1024 1109 0
69 -1024 1025 0
-1025 1110 0
70 -1025 1026 0
-1026 1111 0
71 -1026 1027 0
-1027 1112 0
72 -1027 1028 0
-1028 1113 0
73 -1028 1029 0
-1029 1114 0
74 -1029 1030 0
-1030 1115 0
75 -1030 1031 0
-1031 1116 0
76 -1031 1032 0
-1032 1117 0
77 -1032 1033 0
-1033 1118 0
78 -1033 1034 0
-1034 1119 0
79 -1034 1035 0
-1035 1120 0
80 -1035 1036 0
-1036 1121 0
81 -1036 1037 0
-1037 1122 0
82 -1037 1038 0
-1038 1123 0
83 -1038 1039 0
-1039 1124 0
84 -1039 1040 0
-1040 1125 0
85 -1040 1041 0
-1041 1126 0
86 -1041 1042 0
-1042 1127 0
87 -1042 1043 0
-1043 1128 0
88 -1043 1044 0
-1044 1129 0
89 -1044 1045 0
-1045 1130 0
90 -1045 1046 0
-1046 1131 0
91 -1046 1047 0
-1047 1132 0
92 -1047 1048 0
-1048 1133 0
93 -1048 1049 0
-1049 1134 0
94 -1049 1050 0
-1050 1135 0
95 -1050 1051 0
-1051 1136 0
96 -1051 1052 0
-1052 1137 0
97 -1052 1053 0
-1053 1138 0
98 -1053 1054 0
-1054 1139 0
99 -1054 1055 0
-1055 1140 0
100 -1055 1056 0
-1056 1141 0
101 -1056 1057 0
-1057 1142 0
102 -1057 1058 0
-1058 1143 0
103 -1058 1059 0
-1059 1144 0
104 -1059 1060 0
-1060 1145 0
105 -1060 1061 0
-1061 1146 0
106 -1061 1062 0
-1062 1147 0
107 -1062 1063 0
-1063 1148 0
108 -1063 1064 0
-1064 1149 0
109 -1064 1065 0
-1065 1150 0
110 -1065 1066 0
-1066 1151 0
111 -1066 1067 0
-1067 1152 0
112 -1067 1068 0
-1068 1153 0
113 -1068 1069 0
-1069 1154 0
114 -1069 1070 0
-1070 1155 0
115 -1070 1071 0
-1071 1156 0
116 -1071 1072 0
-1072 1157 0
117 -1072 1073 0
-1073 1158 0
118 -1073 1074 0
-1074 1159 0
119 -1074 1075 0
-1075 1160 0
120 -1075 1076 0
-1076 1161 0
121 -1076 1077 0
-1077 1162 0
122 -1077 1078 0
-1078 1163 0
123 -1078 1079 0
-1079 1164 0
124 -1079 1080 0
-1080 1165 0
125 -1080 1081 0
-1081 1166 0
126 -1081 1082 0
-1082 1167 0
127 -1082 1083 0
-1083 1168 0
128 -1083 1084 0
-1084 1169 0
129 -1084 1085 0
-1085 1170 0
130 -1085 1086 0
-1086 1171 0
131 -1086 1087 0
-1087 1172 0
132 -1087 1088 0
-1088 1173 0
133 -1088 1089 0
-1089 1174 0
134 -1089 1090 0
-1090 1175 0
135 -1090 1091 0
-1091 1176 0
136 -1091 1092 0
-1092 1177 0
137 -1092 1093 0
-1093 1178 0
138 -1093 1094 0
-1094 1179 0
139 -1094 1095 0
-1095 1180 0
140 -1095 1096 0
-1096 1181 0
141 -1096 1097 0
-1097 1182 0
142 -1097 1098 0
-1098 1183 0
143 -1098 1099 0
-1099 1184 0
144 -1099 1100 0
-1100 1185 0
145 -1100 1101 0
-1101 1186 0
146 -1101 1102 0
-1102 1187 0
147 -1102 1103 0
-1103 1188 0
148 -1103 1104 0
-1104 1189 0
149 -1104 1105 0
-1105 1190 0
150 -1105 1106 0
-1106 1191 0
151 -1106 1107 0
-1107 1192 0
152 -1107 1108 0
-1108 1193 0
153 -1108 0
69 1109 0
-1109 1194 0
70 -1109 1110 0
-1110 1195 0
71 -1110 1111 0
-1111 1196 0
72 -1111 1112 0
-1112 1197 0
73 -1112 1113 0
-1113 1198 0
74 -1113 1114 0
-1114 1199 0
75 -1114 1115 0
-1115 1200 0
76 -1115 1116 0
-1116 1201 0
77 -1116 1117 0
-1117 1202 0
78 -1117 1118 0
-1118 1203 0
79 -1118 1119 0
-1119 1204 0
80 -1119 1120 0
-1120 1205 0
81 -1120 1121 0
-1121 1206 0
82 -1121 1122 0
-1122 1207 0
83 -1122 1123 0
-1123 1208 0
84 -1123 1124 0
-1124 1209 0
85 -1124 1125 0
-1125 1210 0
86 -1125 1126 0
-1126 1211 0
87 -1126 1127 0
-1127 1212 0
88 -1127 1128 0
-1128 1213 0
89 -1128 1129 0
-1129 1214 0
90 -1129 1130 0
-1130 1215 0
91 -1130 1131 0
-1131 1216 0
92 -1131 1132 0
-1132 1217 0
93 -1132 1133 0
-1133 1218 0
94 -1133 1134 0
-1134 1219 0
95 -1134 1135 0
-1135 1220 0
96 -1135 1136 0
-1136 1221 0
97 -1136 1137 0
-1137 1222 0
98 -1137 1138 0
-1138 1223 0
99 -1138 1139 0
-1139 1224 0
100 -1139 1140 0
-1140 1225 0
101 -1140 1141 0
-1141 1226 0
102 -1141 1142 0
-1142 1227 0
103 -1142 1143 0
-1143 1228 0
104 -1143 1144 0
-1144 1229 0
105 -1144 1145 0
-1145 1230 0
106 -1145 1146 0
-1146 1231 0
107 -1146 1147 0
-1147 1232 0
108 -1147 1148 0
-1148 1233 0
109 -1148 1149 0
-1149 1234 0
110 -1149 1150 0
-1150 1235 0
111 -1150 1151 0
-1151 1236 0
112 -1151 1152 0
-1152 1237 0
113 -1152 1153 0
-1153 1238 0
114 -1153 1154 0
-1154 1239 0
115 -1154 1155 0
-1155 1240 0
116 -1155 1156 0
-1156 1241 0
117 -1156 1157 0
-1157 1242 0
118 -1157 1158 0
-1158 1243 0
119 -1158 1159 0
-1159 1244 0
120 -1159 1160 0
-1160 1245 0
121 -1160 1161 0
-1161 1246 0
122 -1161 1162 0
-1162 1247 0
123 -1162 1163 0
-1163 1248 0
124 -1163 1164 0
-1164 1249 0
125 -1164 1165 0
-1165 1250 0
126 -1165 1166 0
-1166 1251 0
127 -1166 1167 0
-1167 1252 0
128 -1167 1168 0
-1168 1253 0
129 -1168 1169 0
-1169 1254 0
130 -1169 1170 0
-1170 1255 0
131 -1170 1171 0
-1171 1256 0
132 -1171 1172 0
-1172 1257 0
133 -1172 1173 0
-1173 1258 0
134 -1173 1174 0
-1174 1259 0
135 -1174 1175 0
-1175 1260 0
136 -1175 1176 0
-1176 1261 0
137 -1176 1177 0
-1177 1262 0
138 -1177 1178 0
-1178 1263 0
139 -1178 1179 0
-1179 1264 0
140 -1179 1180 0
-1180 1265 0
141 -1180 1181 0
-1181 1266 0
142 -1181 1182 0
-1182 1267 0
143 -1182 1183 0
-1183 1268 0
144 -1183 1184 0
-1184 1269 0
145 -1184 1185 0
-1185 1270 0
146 -1185 1186 0
-1186 1271 0
147 -1186 1187 0
-1187 1272 0
148 -1187 1188 0
-1188 1273 0
149 -1188 1189 0
-1189 1274 0
150 -1189 1190 0
-1190 1275 0
151 -1190 1191 0
-1191 1276 0
152 -1191 1192 0
-1192 1277 0
153 -1192 1193 0
-1193 1278 0
154 -1193 0
70 1194 0
-1194 1279 0
71 -1194 1195 0
-1195 1280 0
72 -1195 1196 0
-1196 1281 0
73 -1196 1197 0
-1197 1282 0
74 -1197 1198 0
-1198 1283 0
75 -1198 1199 0
-1199 1284 0
76 -1199 1200 0
-1200 1285 0
77 -1200 1201 0
-1201 1286 0
78 -1201 1202 0
-1202 1287 0
79 -1202 1203 0
-1203 1288 0
80 -1203 1204 0
-1204 1289 0
81 -1204 1205 0
-1205 1290 0
82 -1205 1206 0
-1206 1291 0
83 -1206 1207 0
-1207 1292 0
84 -1207 1208 0
-1208 1293 0
85 -1208 1209 0
-1209 1294 0
86 -1209 1210 0
-1210 1295 0
87 -1210 1211 0
-1211 1296 0
88 -1211 1212 0
-1212 1297 0
89 -1212 1213 0
-1213 1298 0
90 -1213 1214 0
-1214 1299 0
91 -1214 1215 0
-1215 1300 0
92 -1215 1216 0
-1216 1301 0
93 -1216 1217 0
-1217 1302 0
94 -1217 1218 0
-1218 1303 0
95 -1218 1219 0
-1219 1304 0
96 -1219 1220 0
-1220 1305 0
97 -1220 1221 0
-1221 1306 0
98 -1221 1222 0
-1222 1307 0
99 -1222 1223 0
-1223 1308 0
100 -1223 1224 0
-1224 1309 0
101 -1224 1225 0
-1225 1310 0
102 -1225 1226 0
-1226 1311 0
103 -1226 1227 0
-1227 1312 0
104 -1227 1228 0
-1228 1313 0
105 -1228 1229 0
-1229 1314 0
106 -1229 1230 0
-1230 1315 0
107 -1230 1231 0
-1231 1316 0
108 -1231 1232 0
-1232 1317 0
109 -1232 1233 0
-1233 1318 0
110 -1233 1234 0
-1234 1319 0
111 -1234 1235 0
-1235 1320 0
112 -1235 1236 0
-1236 1321 0
113 -1236 1237 0
-1237 1322 0
114 -1237 1238 0
-1238 1323 0
115 -1238 1239 0
-1239 1324 0
116 -1239 1240 0
-1240 1325 0
117 -1240 1241 0
-1241 1326 0
118 -1241 1242 0
-1242 1327 0
119 -1242 1243 0
-1243 1328 0
120 -1243 1244 0
-1244 1329 0
121 -1244 1245 0
-1245 1330 0
122 -1245 1246 0
-1246 1331 0
123 -1246 1247 0
-1247 1332 0
124 -1247 1248 0
-1248 1333 0
125 -1248 1249 0
-1249 1334 0
126 -1249 1250 0
-1250 1335 0
127 -1250 1251 0
-1251 1336 0
128 -1251 1252 0
-1252 1337 0
129 -1252 1253 0
-1253 1338 0
130 -1253 1254 0
-1254 1339 0
131 -1254 1255 0
-1255 1340 0
132 -1255 1256 0
-1256 1341 0
133 -1256 1257 0
-1257 1342 0
134 -1257 1258 0
-1258 1343 0
135 -1258 1259 0
-1259 1344 0
136 -1259 1260 0
-1260 1345 0
137 -1260 1261 0
-1261 1346 0
138 -1261 1262 0
-1262 1347 0
139 -1262 1263 0
-1263 1348 0
140 -1263 1264 0
-1264 1349 0
141 -1264 1265 0
-1265 1350 0
142 -1265 1266 0
-1266 1351 0
143 -1266 1267 0
-1267 1352 0
144 -1267 1268 0
-1268 1353 0
145 -1268 1269 0
-1269 1354 0
146 -1269 1270 0
-1270 1355 0
147 -1270 1271 0
-1271 1356 0
148 -1271 1272 0
-1272 1357 0
149 -1272 1273 0
-1273 1358 0
150 -1273 1274 0
-1274 1359 0
151 -1274 1275 0
-1275 1360 0
152 -1275 1276 0
-1276 1361 0
153 -1276 1277 0
-1277 1362 0
154 -1277 1278 0
-1278 1363 0
155 -1278 0
71 1279 0
-1279 1364 0
72 -1279 1280 0
-1280 1365 0
73 -1280 1281 0
-1281 1366 0
74 -1281 1282 0
-1282 1367 0
75 -1282 1283 0
-1283 1368 0
76 -1283 1284 0
-1284 1369 0
77 -1284 1285 0
-1285 1370 0
78 -1285 1286 0
-1286 1371 0
79 -1286 1287 0
-1287 1372 0
80 -1287 1288 0
-1288 1373 0
81 -1288 1289 0
-1289 1374 0
82 -1289 1290 0
-1290 1375 0
83 -1290 1291 0
-1291 1376 0
84 -1291 1292 0
-1292 1377 0
85 -1292 1293 0
-1293 1378 0
86 -1293 1294 0
-1294 1379 0
87 -1294 1295 0
-1295 1380 0
88 -1295 1296 0
-1296 1381 0
89 -1296 1297 0
-1297 1382 0
90 -1297 1298 0
-1298 1383 0
91 -1298 1299 0
-1299 1384 0
92 -1299 1300 0
-1300 1385 0
93 -1300 1301 0
-1301 1386 0
94 -1301 1302 0
-1302 1387 0
95 -1302 1303 0
-1303 1388 0
96 -1303 1304 0
-1304 1389 0
97 -1304 1305 0
-1305 1390 0
98 -1305 1306 0
-1306 1391 0
99 -1306 1307 0
-1307 1392 0
100 -1307 1308 0
-1308 1393 0
101 -1308 1309 0
-1309 1394 0
102 -1309 1310 0
-1310 1395 0
103 -1310 1311 0
-1311 1396 0
104 -1311 1312 0
-1312 1397 0
105 -1312 1313 0
-1313 1398 0
106 -1313 1314 0
-1314 1399 0
107 -1314 1315 0
-1315 1400 0
108 -1315 1316 0
-1316 1401 0
109 -1316 1317 0
-1317 1402 0
110 -1317 1318 0
-1318 1403 0
111 -1318 1319 0
-1319 1404 0
112 -1319 1320 0
-1320 1405 0
113 -1320 1321 0
-1321 1406 0
114 -1321 1322 0
-1322 1407 0
115 -1322 1323 0
-1323 1408 0
116 -1323 1324 0
-1324 1409 0
117 -1324 1325 0
-1325 1410 0
118 -1325 1326 0
-1326 1411 0
119 -1326 1327 0
-1327 1412 0
120 -1327 1328 0
-1328 1413 0
121 -1328 1329 0
-1329 1414 0
122 -1329 1330 0
-1330 1415 0
123 -1330 1331 0
-1331 1416 0
124 -1331 1332 0
-1332 1417 0
125 -1332 1333 0
-1333 1418 0
126 -1333 1334 0
-1334 1419 0
127 -1334 1335 0
-1335 1420 0
128 -1335 1336 0
-1336 1421 0
129 -1336 1337 0
-1337 1422 0
130 -1337 1338 0
-1338 1423 0
131 -1338 1339 0
-1339 1424 0
132 -1339 1340 0
-1340 1425 0
133 -1340 1341 0
-1341 1426 0
134 -1341 1342 0
-1342 1427 0
135 -1342 1343 0
-1343 1428 0
136 -1343 1344 0
-1344 1429 0
137 -1344 1345 0
-1345 1430 0
138 -1345 1346 0
-1346 1431 0
139 -1346 1347 0
-1347 1432 0
140 -1347 1348 0
-1348 1433 0
141 -1348 1349 0
-1349 1434 0
142 -1349 1350 0
-1350 1435 0
143 -1350 1351 0
-1351 1436 0
144 -1351 1352 0
-1352 1437 0
145 -1352 1353 0
-1353 1438 0
146 -1353 1354 0
-1354 1439 0
147 -1354 1355 0
-1355 1440 0
148 -1355 1356 0
-1356 1441 0
149 -1356 1357 0
-1357 1442 0
150 -1357 1358 0
-1358 1443 0
151 -1358 1359 0
-1359 1444 0
152 -1359 1360 0
-1360 1445 0
153 -1360 1361 0
-1361 1446 0
154 -1361 1362 0
-1362 1447 0
155 -1362 1363 0
-1363 1448 0
156 -1363 0
72 1364 0
-1364 1449 0
73 -1364 1365 0
-1365 1450 0
74 -1365 1366 0
-1366 1451 0
75 -1366 1367 0
-1367 1452 0
76 -1367 1368 0
-1368 1453 0
77 -1368 1369 0
-1369 1454 0
78 -1369 1370 0
-1370 1455 0
79 -1370 1371 0
-1371 1456 0
80 -1371 1372 0
-1372 1457 0
81 -1372 1373 0
-1373 1458 0
82 -1373 1374 0
-1374 1459 0
83 -1374 1375 0
-1375 1460 0
84 -1375 1376 0
-1376 1461 0
85 -1376 1377 0
-1377 1462 0
86 -1377 1378 0
-1378 1463 0
87 -1378 1379 0
-1379 1464 0
88 -1379 1380 0
-1380 1465 0
89 -1380 1381 0
-1381 1466 0
90 -1381 1382 0
-1382 1467 0
91 -1382 1383 0
-1383 1468 0
92 -1383 1384 0
-1384 1469 0
93 -1384 1385 0
-1385 1470 0
94 -1385 1386 0
-1386 1471 0
95 -1386 1387 0
-1387 1472 0
96 -1387 1388 0
-1388 1473 0
97 -1388 1389 0
-1389 1474 0
98 -1389 1390 0
-1390 1475 0
99 -1390 1391 0
-1391 1476 0
100 -1391 1392 0
-1392 1477 0
101 -1392 1393 0
-1393 1478 0
102 -1393 1394 0
-1394 1479 0
103 -1394 1395 0
-1395 1480 0
104 -1395 1396 0
-1396 1481 0
105 -1396 1397 0
-1397 1482 0
106 -1397 1398 0
-1398 1483 0
107 -1398 1399 0
-1399 1484 0
108 -1399 1400 0
-1400 1485 0
109 -1400 1401 0
-1401 1486 0
110 -1401 1402 0
-1402 1487 0
111 -1402 1403 0
-1403 1488 0
112 -1403 1404 0
-1404 1489 0
113 -1404 1405 0
-1405 1490 0
114 -1405 1406 0
-1406 1491 0
115 -1406 1407 0
-1407 1492 0
116 -1407 1408 0
-1408 1493 0
117 -1408 1409 0
-1409 1494 0
118 -1409 1410 0
-1410 1495 0
119 -1410 1411 0
-1411 1496 0
120 -1411 1412 0
-1412 1497 0
121 -1412 1413 0
-1413 1498 0
122 -1413 1414 0
-1414 1499 0
123 -1414 1415 0
-1415 1500 0
124 -1415 1416 0
-1416 1501 0
125 -1416 1417 0
-1417 1502 0
126 -1417 1418 0
-1418 1503 0
127 -1418 1419 0
-1419 1504 0
128 -1419 1420 0
-1420 1505 0
129 -1420 1421 0
-1421 1506 0
130 -1421 1422 0
-1422 1507 0
131 -1422 1423 0
-1423 1508 0
132 -1423 1424 0
-1424 1509 0
133 -1424 1425 0
-1425 1510 0
134 -1425 1426 0
-1426 1511 0
135 -1426 1427 0
-1427 1512 0
136 -1427 1428 0
-1428 1513 0
137 -1428 1429 0
-1429 1514 0
138 -1429 1430 0
-1430 1515 0
139 -1430 1431 0
-1431 1516 0
140 -1431 1432 0
-1432 1517 0
141 -1432 1433 0
-1433 1518 0
142 -1433 1434 0
-1434 1519 0
143 -1434 1435 0
-1435 1520 0
144 -1435 1436 0
-1436 1521 0
145 -1436 1437 0
-1437 1522 0
146 -1437 1438 0
-1438 1523 0
147 -1438 1439 0
-1439 1524 0
148 -1439 1440 0
-1440 1525 0
149 -1440 1441 0
-1441 1526 0
150 -1441 1442 0
-1442 1527 0
151 -1442 1443 0
-1443 1528 0
152 -1443 1444 0
-1444 1529 0
153 -1444 1445 0
-1445 1530 0
154 -1445 1446 0
-1446 1531 0
155 -1446 1447 0
-1447 1532 0
156 -1447 1448 0
-1448 1533 0
157 -1448 0
73 1449 0
74 -1449 1450 0
75 -1450 1451 0
76 -1451 1452 0
77 -1452 1453 0
78 -1453 1454 0
79 -1454 1455 0
80 -1455 1456 0
81 -1456 1457 0
82 -1457 1458 0
83 -1458 1459 0
84 -1459 1460 0
85 -1460 1461 0
86 -1461 1462 0
87 -1462 1463 0
88 -1463 1464 0
89 -1464 1465 0
90 -1465 1466 0
91 -1466 1467 0
92 -1467 1468 0
93 -1468 1469 0
94 -1469 1470 0
95 -1470 1471 0
96 -1471 1472 0
97 -1472 1473 0
98 -1473 1474 0
99 -1474 1475 0
100 -1475 1476 0
101 -1476 1477 0
102 -1477 1478 0
103 -1478 1479 0
104 -1479 1480 0
105 -1480 1481 0
106 -1481 1482 0
107 -1482 1483 0
108 -1483 1484 0
109 -1484 1485 0
110 -1485 1486 0
111 -1486 1487 0
112 -1487 1488 0
113 -1488 1489 0
114 -1489 1490 0
115 -1490 1491 0
116 -1491 1492 0
117 -1492 1493 0
118 -1493 1494 0
119 -1494 1495 0
120 -1495 1496 0
121 -1496 1497 0
122 -1497 1498 0
123 -1498 1499 0
124 -1499 1500 0
125 -1500 1501 0
126 -1501 1502 0
127 -1502 1503 0
128 -1503 1504 0
129 -1504 1505 0
130 -1505 1506 0
131 -1506 1507 0
132 -1507 1508 0
133 -1508 1509 0
134 -1509 1510 0
135 -1510 1511 0
136 -1511 1512 0
137 -1512 1513 0
138 -1513 1514 0
139 -1514 1515 0
140 -1515 1516 0
141 -1516 1517 0
142 -1517 1518 0
143 -1518 1519 0
144 -1519 1520 0
145 -1520 1521 0
146 -1521 1522 0
147 -1522 1523 0
148 -1523 1524 0
149 -1524 1525 0
150 -1525 1526 0
151 -1526 1527 0
152 -1527 1528 0
153 -1528 1529 0
154 -1529 1530 0
155 -1530 1531 0
156 -1531 1532 0
157 -1532 1533 0
158 -1533 0
159 1534 0
-1534 1535 0
160 -1534 1536 0
-1536 1537 0
161 -1536 1538 0
-1538 1539 0
162 -1538 1540 0
-1540 1541 0
163 -1540 1542 0
-1542 1543 0
164 -1542 1544 0
-1544 1545 0
165 -1544 1546 0
-1546 1547 0
166 -1546 1548 0
-1548 1549 0
167 -1548 1550 0
-1550 1551 0
168 -1550 1552 0
-1552 1553 0
169 -1552 1554 0
-1554 1555 0
170 -1554 1556 0
-1556 1557 0
171 -1556 1558 0
-1558 1559 0
172 -1558 1560 0
-1560 1561 0
173 -1560 1562 0
-1562 1563 0
174 -1562 1564 0
-1564 1565 0
175 -1564 1566 0
-1566 1567 0
176 -1566 1568 0
-1568 1569 0
177 -1568 1570 0
-1570 1571 0
178 -1570 1572 0
-1572 1573 0
179 -1572 1574 0
-1574 1575 0
180 -1574 1576 0
-1576 1577 0
181 -1576 1578 0
-1578 1579 0
182 -1578 1580 0
-1580 1581 0
183 -1580 1582 0
-1582 1583 0
184 -1582 1584 0
-1584 1585 0
185 -1584 1586 0
-1586 1587 0
186 -1586 1588 0
-1588 1589 0
187 -1588 1590 0
-1590 1591 0
188 -1590 1592 0
-1592 1593 0
189 -1592 1594 0
-1594 1595 0
190 -1594 1596 0
-1596 1597 0
191 -1596 1598 0
-1598 1599 0
192 -1598 1600 0
-1600 1601 0
193 -1600 1602 0
-1602 1603 0
194 -1602 1604 0
-1604 1605 0
195 -1604 1606 0
-1606 1607 0
196 -1606 1608 0
-1608 1609 0
197 -1608 1610 0
-1610 1611 0
198 -1610 1612 0
-1612 1613 0
199 -1612 1614 0
-1614 1615 0
200 -1614 1616 0
-1616 1617 0
201 -1616 1618 0
-1618 1619 0
202 -1618 1620 0
-1620 1621 0
203 -1620 1622 0
-1622 1623 0
204 -1622 1624 0
-1624 1625 0
205 -1624 1626 0
-1626 1627 0
206 -1626 1628 0
-1628 1629 0
207 -1628 1630 0
-1630 1631 0
208 -1630 1632 0
-1632 1633 0
209 -1632 1634 0
-1634 1635 0
210 -1634 1636 0
-1636 1637 0
211 -1636 1638 0
-1638 1639 0
212 -1638 1640 0
-1640 1641 0
213 -1640 1642 0
-1642 1643 0
214 -1642 1644 0
-1644 1645 0
215 -1644 1646 0
-1646 1647 0
216 -1646 1648 0
-1648 1649 0
217 -1648 1650 0
-1650 1651 0
218 -1650 1652 0
-1652 1653 0
219 -1652 1654 0
-1654 1655 0
220 -1654 1656 0
-1656 1657 0
221 -1656 1658 0
-1658 1659 0
222 -1658 1660 0
-1660 1661 0
223 -1660 1662 0
-1662 1663 0
224 -1662 1664 0
-1664 1665 0
225 -1664 1666 0
-1666 1667 0
226 -1666 1668 0
-1668 1669 0
227 -1668 1670 0
-1670 1671 0
228 -1670 1672 0
-1672 1673 0
229 -1672 1674 0
-1674 1675 0
230 -1674 1676 0
-1676 1677 0
231 -1676 1678 0
-1678 1679 0
232 -1678 1680 0
-1680 1681 0
233 -1680 1682 0
-1682 1683 0
234 -1682 1684 0
-1684 1685 0
235 -1684 1686 0
-1686 1687 0
236 -1686 1688 0
-1688 1689 0
237 -1688 1690 0
-1690 1691 0
238 -1690 1692 0
-1692 1693 0
239 -1692 1694 0
-1694 1695 0
240 -1694 1696 0
-1696 1697 0
241 -1696 1698 0
-1698 1699 0
242 -1698 1700 0
-1700 1701 0
243 -1700 1702 0
-1702 1703 0
244 -1702 0
160 1535 0
-1535 1704 0
161 -1535 1537 0
-1537 1705 0
162 -1537 1539 0
-1539 1706 0
163 -1539 1541 0
-1541 1707 0
164 -1541 1543 0
-1543 1708 0
165 -1543 1545 0
-1545 1709 0
166 -1545 1547 0
-1547 1710 0
167 -1547 1549 0
-1549 1711 0
168 -1549 1551 0
-1551 1712 0
169 -1551 1553 0
-1553 1713 0
170 -1553 1555 0
-1555 1714 0
171 -1555 1557 0
-1557 1715 0
172 -1557 1559 0
-1559 1716 0
173 -1559 1561 0
-1561 1717 0
174 -1561 1563 0
-1563 1718 0
175 -1563 1565 0
-1565 1719 0
176 -1565 1567 0
-1567 1720 0
177 -1567 1569 0
-1569 1721 0
178 -1569 1571 0
-1571 1722 0
179 -1571 1573 0
-1573 1723 0
180 -1573 1575 0
-1575 1724 0
181 -1575 1577 0
-1577 1725 0
182 -1577 1579 0
-1579 1726 0
183 -1579 1581 0
-1581 1727 0
184 -1581 1583 0
-1583 1728 0
185 -1583 1585 0
-1585 1729 0
186 -1585 1587 0
-1587 1730 0
187 -1587 1589 0
-1589 1731 0
188 -1589 1591 0
-1591 1732 0
189 -1591 1593 0
-1593 1733 0
190 -1593 1595 0
-1595 1734 0
191 -1595 1597 0
-1597 1735 0
192 -1597 1599 0
-1599 1736 0
193 -1599 1601 0
-1601 1737 0
194 -1601 1603 0
-1603 1738 0
195 -1603 1605 0
-1605 1739 0
196 -1605 1607 0
-1607 1740 0
197 -1607 1609 0
-1609 1741 0
198 -1609 1611 0
-1611 1742 0
199 -1611 1613 0
-1613 1743 0
200 -1613 1615 0
-1615 1744 0
201 -1615 1617 0
-1617 1745 0
202 -1617 1619 0
-1619 1746 0
203 -1619 1621 0
-1621 1747 0
204 -1621 1623 0
-1623 1748 0
205 -1623 1625 0
-1625 1749 0
206 -1625 1627 0
-1627 1750 0
207 -1627 1629 0
-1629 1751 0
208 -1629 1631 0
-1631 1752 0
209 -1631 1633 0
-1633 1753 0
210 -1633 1635 0
-1635 1754 0
211 -1635 1637 0
-1637 1755 0
212 -1637 1639 0
-1639 1756 0
213 -1639 1641 0
-1641 1757 0
214 -1641 1643 0
-1643 1758 0
215 -1643 1645 0
-1645 1759 0
216 -1645 1647 0
-1647 1760 0
217 -1647 1649 0
-1649 1761 0
218 -1649 1651 0
-1651 1762 0
219 -1651 1653 0
-1653 1763 0
220 -1653 1655 0
-1655 1764 0
221 -1655 1657 0
-1657 1765 0
222 -1657 1659 0
-1659 1766 0
223 -1659 1661 0
-1661 1767 0
224 -1661 1663 0
-1663 1768 0
225 -1663 1665 0
-1665 1769 0
226 -1665 1667 0
-1667 1770 0
227 -1667 1669 0
-1669 1771 0
228 -1669 1671 0
-1671 1772 0
229 -1671 1673 0
-1673 1773 0
230 -1673 1675 0
-1675 1774 0
231 -1675 1677 0
-1677 1775 0
232 -1677 1679 0
-1679 1776 0
233 -1679 1681 0
-1681 1777 0
234 -1681 1683 0
-1683 1778 0
235 -1683 1685 0
-1685 1779 0
236 -1685 1687 0
-1687 1780 0
237 -1687 1689 0
-1689 1781 0
238 -1689 1691 0
-1691 1782 0
239 -1691 1693 0
-1693 1783 0
240 -1693 1695 0
-1695 1784 0
241 -1695 1697 0
-1697 1785 0
242 -1697 1699 0
-1699 1786 0
243 -1699 1701 0
-1701 1787 0
244 -1701 1703 0
-1703 1788 0
245 -1703 0
161 1704 0
-1704 1789 0
162 -1704 1705 0
-1705 1790 0
163 -1705 1706 0
-1706 1791 0
164 -1706 1707 0
-1707 1792 0
165 -1707 1708 0
-1708 1793 0
166 -1708 1709 0
-1709 1794 0
167 -1709 1710 0
-1710 1795 0
168 -1710 1711 0
-1711 1796 0
169 -1711 1712 0
-1712 1797 0
170 -1712 1713 0
-1713 1798 0
171 -1713 1714 0
-1714 1799 0
172 -1714 1715 0
-1715 1800 0
173 -1715 1716 0
-1716 1801 0
174 -1716 1717 0
-1717 1802 0
175 -1717 1718 0
-1718 1803 0
176 -1718 1719 0
-1719 1804 0
177 -1719 1720 0
-1720 1805 0
178 -1720 1721 0
-1721 1806 0
179 -1721 1722 0
-1722 1807 0
180 -1722 1723 0
-1723 1808 0
181 -1723 1724 0
-1724 1809 0
182 -1724 1725 0
-1725 1810 0
183 -1725 1726 0
-1726 1811 0
184 -1726 1727 0
-1727 1812 0
185 -1727 1728 0
-1728 1813 0
186 -1728 1729 0
-1729 1814 0
187 -1729 1730 0
-1730 1815 0
188 -1730 1731 0
-1731 1816 0
189 -1731 1732 0
-1732 1817 0
190 -1732 1733 0
-1733 1818 0
191 -1733 1734 0
-1734 1819 0
192 -1734 1735 0
-1735 1820 0
193 -1735 1736 0
-1736 1821 0
194 -1736 1737 0
-1737 1822 0
195 -1737 1738 0
-1738 1823 0
196 -1738 1739 0
-1739 1824 0
197 -1739 1740 0
-1740 1825 0
198 -1740 1741 0
-1741 1826 0
199 -1741 1742 0
-1742 1827 0
200 -1742 1743 0
-1743 1828 0
201 -1743 1744 0
-1744 1829 0
202 -1744 1745 0
-1745 1830 0
203 -1745 1746 0
-1746 1831 0
204 -1746 1747 0
-1747 1832 0
205 -1747 1748 0
-1748 1833 0
206 -1748 1749 0
-1749 1834 0
207 -1749 1750 0
-1750 1835 0
208 -1750 1751 0
-1751 1836 0
209 -1751 1752 0
-1752 1837 0
210 -1752 1753 0
-1753 1838 0
211 -1753 1754 0
-1754 1839 0
212 -1754 1755 0
-1755 1840 0
213 -1755 1756 0
-1756 1841 0
214 -1756 1757 0
-1757 1842 0
215 -1757 1758 0
-1758 1843 0
216 -1758 1759 0
-1759 1844 0
217 -1759 1760 0
-1760 1845 0
218 -1760 1761 0
-1761 1846 0
219 -1761 1762 0
-1762 1847 0
220 -1762 1763 0
-1763 1848 0
221 -1763 1764 0
-1764 1849 0
222 -1764 1765 0
-1765 1850 0
223 -1765 1766 0
-1766 1851 0
224 -1766 1767 0
-1767 1852 0
225 -1767 1768 0
-1768 1853 0
226 -1768 1769 0
-1769 1854 0
227 -1769 1770 0
-1770 1855 0
228 -1770 1771 0
-1771 1856 0
229 -1771 1772 0
-1772 1857 0
230 -1772 1773 0
-1773 1858 0
231 -1773 1774 0
-1774 1859 0
232 -1774 1775 0
-1775 1860 0
233 -1775 1776 0
-1776 1861 0
234 -1776 1777 0
-1777 1862 0
235 -1777 1778 0
-1778 1863 0
236 -1778 1779 0
-1779 1864 0
237 -1779 1780 0
-1780 1865 0
238 -1780 1781 0
-1781 1866 0
239 -1781 1782 0
-1782 1867 0
240 -1782 1783 0
-1783 1868 0
241 -1783 1784 0
-1784 1869 0
242 -1784 1785 0
-1785 1870 0
243 -1785 1786 0
-1786 1871 0
244 -1786 1787 0
-1787 1872 0
245 -1787 1788 0
-1788 1873 0
246 -1788 0
162 1789 0
-1789 1874 0
163 -1789 1790 0
-1790 1875 0
164 -1790 1791 0
-1791 1876 0
165 -1791 1792 0
-1792 1877 0
166 -1792 1793 0
-1793 1878 0
167 -1793 1794 0
-1794 1879 0
168 -1794 1795 0
-1795 1880 0
169 -1795 1796 0
-1796 1881 0
170 -1796 1797 0
-1797 1882 0
171 -1797 1798 0
-1798 1883 0
172 -1798 1799 0
-1799 1884 0
173 -1799 1800 0
-1800 1885 0
174 -1800 1801 0
-1801 1886 0
175 -1801 1802 0
-1802 1887 0
176 -1802 1803 0
-1803 1888 0
177 -1803 1804 0
-1804 1889 0
178 -1804 1805 0
-1805 1890 0
179 -1805 1806 0
-1806 1891 0
180 -1806 1807 0
-1807 1892 0
181 -1807 1808 0
-1808 1893 0
182 -1808 1809 0
-1809 1894 0
183 -1809 1810 0
-1810 1895 0
184 -1810 1811 0
-1811 1896 0
185 -1811 1812 0
-1812 1897 0
186 -1812 1813 0
-1813 1898 0
187 -1813 1814 0
-1814 1899 0
188 -1814 1815 0
-1815 1900 0
189 -1815 1816 0
-1816 1901 0
190 -1816 1817 0
-1817 1902 0
191 -1817 1818 0
-1818 1903 0
192 -1818 1819 0
-1819 1904 0
193 -1819 1820 0
-1820 1905 0
194 -1820 1821 0
-1821 1906 0
195 -1821 1822 0
-1822 1907 0
196 -1822 1823 0
-1823 1908 0
197 -1823 1824 0
-1824 1909 0
198 -1824 1825 0
-1825 1910 0
199 -1825 1826 0
-1826 1911 0
200 -1826 1827 0
-1827 1912 0
201 -1827 1828 0
-1828 1913 0
202 -1828 1829 0
-1829 1914 0
203 -1829 1830 0
-1830 1915 0
204 -1830 1831 0
-1831 1916 0
205 -1831 1832 0
-1832 1917 0
206 -1832 1833 0
-1833 1918 0
207 -1833 1834 0
-1834 1919 0
208 -1834 1835 0
-1835 1920 0
209 -1835 1836 0
-1836 1921 0
210 -1836 1837 0
-1837 1922 0
211 -1837 1838 0
-1838 1923 0
212 -1838 1839 0
-1839 1924 0
213 -1839 1840 0
-1840 1925 0
214 -1840 1841 0
-1841 1926 0
215 -1841 1842 0
-1842 1927 0
216 -1842 1843 0
-1843 1928 0
217 -1843 1844 0
-1844 1929 0
218 -1844 1845 0
-1845 1930 0
219 -1845 1846 0
-1846 1931 0
220 -1846 1847 0
-1847 1932 0
221 -1847 1848 0
-1848 1933 0
222 -1848 1849 0
-1849 1934 0
223 -1849 1850 0
-1850 1935 0
224 -1850 1851 0
-1851 1936 0
225 -1851 1852 0
-1852 1937 0
226 -1852 1853 0
-1853 1938 0
227 -1853 1854 0
-1854 1939 0
228 -1854 1855 0
-1855 1940 0
229 -1855 1856 0
-1856 1941 0
230 -1856 1857 0
-1857 1942 0
231 -1857 1858 0
-1858 1943 0
232 -1858 1859 0
-1859 1944 0
233 -1859 1860 0
-1860 1945 0
234 -1860 1861 0
-1861 1946 0
235 -1861 1862 0
-1862 1947 0
236 -1862 1863 0
-1863 1948 0
237 -1863 1864 0
-1864 1949 0
238 -1864 1865 0
-1865 1950 0
239 -1865 1866 0
-1866 1951 0
240 -1866 1867 0
-1867 1952 0
241 -1867 1868 0
-1868 1953 0
242 -1868 1869 0
-1869 1954 0
243 -1869 1870 0
-1870 1955 0
244 -1870 1871 0
-1871 1956 0
245 -1871 1872 0
-1872 1957 0
246 -1872 1873 0
-1873 1958 0
247 -1873 0
163 1874 0
-1874 1959 0
164 -1874 1875 0
-1875 1960 0
165 -1875 1876 0
-1876 1961 0
166 -1876 1877 0
-1877 1962 0
167 -1877 1878 0
-1878 1963 0
168 -1878 1879 0
-1879 1964 0
169 -1879 1880 0
-1880 1965 0
170 -1880 1881 0
-1881 1966 0
171 -1881 1882 0
-1882 1967 0
172 -1882 1883 0
-1883 1968 0
173 -1883 1884 0
-1884 1969 0
174 -1884 1885 0
-1885 1970 0
175 -1885 1886 0
-1886 1971 0
176 -1886 1887 0
-1887 1972 0
177 -1887 1888 0
-1888 1973 0
178 -1888 1889 0
-1889 1974 0
179 -1889 1890 0
-1890 1975 0
180 -1890 1891 0
-1891 1976 0
181 -1891 1892 0
-1892 1977 0
182 -1892 1893 0
-1893 1978 0
183 -1893 1894 0
-1894 1979 0
184 -1894 1895 0
-1895 1980 0
185 -1895 1896 0
-1896 1981 0
186 -1896 1897 0
-1897 1982 0
187 -1897 1898 0
-1898 1983 0
188 -1898 1899 0
-1899 1984 0
189 -1899 1900 0
-1900 1985 0
190 -1900 1901 0
-1901 1986 0
191 -1901 1902 0
-1902 1987 0
192 -1902 1903 0
-1903 1988 0
193 -1903 1904 0
-1904 1989 0
194 -1904 1905 0
-1905 1990 0
195 -1905 1906 0
-1906 1991 0
196 -1906 1907 0
-1907 1992 0
197 -1907 1908 0
-1908 1993 0
198 -1908 1909 0
-1909 1994 0
199 -1909 1910 0
-1910 1995 0
200 -1910 1911 0
-1911 1996 0
201 -1911 1912 0
-1912 1997 0
202 -1912 1913 0
-1913 1998 0
203 -1913 1914 0
-1914 1999 0
204 -1914 1915 0
-1915 2000 0
205 -1915 1916 0
-1916 2001 0
206 -1916 1917 0
-1917 2002 0
207 -1917 1918 0
-1918 2003 0
208 -1918 1919 0
-1919 2004 0
209 -1919 1920 0
-1920 2005 0
210 -1920 1921 0
-1921 2006 0
211 -1921 1922 0
-1922 2007 0
212 -1922 1923 0
-1923 2008 0
213 -1923 1924 0
-1924 2009 0
214 -1924 1925 0
-1925 2010 0
215 -1925 1926 0
-1926 2011 0
216 -1926 1927 0
-1927 2012 0
217 -1927 1928 0
-1928 2013 0
218 -1928 1929 0
-1929 2014 0
219 -1929 1930 0
-1930 2015 0
220 -1930 1931 0
-1931 2016 0
221 -1931 1932 0
-1932 2017 0
222 -1932 1933 0
-1933 2018 0
223 -1933 1934 0
-1934 2019 0
224 -1934 1935 0
-1935 2020 0
225 -1935 1936 0
-1936 2021 0
226 -1936 1937 0
-1937 2022 0
227 -1937 1938 0
-1938 2023 0
228 -1938 1939 0
-1939 2024 0
229 -1939 1940 0
-1940 2025 0
230 -1940 1941 0
-1941 2026 0
231 -1941 1942 0
-1942 2027 0
232 -1942 1943 0
-1943 2028 0
233 -1943 1944 0
-1944 2029 0
234 -1944 1945 0
-1945 2030 0
235 -1945 1946 0
-1946 2031 0
236 -1946 1947 0
-1947 2032 0
237 -1947 1948 0
-1948 2033 0
238 -1948 1949 0
-1949 2034 0
239 -1949 1950 0
-1950 2035 0
240 -1950 1951 0
-1951 2036 0
241 -1951 1952 0
-1952 2037 0
242 -1952 1953 0
-1953 2038 0
243 -1953 1954 0
-1954 2039 0
244 -1954 1955 0
-1955 2040 0
245 -1955 1956 0
-1956 2041 0
246 -1956 1957 0
-1957 2042 0
247 -1957 1958 0
-1958 2043 0
248 -1958 0
164 1959 0
-1959 2044 0
165 -1959 1960 0
-1960 2045 0
166 -1960 1961 0
-1961 2046 0
167 -1961 1962 0
-1962 2047 0
168 -1962 1963 0
-1963 2048 0
169 -1963 1964 0
-1964 2049 0
170 -1964 1965 0
-1965 2050 0
171 -1965 1966 0
-1966 2051 0
172 -1966 1967 0
-1967 2052 0
173 -1967 1968 0
-1968 2053 0
174 -1968 1969 0
-1969 2054 0
175 -1969 1970 0
-1970 2055 0
176 -1970 1971 0
-1971 2056 0
177 -1971 1972 0
-1972 2057 0
178 -1972 1973 0
-1973 2058 0
179 -1973 1974 0
-1974 2059 0
180 -1974 1975 0
-1975 2060 0
181 -1975 1976 0
-1976 2061 0
182 -1976 1977 0
-1977 2062 0
183 -1977 1978 0
-1978 2063 0
184 -1978 1979 0
-1979 2064 0
185 -1979 1980 0
-1980 2065 0
186 -1980 1981 0
-1981 2066 0
187 -1981 1982 0
-1982 2067 0
188 -1982 1983 0
-1983 2068 0
189 -1983 1984 0
-1984 2069 0
190 -1984 1985 0
-1985 2070 0
191 -1985 1986 0
-1986 2071 0
192 -1986 1987 0
-1987 2072 0
193 -1987 1988 0
-1988 2073 0
194 -1988 1989 0
-1989 2074 0
195 -1989 1990 0
-1990 2075 0
196 -1990 1991 0
-1991 2076 0
197 -1991 1992 0
-1992 2077 0
198 -1992 1993 0
-1993 2078 0
199 -1993 1994 0
-1994 2079 0
200 -1994 1995 0
-1995 2080 0
201 -1995 1996 0
-1996 2081 0
202 -1996 1997 0
-1997 2082 0
203 -1997 1998 0
-1998 2083 0
204 -1998 1999 0
-1999 2084 0
205 -1999 2000 0
-2000 2085 0
206 -2000 2001 0
-2001 2086 0
207 -2001 2002 0
-2002 2087 0
208 -2002 2003 0
-2003 2088 0
209 -2003 2004 0
-2004 2089 0
210 -2004 2005 0
-2005 2090 0
211 -2005 2006 0
-2006 2091 0
212 -2006 2007 0
-2007 2092 0
213 -2007 2008 0
-2008 2093 0
214 -2008 2009 0
-2009 2094 0
215 -2009 2010 0
-2010 2095 0
216 -2010 2011 0
-2011 2096 0
217 -2011 2012 0
-2012 2097 0
218 -2012 2013 0
-2013 2098 0
219 -2013 2014 0
-2014 2099 0
220 -2014 2015 0
-2015 2100 0
221 -2015 2016 0
-2016 2101 0
222 -2016 2017 0
-2017 2102 0
223 -2017 2018 0
-2018 2103 0
224 -2018 2019 0
-2019 2104 0
225 -2019 2020 0
-2020 2105 0
226 -2020 2021 0
-2021 2106 0
227 -2021 2022 0
-2022 2107 0
228 -2022 2023 0
-2023 2108 0
229 -2023 2024 0
-2024 2109 0
230 -2024 2025 0
-2025 2110 0
231 -2025 2026 0
-2026 2111 0
232 -2026 2027 0
-2027 2112 0
233 -2027 2028 0
-2028 2113 0
234 -2028 2029 0
-2029 2114 0
235 -2029 2030 0
-2030 2115 0
236 -2030 2031 0
-2031 2116 0
237 -2031 2032 0
-2032 2117 0
238 -2032 2033 0
-2033 2118 0
239 -2033 2034 0
-2034 2119 0
240 -2034 2035 0
-2035 2120 0
241 -2035 2036 0
-2036 2121 0
242 -2036 2037 0
-2037 2122 0
243 -2037 2038 0
-2038 2123 0
244 -2038 2039 0
-2039 2124 0
245 -2039 2040 0
-2040 2125 0
246 -2040 2041 0
-2041 2126 0
247 -2041 2042 0
-2042 2127 0
248 -2042 2043 0
-2043 2128 0
249 -2043 0
165 2044 0
-2044 2129 0
166 -2044 2045 0
-2045 2130 0
167 -2045 2046 0
-2046 2131 0
168 -2046 2047 0
-2047 2132 0
169 -2047 2048 0
-2048 2133 0
170 -2048 2049 0
-2049 2134 0
171 -2049 2050 0
-2050 2135 0
172 -2050 2051 0
-2051 2136 0
173 -2051 2052 0
-2052 2137 0
174 -2052 2053 0
-2053 2138 0
175 -2053 2054 0
-2054 2139 0
176 -2054 2055 0
-2055 2140 0
177 -2055 2056 0
-2056 2141 0
178 -2056 2057 0
-2057 2142 0
179 -2057 2058 0
-2058 2143 0
180 -2058 2059 0
-2059 2144 0
181 -2059 2060 0
-2060 2145 0
182 -2060 2061 0
-2061 2146 0
183 -2061 2062 0
-2062 2147 0
184 -2062 2063 0
-2063 2148 0
185 -2063 2064 0
-2064 2149 0
186 -2064 2065 0
-2065 2150 0
187 -2065 2066 0
-2066 2151 0
188 -2066 2067 0
-2067 2152 0
189 -2067 2068 0
-2068 2153 0
190 -2068 2069 0
-2069 2154 0
191 -2069 2070 0
-2070 2155 0
192 -2070 2071 0
-2071 2156 0
193 -2071 2072 0
-2072 2157 0
194 -2072 2073 0
-2073 2158 0
195 -2073 2074 0
-2074 2159 0
196 -2074 2075 0
-2075 2160 0
197 -2075 2076 0
-2076 2161 0
198 -2076 2077 0
-2077 2162 0
199 -2077 2078 0
-2078 2163 0
200 -2078 2079 0
-2079 2164 0
201 -2079 2080 0
-2080 2165 0
202 -2080 2081 0
-2081 2166 0
203 -2081 2082 0
-2082 2167 0
204 -2082 2083 0
-2083 2168 0
205 -2083 2084 0
-2084 2169 0
206 -2084 2085 0
-2085 2170 0
207 -2085 2086 0
-2086 2171 0
208 -2086 2087 0
-2087 2172 0
209 -2087 2088 0
-2088 2173 0
210 -2088 2089 0
-2089 2174 0
211 -2089 2090 0
-2090 2175 0
212 -2090 2091 0
-2091 2176 0
213 -2091 2092 0
-2092 2177 0
214 -2092 2093 0
-2093 2178 0
215 -2093 2094 0
-2094 2179 0
216 -2094 2095 0
-2095 2180 0
217 -2095 2096 0
-2096 2181 0
218 -2096 2097 0
-2097 2182 0
219 -2097 2098 0
-2098 2183 0
220 -2098 2099 0
-2099 2184 0
221 -2099 2100 0
-2100 2185 0
222 -2100 2101 0
-2101 2186 0
223 -2101 2102 0
-2102 2187 0
224 -2102 2103 0
-2103 2188 0
225 -2103 2104 0
-2104 2189 0
226 -2104 2105 0
-2105 2190 0
227 -2105 2106 0
-2106 2191 0
228 -2106 2107 0
-2107 2192 0
229 -2107 2108 0
-2108 2193 0
230 -2108 2109 0
-2109 2194 0
231 -2109 2110 0
-2110 2195 0
232 -2110 2111 0
-2111 2196 0
233 -2111 2112 0
-2112 2197 0
234 -2112 2113 0
-2113 2198 0
235 -2113 2114 0
-2114 2199 0
236 -2114 2115 0
-2115 2200 0
237 -2115 2116 0
-2116 2201 0
238 -2116 2117 0
-2117 2202 0
239 -2117 2118 0
-2118 2203 0
240 -2118 2119 0
-2119 2204 0
241 -2119 2120 0
-2120 2205 0
242 -2120 2121 0
-2121 2206 0
243 -2121 2122 0
-2122 2207 0
244 -2122 2123 0
-2123 2208 0
245 -2123 2124 0
-2124 2209 0
246 -2124 2125 0
-2125 2210 0
247 -2125 2126 0
-2126 2211 0
248 -2126 2127 0
-2127 2212 0
249 -2127 2128 0
-2128 2213 0
250 -2128 0
166 2129 0
-2129 2214 0
167 -2129 2130 0
-2130 2215 0
168 -2130 2131 0
-2131 2216 0
169 -2131 2132 0
-2132 2217 0
170 -2132 2133 0
-2133 2218 0
171 -2133 2134 0
-2134 2219 0
172 -2134 2135 0
-2135 2220 0
173 -2135 2136 0
-2136 2221 0
174 -2136 2137 0
-2137 2222 0
175 -2137 2138 0
-2138 2223 0
176 -2138 2139 0
-2139 2224 0
177 -2139 2140 0
-2140 2225 0
178 -2140 2141 0
-2141 2226 0
179 -2141 2142 0
-2142 2227 0
180 -2142 2143 0
-2143 2228 0
181 -2143 2144 0
-2144 2229 0
182 -2144 2145 0
-2145 2230 0
183 -2145 2146 0
-2146 2231 0
184 -2146 2147 0
-2147 2232 0
185 -2147 2148 0
-2148 2233 0
186 -2148 2149 0
-2149 2234 0
187 -2149 2150 0
-2150 2235 0
188 -2150 2151 0
-2151 2236 0
189 -2151 2152 0
-2152 2237 0
190 -2152 2153 0
-2153 2238 0
191 -2153 2154 0
-2154 2239 0
192 -2154 2155 0
-2155 2240 0
193 -2155 2156 0
-2156 2241 0
194 -2156 2157 0
-2157 2242 0
195 -2157 2158 0
-2158 2243 0
196 -2158 2159 0
-2159 2244 0
197 -2159 2160 0
-2160 2245 0
198 -2160 2161 0
-2161 2246 0
199 -2161 2162 0
-2162 2247 0
200 -2162 2163 0
-2163 2248 0
201 -2163 2164 0
-2164 2249 0
202 -2164 2165 0
-2165 2250 0
203 -2165 2166 0
-2166 2251 0
204 -2166 2167 0
-2167 2252 0
205 -2167 2168 0
-2168 2253 0
206 -2168 2169 0
-2169 2254 0
207 -2169 2170 0
-2170 2255 0
208 -2170 2171 0
-2171 2256 0
209 -2171 2172 0
-2172 2257 0
210 -2172 2173 0
-2173 2258 0
211 -2173 2174 0
-2174 2259 0
212 -2174 2175 0
-2175 2260 0
213 -2175 2176 0
-2176 2261 0
214 -2176 2177 0
-2177 2262 0
215 -2177 2178 0
-2178 2263 0
216 -2178 2179 0
-2179 2264 0
217 -2179 2180 0
-2180 2265 0
218 -2180 2181 0
-2181 2266 0
219 -2181 2182 0
-2182 2267 0
220 -2182 2183 0
-2183 2268 0
221 -2183 2184 0
-2184 2269 0
222 -2184 2185 0
-2185 2270 0
223 -2185 2186 0
-2186 2271 0
224 -2186 2187 0
-2187 2272 0
225 -2187 2188 0
-2188 2273 0
226 -2188 2189 0
-2189 2274 0
227 -2189 2190 0
-2190 2275 0
228 -2190 2191 0
-2191 2276 0
229 -2191 2192 0
-2192 2277 0
230 -2192 2193 0
-2193 2278 0
231 -2193 2194 0
-2194 2279 0
232 -2194 2195 0
-2195 2280 0
233 -2195 2196 0
-2196 2281 0
234 -2196 2197 0
-2197 2282 0
235 -2197 2198 0
-2198 2283 0
236 -2198 2199 0
-2199 2284 0
237 -2199 2200 0
-2200 2285 0
238 -2200 2201 0
-2201 2286 0
239 -2201 2202 0
-2202 2287 0
240 -2202 2203 0
-2203 2288 0
241 -2203 2204 0
-2204 2289 0
242 -2204 2205 0
-2205 2290 0
243 -2205 2206 0
-2206 2291 0
244 -2206 2207 0
-2207 2292 0
245 -2207 2208 0
-2208 2293 0
246 -2208 2209 0
-2209 2294 0
247 -2209 2210 0
-2210 2295 0
248 -2210 2211 0
-2211 2296 0
249 -2211 2212 0
-2212 2297 0
250 -2212 2213 0
-2213 2298 0
251 -2213 0
167 2214 0
-2214 2299 0
168 -2214 2215 0
-2215 2300 0
169 -2215 2216 0
-2216 2301 0
170 -2216 2217 0
-2217 2302 0
171 -2217 2218 0
-2218 2303 0
172 -2218 2219 0
-2219 2304 0
173 -2219 2220 0
-2220 2305 0
174 -2220 2221 0
-2221 2306 0
175 -2221 2222 0
-2222 2307 0
176 -2222 2223 0
-2223 2308 0
177 -2223 2224 0
-2224 2309 0
178 -2224 2225 0
-2225 2310 0
179 -2225 2226 0
-2226 2311 0
180 -2226 2227 0
-2227 2312 0
181 -2227 2228 0
-2228 2313 0
182 -2228 2229 0
-2229 2314 0
183 -2229 2230 0
-2230 2315 0
184 -2230 2231 0
-2231 2316 0
185 -2231 2232 0
-2232 2317 0
186 -2232 2233 0
-2233 2318 0
187 -2233 2234 0
-2234 2319 0
188 -2234 2235 0
-2235 2320 0
189 -2235 2236 0
-2236 2321 0
190 -2236 2237 0
-2237 2322 0
191 -2237 2238 0
-2238 2323 0
192 -2238 2239 0
-2239 2324 0
193 -2239 2240 0
-2240 2325 0
194 -2240 2241 0
-2241 2326 0
195 -2241 2242 0
-2242 2327 0
196 -2242 2243 0
-2243 2328 0
197 -2243 2244 0
-2244 2329 0
198 -2244 2245 0
-2245 2330 0
199 -2245 2246 0
-2246 2331 0
200 -2246 2247 0
-2247 2332 0
201 -2247 2248 0
-2248 2333 0
202 -2248 2249 0
-2249 2334 0
203 -2249 2250 0
-2250 2335 0
204 -2250 2251 0
-2251 2336 0
205 -2251 2252 0
-2252 2337 0
206 -2252 2253 0
-2253 2338 0
207 -2253 2254 0
-2254 2339 0
208 -2254 2255 0
-2255 2340 0
209 -2255 2256 0
-2256 2341 0
210 -2256 2257 0
-2257 2342 0
211 -2257 2258 0
-2258 2343 0
212 -2258 2259 0
-2259 2344 0
213 -2259 2260 0
-2260 2345 0
214 -2260 2261 0
-2261 2346 0
215 -2261 2262 0
-2262 2347 0
216 -2262 2263 0
-2263 2348 0
217 -2263 2264 0
-2264 2349 0
218 -2264 2265 0
-2265 2350 0
219 -2265 2266 0
-2266 2351 0
220 -2266 2267 0
-2267 2352 0
221 -2267 2268 0
-2268 2353 0
222 -2268 2269 0
-2269 2354 0
223 -2269 2270 0
-2270 2355 0
224 -2270 2271 0
-2271 2356 0
225 -2271 2272 0
-2272 2357 0
226 -2272 2273 0
-2273 2358 0
227 -2273 2274 0
-2274 2359 0
228 -2274 2275 0
-2275 2360 0
229 -2275 2276 0
-2276 2361 0
230 -2276 2277 0
-2277 2362 0
231 -2277 2278 0
-2278 2363 0
232 -2278 2279 0
-2279 2364 0
233 -2279 2280 0
-2280 2365 0
234 -2280 2281 0
-2281 2366 0
235 -2281 2282 0
-2282 2367 0
236 -2282 2283 0
-2283 2368 0
237 -2283 2284 0
-2284 2369 0
238 -2284 2285 0
-2285 2370 0
239 -2285 2286 0
-2286 2371 0
240 -2286 2287 0
-2287 2372 0
241 -2287 2288 0
-2288 2373 0
242 -2288 2289 0
-2289 2374 0
243 -2289 2290 0
-2290 2375 0
244 -2290 2291 0
-2291 2376 0
245 -2291 2292 0
-2292 2377 0
246 -2292 2293 0
-2293 2378 0
247 -2293 2294 0
-2294 2379 0
248 -2294 2295 0
-2295 2380 0
249 -2295 2296 0
-2296 2381 0
250 -2296 2297 0
-2297 2382 0
251 -2297 2298 0
-2298 2383 0
252 -2298 0
168 2299 0
-2299 2384 0
169 -2299 2300 0
-2300 2385 0
170 -2300 2301 0
-2301 2386 0
171 -2301 2302 0
-2302 2387 0
172 -2302 2303 0
-2303 2388 0
173 -2303 2304 0
-2304 2389 0
174 -2304 2305 0
-2305 2390 0
175 -2305 2306 0
-2306 2391 0
176 -2306 2307 0
-2307 2392 0
177 -2307 2308 0
-2308 2393 0
178 -2308 2309 0
-2309 2394 0
179 -2309 2310 0
-2310 2395 0
180 -2310 2311 0
-2311 2396 0
181 -2311 2312 0
-2312 2397 0
182 -2312 2313 0
-2313 2398 0
183 -2313 2314 0
-2314 2399 0
184 -2314 2315 0
-2315 2400 0
185 -2315 2316 0
-2316 2401 0
186 -2316 2317 0
-2317 2402 0
187 -2317 2318 0
-2318 2403 0
188 -2318 2319 0
-2319 2404 0
189 -2319 2320 0
-2320 2405 0
190 -2320 2321 0
-2321 2406 0
191 -2321 2322 0
-2322 2407 0
192 -2322 2323 0
-2323 2408 0
193 -2323 2324 0
-2324 2409 0
194 -2324 2325 0
-2325 2410 0
195 -2325 2326 0
-2326 2411 0
196 -2326 2327 0
-2327 2412 0
197 -2327 2328 0
-2328 2413 0
198 -2328 2329 0
-2329 2414 0
199 -2329 2330 0
-2330 2415 0
200 -2330 2331 0
-2331 2416 0
201 -2331 2332 0
-2332 2417 0
202 -2332 2333 0
-2333 2418 0
203 -2333 2334 0
-2334 2419 0
204 -2334 2335 0
-2335 2420 0
205 -2335 2336 0
-2336 2421 0
206 -2336 2337 0
-2337 2422 0
207 -2337 2338 0
-2338 2423 0
208 -2338 2339 0
-2339 2424 0
209 -2339 2340 0
-2340 2425 0
210 -2340 2341 0
-2341 2426 0
211 -2341 2342 0
-2342 2427 0
212 -2342 2343 0
-2343 2428 0
213 -2343 2344 0
-2344 2429 0
214 -2344 2345 0
-2345 2430 0
215 -2345 2346 0
-2346 2431 0
216 -2346 2347 0
-2347 2432 0
217 -2347 2348 0
-2348 2433 0
218 -2348 2349 0
-2349 2434 0
219 -2349 2350 0
-2350 2435 0
220 -2350 2351 0
-2351 2436 0
221 -2351 2352 0
-2352 2437 0
222 -2352 2353 0
-2353 2438 0
223 -2353 2354 0
-2354 2439 0
224 -2354 2355 0
-2355 2440 0
225 -2355 2356 0
-2356 2441 0
226 -2356 2357 0
-2357 2442 0
227 -2357 2358 0
-2358 2443 0
228 -2358 2359 0
-2359 2444 0
229 -2359 2360 0
-2360 2445 0
230 -2360 2361 0
-2361 2446 0
231 -2361 2362 0
-2362 2447 0
232 -2362 2363 0
-2363 2448 0
233 -2363 2364 0
-2364 2449 0
234 -2364 2365 0
-2365 2450 0
235 -2365 2366 0
-2366 2451 0
236 -2366 2367 0
-2367 2452 0
237 -2367 2368 0
-2368 2453 0
238 -2368 2369 0
-2369 2454 0
239 -2369 2370 0
-2370 2455 0
240 -2370 2371 0
-2371 2456 0
241 -2371 2372 0
-2372 2457 0
242 -2372 2373 0
-2373 2458 0
243 -2373 2374 0
-2374 2459 0
244 -2374 2375 0
-2375 2460 0
245 -2375 2376 0
-2376 2461 0
246 -2376 2377 0
-2377 2462 0
247 -2377 2378 0
-2378 2463 0
248 -2378 2379 0
-2379 2464 0
249 -2379 2380 0
-2380 2465 0
250 -2380 2381 0
-2381 2466 0
251 -2381 2382 0
-2382 2467 0
252 -2382 2383 0
-2383 2468 0
253 -2383 0
169 2384 0
-2384 2469 0
170 -2384 2385 0
-2385 2470 0
171 -2385 2386 0
-2386 2471 0
172 -2386 2387 0
-2387 2472 0
173 -2387 2388 0
-2388 2473 0
174 -2388 2389 0
-2389 2474 0
175 -2389 2390 0
-2390 2475 0
176 -2390 2391 0
-2391 2476 0
177 -2391 2392 0
-2392 2477 0
178 -2392 2393 0
-2393 2478 0
179 -2393 2394 0
-2394 2479 0
180 -2394 2395 0
-2395 2480 0
181 -2395 2396 0
-2396 2481 0
182 -2396 2397 0
-2397 2482 0
183 -2397 2398 0
-2398 2483 0
184 -2398 2399 0
-2399 2484 0
185 -2399 2400 0
-2400 2485 0
186 -2400 2401 0
-2401 2486 0
187 -2401 2402 0
-2402 2487 0
188 -2402 2403 0
-2403 2488 0
189 -2403 2404 0
-2404 2489 0
190 -2404 2405 0
-2405 2490 0
191 -2405 2406 0
-2406 2491 0
192 -2406 2407 0
-2407 2492 0
193 -2407 2408 0
-2408 2493 0
194 -2408 2409 0
-2409 2494 0
195 -2409 2410 0
-2410 2495 0
196 -2410 2411 0
-2411 2496 0
197 -2411 2412 0
-2412 2497 0
198 -2412 2413 0
-2413 2498 0
199 -2413 2414 0
-2414 2499 0
200 -2414 2415 0
-2415 2500 0
201 -2415 2416 0
-2416 2501 0
202 -2416 2417 0
-2417 2502 0
203 -2417 2418 0
-2418 2503 0
204 -2418 2419 0
-2419 2504 0
205 -2419 2420 0
-2420 2505 0
206 -2420 2421 0
-2421 2506 0
207 -2421 2422 0
-2422 2507 0
208 -2422 2423 0
-2423 2508 0
209 -2423 2424 0
-2424 2509 0
210 -2424 2425 0
-2425 2510 0
211 -2425 2426 0
-2426 2511 0
212 -2426 2427 0
-2427 2512 0
213 -2427 2428 0
-2428 2513 0
214 -2428 2429 0
-2429 2514 0
215 -2429 2430 0
-2430 2515 0
216 -2430 2431 0
-2431 2516 0
217 -2431 2432 0
-2432 2517 0
218 -2432 2433 0
-2433 2518 0
219 -2433 2434 0
-2434 2519 0
220 -2434 2435 0
-2435 2520 0
221 -2435 2436 0
-2436 2521 0
222 -2436 2437 0
-2437 2522 0
223 -2437 2438 0
-2438 2523 0
224 -2438 2439 0
-2439 2524 0
225 -2439 2440 0
-2440 2525 0
226 -2440 2441 0
-2441 2526 0
227 -2441 2442 0
-2442 2527 0
228 -2442 2443 0
-2443 2528 0
229 -2443 2444 0
-2444 2529 0
230 -2444 2445 0
-2445 2530 0
231 -2445 2446 0
-2446 2531 0
232 -2446 2447 0
-2447 2532 0
233 -2447 2448 0
-2448 2533 0
234 -2448 2449 0
-2449 2534 0
235 -2449 2450 0
-2450 2535 0
236 -2450 2451 0
-2451 2536 0
237 -2451 2452 0
-2452 2537 0
238 -2452 2453 0
-2453 2538 0
239 -2453 2454 0
-2454 2539 0
240 -2454 2455 0
-2455 2540 0
241 -2455 2456 0
-2456 2541 0
242 -2456 2457 0
-2457 2542 0
243 -2457 2458 0
-2458 2543 0
244 -2458 2459 0
-2459 2544 0
245 -2459 2460 0
-2460 2545 0
246 -2460 2461 0
-2461 2546 0
247 -2461 2462 0
-2462 2547 0
248 -2462 2463 0
-2463 2548 0
249 -2463 2464 0
-2464 2549 0
250 -2464 2465 0
-2465 2550 0
251 -2465 2466 0
-2466 2551 0
252 -2466 2467 0
-2467 2552 0
253 -2467 2468 0
-2468 2553 0
254 -2468 0
170 2469 0
-2469 2554 0
171 -2469 2470 0
-2470 2555 0
172 -2470 2471 0
-2471 2556 0
173 -2471 2472 0
-2472 2557 0
174 -2472 2473 0
-2473 2558 0
175 -2473 2474 0
-2474 2559 0
176 -2474 2475 0
-2475 2560 0
177 -2475 2476 0
-2476 2561 0
178 -2476 2477 0
-2477 2562 0
179 -2477 2478 0
-2478 2563 0
180 -2478 2479 0
-2479 2564 0
181 -2479 2480 0
-2480 2565 0
182 -2480 2481 0
-2481 2566 0
183 -2481 2482 0
-2482 2567 0
184 -2482 2483 0
-2483 2568 0
185 -2483 2484 0
-2484 2569 0
186 -2484 2485 0
-2485 2570 0
187 -2485 2486 0
-2486 2571 0
188 -2486 2487 0
-2487 2572 0
189 -2487 2488 0
-2488 2573 0
190 -2488 2489 0
-2489 2574 0
191 -2489 2490 0
-2490 2575 0
192 -2490 2491 0
-2491 2576 0
193 -2491 2492 0
-2492 2577 0
194 -2492 2493 0
-2493 2578 0
195 -2493 2494 0
-2494 2579 0
196 -2494 2495 0
-2495 2580 0
197 -2495 2496 0
-2496 2581 0
198 -2496 2497 0
-2497 2582 0
199 -2497 2498 0
-2498 2583 0
200 -2498 2499 0
-2499 2584 0
201 -2499 2500 0
-2500 2585 0
202 -2500 2501 0
-2501 2586 0
203 -2501 2502 0
-2502 2587 0
204 -2502 2503 0
-2503 2588 0
205 -2503 2504 0
-2504 2589 0
206 -2504 2505 0
-2505 2590 0
207 -2505 2506 0
-2506 2591 0
208 -2506 2507 0
-2507 2592 0
209 -2507 2508 0
-2508 2593 0
210 -2508 2509 0
-2509 2594 0
211 -2509 2510 0
-2510 2595 0
212 -2510 2511 0
-2511 2596 0
213 -2511 2512 0
-2512 2597 0
214 -2512 2513 0
-2513 2598 0
215 -2513 2514 0
-2514 2599 0
216 -2514 2515 0
-2515 2600 0
217 -2515 2516 0
-2516 2601 0
218 -2516 2517 0
-2517 2602 0
219 -2517 2518 0
-2518 2603 0
220 -2518 2519 0
-2519 2604 0
221 -2519 2520 0
-2520 2605 0
222 -2520 2521 0
-2521 2606 0
223 -2521 2522 0
-2522 2607 0
224 -2522 2523 0
-2523 2608 0
225 -2523 2524 0
-2524 2609 0
226 -2524 2525 0
-2525 2610 0
227 -2525 2526 0
-2526 2611 0
228 -2526 2527 0
-2527 2612 0
229 -2527 2528 0
-2528 2613 0
230 -2528 2529 0
-2529 2614 0
231 -2529 2530 0
-2530 2615 0
232 -2530 2531 0
-2531 2616 0
233 -2531 2532 0
-2532 2617 0
234 -2532 2533 0
-2533 2618 0
235 -2533 2534 0
-2534 2619 0
236 -2534 2535 0
-2535 2620 0
237 -2535 2536 0
-2536 2621 0
238 -2536 2537 0
-2537 2622 0
239 -2537 2538 0
-2538 2623 0
240 -2538 2539 0
-2539 2624 0
241 -2539 2540 0
-2540 2625 0
242 -2540 2541 0
-2541 2626 0
243 -2541 2542 0
-2542 2627 0
244 -2542 2543 0
-2543 2628 0
245 -2543 2544 0
-2544 2629 0
246 -2544 2545 0
-2545 2630 0
247 -2545 2546 0
-2546 2631 0
248 -2546 2547 0
-2547 2632 0
249 -2547 2548 0
-2548 2633 0
250 -2548 2549 0
-2549 2634 0
251 -2549 2550 0
-2550 2635 0
252 -2550 2551 0
-2551 2636 0
253 -2551 2552 0
-2552 2637 0
254 -2552 2553 0
-2553 2638 0
255 -2553 0
171 2554 0
-2554 2639 0
172 -2554 2555 0
-2555 2640 0
173 -2555 2556 0
-2556 2641 0
174 -2556 2557 0
-2557 2642 0
175 -2557 2558 0
-2558 2643 0
176 -2558 2559 0
-2559 2644 0
177 -2559 2560 0
-2560 2645 0
178 -2560 2561 0
-2561 2646 0
179 -2561 2562 0
-2562 2647 0
180 -2562 2563 0
-2563 2648 0
181 -2563 2564 0
-2564 2649 0
182 -2564 2565 0
-2565 2650 0
183 -2565 2566 0
-2566 2651 0
184 -2566 2567 0
-2567 2652 0
185 -2567 2568 0
-2568 2653 0
186 -2568 2569 0
-2569 2654 0
187 -2569 2570 0
-2570 2655 0
188 -2570 2571 0
-2571 2656 0
189 -2571 2572 0
-2572 2657 0
190 -2572 2573 0
-2573 2658 0
191 -2573 2574 0
-2574 2659 0
192 -2574 2575 0
-2575 2660 0
193 -2575 2576 0
-2576 2661 0
194 -2576 2577 0
-2577 2662 0
195 -2577 2578 0
-2578 2663 0
196 -2578 2579 0
-2579 2664 0
197 -2579 2580 0
-2580 2665 0
198 -2580 2581 0
-2581 2666 0
199 -2581 2582 0
-2582 2667 0
200 -2582 2583 0
-2583 2668 0
201 -2583 2584 0
-2584 2669 0
202 -2584 2585 0
-2585 2670 0
203 -2585 2586 0
-2586 2671 0
204 -2586 2587 0
-2587 2672 0
205 -2587 2588 0
-2588 2673 0
206 -2588 2589 0
-2589 2674 0
207 -2589 2590 0
-2590 2675 0
208 -2590 2591 0
-2591 2676 0
209 -2591 2592 0
-2592 2677 0
210 -2592 2593 0
-2593 2678 0
211 -2593 2594 0
-2594 2679 0
212 -2594 2595 0
-2595 2680 0
213 -2595 2596 0
-2596 2681 0
214 -2596 2597 0
-2597 2682 0
215 -2597 2598 0
-2598 2683 0
216 -2598 2599 0
-2599 2684 0
217 -2599 2600 0
-2600 2685 0
218 -2600 2601 0
-2601 2686 0
219 -2601 2602 0
-2602 2687 0
220 -2602 2603 0
-2603 2688 0
221 -2603 2604 0
-2604 2689 0
222 -2604 2605 0
-2605 2690 0
223 -2605 2606 0
-2606 2691 0
224 -2606 2607 0
-2607 2692 0
225 -2607 2608 0
-2608 2693 0
226 -2608 2609 0
-2609 2694 0
227 -2609 2610 0
-2610 2695 0
228 -2610 2611 0
-2611 2696 0
229 -2611 2612 0
-2612 2697 0
230 -2612 2613 0
-2613 2698 0
231 -2613 2614 0
-2614 2699 0
232 -2614 2615 0
-2615 2700 0
233 -2615 2616 0
-2616 2701 0
234 -2616 2617 0
-2617 2702 0
235 -2617 2618 0
-2618 2703 0
236 -2618 2619 0
-2619 2704 0
237 -2619 2620 0
-2620 2705 0
238 -2620 2621 0
-2621 2706 0
239 -2621 2622 0
-2622 2707 0
240 -2622 2623 0
-2623 2708 0
241 -2623 2624 0
-2624 2709 0
242 -2624 2625 0
-2625 2710 0
243 -2625 2626 0
-2626 2711 0
244 -2626 2627 0
-2627 2712 0
245 -2627 2628 0
-2628 2713 0
246 -2628 2629 0
-2629 2714 0
247 -2629 2630 0
-2630 2715 0
248 -2630 2631 0
-2631 2716 0
249 -2631 2632 0
-2632 2717 0
250 -2632 2633 0
-2633 2718 0
251 -2633 2634 0
-2634 2719 0
252 -2634 2635 0
-2635 2720 0
253 -2635 2636 0
-2636 2721 0
254 -2636 2637 0
-2637 2722 0
255 -2637 2638 0
-2638 2723 0
256 -2638 0
172 2639 0
-2639 2724 0
173 -2639 2640 0
-2640 2725 0
174 -2640 2641 0
-2641 2726 0
175 -2641 2642 0
-2642 2727 0
176 -2642 2643 0
-2643 2728 0
177 -2643 2644 0
-2644 2729 0
178 -2644 2645 0
-2645 2730 0
179 -2645 2646 0
-2646 2731 0
180 -2646 2647 0
-2647 2732 0
181 -2647 2648 0
-2648 2733 0
182 -2648 2649 0
-2649 2734 0
183 -2649 2650 0
-2650 2735 0
184 -2650 2651 0
-2651 2736 0
185 -2651 2652 0
-2652 2737 0
186 -2652 2653 0
-2653 2738 0
187 -2653 2654 0
-2654 2739 0
188 -2654 2655 0
-2655 2740 0
189 -2655 2656 0
-2656 2741 0
190 -2656 2657 0
-2657 2742 0
191 -2657 2658 0
-2658 2743 0
192 -2658 2659 0
-2659 2744 0
193 -2659 2660 0
-2660 2745 0
194 -2660 2661 0
-2661 2746 0
195 -2661 2662 0
-2662 2747 0
196 -2662 2663 0
-2663 2748 0
197 -2663 2664 0
-2664 2749 0
198 -2664 2665 0
-2665 2750 0
199 -2665 2666 0
-2666 2751 0
200 -2666 2667 0
-2667 2752 0
201 -2667 2668 0
-2668 2753 0
202 -2668 2669 0
-2669 2754 0
203 -2669 2670 0
-2670 2755 0
204 -2670 2671 0
-2671 2756 0
205 -2671 2672 0
-2672 2757 0
206 -2672 2673 0
-2673 2758 0
207 -2673 2674 0
-2674 2759 0
208 -2674 2675 0
-2675 2760 0
209 -2675 2676 0
-2676 2761 0
210 -2676 2677 0
-2677 2762 0
211 -2677 2678 0
-2678 2763 0
212 -2678 2679 0
-2679 2764 0
213 -2679 2680 0
-2680 2765 0
214 -2680 2681 0
-2681 2766 0
215 -2681 2682 0
-2682 2767 0
216 -2682 2683 0
-2683 2768 0
217 -2683 2684 0
-2684 2769 0
218 -2684 2685 0
-2685 2770 0
219 -2685 2686 0
-2686 2771 0
220 -2686 2687 0
-2687 2772 0
221 -2687 2688 0
-2688 2773 0
222 -2688 2689 0
-2689 2774 0
223 -2689 2690 0
-2690 2775 0
224 -2690 2691 0
-2691 2776 0
225 -2691 2692 0
-2692 2777 0
226 -2692 2693 0
-2693 2778 0
227 -2693 2694 0
-2694 2779 0
228 -2694 2695 0
-2695 2780 0
229 -2695 2696 0
-2696 2781 0
230 -2696 2697 0
-2697 2782 0
231 -2697 2698 0
-2698 2783 0
232 -2698 2699 0
-2699 2784 0
233 -2699 2700 0
-2700 2785 0
234 -2700 2701 0
-2701 2786 0
235 -2701 2702 0
-2702 2787 0
236 -2702 2703 0
-2703 2788 0
237 -2703 2704 0
-2704 2789 0
238 -2704 2705 0
-2705 2790 0
239 -2705 2706 0
-2706 2791 0
240 -2706 2707 0
-2707 2792 0
241 -2707 2708 0
-2708 2793 0
242 -2708 2709 0
-2709 2794 0
243 -2709 2710 0
-2710 2795 0
244 -2710 2711 0
-2711 2796 0
245 -2711 2712 0
-2712 2797 0
246 -2712 2713 0
-2713 2798 0
247 -2713 2714 0
-2714 2799 0
248 -2714 2715 0
-2715 2800 0
249 -2715 2716 0
-2716 2801 0
250 -2716 2717 0
-2717 2802 0
251 -2717 2718 0
-2718 2803 0
252 -2718 2719 0
-2719 2804 0
253 -2719 2720 0
-2720 2805 0
254 -2720 2721 0
-2721 2806 0
255 -2721 2722 0
-2722 2807 0
256 -2722 2723 0
-2723 2808 0
257 -2723 0
173 2724 0
174 -2724 2725 0
175 -2725 2726 0
176 -2726 2727 0
177 -2727 2728 0
178 -2728 2729 0
179 -2729 2730 0
180 -2730 2731 0
181 -2731 2732 0
182 -2732 2733 0
183 -2733 2734 0
184 -2734 2735 0
185 -2735 2736 0
186 -2736 2737 0
187 -2737 2738 0
188 -2738 2739 0
189 -2739 2740 0
190 -2740 2741 0
191 -2741 2742 0
192 -2742 2743 0
193 -2743 2744 0
194 -2744 2745 0
195 -2745 2746 0
196 -2746 2747 0
197 -2747 2748 0
198 -2748 2749 0
199 -2749 2750 0
200 -2750 2751 0
201 -2751 2752 0
202 -2752 2753 0
203 -2753 2754 0
204 -2754 2755 0
205 -2755 2756 0
206 -2756 2757 0
207 -2757 2758 0
208 -2758 2759 0
209 -2759 2760 0
210 -2760 2761 0
211 -2761 2762 0
212 -2762 2763 0
213 -2763 2764 0
214 -2764 2765 0
215 -2765 2766 0
216 -2766 2767 0
217 -2767 2768 0
218 -2768 2769 0
219 -2769 2770 0
220 -2770 2771 0
221 -2771 2772 0
222 -2772 2773 0
223 -2773 2774 0
224 -2774 2775 0
225 -2775 2776 0
226 -2776 2777 0
227 -2777 2778 0
228 -2778 2779 0
229 -2779 2780 0
230 -2780 2781 0
231 -2781 2782 0
232 -2782 2783 0
233 -2783 2784 0
234 -2784 2785 0
235 -2785 2786 0
236 -2786 2787 0
237 -2787 2788 0
238 -2788 2789 0
239 -2789 2790 0
240 -2790 2791 0
241 -2791 2792 0
242 -2792 2793 0
243 -2793 2794 0
244 -2794 2795 0
245 -2795 2796 0
246 -2796 2797 0
247 -2797 2798 0
248 -2798 2799 0
249 -2799 2800 0
250 -2800 2801 0
251 -2801 2802 0
252 -2802 2803 0
253 -2803 2804 0
254 -2804 2805 0
255 -2805 2806 0
256 -2806 2807 0
257 -2807 2808 0
258 -2808 0
