c peaceable queens n=7 m=8 symbreak=False
c UNSAT here + verified witness at m=7 proves a(7)=7
c generated by encode.py, solved by cadical --plain
p cnf 754 2247
-1 -50 0
-2 -51 0
-3 -52 0
-4 -53 0
-5 -54 0
-6 -55 0
-7 -56 0
-8 -57 0
-9 -58 0
-10 -59 0
-11 -60 0
-12 -61 0
-13 -62 0
-14 -63 0
-15 -64 0
-16 -65 0
-17 -66 0
-18 -67 0
-19 -68 0
-20 -69 0
-21 -70 0
-22 -71 0
-23 -72 0
-24 -73 0
-25 -74 0
-26 -75 0
-27 -76 0
-28 -77 0
-29 -78 0
-30 -79 0
-31 -80 0
-32 -81 0
-33 -82 0
-34 -83 0
-35 -84 0
-36 -85 0
-37 -86 0
-38 -87 0
-39 -88 0
-40 -89 0
-41 -90 0
-42 -91 0
-43 -92 0
-44 -93 0
-45 -94 0
-46 -95 0
-47 -96 0
-48 -97 0
-49 -98 0
-1 -51 0
-50 -2 0
-1 -52 0
-50 -3 0
-1 -53 0
-50 -4 0
-1 -54 0
-50 -5 0
-1 -55 0
-50 -6 0
-1 -56 0
-50 -7 0
-1 -57 0
-50 -8 0
-1 -58 0
-50 -9 0
-1 -64 0
-50 -15 0
-1 -66 0
-50 -17 0
-1 -71 0
-50 -22 0
-1 -74 0
-50 -25 0
-1 -78 0
-50 -29 0
-1 -82 0
-50 -33 0
-1 -85 0
-50 -36 0
-1 -90 0
-50 -41 0
-1 -92 0
-50 -43 0
-1 -98 0
-50 -49 0
-2 -52 0
-51 -3 0
-2 -53 0
-51 -4 0
-2 -54 0
-51 -5 0
-2 -55 0
-51 -6 0
-2 -56 0
-51 -7 0
-2 -57 0
-51 -8 0
-2 -58 0
-51 -9 0
-2 -59 0
-51 -10 0
-2 -65 0
-51 -16 0
-2 -67 0
-51 -18 0
-2 -72 0
-51 -23 0
-2 -75 0
-51 -26 0
-2 -79 0
-51 -30 0
-2 -83 0
-51 -34 0
-2 -86 0
-51 -37 0
-2 -91 0
-51 -42 0
-2 -93 0
-51 -44 0
-3 -53 0
-52 -4 0
-3 -54 0
-52 -5 0
-3 -55 0
-52 -6 0
-3 -56 0
-52 -7 0
-3 -58 0
-52 -9 0
-3 -59 0
-52 -10 0
-3 -60 0
-52 -11 0
-3 -64 0
-52 -15 0
-3 -66 0
-52 -17 0
-3 -68 0
-52 -19 0
-3 -73 0
-52 -24 0
-3 -76 0
-52 -27 0
-3 -80 0
-52 -31 0
-3 -84 0
-52 -35 0
-3 -87 0
-52 -38 0
-3 -94 0
-52 -45 0
-4 -54 0
-53 -5 0
-4 -55 0
-53 -6 0
-4 -56 0
-53 -7 0
-4 -59 0
-53 -10 0
-4 -60 0
-53 -11 0
-4 -61 0
-53 -12 0
-4 -65 0
-53 -16 0
-4 -67 0
-53 -18 0
-4 -69 0
-53 -20 0
-4 -71 0
-53 -22 0
-4 -74 0
-53 -25 0
-4 -77 0
-53 -28 0
-4 -81 0
-53 -32 0
-4 -88 0
-53 -39 0
-4 -95 0
-53 -46 0
-5 -55 0
-54 -6 0
-5 -56 0
-54 -7 0
-5 -60 0
-54 -11 0
-5 -61 0
-54 -12 0
-5 -62 0
-54 -13 0
-5 -66 0
-54 -17 0
-5 -68 0
-54 -19 0
-5 -70 0
-54 -21 0
-5 -72 0
-54 -23 0
-5 -75 0
-54 -26 0
-5 -78 0
-54 -29 0
-5 -82 0
-54 -33 0
-5 -89 0
-54 -40 0
-5 -96 0
-54 -47 0
-6 -56 0
-55 -7 0
-6 -61 0
-55 -12 0
-6 -62 0
-55 -13 0
-6 -63 0
-55 -14 0
-6 -67 0
-55 -18 0
-6 -69 0
-55 -20 0
-6 -73 0
-55 -24 0
-6 -76 0
-55 -27 0
-6 -79 0
-55 -30 0
-6 -83 0
-55 -34 0
-6 -85 0
-55 -36 0
-6 -90 0
-55 -41 0
-6 -97 0
-55 -48 0
-7 -62 0
-56 -13 0
-7 -63 0
-56 -14 0
-7 -68 0
-56 -19 0
-7 -70 0
-56 -21 0
-7 -74 0
-56 -25 0
-7 -77 0
-56 -28 0
-7 -80 0
-56 -31 0
-7 -84 0
-56 -35 0
-7 -86 0
-56 -37 0
-7 -91 0
-56 -42 0
-7 -92 0
-56 -43 0
-7 -98 0
-56 -49 0
-8 -58 0
-57 -9 0
-8 -59 0
-57 -10 0
-8 -60 0
-57 -11 0
-8 -61 0
-57 -12 0
-8 -62 0
-57 -13 0
-8 -63 0
-57 -14 0
-8 -64 0
-57 -15 0
-8 -65 0
-57 -16 0
-8 -71 0
-57 -22 0
-8 -73 0
-57 -24 0
-8 -78 0
-57 -29 0
-8 -81 0
-57 -32 0
-8 -85 0
-57 -36 0
-8 -89 0
-57 -40 0
-8 -92 0
-57 -43 0
-8 -97 0
-57 -48 0
-9 -59 0
-58 -10 0
-9 -60 0
-58 -11 0
-9 -61 0
-58 -12 0
-9 -62 0
-58 -13 0
-9 -63 0
-58 -14 0
-9 -64 0
-58 -15 0
-9 -65 0
-58 -16 0
-9 -66 0
-58 -17 0
-9 -72 0
-58 -23 0
-9 -74 0
-58 -25 0
-9 -79 0
-58 -30 0
-9 -82 0
-58 -33 0
-9 -86 0
-58 -37 0
-9 -90 0
-58 -41 0
-9 -93 0
-58 -44 0
-9 -98 0
-58 -49 0
-10 -60 0
-59 -11 0
-10 -61 0
-59 -12 0
-10 -62 0
-59 -13 0
-10 -63 0
-59 -14 0
-10 -65 0
-59 -16 0
-10 -66 0
-59 -17 0
-10 -67 0
-59 -18 0
-10 -71 0
-59 -22 0
-10 -73 0
-59 -24 0
-10 -75 0
-59 -26 0
-10 -80 0
-59 -31 0
-10 -83 0
-59 -34 0
-10 -87 0
-59 -38 0
-10 -91 0
-59 -42 0
-10 -94 0
-59 -45 0
-11 -61 0
-60 -12 0
-11 -62 0
-60 -13 0
-11 -63 0
-60 -14 0
-11 -66 0
-60 -17 0
-11 -67 0
-60 -18 0
-11 -68 0
-60 -19 0
-11 -72 0
-60 -23 0
-11 -74 0
-60 -25 0
-11 -76 0
-60 -27 0
-11 -78 0
-60 -29 0
-11 -81 0
-60 -32 0
-11 -84 0
-60 -35 0
-11 -88 0
-60 -39 0
-11 -95 0
-60 -46 0
-12 -62 0
-61 -13 0
-12 -63 0
-61 -14 0
-12 -67 0
-61 -18 0
-12 -68 0
-61 -19 0
-12 -69 0
-61 -20 0
-12 -73 0
-61 -24 0
-12 -75 0
-61 -26 0
-12 -77 0
-61 -28 0
-12 -79 0
-61 -30 0
-12 -82 0
-61 -33 0
-12 -85 0
-61 -36 0
-12 -89 0
-61 -40 0
-12 -96 0
-61 -47 0
-13 -63 0
-62 -14 0
-13 -68 0
-62 -19 0
-13 -69 0
-62 -20 0
-13 -70 0
-62 -21 0
-13 -74 0
-62 -25 0
-13 -76 0
-62 -27 0
-13 -80 0
-62 -31 0
-13 -83 0
-62 -34 0
-13 -86 0
-62 -37 0
-13 -90 0
-62 -41 0
-13 -92 0
-62 -43 0
-13 -97 0
-62 -48 0
-14 -69 0
-63 -20 0
-14 -70 0
-63 -21 0
-14 -75 0
-63 -26 0
-14 -77 0
-63 -28 0
-14 -81 0
-63 -32 0
-14 -84 0
-63 -35 0
-14 -87 0
-63 -38 0
-14 -91 0
-63 -42 0
-14 -93 0
-63 -44 0
-14 -98 0
-63 -49 0
-15 -65 0
-64 -16 0
-15 -66 0
-64 -17 0
-15 -67 0
-64 -18 0
-15 -68 0
-64 -19 0
-15 -69 0
-64 -20 0
-15 -70 0
-64 -21 0
-15 -71 0
-64 -22 0
-15 -72 0
-64 -23 0
-15 -78 0
-64 -29 0
-15 -80 0
-64 -31 0
-15 -85 0
-64 -36 0
-15 -88 0
-64 -39 0
-15 -92 0
-64 -43 0
-15 -96 0
-64 -47 0
-16 -66 0
-65 -17 0
-16 -67 0
-65 -18 0
-16 -68 0
-65 -19 0
-16 -69 0
-65 -20 0
-16 -70 0
-65 -21 0
-16 -71 0
-65 -22 0
-16 -72 0
-65 -23 0
-16 -73 0
-65 -24 0
-16 -79 0
-65 -30 0
-16 -81 0
-65 -32 0
-16 -86 0
-65 -37 0
-16 -89 0
-65 -40 0
-16 -93 0
-65 -44 0
-16 -97 0
-65 -48 0
-17 -67 0
-66 -18 0
-17 -68 0
-66 -19 0
-17 -69 0
-66 -20 0
-17 -70 0
-66 -21 0
-17 -72 0
-66 -23 0
-17 -73 0
-66 -24 0
-17 -74 0
-66 -25 0
-17 -78 0
-66 -29 0
-17 -80 0
-66 -31 0
-17 -82 0
-66 -33 0
-17 -87 0
-66 -38 0
-17 -90 0
-66 -41 0
-17 -94 0
-66 -45 0
-17 -98 0
-66 -49 0
-18 -68 0
-67 -19 0
-18 -69 0
-67 -20 0
-18 -70 0
-67 -21 0
-18 -73 0
-67 -24 0
-18 -74 0
-67 -25 0
-18 -75 0
-67 -26 0
-18 -79 0
-67 -30 0
-18 -81 0
-67 -32 0
-18 -83 0
-67 -34 0
-18 -85 0
-67 -36 0
-18 -88 0
-67 -39 0
-18 -91 0
-67 -42 0
-18 -95 0
-67 -46 0
-19 -69 0
-68 -20 0
-19 -70 0
-68 -21 0
-19 -74 0
-68 -25 0
-19 -75 0
-68 -26 0
-19 -76 0
-68 -27 0
-19 -80 0
-68 -31 0
-19 -82 0
-68 -33 0
-19 -84 0
-68 -35 0
-19 -86 0
-68 -37 0
-19 -89 0
-68 -40 0
-19 -92 0
-68 -43 0
-19 -96 0
-68 -47 0
-20 -70 0
-69 -21 0
-20 -75 0
-69 -26 0
-20 -76 0
-69 -27 0
-20 -77 0
-69 -28 0
-20 -81 0
-69 -32 0
-20 -83 0
-69 -34 0
-20 -87 0
-69 -38 0
-20 -90 0
-69 -41 0
-20 -93 0
-69 -44 0
-20 -97 0
-69 -48 0
-21 -76 0
-70 -27 0
-21 -77 0
-70 -28 0
-21 -82 0
-70 -33 0
-21 -84 0
-70 -35 0
-21 -88 0
-70 -39 0
-21 -91 0
-70 -42 0
-21 -94 0
-70 -45 0
-21 -98 0
-70 -49 0
-22 -72 0
-71 -23 0
-22 -73 0
-71 -24 0
-22 -74 0
-71 -25 0
-22 -75 0
-71 -26 0
-22 -76 0
-71 -27 0
-22 -77 0
-71 -28 0
-22 -78 0
-71 -29 0
-22 -79 0
-71 -30 0
-22 -85 0
-71 -36 0
-22 -87 0
-71 -38 0
-22 -92 0
-71 -43 0
-22 -95 0
-71 -46 0
-23 -73 0
-72 -24 0
-23 -74 0
-72 -25 0
-23 -75 0
-72 -26 0
-23 -76 0
-72 -27 0
-23 -77 0
-72 -28 0
-23 -78 0
-72 -29 0
-23 -79 0
-72 -30 0
-23 -80 0
-72 -31 0
-23 -86 0
-72 -37 0
-23 -88 0
-72 -39 0
-23 -93 0
-72 -44 0
-23 -96 0
-72 -47 0
-24 -74 0
-73 -25 0
-24 -75 0
-73 -26 0
-24 -76 0
-73 -27 0
-24 -77 0
-73 -28 0
-24 -79 0
-73 -30 0
-24 -80 0
-73 -31 0
-24 -81 0
-73 -32 0
-24 -85 0
-73 -36 0
-24 -87 0
-73 -38 0
-24 -89 0
-73 -40 0
-24 -94 0
-73 -45 0
-24 -97 0
-73 -48 0
-25 -75 0
-74 -26 0
-25 -76 0
-74 -27 0
-25 -77 0
-74 -28 0
-25 -80 0
-74 -31 0
-25 -81 0
-74 -32 0
-25 -82 0
-74 -33 0
-25 -86 0
-74 -37 0
-25 -88 0
-74 -39 0
-25 -90 0
-74 -41 0
-25 -92 0
-74 -43 0
-25 -95 0
-74 -46 0
-25 -98 0
-74 -49 0
-26 -76 0
-75 -27 0
-26 -77 0
-75 -28 0
-26 -81 0
-75 -32 0
-26 -82 0
-75 -33 0
-26 -83 0
-75 -34 0
-26 -87 0
-75 -38 0
-26 -89 0
-75 -40 0
-26 -91 0
-75 -42 0
-26 -93 0
-75 -44 0
-26 -96 0
-75 -47 0
-27 -77 0
-76 -28 0
-27 -82 0
-76 -33 0
-27 -83 0
-76 -34 0
-27 -84 0
-76 -35 0
-27 -88 0
-76 -39 0
-27 -90 0
-76 -41 0
-27 -94 0
-76 -45 0
-27 -97 0
-76 -48 0
-28 -83 0
-77 -34 0
-28 -84 0
-77 -35 0
-28 -89 0
-77 -40 0
-28 -91 0
-77 -42 0
-28 -95 0
-77 -46 0
-28 -98 0
-77 -49 0
-29 -79 0
-78 -30 0
-29 -80 0
-78 -31 0
-29 -81 0
-78 -32 0
-29 -82 0
-78 -33 0
-29 -83 0
-78 -34 0
-29 -84 0
-78 -35 0
-29 -85 0
-78 -36 0
-29 -86 0
-78 -37 0
-29 -92 0
-78 -43 0
-29 -94 0
-78 -45 0
-30 -80 0
-79 -31 0
-30 -81 0
-79 -32 0
-30 -82 0
-79 -33 0
-30 -83 0
-79 -34 0
-30 -84 0
-79 -35 0
-30 -85 0
-79 -36 0
-30 -86 0
-79 -37 0
-30 -87 0
-79 -38 0
-30 -93 0
-79 -44 0
-30 -95 0
-79 -46 0
-31 -81 0
-80 -32 0
-31 -82 0
-80 -33 0
-31 -83 0
-80 -34 0
-31 -84 0
-80 -35 0
-31 -86 0
-80 -37 0
-31 -87 0
-80 -38 0
-31 -88 0
-80 -39 0
-31 -92 0
-80 -43 0
-31 -94 0
-80 -45 0
-31 -96 0
-80 -47 0
-32 -82 0
-81 -33 0
-32 -83 0
-81 -34 0
-32 -84 0
-81 -35 0
-32 -87 0
-81 -38 0
-32 -88 0
-81 -39 0
-32 -89 0
-81 -40 0
-32 -93 0
-81 -44 0
-32 -95 0
-81 -46 0
-32 -97 0
-81 -48 0
-33 -83 0
-82 -34 0
-33 -84 0
-82 -35 0
-33 -88 0
-82 -39 0
-33 -89 0
-82 -40 0
-33 -90 0
-82 -41 0
-33 -94 0
-82 -45 0
-33 -96 0
-82 -47 0
-33 -98 0
-82 -49 0
-34 -84 0
-83 -35 0
-34 -89 0
-83 -40 0
-34 -90 0
-83 -41 0
-34 -91 0
-83 -42 0
-34 -95 0
-83 -46 0
-34 -97 0
-83 -48 0
-35 -90 0
-84 -41 0
-35 -91 0
-84 -42 0
-35 -96 0
-84 -47 0
-35 -98 0
-84 -49 0
-36 -86 0
-85 -37 0
-36 -87 0
-85 -38 0
-36 -88 0
-85 -39 0
-36 -89 0
-85 -40 0
-36 -90 0
-85 -41 0
-36 -91 0
-85 -42 0
-36 -92 0
-85 -43 0
-36 -93 0
-85 -44 0
-37 -87 0
-86 -38 0
-37 -88 0
-86 -39 0
-37 -89 0
-86 -40 0
-37 -90 0
-86 -41 0
-37 -91 0
-86 -42 0
-37 -92 0
-86 -43 0
-37 -93 0
-86 -44 0
-37 -94 0
-86 -45 0
-38 -88 0
-87 -39 0
-38 -89 0
-87 -40 0
-38 -90 0
-87 -41 0
-38 -91 0
-87 -42 0
-38 -93 0
-87 -44 0
-38 -94 0
-87 -45 0
-38 -95 0
-87 -46 0
-39 -89 0
-88 -40 0
-39 -90 0
-88 -41 0
-39 -91 0
-88 -42 0
-39 -94 0
-88 -45 0
-39 -95 0
-88 -46 0
-39 -96 0
-88 -47 0
-40 -90 0
-89 -41 0
-40 -91 0
-89 -42 0
-40 -95 0
-89 -46 0
-40 -96 0
-89 -47 0
-40 -97 0
-89 -48 0
-41 -91 0
-90 -42 0
-41 -96 0
-90 -47 0
-41 -97 0
-90 -48 0
-41 -98 0
-90 -49 0
-42 -97 0
-91 -48 0
-42 -98 0
-91 -49 0
-43 -93 0
-92 -44 0
-43 -94 0
-92 -45 0
-43 -95 0
-92 -46 0
-43 -96 0
-92 -47 0
-43 -97 0
-92 -48 0
-43 -98 0
-92 -49 0
-44 -94 0
-93 -45 0
-44 -95 0
-93 -46 0
-44 -96 0
-93 -47 0
-44 -97 0
-93 -48 0
-44 -98 0
-93 -49 0
-45 -95 0
-94 -46 0
-45 -96 0
-94 -47 0
-45 -97 0
-94 -48 0
-45 -98 0
-94 -49 0
-46 -96 0
-95 -47 0
-46 -97 0
-95 -48 0
-46 -98 0
-95 -49 0
-47 -97 0
-96 -48 0
-47 -98 0
-96 -49 0
-48 -98 0
-97 -49 0
1 99 0
-99 100 0
2 -99 101 0
-101 102 0
3 -101 103 0
-103 104 0
4 -103 105 0
-105 106 0
5 -105 107 0
-107 108 0
6 -107 109 0
-109 110 0
7 -109 111 0
-111 112 0
8 -111 113 0
-113 114 0
9 -113 115 0
-115 116 0
10 -115 117 0
-117 118 0
11 -117 119 0
-119 120 0
12 -119 121 0
-121 122 0
13 -121 123 0
-123 124 0
14 -123 125 0
-125 126 0
15 -125 127 0
-127 128 0
16 -127 129 0
-129 130 0
17 -129 131 0
-131 132 0
18 -131 133 0
-133 134 0
19 -133 135 0
-135 136 0
20 -135 137 0
-137 138 0
21 -137 139 0
-139 140 0
22 -139 141 0
-141 142 0
23 -141 143 0
-143 144 0
24 -143 145 0
-145 146 0
25 -145 147 0
-147 148 0
26 -147 149 0
-149 150 0
27 -149 151 0
-151 152 0
28 -151 153 0
-153 154 0
29 -153 155 0
-155 156 0
30 -155 157 0
-157 158 0
31 -157 159 0
-159 160 0
32 -159 161 0
-161 162 0
33 -161 163 0
-163 164 0
34 -163 165 0
-165 166 0
35 -165 167 0
-167 168 0
36 -167 169 0
-169 170 0
37 -169 171 0
-171 172 0
38 -171 173 0
-173 174 0
39 -173 175 0
-175 176 0
40 -175 177 0
-177 178 0
41 -177 179 0
-179 180 0
42 -179 0
2 100 0
-100 181 0
3 -100 102 0
-102 182 0
4 -102 104 0
-104 183 0
5 -104 106 0
-106 184 0
6 -106 108 0
-108 185 0
7 -108 110 0
-110 186 0
8 -110 112 0
-112 187 0
9 -112 114 0
-114 188 0
10 -114 116 0
-116 189 0
11 -116 118 0
-118 190 0
12 -118 120 0
-120 191 0
13 -120 122 0
-122 192 0
14 -122 124 0
-124 193 0
15 -124 126 0
-126 194 0
16 -126 128 0
-128 195 0
17 -128 130 0
-130 196 0
18 -130 132 0
-132 197 0
19 -132 134 0
-134 198 0
20 -134 136 0
-136 199 0
21 -136 138 0
-138 200 0
22 -138 140 0
-140 201 0
23 -140 142 0
-142 202 0
24 -142 144 0
-144 203 0
25 -144 146 0
-146 204 0
26 -146 148 0
-148 205 0
27 -148 150 0
-150 206 0
28 -150 152 0
-152 207 0
29 -152 154 0
-154 208 0
30 -154 156 0
-156 209 0
31 -156 158 0
-158 210 0
32 -158 160 0
-160 211 0
33 -160 162 0
-162 212 0
34 -162 164 0
-164 213 0
35 -164 166 0
-166 214 0
36 -166 168 0
-168 215 0
37 -168 170 0
-170 216 0
38 -170 172 0
-172 217 0
39 -172 174 0
-174 218 0
40 -174 176 0
-176 219 0
41 -176 178 0
-178 220 0
42 -178 180 0
-180 221 0
43 -180 0
3 181 0
-181 222 0
4 -181 182 0
-182 223 0
5 -182 183 0
-183 224 0
6 -183 184 0
-184 225 0
7 -184 185 0
-185 226 0
8 -185 186 0
-186 227 0
9 -186 187 0
-187 228 0
10 -187 188 0
-188 229 0
11 -188 189 0
-189 230 0
12 -189 190 0
-190 231 0
13 -190 191 0
-191 232 0
14 -191 192 0
-192 233 0
15 -192 193 0
-193 234 0
16 -193 194 0
-194 235 0
17 -194 195 0
-195 236 0
18 -195 196 0
-196 237 0
19 -196 197 0
-197 238 0
20 -197 198 0
-198 239 0
21 -198 199 0
-199 240 0
22 -199 200 0
-200 241 0
23 -200 201 0
-201 242 0
24 -201 202 0
-202 243 0
25 -202 203 0
-203 244 0
26 -203 204 0
-204 245 0
27 -204 205 0
-205 246 0
28 -205 206 0
-206 247 0
29 -206 207 0
-207 248 0
30 -207 208 0
-208 249 0
31 -208 209 0
-209 250 0
32 -209 210 0
-210 251 0
33 -210 211 0
-211 252 0
34 -211 212 0
-212 253 0
35 -212 213 0
-213 254 0
36 -213 214 0
-214 255 0
37 -214 215 0
-215 256 0
38 -215 216 0
-216 257 0
39 -216 217 0
-217 258 0
40 -217 218 0
-218 259 0
41 -218 219 0
-219 260 0
42 -219 220 0
-220 261 0
43 -220 221 0
-221 262 0
44 -221 0
4 222 0
-222 263 0
5 -222 223 0
-223 264 0
6 -223 224 0
-224 265 0
7 -224 225 0
-225 266 0
8 -225 226 0
-226 267 0
9 -226 227 0
-227 268 0
10 -227 228 0
-228 269 0
11 -228 229 0
-229 270 0
12 -229 230 0
-230 271 0
13 -230 231 0
-231 272 0
14 -231 232 0
-232 273 0
15 -232 233 0
-233 274 0
16 -233 234 0
-234 275 0
17 -234 235 0
-235 276 0
18 -235 236 0
-236 277 0
19 -236 237 0
-237 278 0
20 -237 238 0
-238 279 0
21 -238 239 0
-239 280 0
22 -239 240 0
-240 281 0
23 -240 241 0
-241 282 0
24 -241 242 0
-242 283 0
25 -242 243 0
-243 284 0
26 -243 244 0
-244 285 0
27 -244 245 0
-245 286 0
28 -245 246 0
-246 287 0
29 -246 247 0
-247 288 0
30 -247 248 0
-248 289 0
31 -248 249 0
-249 290 0
32 -249 250 0
-250 291 0
33 -250 251 0
-251 292 0
34 -251 252 0
-252 293 0
35 -252 253 0
-253 294 0
36 -253 254 0
-254 295 0
37 -254 255 0
-255 296 0
38 -255 256 0
-256 297 0
39 -256 257 0
-257 298 0
40 -257 258 0
-258 299 0
41 -258 259 0
-259 300 0
42 -259 260 0
-260 301 0
43 -260 261 0
-261 302 0
44 -261 262 0
-262 303 0
45 -262 0
5 263 0
-263 304 0
6 -263 264 0
-264 305 0
7 -264 265 0
-265 306 0
8 -265 266 0
-266 307 0
9 -266 267 0
-267 308 0
10 -267 268 0
-268 309 0
11 -268 269 0
-269 310 0
12 -269 270 0
-270 311 0
13 -270 271 0
-271 312 0
14 -271 272 0
-272 313 0
15 -272 273 0
-273 314 0
16 -273 274 0
-274 315 0
17 -274 275 0
-275 316 0
18 -275 276 0
-276 317 0
19 -276 277 0
-277 318 0
20 -277 278 0
-278 319 0
21 -278 279 0
-279 320 0
22 -279 280 0
-280 321 0
23 -280 281 0
-281 322 0
24 -281 282 0
-282 323 0
25 -282 283 0
-283 324 0
26 -283 284 0
-284 325 0
27 -284 285 0
-285 326 0
28 -285 286 0
-286 327 0
29 -286 287 0
-287 328 0
30 -287 288 0
-288 329 0
31 -288 289 0
-289 330 0
32 -289 290 0
-290 331 0
33 -290 291 0
-291 332 0
34 -291 292 0
-292 333 0
35 -292 293 0
-293 334 0
36 -293 294 0
-294 335 0
37 -294 295 0
-295 336 0
38 -295 296 0
-296 337 0
39 -296 297 0
-297 338 0
40 -297 298 0
-298 339 0
41 -298 299 0
-299 340 0
42 -299 300 0
-300 341 0
43 -300 301 0
-301 342 0
44 -301 302 0
-302 343 0
45 -302 303 0
-303 344 0
46 -303 0
6 304 0
-304 345 0
7 -304 305 0
-305 346 0
8 -305 306 0
-306 347 0
9 -306 307 0
-307 348 0
10 -307 308 0
-308 349 0
11 -308 309 0
-309 350 0
12 -309 310 0
-310 351 0
13 -310 311 0
-311 352 0
14 -311 312 0
-312 353 0
15 -312 313 0
-313 354 0
16 -313 314 0
-314 355 0
17 -314 315 0
-315 356 0
18 -315 316 0
-316 357 0
19 -316 317 0
-317 358 0
20 -317 318 0
-318 359 0
21 -318 319 0
-319 360 0
22 -319 320 0
-320 361 0
23 -320 321 0
-321 362 0
24 -321 322 0
-322 363 0
25 -322 323 0
-323 364 0
26 -323 324 0
-324 365 0
27 -324 325 0
-325 366 0
28 -325 326 0
-326 367 0
29 -326 327 0
-327 368 0
30 -327 328 0
-328 369 0
31 -328 329 0
-329 370 0
32 -329 330 0
-330 371 0
33 -330 331 0
-331 372 0
34 -331 332 0
-332 373 0
35 -332 333 0
-333 374 0
36 -333 334 0
-334 375 0
37 -334 335 0
-335 376 0
38 -335 336 0
-336 377 0
39 -336 337 0
-337 378 0
40 -337 338 0
-338 379 0
41 -338 339 0
-339 380 0
42 -339 340 0
-340 381 0
43 -340 341 0
-341 382 0
44 -341 342 0
-342 383 0
45 -342 343 0
-343 384 0
46 -343 344 0
-344 385 0
47 -344 0
7 345 0
-345 386 0
8 -345 346 0
-346 387 0
9 -346 347 0
-347 388 0
10 -347 348 0
-348 389 0
11 -348 349 0
-349 390 0
12 -349 350 0
-350 391 0
13 -350 351 0
-351 392 0
14 -351 352 0
-352 393 0
15 -352 353 0
-353 394 0
16 -353 354 0
-354 395 0
17 -354 355 0
-355 396 0
18 -355 356 0
-356 397 0
19 -356 357 0
-357 398 0
20 -357 358 0
-358 399 0
21 -358 359 0
-359 400 0
22 -359 360 0
-360 401 0
23 -360 361 0
-361 402 0
24 -361 362 0
-362 403 0
25 -362 363 0
-363 404 0
26 -363 364 0
-364 405 0
27 -364 365 0
-365 406 0
28 -365 366 0
-366 407 0
29 -366 367 0
-367 408 0
30 -367 368 0
-368 409 0
31 -368 369 0
-369 410 0
32 -369 370 0
-370 411 0
33 -370 371 0
-371 412 0
34 -371 372 0
-372 413 0
35 -372 373 0
-373 414 0
36 -373 374 0
-374 415 0
37 -374 375 0
-375 416 0
38 -375 376 0
-376 417 0
39 -376 377 0
-377 418 0
40 -377 378 0
-378 419 0
41 -378 379 0
-379 420 0
42 -379 380 0
-380 421 0
43 -380 381 0
-381 422 0
44 -381 382 0
-382 423 0
45 -382 383 0
-383 424 0
46 -383 384 0
-384 425 0
47 -384 385 0
-385 426 0
48 -385 0
8 386 0
9 -386 387 0
10 -387 388 0
11 -388 389 0
12 -389 390 0
13 -390 391 0
14 -391 392 0
15 -392 393 0
16 -393 394 0
17 -394 395 0
18 -395 396 0
19 -396 397 0
20 -397 398 0
21 -398 399 0
22 -399 400 0
23 -400 401 0
24 -401 402 0
25 -402 403 0
26 -403 404 0
27 -404 405 0
28 -405 406 0
29 -406 407 0
30 -407 408 0
31 -408 409 0
32 -409 410 0
33 -410 411 0
34 -411 412 0
35 -412 413 0
36 -413 414 0
37 -414 415 0
38 -415 416 0
39 -416 417 0
40 -417 418 0
41 -418 419 0
42 -419 420 0
43 -420 421 0
44 -421 422 0
45 -422 423 0
46 -423 424 0
47 -424 425 0
48 -425 426 0
49 -426 0
50 427 0
-427 428 0
51 -427 429 0
-429 430 0
52 -429 431 0
-431 432 0
53 -431 433 0
-433 434 0
54 -433 435 0
-435 436 0
55 -435 437 0
-437 438 0
56 -437 439 0
-439 440 0
57 -439 441 0
-441 442 0
58 -441 443 0
-443 444 0
59 -443 445 0
-445 446 0
60 -445 447 0
-447 448 0
61 -447 449 0
-449 450 0
62 -449 451 0
-451 452 0
63 -451 453 0
-453 454 0
64 -453 455 0
-455 456 0
65 -455 457 0
-457 458 0
66 -457 459 0
-459 460 0
67 -459 461 0
-461 462 0
68 -461 463 0
-463 464 0
69 -463 465 0
-465 466 0
70 -465 467 0
-467 468 0
71 -467 469 0
-469 470 0
72 -469 471 0
-471 472 0
73 -471 473 0
-473 474 0
74 -473 475 0
-475 476 0
75 -475 477 0
-477 478 0
76 -477 479 0
-479 480 0
77 -479 481 0
-481 482 0
78 -481 483 0
-483 484 0
79 -483 485 0
-485 486 0
80 -485 487 0
-487 488 0
81 -487 489 0
-489 490 0
82 -489 491 0
-491 492 0
83 -491 493 0
-493 494 0
84 -493 495 0
-495 496 0
85 -495 497 0
-497 498 0
86 -497 499 0
-499 500 0
87 -499 501 0
-501 502 0
88 -501 503 0
-503 504 0
89 -503 505 0
-505 506 0
90 -505 507 0
-507 508 0
91 -507 0
51 428 0
-428 509 0
52 -428 430 0
-430 510 0
53 -430 432 0
-432 511 0
54 -432 434 0
-434 512 0
55 -434 436 0
-436 513 0
56 -436 438 0
-438 514 0
57 -438 440 0
-440 515 0
58 -440 442 0
-442 516 0
59 -442 444 0
-444 517 0
60 -444 446 0
-446 518 0
61 -446 448 0
-448 519 0
62 -448 450 0
-450 520 0
63 -450 452 0
-452 521 0
64 -452 454 0
-454 522 0
65 -454 456 0
-456 523 0
66 -456 458 0
-458 524 0
67 -458 460 0
-460 525 0
68 -460 462 0
-462 526 0
69 -462 464 0
-464 527 0
70 -464 466 0
-466 528 0
71 -466 468 0
-468 529 0
72 -468 470 0
-470 530 0
73 -470 472 0
-472 531 0
74 -472 474 0
-474 532 0
75 -474 476 0
-476 533 0
76 -476 478 0
-478 534 0
77 -478 480 0
-480 535 0
78 -480 482 0
-482 536 0
79 -482 484 0
-484 537 0
80 -484 486 0
-486 538 0
81 -486 488 0
-488 539 0
82 -488 490 0
-490 540 0
83 -490 492 0
-492 541 0
84 -492 494 0
-494 542 0
85 -494 496 0
-496 543 0
86 -496 498 0
-498 544 0
87 -498 500 0
-500 545 0
88 -500 502 0
-502 546 0
89 -502 504 0
-504 547 0
90 -504 506 0
-506 548 0
91 -506 508 0
-508 549 0
92 -508 0
52 509 0
-509 550 0
53 -509 510 0
-510 551 0
54 -510 511 0
-511 552 0
55 -511 512 0
-512 553 0
56 -512 513 0
-513 554 0
57 -513 514 0
-514 555 0
58 -514 515 0
-515 556 0
59 -515 516 0
-516 557 0
60 -516 517 0
-517 558 0
61 -517 518 0
-518 559 0
62 -518 519 0
-519 560 0
63 -519 520 0
-520 561 0
64 -520 521 0
-521 562 0
65 -521 522 0
-522 563 0
66 -522 523 0
-523 564 0
67 -523 524 0
-524 565 0
68 -524 525 0
-525 566 0
69 -525 526 0
-526 567 0
70 -526 527 0
-527 568 0
71 -527 528 0
-528 569 0
72 -528 529 0
-529 570 0
73 -529 530 0
-530 571 0
74 -530 531 0
-531 572 0
75 -531 532 0
-532 573 0
76 -532 533 0
-533 574 0
77 -533 534 0
-534 575 0
78 -534 535 0
-535 576 0
79 -535 536 0
-536 577 0
80 -536 537 0
-537 578 0
81 -537 538 0
-538 579 0
82 -538 539 0
-539 580 0
83 -539 540 0
-540 581 0
84 -540 541 0
-541 582 0
85 -541 542 0
-542 583 0
86 -542 543 0
-543 584 0
87 -543 544 0
-544 585 0
88 -544 545 0
-545 586 0
89 -545 546 0
-546 587 0
90 -546 547 0
-547 588 0
91 -547 548 0
-548 589 0
92 -548 549 0
-549 590 0
93 -549 0
53 550 0
-550 591 0
54 -550 551 0
-551 592 0
55 -551 552 0
-552 593 0
56 -552 553 0
-553 594 0
57 -553 554 0
-554 595 0
58 -554 555 0
-555 596 0
59 -555 556 0
-556 597 0
60 -556 557 0
-557 598 0
61 -557 558 0
-558 599 0
62 -558 559 0
-559 600 0
63 -559 560 0
-560 601 0
64 -560 561 0
-561 602 0
65 -561 562 0
-562 603 0
66 -562 563 0
-563 604 0
67 -563 564 0
-564 605 0
68 -564 565 0
-565 606 0
69 -565 566 0
-566 607 0
70 -566 567 0
-567 608 0
71 -567 568 0
-568 609 0
72 -568 569 0
-569 610 0
73 -569 570 0
-570 611 0
74 -570 571 0
-571 612 0
75 -571 572 0
-572 613 0
76 -572 573 0
-573 614 0
77 -573 574 0
-574 615 0
78 -574 575 0
-575 616 0
79 -575 576 0
-576 617 0
80 -576 577 0
-577 618 0
81 -577 578 0
-578 619 0
82 -578 579 0
-579 620 0
83 -579 580 0
-580 621 0
84 -580 581 0
-581 622 0
85 -581 582 0
-582 623 0
86 -582 583 0
-583 624 0
87 -583 584 0
-584 625 0
88 -584 585 0
-585 626 0
89 -585 586 0
-586 627 0
90 -586 587 0
-587 628 0
91 -587 588 0
-588 629 0
92 -588 589 0
-589 630 0
93 -589 590 0
-590 631 0
94 -590 0
54 591 0
-591 632 0
55 -591 592 0
-592 633 0
56 -592 593 0
-593 634 0
57 -593 594 0
-594 635 0
58 -594 595 0
-595 636 0
59 -595 596 0
-596 637 0
60 -596 597 0
-597 638 0
61 -597 598 0
-598 639 0
62 -598 599 0
-599 640 0
63 -599 600 0
-600 641 0
64 -600 601 0
-601 642 0
65 -601 602 0
-602 643 0
66 -602 603 0
-603 644 0
67 -603 604 0
-604 645 0
68 -604 605 0
-605 646 0
69 -605 606 0
-606 647 0
70 -606 607 0
-607 648 0
71 -607 608 0
-608 649 0
72 -608 609 0
-609 650 0
73 -609 610 0
-610 651 0
74 -610 611 0
-611 652 0
75 -611 612 0
-612 653 0
76 -612 613 0
-613 654 0
77 -613 614 0
-614 655 0
78 -614 615 0
-615 656 0
79 -615 616 0
-616 657 0
80 -616 617 0
-617 658 0
81 -617 618 0
-618 659 0
82 -618 619 0
-619 660 0
83 -619 620 0
-620 661 0
84 -620 621 0
-621 662 0
85 -621 622 0
-622 663 0
86 -622 623 0
-623 664 0
87 -623 624 0
-624 665 0
88 -624 625 0
-625 666 0
89 -625 626 0
-626 667 0
90 -626 627 0
-627 668 0
91 -627 628 0
-628 669 0
92 -628 629 0
-629 670 0
93 -629 630 0
-630 671 0
94 -630 631 0
-631 672 0
95 -631 0
55 632 0
-632 673 0
56 -632 633 0
-633 674 0
57 -633 634 0
-634 675 0
58 -634 635 0
-635 676 0
59 -635 636 0
-636 677 0
60 -636 637 0
-637 678 0
61 -637 638 0
-638 679 0
62 -638 639 0
-639 680 0
63 -639 640 0
-640 681 0
64 -640 641 0
-641 682 0
65 -641 642 0
-642 683 0
66 -642 643 0
-643 684 0
67 -643 644 0
-644 685 0
68 -644 645 0
-645 686 0
69 -645 646 0
-646 687 0
70 -646 647 0
-647 688 0
71 -647 648 0
-648 689 0
72 -648 649 0
-649 690 0
73 -649 650 0
-650 691 0
74 -650 651 0
-651 692 0
75 -651 652 0
-652 693 0
76 -652 653 0
-653 694 0
77 -653 654 0
-654 695 0
78 -654 655 0
-655 696 0
79 -655 656 0
-656 697 0
80 -656 657 0
-657 698 0
81 -657 658 0
-658 699 0
82 -658 659 0
-659 700 0
83 -659 660 0
-660 701 0
84 -660 661 0
-661 702 0
85 -661 662 0
-662 703 0
86 -662 663 0
-663 704 0
87 -663 664 0
-664 705 0
88 -664 665 0
-665 706 0
89 -665 666 0
-666 707 0
90 -666 667 0
-667 708 0
91 -667 668 0
-668 709 0
92 -668 669 0
-669 710 0
93 -669 670 0
-670 711 0
94 -670 671 0
-671 712 0
95 -671 672 0
-672 713 0
96 -672 0
56 673 0
-673 714 0
57 -673 674 0
-674 715 0
58 -674 675 0
-675 716 0
59 -675 676 0
-676 717 0
60 -676 677 0
-677 718 0
61 -677 678 0
-678 719 0
62 -678 679 0
-679 720 0
63 -679 680 0
-680 721 0
64 -680 681 0
-681 722 0
65 -681 682 0
-682 723 0
66 -682 683 0
-683 724 0
67 -683 684 0
-684 725 0
68 -684 685 0
-685 726 0
69 -685 686 0
-686 727 0
70 -686 687 0
-687 728 0
71 -687 688 0
-688 729 0
72 -688 689 0
-689 730 0
73 -689 690 0
-690 731 0
74 -690 691 0
-691 732 0
75 -691 692 0
-692 733 0
76 -692 693 0
-693 734 0
77 -693 694 0
-694 735 0
78 -694 695 0
-695 736 0
79 -695 696 0
-696 737 0
80 -696 697 0
-697 738 0
81 -697 698 0
-698 739 0
82 -698 699 0
-699 740 0
83 -699 700 0
-700 741 0
84 -700 701 0
-701 742 0
85 -701 702 0
-702 743 0
86 -702 703 0
-703 744 0
87 -703 704 0
-704 745 0
88 -704 705 0
-705 746 0
89 -705 706 0
-706 747 0
90 -706 707 0
-707 748 0
91 -707 708 0
-708 749 0
92 -708 709 0
-709 750 0
93 -709 710 0
-710 751 0
94 -710 711 0
-711 752 0
95 -711 712 0
-712 753 0
96 -712 713 0
-713 754 0
97 -713 0
57 714 0
58 -714 715 0
59 -715 716 0
60 -716 717 0
61 -717 718 0
62 -718 719 0
63 -719 720 0
64 -720 721 0
65 -721 722 0
66 -722 723 0
67 -723 724 0
68 -724 725 0
69 -725 726 0
70 -726 727 0
71 -727 728 0
72 -728 729 0
73 -729 730 0
74 -730 731 0
75 -731 732 0
76 -732 733 0
77 -733 734 0
78 -734 735 0
79 -735 736 0
80 -736 737 0
81 -737 738 0
82 -738 739 0
83 -739 740 0
84 -740 741 0
85 -741 742 0
86 -742 743 0
87 -743 744 0
88 -744 745 0
89 -745 746 0
90 -746 747 0
91 -747 748 0
92 -748 749 0
93 -749 750 0
94 -750 751 0
95 -751 752 0
96 -752 753 0
97 -753 754 0
98 -754 0
