c peaceable queens n=3 m=2 symbreak=False
c UNSAT here + verified witness at m=1 proves a(3)=1
c generated by encode.py, solved by cadical --plain
p cnf 46 111
-1 -10 0
-2 -11 0
-3 -12 0
-4 -13 0
-5 -14 0
-6 -15 0
-7 -16 0
-8 -17 0
-9 -18 0
-1 -11 0
-10 -2 0
-1 -12 0
-10 -3 0
-1 -13 0
-10 -4 0
-1 -14 0
-10 -5 0
-1 -16 0
-10 -7 0
-1 -18 0
-10 -9 0
-2 -12 0
-11 -3 0
-2 -13 0
-11 -4 0
-2 -14 0
-11 -5 0
-2 -15 0
-11 -6 0
-2 -17 0
-11 -8 0
-3 -14 0
-12 -5 0
-3 -15 0
-12 -6 0
-3 -16 0
-12 -7 0
-3 -18 0
-12 -9 0
-4 -14 0
-13 -5 0
-4 -15 0
-13 -6 0
-4 -16 0
-13 -7 0
-4 -17 0
-13 -8 0
-5 -15 0
-14 -6 0
-5 -16 0
-14 -7 0
-5 -17 0
-14 -8 0
-5 -18 0
-14 -9 0
-6 -17 0
-15 -8 0
-6 -18 0
-15 -9 0
-7 -17 0
-16 -8 0
-7 -18 0
-16 -9 0
-8 -18 0
-17 -9 0
1 19 0
-19 20 0
2 -19 21 0
-21 22 0
3 -21 23 0
-23 24 0
4 -23 25 0
-25 26 0
5 -25 27 0
-27 28 0
6 -27 29 0
-29 30 0
7 -29 31 0
-31 32 0
8 -31 0
2 20 0
3 -20 22 0
4 -22 24 0
5 -24 26 0
6 -26 28 0
7 -28 30 0
8 -30 32 0
9 -32 0
10 33 0
-33 34 0
11 -33 35 0
-35 36 0
12 -35 37 0
-37 38 0
13 -37 39 0
-39 40 0
14 -39 41 0
-41 42 0
15 -41 43 0
-43 44 0
16 -43 45 0
-45 46 0
17 -45 0
11 34 0
12 -34 36 0
13 -36 38 0
14 -38 40 0
15 -40 42 0
16 -42 44 0
17 -44 46 0
18 -46 0
