c peaceable queens n=6 m=6 symbreak=False
c UNSAT here + verified witness at m=5 proves a(6)=5
c generated by encode.py, solved by cadical --plain
p cnf 432 1288
-1 -37 0
-2 -38 0
-3 -39 0
-4 -40 0
-5 -41 0
-6 -42 0
-7 -43 0
-8 -44 0
-9 -45 0
-10 -46 0
-11 -47 0
-12 -48 0
-13 -49 0
-14 -50 0
-15 -51 0
-16 -52 0
-17 -53 0
-18 -54 0
-19 -55 0
-20 -56 0
-21 -57 0
-22 -58 0
-23 -59 0
-24 -60 0
-25 -61 0
-26 -62 0
-27 -63 0
-28 -64 0
-29 -65 0
-30 -66 0
-31 -67 0
-32 -68 0
-33 -69 0
-34 -70 0
-35 -71 0
-36 -72 0
-1 -38 0
-37 -2 0
-1 -39 0
-37 -3 0
-1 -40 0
-37 -4 0
-1 -41 0
-37 -5 0
-1 -42 0
-37 -6 0
-1 -43 0
-37 -7 0
-1 -44 0
-37 -8 0
-1 -49 0
-37 -13 0
-1 -51 0
-37 -15 0
-1 -55 0
-37 -19 0
-1 -58 0
-37 -22 0
-1 -61 0
-37 -25 0
-1 -65 0
-37 -29 0
-1 -67 0
-37 -31 0
-1 -72 0
-37 -36 0
-2 -39 0
-38 -3 0
-2 -40 0
-38 -4 0
-2 -41 0
-38 -5 0
-2 -42 0
-38 -6 0
-2 -43 0
-38 -7 0
-2 -44 0
-38 -8 0
-2 -45 0
-38 -9 0
-2 -50 0
-38 -14 0
-2 -52 0
-38 -16 0
-2 -56 0
-38 -20 0
-2 -59 0
-38 -23 0
-2 -62 0
-38 -26 0
-2 -66 0
-38 -30 0
-2 -68 0
-38 -32 0
-3 -40 0
-39 -4 0
-3 -41 0
-39 -5 0
-3 -42 0
-39 -6 0
-3 -44 0
-39 -8 0
-3 -45 0
-39 -9 0
-3 -46 0
-39 -10 0
-3 -49 0
-39 -13 0
-3 -51 0
-39 -15 0
-3 -53 0
-39 -17 0
-3 -57 0
-39 -21 0
-3 -60 0
-39 -24 0
-3 -63 0
-39 -27 0
-3 -69 0
-39 -33 0
-4 -41 0
-40 -5 0
-4 -42 0
-40 -6 0
-4 -45 0
-40 -9 0
-4 -46 0
-40 -10 0
-4 -47 0
-40 -11 0
-4 -50 0
-40 -14 0
-4 -52 0
-40 -16 0
-4 -54 0
-40 -18 0
-4 -55 0
-40 -19 0
-4 -58 0
-40 -22 0
-4 -64 0
-40 -28 0
-4 -70 0
-40 -34 0
-5 -42 0
-41 -6 0
-5 -46 0
-41 -10 0
-5 -47 0
-41 -11 0
-5 -48 0
-41 -12 0
-5 -51 0
-41 -15 0
-5 -53 0
-41 -17 0
-5 -56 0
-41 -20 0
-5 -59 0
-41 -23 0
-5 -61 0
-41 -25 0
-5 -65 0
-41 -29 0
-5 -71 0
-41 -35 0
-6 -47 0
-42 -11 0
-6 -48 0
-42 -12 0
-6 -52 0
-42 -16 0
-6 -54 0
-42 -18 0
-6 -57 0
-42 -21 0
-6 -60 0
-42 -24 0
-6 -62 0
-42 -26 0
-6 -66 0
-42 -30 0
-6 -67 0
-42 -31 0
-6 -72 0
-42 -36 0
-7 -44 0
-43 -8 0
-7 -45 0
-43 -9 0
-7 -46 0
-43 -10 0
-7 -47 0
-43 -11 0
-7 -48 0
-43 -12 0
-7 -49 0
-43 -13 0
-7 -50 0
-43 -14 0
-7 -55 0
-43 -19 0
-7 -57 0
-43 -21 0
-7 -61 0
-43 -25 0
-7 -64 0
-43 -28 0
-7 -67 0
-43 -31 0
-7 -71 0
-43 -35 0
-8 -45 0
-44 -9 0
-8 -46 0
-44 -10 0
-8 -47 0
-44 -11 0
-8 -48 0
-44 -12 0
-8 -49 0
-44 -13 0
-8 -50 0
-44 -14 0
-8 -51 0
-44 -15 0
-8 -56 0
-44 -20 0
-8 -58 0
-44 -22 0
-8 -62 0
-44 -26 0
-8 -65 0
-44 -29 0
-8 -68 0
-44 -32 0
-8 -72 0
-44 -36 0
-9 -46 0
-45 -10 0
-9 -47 0
-45 -11 0
-9 -48 0
-45 -12 0
-9 -50 0
-45 -14 0
-9 -51 0
-45 -15 0
-9 -52 0
-45 -16 0
-9 -55 0
-45 -19 0
-9 -57 0
-45 -21 0
-9 -59 0
-45 -23 0
-9 -63 0
-45 -27 0
-9 -66 0
-45 -30 0
-9 -69 0
-45 -33 0
-10 -47 0
-46 -11 0
-10 -48 0
-46 -12 0
-10 -51 0
-46 -15 0
-10 -52 0
-46 -16 0
-10 -53 0
-46 -17 0
-10 -56 0
-46 -20 0
-10 -58 0
-46 -22 0
-10 -60 0
-46 -24 0
-10 -61 0
-46 -25 0
-10 -64 0
-46 -28 0
-10 -70 0
-46 -34 0
-11 -48 0
-47 -12 0
-11 -52 0
-47 -16 0
-11 -53 0
-47 -17 0
-11 -54 0
-47 -18 0
-11 -57 0
-47 -21 0
-11 -59 0
-47 -23 0
-11 -62 0
-47 -26 0
-11 -65 0
-47 -29 0
-11 -67 0
-47 -31 0
-11 -71 0
-47 -35 0
-12 -53 0
-48 -17 0
-12 -54 0
-48 -18 0
-12 -58 0
-48 -22 0
-12 -60 0
-48 -24 0
-12 -63 0
-48 -27 0
-12 -66 0
-48 -30 0
-12 -68 0
-48 -32 0
-12 -72 0
-48 -36 0
-13 -50 0
-49 -14 0
-13 -51 0
-49 -15 0
-13 -52 0
-49 -16 0
-13 -53 0
-49 -17 0
-13 -54 0
-49 -18 0
-13 -55 0
-49 -19 0
-13 -56 0
-49 -20 0
-13 -61 0
-49 -25 0
-13 -63 0
-49 -27 0
-13 -67 0
-49 -31 0
-13 -70 0
-49 -34 0
-14 -51 0
-50 -15 0
-14 -52 0
-50 -16 0
-14 -53 0
-50 -17 0
-14 -54 0
-50 -18 0
-14 -55 0
-50 -19 0
-14 -56 0
-50 -20 0
-14 -57 0
-50 -21 0
-14 -62 0
-50 -26 0
-14 -64 0
-50 -28 0
-14 -68 0
-50 -32 0
-14 -71 0
-50 -35 0
-15 -52 0
-51 -16 0
-15 -53 0
-51 -17 0
-15 -54 0
-51 -18 0
-15 -56 0
-51 -20 0
-15 -57 0
-51 -21 0
-15 -58 0
-51 -22 0
-15 -61 0
-51 -25 0
-15 -63 0
-51 -27 0
-15 -65 0
-51 -29 0
-15 -69 0
-51 -33 0
-15 -72 0
-51 -36 0
-16 -53 0
-52 -17 0
-16 -54 0
-52 -18 0
-16 -57 0
-52 -21 0
-16 -58 0
-52 -22 0
-16 -59 0
-52 -23 0
-16 -62 0
-52 -26 0
-16 -64 0
-52 -28 0
-16 -66 0
-52 -30 0
-16 -67 0
-52 -31 0
-16 -70 0
-52 -34 0
-17 -54 0
-53 -18 0
-17 -58 0
-53 -22 0
-17 -59 0
-53 -23 0
-17 -60 0
-53 -24 0
-17 -63 0
-53 -27 0
-17 -65 0
-53 -29 0
-17 -68 0
-53 -32 0
-17 -71 0
-53 -35 0
-18 -59 0
-54 -23 0
-18 -60 0
-54 -24 0
-18 -64 0
-54 -28 0
-18 -66 0
-54 -30 0
-18 -69 0
-54 -33 0
-18 -72 0
-54 -36 0
-19 -56 0
-55 -20 0
-19 -57 0
-55 -21 0
-19 -58 0
-55 -22 0
-19 -59 0
-55 -23 0
-19 -60 0
-55 -24 0
-19 -61 0
-55 -25 0
-19 -62 0
-55 -26 0
-19 -67 0
-55 -31 0
-19 -69 0
-55 -33 0
-20 -57 0
-56 -21 0
-20 -58 0
-56 -22 0
-20 -59 0
-56 -23 0
-20 -60 0
-56 -24 0
-20 -61 0
-56 -25 0
-20 -62 0
-56 -26 0
-20 -63 0
-56 -27 0
-20 -68 0
-56 -32 0
-20 -70 0
-56 -34 0
-21 -58 0
-57 -22 0
-21 -59 0
-57 -23 0
-21 -60 0
-57 -24 0
-21 -62 0
-57 -26 0
-21 -63 0
-57 -27 0
-21 -64 0
-57 -28 0
-21 -67 0
-57 -31 0
-21 -69 0
-57 -33 0
-21 -71 0
-57 -35 0
-22 -59 0
-58 -23 0
-22 -60 0
-58 -24 0
-22 -63 0
-58 -27 0
-22 -64 0
-58 -28 0
-22 -65 0
-58 -29 0
-22 -68 0
-58 -32 0
-22 -70 0
-58 -34 0
-22 -72 0
-58 -36 0
-23 -60 0
-59 -24 0
-23 -64 0
-59 -28 0
-23 -65 0
-59 -29 0
-23 -66 0
-59 -30 0
-23 -69 0
-59 -33 0
-23 -71 0
-59 -35 0
-24 -65 0
-60 -29 0
-24 -66 0
-60 -30 0
-24 -70 0
-60 -34 0
-24 -72 0
-60 -36 0
-25 -62 0
-61 -26 0
-25 -63 0
-61 -27 0
-25 -64 0
-61 -28 0
-25 -65 0
-61 -29 0
-25 -66 0
-61 -30 0
-25 -67 0
-61 -31 0
-25 -68 0
-61 -32 0
-26 -63 0
-62 -27 0
-26 -64 0
-62 -28 0
-26 -65 0
-62 -29 0
-26 -66 0
-62 -30 0
-26 -67 0
-62 -31 0
-26 -68 0
-62 -32 0
-26 -69 0
-62 -33 0
-27 -64 0
-63 -28 0
-27 -65 0
-63 -29 0
-27 -66 0
-63 -30 0
-27 -68 0
-63 -32 0
-27 -69 0
-63 -33 0
-27 -70 0
-63 -34 0
-28 -65 0
-64 -29 0
-28 -66 0
-64 -30 0
-28 -69 0
-64 -33 0
-28 -70 0
-64 -34 0
-28 -71 0
-64 -35 0
-29 -66 0
-65 -30 0
-29 -70 0
-65 -34 0
-29 -71 0
-65 -35 0
-29 -72 0
-65 -36 0
-30 -71 0
-66 -35 0
-30 -72 0
-66 -36 0
-31 -68 0
-67 -32 0
-31 -69 0
-67 -33 0
-31 -70 0
-67 -34 0
-31 -71 0
-67 -35 0
-31 -72 0
-67 -36 0
-32 -69 0
-68 -33 0
-32 -70 0
-68 -34 0
-32 -71 0
-68 -35 0
-32 -72 0
-68 -36 0
-33 -70 0
-69 -34 0
-33 -71 0
-69 -35 0
-33 -72 0
-69 -36 0
-34 -71 0
-70 -35 0
-34 -72 0
-70 -36 0
-35 -72 0
-71 -36 0
1 73 0
-73 74 0
2 -73 75 0
-75 76 0
3 -75 77 0
-77 78 0
4 -77 79 0
-79 80 0
5 -79 81 0
-81 82 0
6 -81 83 0
-83 84 0
7 -83 85 0
-85 86 0
8 -85 87 0
-87 88 0
9 -87 89 0
-89 90 0
10 -89 91 0
-91 92 0
11 -91 93 0
-93 94 0
12 -93 95 0
-95 96 0
13 -95 97 0
-97 98 0
14 -97 99 0
-99 100 0
15 -99 101 0
-101 102 0
16 -101 103 0
-103 104 0
17 -103 105 0
-105 106 0
18 -105 107 0
-107 108 0
19 -107 109 0
-109 110 0
20 -109 111 0
-111 112 0
21 -111 113 0
-113 114 0
22 -113 115 0
-115 116 0
23 -115 117 0
-117 118 0
24 -117 119 0
-119 120 0
25 -119 121 0
-121 122 0
26 -121 123 0
-123 124 0
27 -123 125 0
-125 126 0
28 -125 127 0
-127 128 0
29 -127 129 0
-129 130 0
30 -129 131 0
-131 132 0
31 -131 0
2 74 0
-74 133 0
3 -74 76 0
-76 134 0
4 -76 78 0
-78 135 0
5 -78 80 0
-80 136 0
6 -80 82 0
-82 137 0
7 -82 84 0
-84 138 0
8 -84 86 0
-86 139 0
9 -86 88 0
-88 140 0
10 -88 90 0
-90 141 0
11 -90 92 0
-92 142 0
12 -92 94 0
-94 143 0
13 -94 96 0
-96 144 0
14 -96 98 0
-98 145 0
15 -98 100 0
-100 146 0
16 -100 102 0
-102 147 0
17 -102 104 0
-104 148 0
18 -104 106 0
-106 149 0
19 -106 108 0
-108 150 0
20 -108 110 0
-110 151 0
21 -110 112 0
-112 152 0
22 -112 114 0
-114 153 0
23 -114 116 0
-116 154 0
24 -116 118 0
-118 155 0
25 -118 120 0
-120 156 0
26 -120 122 0
-122 157 0
27 -122 124 0
-124 158 0
28 -124 126 0
-126 159 0
29 -126 128 0
-128 160 0
30 -128 130 0
-130 161 0
31 -130 132 0
-132 162 0
32 -132 0
3 133 0
-133 163 0
4 -133 134 0
-134 164 0
5 -134 135 0
-135 165 0
6 -135 136 0
-136 166 0
7 -136 137 0
-137 167 0
8 -137 138 0
-138 168 0
9 -138 139 0
-139 169 0
10 -139 140 0
-140 170 0
11 -140 141 0
-141 171 0
12 -141 142 0
-142 172 0
13 -142 143 0
-143 173 0
14 -143 144 0
-144 174 0
15 -144 145 0
-145 175 0
16 -145 146 0
-146 176 0
17 -146 147 0
-147 177 0
18 -147 148 0
-148 178 0
19 -148 149 0
-149 179 0
20 -149 150 0
-150 180 0
21 -150 151 0
-151 181 0
22 -151 152 0
-152 182 0
23 -152 153 0
-153 183 0
24 -153 154 0
-154 184 0
25 -154 155 0
-155 185 0
26 -155 156 0
-156 186 0
27 -156 157 0
-157 187 0
28 -157 158 0
-158 188 0
29 -158 159 0
-159 189 0
30 -159 160 0
-160 190 0
31 -160 161 0
-161 191 0
32 -161 162 0
-162 192 0
33 -162 0
4 163 0
-163 193 0
5 -163 164 0
-164 194 0
6 -164 165 0
-165 195 0
7 -165 166 0
-166 196 0
8 -166 167 0
-167 197 0
9 -167 168 0
-168 198 0
10 -168 169 0
-169 199 0
11 -169 170 0
-170 200 0
12 -170 171 0
-171 201 0
13 -171 172 0
-172 202 0
14 -172 173 0
-173 203 0
15 -173 174 0
-174 204 0
16 -174 175 0
-175 205 0
17 -175 176 0
-176 206 0
18 -176 177 0
-177 207 0
19 -177 178 0
-178 208 0
20 -178 179 0
-179 209 0
21 -179 180 0
-180 210 0
22 -180 181 0
-181 211 0
23 -181 182 0
-182 212 0
24 -182 183 0
-183 213 0
25 -183 184 0
-184 214 0
26 -184 185 0
-185 215 0
27 -185 186 0
-186 216 0
28 -186 187 0
-187 217 0
29 -187 188 0
-188 218 0
30 -188 189 0
-189 219 0
31 -189 190 0
-190 220 0
32 -190 191 0
-191 221 0
33 -191 192 0
-192 222 0
34 -192 0
5 193 0
-193 223 0
6 -193 194 0
-194 224 0
7 -194 195 0
-195 225 0
8 -195 196 0
-196 226 0
9 -196 197 0
-197 227 0
10 -197 198 0
-198 228 0
11 -198 199 0
-199 229 0
12 -199 200 0
-200 230 0
13 -200 201 0
-201 231 0
14 -201 202 0
-202 232 0
15 -202 203 0
-203 233 0
16 -203 204 0
-204 234 0
17 -204 205 0
-205 235 0
18 -205 206 0
-206 236 0
19 -206 207 0
-207 237 0
20 -207 208 0
-208 238 0
21 -208 209 0
-209 239 0
22 -209 210 0
-210 240 0
23 -210 211 0
-211 241 0
24 -211 212 0
-212 242 0
25 -212 213 0
-213 243 0
26 -213 214 0
-214 244 0
27 -214 215 0
-215 245 0
28 -215 216 0
-216 246 0
29 -216 217 0
-217 247 0
30 -217 218 0
-218 248 0
31 -218 219 0
-219 249 0
32 -219 220 0
-220 250 0
33 -220 221 0
-221 251 0
34 -221 222 0
-222 252 0
35 -222 0
6 223 0
7 -223 224 0
8 -224 225 0
9 -225 226 0
10 -226 227 0
11 -227 228 0
12 -228 229 0
13 -229 230 0
14 -230 231 0
15 -231 232 0
16 -232 233 0
17 -233 234 0
18 -234 235 0
19 -235 236 0
20 -236 237 0
21 -237 238 0
22 -238 239 0
23 -239 240 0
24 -240 241 0
25 -241 242 0
26 -242 243 0
27 -243 244 0
28 -244 245 0
29 -245 246 0
30 -246 247 0
31 -247 248 0
32 -248 249 0
33 -249 250 0
34 -250 251 0
35 -251 252 0
36 -252 0
37 253 0
-253 254 0
38 -253 255 0
-255 256 0
39 -255 257 0
-257 258 0
40 -257 259 0
-259 260 0
41 -259 261 0
-261 262 0
42 -261 263 0
-263 264 0
43 -263 265 0
-265 266 0
44 -265 267 0
-267 268 0
45 -267 269 0
-269 270 0
46 -269 271 0
-271 272 0
47 -271 273 0
-273 274 0
48 -273 275 0
-275 276 0
49 -275 277 0
-277 278 0
50 -277 279 0
-279 280 0
51 -279 281 0
-281 282 0
52 -281 283 0
-283 284 0
53 -283 285 0
-285 286 0
54 -285 287 0
-287 288 0
55 -287 289 0
-289 290 0
56 -289 291 0
-291 292 0
57 -291 293 0
-293 294 0
58 -293 295 0
-295 296 0
59 -295 297 0
-297 298 0
60 -297 299 0
-299 300 0
61 -299 301 0
-301 302 0
62 -301 303 0
-303 304 0
63 -303 305 0
-305 306 0
64 -305 307 0
-307 308 0
65 -307 309 0
-309 310 0
66 -309 311 0
-311 312 0
67 -311 0
38 254 0
-254 313 0
39 -254 256 0
-256 314 0
40 -256 258 0
-258 315 0
41 -258 260 0
-260 316 0
42 -260 262 0
-262 317 0
43 -262 264 0
-264 318 0
44 -264 266 0
-266 319 0
45 -266 268 0
-268 320 0
46 -268 270 0
-270 321 0
47 -270 272 0
-272 322 0
48 -272 274 0
-274 323 0
49 -274 276 0
-276 324 0
50 -276 278 0
-278 325 0
51 -278 280 0
-280 326 0
52 -280 282 0
-282 327 0
53 -282 284 0
-284 328 0
54 -284 286 0
-286 329 0
55 -286 288 0
-288 330 0
56 -288 290 0
-290 331 0
57 -290 292 0
-292 332 0
58 -292 294 0
-294 333 0
59 -294 296 0
-296 334 0
60 -296 298 0
-298 335 0
61 -298 300 0
-300 336 0
62 -300 302 0
-302 337 0
63 -302 304 0
-304 338 0
64 -304 306 0
-306 339 0
65 -306 308 0
-308 340 0
66 -308 310 0
-310 341 0
67 -310 312 0
-312 342 0
68 -312 0
39 313 0
-313 343 0
40 -313 314 0
-314 344 0
41 -314 315 0
-315 345 0
42 -315 316 0
-316 346 0
43 -316 317 0
-317 347 0
44 -317 318 0
-318 348 0
45 -318 319 0
-319 349 0
46 -319 320 0
-320 350 0
47 -320 321 0
-321 351 0
48 -321 322 0
-322 352 0
49 -322 323 0
-323 353 0
50 -323 324 0
-324 354 0
51 -324 325 0
-325 355 0
52 -325 326 0
-326 356 0
53 -326 327 0
-327 357 0
54 -327 328 0
-328 358 0
55 -328 329 0
-329 359 0
56 -329 330 0
-330 360 0
57 -330 331 0
-331 361 0
58 -331 332 0
-332 362 0
59 -332 333 0
-333 363 0
60 -333 334 0
-334 364 0
61 -334 335 0
-335 365 0
62 -335 336 0
-336 366 0
63 -336 337 0
-337 367 0
64 -337 338 0
-338 368 0
65 -338 339 0
-339 369 0
66 -339 340 0
-340 370 0
67 -340 341 0
-341 371 0
68 -341 342 0
-342 372 0
69 -342 0
40 343 0
-343 373 0
41 -343 344 0
-344 374 0
42 -344 345 0
-345 375 0
43 -345 346 0
-346 376 0
44 -346 347 0
-347 377 0
45 -347 348 0
-348 378 0
46 -348 349 0
-349 379 0
47 -349 350 0
-350 380 0
48 -350 351 0
-351 381 0
49 -351 352 0
-352 382 0
50 -352 353 0
-353 383 0
51 -353 354 0
-354 384 0
52 -354 355 0
-355 385 0
53 -355 356 0
-356 386 0
54 -356 357 0
-357 387 0
55 -357 358 0
-358 388 0
56 -358 359 0
-359 389 0
57 -359 360 0
-360 390 0
58 -360 361 0
-361 391 0
59 -361 362 0
-362 392 0
60 -362 363 0
-363 393 0
61 -363 364 0
-364 394 0
62 -364 365 0
-365 395 0
63 -365 366 0
-366 396 0
64 -366 367 0
-367 397 0
65 -367 368 0
-368 398 0
66 -368 369 0
-369 399 0
67 -369 370 0
-370 400 0
68 -370 371 0
-371 401 0
69 -371 372 0
-372 402 0
70 -372 0
41 373 0
-373 403 0
42 -373 374 0
-374 404 0
43 -374 375 0
-375 405 0
44 -375 376 0
-376 406 0
45 -376 377 0
-377 407 0
46 -377 378 0
-378 408 0
47 -378 379 0
-379 409 0
48 -379 380 0
-380 410 0
49 -380 381 0
-381 411 0
50 -381 382 0
-382 412 0
51 -382 383 0
-383 413 0
52 -383 384 0
-384 414 0
53 -384 385 0
-385 415 0
54 -385 386 0
-386 416 0
55 -386 387 0
-387 417 0
56 -387 388 0
-388 418 0
57 -388 389 0
-389 419 0
58 -389 390 0
-390 420 0
59 -390 391 0
-391 421 0
60 -391 392 0
-392 422 0
61 -392 393 0
-393 423 0
62 -393 394 0
-394 424 0
63 -394 395 0
-395 425 0
64 -395 396 0
-396 426 0
65 -396 397 0
-397 427 0
66 -397 398 0
-398 428 0
67 -398 399 0
-399 429 0
68 -399 400 0
-400 430 0
69 -400 401 0
-401 431 0
70 -401 402 0
-402 432 0
71 -402 0
42 403 0
43 -403 404 0
44 -404 405 0
45 -405 406 0
46 -406 407 0
47 -407 408 0
48 -408 409 0
49 -409 410 0
50 -410 411 0
51 -411 412 0
52 -412 413 0
53 -413 414 0
54 -414 415 0
55 -415 416 0
56 -416 417 0
57 -417 418 0
58 -418 419 0
59 -419 420 0
60 -420 421 0
61 -421 422 0
62 -422 423 0
63 -423 424 0
64 -424 425 0
65 -425 426 0
66 -426 427 0
67 -427 428 0
68 -428 429 0
69 -429 430 0
70 -430 431 0
71 -431 432 0
72 -432 0
