c peaceable queens n=4 m=3 symbreak=False
c UNSAT here + verified witness at m=2 proves a(4)=2
c generated by encode.py, solved by cadical --plain
p cnf 110 304
-1 -17 0
-2 -18 0
-3 -19 0
-4 -20 0
-5 -21 0
-6 -22 0
-7 -23 0
-8 -24 0
-9 -25 0
-10 -26 0
-11 -27 0
-12 -28 0
-13 -29 0
-14 -30 0
-15 -31 0
-16 -32 0
-1 -18 0
-17 -2 0
-1 -19 0
-17 -3 0
-1 -20 0
-17 -4 0
-1 -21 0
-17 -5 0
-1 -22 0
-17 -6 0
-1 -25 0
-17 -9 0
-1 -27 0
-17 -11 0
-1 -29 0
-17 -13 0
-1 -32 0
-17 -16 0
-2 -19 0
-18 -3 0
-2 -20 0
-18 -4 0
-2 -21 0
-18 -5 0
-2 -22 0
-18 -6 0
-2 -23 0
-18 -7 0
-2 -26 0
-18 -10 0
-2 -28 0
-18 -12 0
-2 -30 0
-18 -14 0
-3 -20 0
-19 -4 0
-3 -22 0
-19 -6 0
-3 -23 0
-19 -7 0
-3 -24 0
-19 -8 0
-3 -25 0
-19 -9 0
-3 -27 0
-19 -11 0
-3 -31 0
-19 -15 0
-4 -23 0
-20 -7 0
-4 -24 0
-20 -8 0
-4 -26 0
-20 -10 0
-4 -28 0
-20 -12 0
-4 -29 0
-20 -13 0
-4 -32 0
-20 -16 0
-5 -22 0
-21 -6 0
-5 -23 0
-21 -7 0
-5 -24 0
-21 -8 0
-5 -25 0
-21 -9 0
-5 -26 0
-21 -10 0
-5 -29 0
-21 -13 0
-5 -31 0
-21 -15 0
-6 -23 0
-22 -7 0
-6 -24 0
-22 -8 0
-6 -25 0
-22 -9 0
-6 -26 0
-22 -10 0
-6 -27 0
-22 -11 0
-6 -30 0
-22 -14 0
-6 -32 0
-22 -16 0
-7 -24 0
-23 -8 0
-7 -26 0
-23 -10 0
-7 -27 0
-23 -11 0
-7 -28 0
-23 -12 0
-7 -29 0
-23 -13 0
-7 -31 0
-23 -15 0
-8 -27 0
-24 -11 0
-8 -28 0
-24 -12 0
-8 -30 0
-24 -14 0
-8 -32 0
-24 -16 0
-9 -26 0
-25 -10 0
-9 -27 0
-25 -11 0
-9 -28 0
-25 -12 0
-9 -29 0
-25 -13 0
-9 -30 0
-25 -14 0
-10 -27 0
-26 -11 0
-10 -28 0
-26 -12 0
-10 -29 0
-26 -13 0
-10 -30 0
-26 -14 0
-10 -31 0
-26 -15 0
-11 -28 0
-27 -12 0
-11 -30 0
-27 -14 0
-11 -31 0
-27 -15 0
-11 -32 0
-27 -16 0
-12 -31 0
-28 -15 0
-12 -32 0
-28 -16 0
-13 -30 0
-29 -14 0
-13 -31 0
-29 -15 0
-13 -32 0
-29 -16 0
-14 -31 0
-30 -15 0
-14 -32 0
-30 -16 0
-15 -32 0
-31 -16 0
1 33 0
-33 34 0
2 -33 35 0
-35 36 0
3 -35 37 0
-37 38 0
4 -37 39 0
-39 40 0
5 -39 41 0
-41 42 0
6 -41 43 0
-43 44 0
7 -43 45 0
-45 46 0
8 -45 47 0
-47 48 0
9 -47 49 0
-49 50 0
10 -49 51 0
-51 52 0
11 -51 53 0
-53 54 0
12 -53 55 0
-55 56 0
13 -55 57 0
-57 58 0
14 -57 0
2 34 0
-34 59 0
3 -34 36 0
-36 60 0
4 -36 38 0
-38 61 0
5 -38 40 0
-40 62 0
6 -40 42 0
-42 63 0
7 -42 44 0
-44 64 0
8 -44 46 0
-46 65 0
9 -46 48 0
-48 66 0
10 -48 50 0
-50 67 0
11 -50 52 0
-52 68 0
12 -52 54 0
-54 69 0
13 -54 56 0
-56 70 0
14 -56 58 0
-58 71 0
15 -58 0
3 59 0
4 -59 60 0
5 -60 61 0
6 -61 62 0
7 -62 63 0
8 -63 64 0
9 -64 65 0
10 -65 66 0
11 -66 67 0
12 -67 68 0
13 -68 69 0
14 -69 70 0
15 -70 71 0
16 -71 0
17 72 0
-72 73 0
18 -72 74 0
-74 75 0
19 -74 76 0
-76 77 0
20 -76 78 0
-78 79 0
21 -78 80 0
-80 81 0
22 -80 82 0
-82 83 0
23 -82 84 0
-84 85 0
24 -84 86 0
-86 87 0
25 -86 88 0
-88 89 0
26 -88 90 0
-90 91 0
27 -90 92 0
-92 93 0
28 -92 94 0
-94 95 0
29 -94 96 0
-96 97 0
30 -96 0
18 73 0
-73 98 0
19 -73 75 0
-75 99 0
20 -75 77 0
-77 100 0
21 -77 79 0
-79 101 0
22 -79 81 0
-81 102 0
23 -81 83 0
-83 103 0
24 -83 85 0
-85 104 0
25 -85 87 0
-87 105 0
26 -87 89 0
-89 106 0
27 -89 91 0
-91 107 0
28 -91 93 0
-93 108 0
29 -93 95 0
-95 109 0
30 -95 97 0
-97 110 0
31 -97 0
19 98 0
20 -98 99 0
21 -99 100 0
22 -100 101 0
23 -101 102 0
24 -102 103 0
25 -103 104 0
26 -104 105 0
27 -105 106 0
28 -106 107 0
29 -107 108 0
30 -108 109 0
31 -109 110 0
32 -110 0
