c peaceable queens n=5 m=5 symbreak=False
c UNSAT here + verified witness at m=4 proves a(5)=4
c generated by encode.py, solved by cadical --plain
p cnf 250 715
-1 -26 0
-2 -27 0
-3 -28 0
-4 -29 0
-5 -30 0
-6 -31 0
-7 -32 0
-8 -33 0
-9 -34 0
-10 -35 0
-11 -36 0
-12 -37 0
-13 -38 0
-14 -39 0
-15 -40 0
-16 -41 0
-17 -42 0
-18 -43 0
-19 -44 0
-20 -45 0
-21 -46 0
-22 -47 0
-23 -48 0
-24 -49 0
-25 -50 0
-1 -27 0
-26 -2 0
-1 -28 0
-26 -3 0
-1 -29 0
-26 -4 0
-1 -30 0
-26 -5 0
-1 -31 0
-26 -6 0
-1 -32 0
-26 -7 0
-1 -36 0
-26 -11 0
-1 -38 0
-26 -13 0
-1 -41 0
-26 -16 0
-1 -44 0
-26 -19 0
-1 -46 0
-26 -21 0
-1 -50 0
-26 -25 0
-2 -28 0
-27 -3 0
-2 -29 0
-27 -4 0
-2 -30 0
-27 -5 0
-2 -31 0
-27 -6 0
-2 -32 0
-27 -7 0
-2 -33 0
-27 -8 0
-2 -37 0
-27 -12 0
-2 -39 0
-27 -14 0
-2 -42 0
-27 -17 0
-2 -45 0
-27 -20 0
-2 -47 0
-27 -22 0
-3 -29 0
-28 -4 0
-3 -30 0
-28 -5 0
-3 -32 0
-28 -7 0
-3 -33 0
-28 -8 0
-3 -34 0
-28 -9 0
-3 -36 0
-28 -11 0
-3 -38 0
-28 -13 0
-3 -40 0
-28 -15 0
-3 -43 0
-28 -18 0
-3 -48 0
-28 -23 0
-4 -30 0
-29 -5 0
-4 -33 0
-29 -8 0
-4 -34 0
-29 -9 0
-4 -35 0
-29 -10 0
-4 -37 0
-29 -12 0
-4 -39 0
-29 -14 0
-4 -41 0
-29 -16 0
-4 -44 0
-29 -19 0
-4 -49 0
-29 -24 0
-5 -34 0
-30 -9 0
-5 -35 0
-30 -10 0
-5 -38 0
-30 -13 0
-5 -40 0
-30 -15 0
-5 -42 0
-30 -17 0
-5 -45 0
-30 -20 0
-5 -46 0
-30 -21 0
-5 -50 0
-30 -25 0
-6 -32 0
-31 -7 0
-6 -33 0
-31 -8 0
-6 -34 0
-31 -9 0
-6 -35 0
-31 -10 0
-6 -36 0
-31 -11 0
-6 -37 0
-31 -12 0
-6 -41 0
-31 -16 0
-6 -43 0
-31 -18 0
-6 -46 0
-31 -21 0
-6 -49 0
-31 -24 0
-7 -33 0
-32 -8 0
-7 -34 0
-32 -9 0
-7 -35 0
-32 -10 0
-7 -36 0
-32 -11 0
-7 -37 0
-32 -12 0
-7 -38 0
-32 -13 0
-7 -42 0
-32 -17 0
-7 -44 0
-32 -19 0
-7 -47 0
-32 -22 0
-7 -50 0
-32 -25 0
-8 -34 0
-33 -9 0
-8 -35 0
-33 -10 0
-8 -37 0
-33 -12 0
-8 -38 0
-33 -13 0
-8 -39 0
-33 -14 0
-8 -41 0
-33 -16 0
-8 -43 0
-33 -18 0
-8 -45 0
-33 -20 0
-8 -48 0
-33 -23 0
-9 -35 0
-34 -10 0
-9 -38 0
-34 -13 0
-9 -39 0
-34 -14 0
-9 -40 0
-34 -15 0
-9 -42 0
-34 -17 0
-9 -44 0
-34 -19 0
-9 -46 0
-34 -21 0
-9 -49 0
-34 -24 0
-10 -39 0
-35 -14 0
-10 -40 0
-35 -15 0
-10 -43 0
-35 -18 0
-10 -45 0
-35 -20 0
-10 -47 0
-35 -22 0
-10 -50 0
-35 -25 0
-11 -37 0
-36 -12 0
-11 -38 0
-36 -13 0
-11 -39 0
-36 -14 0
-11 -40 0
-36 -15 0
-11 -41 0
-36 -16 0
-11 -42 0
-36 -17 0
-11 -46 0
-36 -21 0
-11 -48 0
-36 -23 0
-12 -38 0
-37 -13 0
-12 -39 0
-37 -14 0
-12 -40 0
-37 -15 0
-12 -41 0
-37 -16 0
-12 -42 0
-37 -17 0
-12 -43 0
-37 -18 0
-12 -47 0
-37 -22 0
-12 -49 0
-37 -24 0
-13 -39 0
-38 -14 0
-13 -40 0
-38 -15 0
-13 -42 0
-38 -17 0
-13 -43 0
-38 -18 0
-13 -44 0
-38 -19 0
-13 -46 0
-38 -21 0
-13 -48 0
-38 -23 0
-13 -50 0
-38 -25 0
-14 -40 0
-39 -15 0
-14 -43 0
-39 -18 0
-14 -44 0
-39 -19 0
-14 -45 0
-39 -20 0
-14 -47 0
-39 -22 0
-14 -49 0
-39 -24 0
-15 -44 0
-40 -19 0
-15 -45 0
-40 -20 0
-15 -48 0
-40 -23 0
-15 -50 0
-40 -25 0
-16 -42 0
-41 -17 0
-16 -43 0
-41 -18 0
-16 -44 0
-41 -19 0
-16 -45 0
-41 -20 0
-16 -46 0
-41 -21 0
-16 -47 0
-41 -22 0
-17 -43 0
-42 -18 0
-17 -44 0
-42 -19 0
-17 -45 0
-42 -20 0
-17 -46 0
-42 -21 0
-17 -47 0
-42 -22 0
-17 -48 0
-42 -23 0
-18 -44 0
-43 -19 0
-18 -45 0
-43 -20 0
-18 -47 0
-43 -22 0
-18 -48 0
-43 -23 0
-18 -49 0
-43 -24 0
-19 -45 0
-44 -20 0
-19 -48 0
-44 -23 0
-19 -49 0
-44 -24 0
-19 -50 0
-44 -25 0
-20 -49 0
-45 -24 0
-20 -50 0
-45 -25 0
-21 -47 0
-46 -22 0
-21 -48 0
-46 -23 0
-21 -49 0
-46 -24 0
-21 -50 0
-46 -25 0
-22 -48 0
-47 -23 0
-22 -49 0
-47 -24 0
-22 -50 0
-47 -25 0
-23 -49 0
-48 -24 0
-23 -50 0
-48 -25 0
-24 -50 0
-49 -25 0
1 51 0
-51 52 0
2 -51 53 0
-53 54 0
3 -53 55 0
-55 56 0
4 -55 57 0
-57 58 0
5 -57 59 0
-59 60 0
6 -59 61 0
-61 62 0
7 -61 63 0
-63 64 0
8 -63 65 0
-65 66 0
9 -65 67 0
-67 68 0
10 -67 69 0
-69 70 0
11 -69 71 0
-71 72 0
12 -71 73 0
-73 74 0
13 -73 75 0
-75 76 0
14 -75 77 0
-77 78 0
15 -77 79 0
-79 80 0
16 -79 81 0
-81 82 0
17 -81 83 0
-83 84 0
18 -83 85 0
-85 86 0
19 -85 87 0
-87 88 0
20 -87 89 0
-89 90 0
21 -89 0
2 52 0
-52 91 0
3 -52 54 0
-54 92 0
4 -54 56 0
-56 93 0
5 -56 58 0
-58 94 0
6 -58 60 0
-60 95 0
7 -60 62 0
-62 96 0
8 -62 64 0
-64 97 0
9 -64 66 0
-66 98 0
10 -66 68 0
-68 99 0
11 -68 70 0
-70 100 0
12 -70 72 0
-72 101 0
13 -72 74 0
-74 102 0
14 -74 76 0
-76 103 0
15 -76 78 0
-78 104 0
16 -78 80 0
-80 105 0
17 -80 82 0
-82 106 0
18 -82 84 0
-84 107 0
19 -84 86 0
-86 108 0
20 -86 88 0
-88 109 0
21 -88 90 0
-90 110 0
22 -90 0
3 91 0
-91 111 0
4 -91 92 0
-92 112 0
5 -92 93 0
-93 113 0
6 -93 94 0
-94 114 0
7 -94 95 0
-95 115 0
8 -95 96 0
-96 116 0
9 -96 97 0
-97 117 0
10 -97 98 0
-98 118 0
11 -98 99 0
-99 119 0
12 -99 100 0
-100 120 0
13 -100 101 0
-101 121 0
14 -101 102 0
-102 122 0
15 -102 103 0
-103 123 0
16 -103 104 0
-104 124 0
17 -104 105 0
-105 125 0
18 -105 106 0
-106 126 0
19 -106 107 0
-107 127 0
20 -107 108 0
-108 128 0
21 -108 109 0
-109 129 0
22 -109 110 0
-110 130 0
23 -110 0
4 111 0
-111 131 0
5 -111 112 0
-112 132 0
6 -112 113 0
-113 133 0
7 -113 114 0
-114 134 0
8 -114 115 0
-115 135 0
9 -115 116 0
-116 136 0
10 -116 117 0
-117 137 0
11 -117 118 0
-118 138 0
12 -118 119 0
-119 139 0
13 -119 120 0
-120 140 0
14 -120 121 0
-121 141 0
15 -121 122 0
-122 142 0
16 -122 123 0
-123 143 0
17 -123 124 0
-124 144 0
18 -124 125 0
-125 145 0
19 -125 126 0
-126 146 0
20 -126 127 0
-127 147 0
21 -127 128 0
-128 148 0
22 -128 129 0
-129 149 0
23 -129 130 0
-130 150 0
24 -130 0
5 131 0
6 -131 132 0
7 -132 133 0
8 -133 134 0
9 -134 135 0
10 -135 136 0
11 -136 137 0
12 -137 138 0
13 -138 139 0
14 -139 140 0
15 -140 141 0
16 -141 142 0
17 -142 143 0
18 -143 144 0
19 -144 145 0
20 -145 146 0
21 -146 147 0
22 -147 148 0
23 -148 149 0
24 -149 150 0
25 -150 0
26 151 0
-151 152 0
27 -151 153 0
-153 154 0
28 -153 155 0
-155 156 0
29 -155 157 0
-157 158 0
30 -157 159 0
-159 160 0
31 -159 161 0
-161 162 0
32 -161 163 0
-163 164 0
33 -163 165 0
-165 166 0
34 -165 167 0
-167 168 0
35 -167 169 0
-169 170 0
36 -169 171 0
-171 172 0
37 -171 173 0
-173 174 0
38 -173 175 0
-175 176 0
39 -175 177 0
-177 178 0
40 -177 179 0
-179 180 0
41 -179 181 0
-181 182 0
42 -181 183 0
-183 184 0
43 -183 185 0
-185 186 0
44 -185 187 0
-187 188 0
45 -187 189 0
-189 190 0
46 -189 0
27 152 0
-152 191 0
28 -152 154 0
-154 192 0
29 -154 156 0
-156 193 0
30 -156 158 0
-158 194 0
31 -158 160 0
-160 195 0
32 -160 162 0
-162 196 0
33 -162 164 0
-164 197 0
34 -164 166 0
-166 198 0
35 -166 168 0
-168 199 0
36 -168 170 0
-170 200 0
37 -170 172 0
-172 201 0
38 -172 174 0
-174 202 0
39 -174 176 0
-176 203 0
40 -176 178 0
-178 204 0
41 -178 180 0
-180 205 0
42 -180 182 0
-182 206 0
43 -182 184 0
-184 207 0
44 -184 186 0
-186 208 0
45 -186 188 0
-188 209 0
46 -188 190 0
-190 210 0
47 -190 0
28 191 0
-191 211 0
29 -191 192 0
-192 212 0
30 -192 193 0
-193 213 0
31 -193 194 0
-194 214 0
32 -194 195 0
-195 215 0
33 -195 196 0
-196 216 0
34 -196 197 0
-197 217 0
35 -197 198 0
-198 218 0
36 -198 199 0
-199 219 0
37 -199 200 0
-200 220 0
38 -200 201 0
-201 221 0
39 -201 202 0
-202 222 0
40 -202 203 0
-203 223 0
41 -203 204 0
-204 224 0
42 -204 205 0
-205 225 0
43 -205 206 0
-206 226 0
44 -206 207 0
-207 227 0
45 -207 208 0
-208 228 0
46 -208 209 0
-209 229 0
47 -209 210 0
-210 230 0
48 -210 0
29 211 0
-211 231 0
30 -211 212 0
-212 232 0
31 -212 213 0
-213 233 0
32 -213 214 0
-214 234 0
33 -214 215 0
-215 235 0
34 -215 216 0
-216 236 0
35 -216 217 0
-217 237 0
36 -217 218 0
-218 238 0
37 -218 219 0
-219 239 0
38 -219 220 0
-220 240 0
39 -220 221 0
-221 241 0
40 -221 222 0
-222 242 0
41 -222 223 0
-223 243 0
42 -223 224 0
-224 244 0
43 -224 225 0
-225 245 0
44 -225 226 0
-226 246 0
45 -226 227 0
-227 247 0
46 -227 228 0
-228 248 0
47 -228 229 0
-229 249 0
48 -229 230 0
-230 250 0
49 -230 0
30 231 0
31 -231 232 0
32 -232 233 0
33 -233 234 0
34 -234 235 0
35 -235 236 0
36 -236 237 0
37 -237 238 0
38 -238 239 0
39 -239 240 0
40 -240 241 0
41 -241 242 0
42 -242 243 0
43 -243 244 0
44 -244 245 0
45 -245 246 0
46 -246 247 0
47 -247 248 0
48 -248 249 0
49 -249 250 0
50 -250 0
