p cnf 175 6385
1 2 3 4 5 0
-1 -2 0
-1 -3 0
-1 -4 0
-1 -5 0
-2 -3 0
-2 -4 0
-2 -5 0
-3 -4 0
-3 -5 0
-4 -5 0
6 7 8 9 10 0
-6 -7 0
-6 -8 0
-6 -9 0
-6 -10 0
-7 -8 0
-7 -9 0
-7 -10 0
-8 -9 0
-8 -10 0
-9 -10 0
11 12 13 14 15 0
-11 -12 0
-11 -13 0
-11 -14 0
-11 -15 0
-12 -13 0
-12 -14 0
-12 -15 0
-13 -14 0
-13 -15 0
-14 -15 0
16 17 18 19 20 0
-16 -17 0
-16 -18 0
-16 -19 0
-16 -20 0
-17 -18 0
-17 -19 0
-17 -20 0
-18 -19 0
-18 -20 0
-19 -20 0
21 22 23 24 25 0
-21 -22 0
-21 -23 0
-21 -24 0
-21 -25 0
-22 -23 0
-22 -24 0
-22 -25 0
-23 -24 0
-23 -25 0
-24 -25 0
26 27 28 29 30 0
-26 -27 0
-26 -28 0
-26 -29 0
-26 -30 0
-27 -28 0
-27 -29 0
-27 -30 0
-28 -29 0
-28 -30 0
-29 -30 0
31 32 33 34 35 0
-31 -32 0
-31 -33 0
-31 -34 0
-31 -35 0
-32 -33 0
-32 -34 0
-32 -35 0
-33 -34 0
-33 -35 0
-34 -35 0
36 37 38 39 40 0
-36 -37 0
-36 -38 0
-36 -39 0
-36 -40 0
-37 -38 0
-37 -39 0
-37 -40 0
-38 -39 0
-38 -40 0
-39 -40 0
41 42 43 44 45 0
-41 -42 0
-41 -43 0
-41 -44 0
-41 -45 0
-42 -43 0
-42 -44 0
-42 -45 0
-43 -44 0
-43 -45 0
-44 -45 0
46 47 48 49 50 0
-46 -47 0
-46 -48 0
-46 -49 0
-46 -50 0
-47 -48 0
-47 -49 0
-47 -50 0
-48 -49 0
-48 -50 0
-49 -50 0
51 52 53 54 55 0
-51 -52 0
-51 -53 0
-51 -54 0
-51 -55 0
-52 -53 0
-52 -54 0
-52 -55 0
-53 -54 0
-53 -55 0
-54 -55 0
56 57 58 59 60 0
-56 -57 0
-56 -58 0
-56 -59 0
-56 -60 0
-57 -58 0
-57 -59 0
-57 -60 0
-58 -59 0
-58 -60 0
-59 -60 0
61 62 63 64 65 0
-61 -62 0
-61 -63 0
-61 -64 0
-61 -65 0
-62 -63 0
-62 -64 0
-62 -65 0
-63 -64 0
-63 -65 0
-64 -65 0
66 67 68 69 70 0
-66 -67 0
-66 -68 0
-66 -69 0
-66 -70 0
-67 -68 0
-67 -69 0
-67 -70 0
-68 -69 0
-68 -70 0
-69 -70 0
71 72 73 74 75 0
-71 -72 0
-71 -73 0
-71 -74 0
-71 -75 0
-72 -73 0
-72 -74 0
-72 -75 0
-73 -74 0
-73 -75 0
-74 -75 0
76 77 78 79 80 0
-76 -77 0
-76 -78 0
-76 -79 0
-76 -80 0
-77 -78 0
-77 -79 0
-77 -80 0
-78 -79 0
-78 -80 0
-79 -80 0
81 82 83 84 85 0
-81 -82 0
-81 -83 0
-81 -84 0
-81 -85 0
-82 -83 0
-82 -84 0
-82 -85 0
-83 -84 0
-83 -85 0
-84 -85 0
86 87 88 89 90 0
-86 -87 0
-86 -88 0
-86 -89 0
-86 -90 0
-87 -88 0
-87 -89 0
-87 -90 0
-88 -89 0
-88 -90 0
-89 -90 0
91 92 93 94 95 0
-91 -92 0
-91 -93 0
-91 -94 0
-91 -95 0
-92 -93 0
-92 -94 0
-92 -95 0
-93 -94 0
-93 -95 0
-94 -95 0
96 97 98 99 100 0
-96 -97 0
-96 -98 0
-96 -99 0
-96 -100 0
-97 -98 0
-97 -99 0
-97 -100 0
-98 -99 0
-98 -100 0
-99 -100 0
101 102 103 104 105 0
-101 -102 0
-101 -103 0
-101 -104 0
-101 -105 0
-102 -103 0
-102 -104 0
-102 -105 0
-103 -104 0
-103 -105 0
-104 -105 0
106 107 108 109 110 0
-106 -107 0
-106 -108 0
-106 -109 0
-106 -110 0
-107 -108 0
-107 -109 0
-107 -110 0
-108 -109 0
-108 -110 0
-109 -110 0
111 112 113 114 115 0
-111 -112 0
-111 -113 0
-111 -114 0
-111 -115 0
-112 -113 0
-112 -114 0
-112 -115 0
-113 -114 0
-113 -115 0
-114 -115 0
116 117 118 119 120 0
-116 -117 0
-116 -118 0
-116 -119 0
-116 -120 0
-117 -118 0
-117 -119 0
-117 -120 0
-118 -119 0
-118 -120 0
-119 -120 0
121 122 123 124 125 0
-121 -122 0
-121 -123 0
-121 -124 0
-121 -125 0
-122 -123 0
-122 -124 0
-122 -125 0
-123 -124 0
-123 -125 0
-124 -125 0
126 127 128 129 130 0
-126 -127 0
-126 -128 0
-126 -129 0
-126 -130 0
-127 -128 0
-127 -129 0
-127 -130 0
-128 -129 0
-128 -130 0
-129 -130 0
131 132 133 134 135 0
-131 -132 0
-131 -133 0
-131 -134 0
-131 -135 0
-132 -133 0
-132 -134 0
-132 -135 0
-133 -134 0
-133 -135 0
-134 -135 0
136 137 138 139 140 0
-136 -137 0
-136 -138 0
-136 -139 0
-136 -140 0
-137 -138 0
-137 -139 0
-137 -140 0
-138 -139 0
-138 -140 0
-139 -140 0
141 142 143 144 145 0
-141 -142 0
-141 -143 0
-141 -144 0
-141 -145 0
-142 -143 0
-142 -144 0
-142 -145 0
-143 -144 0
-143 -145 0
-144 -145 0
146 147 148 149 150 0
-146 -147 0
-146 -148 0
-146 -149 0
-146 -150 0
-147 -148 0
-147 -149 0
-147 -150 0
-148 -149 0
-148 -150 0
-149 -150 0
151 152 153 154 155 0
-151 -152 0
-151 -153 0
-151 -154 0
-151 -155 0
-152 -153 0
-152 -154 0
-152 -155 0
-153 -154 0
-153 -155 0
-154 -155 0
156 157 158 159 160 0
-156 -157 0
-156 -158 0
-156 -159 0
-156 -160 0
-157 -158 0
-157 -159 0
-157 -160 0
-158 -159 0
-158 -160 0
-159 -160 0
161 162 163 164 165 0
-161 -162 0
-161 -163 0
-161 -164 0
-161 -165 0
-162 -163 0
-162 -164 0
-162 -165 0
-163 -164 0
-163 -165 0
-164 -165 0
166 167 168 169 170 0
-166 -167 0
-166 -168 0
-166 -169 0
-166 -170 0
-167 -168 0
-167 -169 0
-167 -170 0
-168 -169 0
-168 -170 0
-169 -170 0
171 172 173 174 175 0
-171 -172 0
-171 -173 0
-171 -174 0
-171 -175 0
-172 -173 0
-172 -174 0
-172 -175 0
-173 -174 0
-173 -175 0
-174 -175 0
-66 -166 0
-67 -167 0
-68 -168 0
-69 -169 0
-70 -170 0
-21 -46 0
-22 -47 0
-23 -48 0
-24 -49 0
-25 -50 0
-26 -96 0
-27 -97 0
-28 -98 0
-29 -99 0
-30 -100 0
-61 -171 0
-62 -172 0
-63 -173 0
-64 -174 0
-65 -175 0
-16 -156 0
-17 -157 0
-18 -158 0
-19 -159 0
-20 -160 0
-11 -56 0
-12 -57 0
-13 -58 0
-14 -59 0
-15 -60 0
-141 -151 0
-142 -152 0
-143 -153 0
-144 -154 0
-145 -155 0
-46 -131 0
-47 -132 0
-48 -133 0
-49 -134 0
-50 -135 0
-6 -121 0
-7 -122 0
-8 -123 0
-9 -124 0
-10 -125 0
-36 -96 0
-37 -97 0
-38 -98 0
-39 -99 0
-40 -100 0
-11 -161 0
-12 -162 0
-13 -163 0
-14 -164 0
-15 -165 0
-16 -31 0
-17 -32 0
-18 -33 0
-19 -34 0
-20 -35 0
-41 -56 0
-42 -57 0
-43 -58 0
-44 -59 0
-45 -60 0
-16 -121 0
-17 -122 0
-18 -123 0
-19 -124 0
-20 -125 0
-26 -106 0
-27 -107 0
-28 -108 0
-29 -109 0
-30 -110 0
-26 -151 0
-27 -152 0
-28 -153 0
-29 -154 0
-30 -155 0
-66 -96 0
-67 -97 0
-68 -98 0
-69 -99 0
-70 -100 0
-31 -66 0
-32 -67 0
-33 -68 0
-34 -69 0
-35 -70 0
-36 -61 0
-37 -62 0
-38 -63 0
-39 -64 0
-40 -65 0
-36 -151 0
-37 -152 0
-38 -153 0
-39 -154 0
-40 -155 0
-16 -41 0
-17 -42 0
-18 -43 0
-19 -44 0
-20 -45 0
-46 -61 0
-47 -62 0
-48 -63 0
-49 -64 0
-50 -65 0
-61 -146 0
-62 -147 0
-63 -148 0
-64 -149 0
-65 -150 0
-116 -146 0
-117 -147 0
-118 -148 0
-119 -149 0
-120 -150 0
-21 -171 0
-22 -172 0
-23 -173 0
-24 -174 0
-25 -175 0
-136 -146 0
-137 -147 0
-138 -148 0
-139 -149 0
-140 -150 0
-41 -126 0
-42 -127 0
-43 -128 0
-44 -129 0
-45 -130 0
-51 -111 0
-52 -112 0
-53 -113 0
-54 -114 0
-55 -115 0
-6 -96 0
-7 -97 0
-8 -98 0
-9 -99 0
-10 -100 0
-41 -171 0
-42 -172 0
-43 -173 0
-44 -174 0
-45 -175 0
-36 -71 0
-37 -72 0
-38 -73 0
-39 -74 0
-40 -75 0
-51 -156 0
-52 -157 0
-53 -158 0
-54 -159 0
-55 -160 0
-1 -151 0
-2 -152 0
-3 -153 0
-4 -154 0
-5 -155 0
-151 -171 0
-152 -172 0
-153 -173 0
-154 -174 0
-155 -175 0
-36 -116 0
-37 -117 0
-38 -118 0
-39 -119 0
-40 -120 0
-61 -111 0
-62 -112 0
-63 -113 0
-64 -114 0
-65 -115 0
-46 -71 0
-47 -72 0
-48 -73 0
-49 -74 0
-50 -75 0
-61 -156 0
-62 -157 0
-63 -158 0
-64 -159 0
-65 -160 0
-71 -141 0
-72 -142 0
-73 -143 0
-74 -144 0
-75 -145 0
-21 -136 0
-22 -137 0
-23 -138 0
-24 -139 0
-25 -140 0
-6 -16 0
-7 -17 0
-8 -18 0
-9 -19 0
-10 -20 0
-41 -136 0
-42 -137 0
-43 -138 0
-44 -139 0
-45 -140 0
-11 -101 0
-12 -102 0
-13 -103 0
-14 -104 0
-15 -105 0
-6 -151 0
-7 -152 0
-8 -153 0
-9 -154 0
-10 -155 0
-81 -141 0
-82 -142 0
-83 -143 0
-84 -144 0
-85 -145 0
-61 -76 0
-62 -77 0
-63 -78 0
-64 -79 0
-65 -80 0
-21 -56 0
-22 -57 0
-23 -58 0
-24 -59 0
-25 -60 0
-16 -106 0
-17 -107 0
-18 -108 0
-19 -109 0
-20 -110 0
-26 -91 0
-27 -92 0
-28 -93 0
-29 -94 0
-30 -95 0
-21 -146 0
-22 -147 0
-23 -148 0
-24 -149 0
-25 -150 0
-41 -101 0
-42 -102 0
-43 -103 0
-44 -104 0
-45 -105 0
-51 -86 0
-52 -87 0
-53 -88 0
-54 -89 0
-55 -90 0
-11 -66 0
-12 -67 0
-13 -68 0
-14 -69 0
-15 -70 0
-1 -171 0
-2 -172 0
-3 -173 0
-4 -174 0
-5 -175 0
-16 -26 0
-17 -27 0
-18 -28 0
-19 -29 0
-20 -30 0
-31 -156 0
-32 -157 0
-33 -158 0
-34 -159 0
-35 -160 0
-21 -156 0
-22 -157 0
-23 -158 0
-24 -159 0
-25 -160 0
-66 -91 0
-67 -92 0
-68 -93 0
-69 -94 0
-70 -95 0
-41 -156 0
-42 -157 0
-43 -158 0
-44 -159 0
-45 -160 0
-36 -56 0
-37 -57 0
-38 -58 0
-39 -59 0
-40 -60 0
-6 -126 0
-7 -127 0
-8 -128 0
-9 -129 0
-10 -130 0
-46 -151 0
-47 -152 0
-48 -153 0
-49 -154 0
-50 -155 0
-151 -156 0
-152 -157 0
-153 -158 0
-154 -159 0
-155 -160 0
-11 -166 0
-12 -167 0
-13 -168 0
-14 -169 0
-15 -170 0
-31 -121 0
-32 -122 0
-33 -123 0
-34 -124 0
-35 -125 0
-31 -166 0
-32 -167 0
-33 -168 0
-34 -169 0
-35 -170 0
-26 -66 0
-27 -67 0
-28 -68 0
-29 -69 0
-30 -70 0
-36 -161 0
-37 -162 0
-38 -163 0
-39 -164 0
-40 -165 0
-61 -141 0
-62 -142 0
-63 -143 0
-64 -144 0
-65 -145 0
-16 -126 0
-17 -127 0
-18 -128 0
-19 -129 0
-20 -130 0
-51 -61 0
-52 -62 0
-53 -63 0
-54 -64 0
-55 -65 0
-1 -56 0
-2 -57 0
-3 -58 0
-4 -59 0
-5 -60 0
-41 -121 0
-42 -122 0
-43 -123 0
-44 -124 0
-45 -125 0
-6 -91 0
-7 -92 0
-8 -93 0
-9 -94 0
-10 -95 0
-51 -151 0
-52 -152 0
-53 -153 0
-54 -154 0
-55 -155 0
-56 -146 0
-57 -147 0
-58 -148 0
-59 -149 0
-60 -150 0
-66 -161 0
-67 -162 0
-68 -163 0
-69 -164 0
-70 -165 0
-131 -146 0
-132 -147 0
-133 -148 0
-134 -149 0
-135 -150 0
-21 -41 0
-22 -42 0
-23 -43 0
-24 -44 0
-25 -45 0
-21 -86 0
-22 -87 0
-23 -88 0
-24 -89 0
-25 -90 0
-36 -171 0
-37 -172 0
-38 -173 0
-39 -174 0
-40 -175 0
-21 -131 0
-22 -132 0
-23 -133 0
-24 -134 0
-25 -135 0
-41 -86 0
-42 -87 0
-43 -88 0
-44 -89 0
-45 -90 0
-6 -56 0
-7 -57 0
-8 -58 0
-9 -59 0
-10 -60 0
-56 -66 0
-57 -67 0
-58 -68 0
-59 -69 0
-60 -70 0
-41 -131 0
-42 -132 0
-43 -133 0
-44 -134 0
-45 -135 0
-51 -116 0
-52 -117 0
-53 -118 0
-54 -119 0
-55 -120 0
-1 -156 0
-2 -157 0
-3 -158 0
-4 -159 0
-5 -160 0
-36 -91 0
-37 -92 0
-38 -93 0
-39 -94 0
-40 -95 0
-66 -171 0
-67 -172 0
-68 -173 0
-69 -174 0
-70 -175 0
-61 -71 0
-62 -72 0
-63 -73 0
-64 -74 0
-65 -75 0
-16 -56 0
-17 -57 0
-18 -58 0
-19 -59 0
-20 -60 0
-146 -151 0
-147 -152 0
-148 -153 0
-149 -154 0
-150 -155 0
-21 -51 0
-22 -52 0
-23 -53 0
-24 -54 0
-25 -55 0
-61 -116 0
-62 -117 0
-63 -118 0
-64 -119 0
-65 -120 0
-21 -141 0
-22 -142 0
-23 -143 0
-24 -144 0
-25 -145 0
-11 -16 0
-12 -17 0
-13 -18 0
-14 -19 0
-15 -20 0
-26 -101 0
-27 -102 0
-28 -103 0
-29 -104 0
-30 -105 0
-51 -81 0
-52 -82 0
-53 -83 0
-54 -84 0
-55 -85 0
-6 -66 0
-7 -67 0
-8 -68 0
-9 -69 0
-10 -70 0
-46 -136 0
-47 -137 0
-48 -138 0
-49 -139 0
-50 -140 0
-11 -106 0
-12 -107 0
-13 -108 0
-14 -109 0
-15 -110 0
-11 -151 0
-12 -152 0
-13 -153 0
-14 -154 0
-15 -155 0
-31 -151 0
-32 -152 0
-33 -153 0
-34 -154 0
-35 -155 0
-111 -146 0
-112 -147 0
-113 -148 0
-114 -149 0
-115 -150 0
-41 -106 0
-42 -107 0
-43 -108 0
-44 -109 0
-45 -110 0
-16 -171 0
-17 -172 0
-18 -173 0
-19 -174 0
-20 -175 0
-26 -156 0
-27 -157 0
-28 -158 0
-29 -159 0
-30 -160 0
-41 -151 0
-42 -152 0
-43 -153 0
-44 -154 0
-45 -155 0
-36 -66 0
-37 -67 0
-38 -68 0
-39 -69 0
-40 -70 0
-36 -111 0
-37 -112 0
-38 -113 0
-39 -114 0
-40 -115 0
-31 -161 0
-32 -162 0
-33 -163 0
-34 -164 0
-35 -165 0
-36 -156 0
-37 -157 0
-38 -158 0
-39 -159 0
-40 -160 0
-46 -156 0
-47 -157 0
-48 -158 0
-49 -159 0
-50 -160 0
-56 -141 0
-57 -142 0
-58 -143 0
-59 -144 0
-60 -145 0
-36 -76 0
-37 -77 0
-38 -78 0
-39 -79 0
-40 -80 0
-66 -156 0
-67 -157 0
-68 -158 0
-69 -159 0
-70 -160 0
-76 -141 0
-77 -142 0
-78 -143 0
-79 -144 0
-80 -145 0
-31 -126 0
-32 -127 0
-33 -128 0
-34 -129 0
-35 -130 0
-21 -81 0
-22 -82 0
-23 -83 0
-24 -84 0
-25 -85 0
-36 -166 0
-37 -167 0
-38 -168 0
-39 -169 0
-40 -170 0
-16 -101 0
-17 -102 0
-18 -103 0
-19 -104 0
-20 -105 0
-41 -81 0
-42 -82 0
-43 -83 0
-44 -84 0
-45 -85 0
-46 -76 0
-47 -77 0
-48 -78 0
-49 -79 0
-50 -80 0
-56 -61 0
-57 -62 0
-58 -63 0
-59 -64 0
-60 -65 0
-86 -141 0
-87 -142 0
-88 -143 0
-89 -144 0
-90 -145 0
-56 -151 0
-57 -152 0
-58 -153 0
-59 -154 0
-60 -155 0
-31 -56 -141 0
-32 -57 -142 0
-33 -58 -143 0
-34 -59 -144 0
-35 -60 -145 0
-56 -126 -161 0
-57 -127 -162 0
-58 -128 -163 0
-59 -129 -164 0
-60 -130 -165 0
-71 -106 -156 0
-72 -107 -157 0
-73 -108 -158 0
-74 -109 -159 0
-75 -110 -160 0
-36 -101 -106 0
-37 -102 -107 0
-38 -103 -108 0
-39 -104 -109 0
-40 -105 -110 0
-46 -101 -116 0
-47 -102 -117 0
-48 -103 -118 0
-49 -104 -119 0
-50 -105 -120 0
-51 -121 -166 0
-52 -122 -167 0
-53 -123 -168 0
-54 -124 -169 0
-55 -125 -170 0
-26 -116 -121 0
-27 -117 -122 0
-28 -118 -123 0
-29 -119 -124 0
-30 -120 -125 0
-51 -141 -156 0
-52 -142 -157 0
-53 -143 -158 0
-54 -144 -159 0
-55 -145 -160 0
-6 -76 -86 0
-7 -77 -87 0
-8 -78 -88 0
-9 -79 -89 0
-10 -80 -90 0
-61 -81 -111 0
-62 -82 -112 0
-63 -83 -113 0
-64 -84 -114 0
-65 -85 -115 0
-86 -106 -146 0
-87 -107 -147 0
-88 -108 -148 0
-89 -109 -149 0
-90 -110 -150 0
-16 -76 -96 0
-17 -77 -97 0
-18 -78 -98 0
-19 -79 -99 0
-20 -80 -100 0
-21 -96 -116 0
-22 -97 -117 0
-23 -98 -118 0
-24 -99 -119 0
-25 -100 -120 0
-46 -61 -141 0
-47 -62 -142 0
-48 -63 -143 0
-49 -64 -144 0
-50 -65 -145 0
-66 -81 -91 0
-67 -82 -92 0
-68 -83 -93 0
-69 -84 -94 0
-70 -85 -95 0
-56 -91 -101 0
-57 -92 -102 0
-58 -93 -103 0
-59 -94 -104 0
-60 -95 -105 0
-121 -136 -141 0
-122 -137 -142 0
-123 -138 -143 0
-124 -139 -144 0
-125 -140 -145 0
-106 -131 -151 0
-107 -132 -152 0
-108 -133 -153 0
-109 -134 -154 0
-110 -135 -155 0
-31 -111 -121 0
-32 -112 -122 0
-33 -113 -123 0
-34 -114 -124 0
-35 -115 -125 0
-61 -86 -116 0
-62 -87 -117 0
-63 -88 -118 0
-64 -89 -119 0
-65 -90 -120 0
-6 -161 -166 0
-7 -162 -167 0
-8 -163 -168 0
-9 -164 -169 0
-10 -165 -170 0
-6 -66 -146 0
-7 -67 -147 0
-8 -68 -148 0
-9 -69 -149 0
-10 -70 -150 0
-46 -81 -126 0
-47 -82 -127 0
-48 -83 -128 0
-49 -84 -129 0
-50 -85 -130 0
-101 -141 -166 0
-102 -142 -167 0
-103 -143 -168 0
-104 -144 -169 0
-105 -145 -170 0
-26 -76 -126 0
-27 -77 -127 0
-28 -78 -128 0
-29 -79 -129 0
-30 -80 -130 0
-86 -121 -151 0
-87 -122 -152 0
-88 -123 -153 0
-89 -124 -154 0
-90 -125 -155 0
-111 -116 -141 0
-112 -117 -142 0
-113 -118 -143 0
-114 -119 -144 0
-115 -120 -145 0
-66 -136 -161 0
-67 -137 -162 0
-68 -138 -163 0
-69 -139 -164 0
-70 -140 -165 0
-6 -31 -41 0
-7 -32 -42 0
-8 -33 -43 0
-9 -34 -44 0
-10 -35 -45 0
-41 -91 -96 0
-42 -92 -97 0
-43 -93 -98 0
-44 -94 -99 0
-45 -95 -100 0
-6 -71 -106 0
-7 -72 -107 0
-8 -73 -108 0
-9 -74 -109 0
-10 -75 -110 0
-51 -101 -111 0
-52 -102 -112 0
-53 -103 -113 0
-54 -104 -114 0
-55 -105 -115 0
-16 -126 -161 0
-17 -127 -162 0
-18 -128 -163 0
-19 -129 -164 0
-20 -130 -165 0
-16 -71 -161 0
-17 -72 -162 0
-18 -73 -163 0
-19 -74 -164 0
-20 -75 -165 0
-26 -96 -111 0
-27 -97 -112 0
-28 -98 -113 0
-29 -99 -114 0
-30 -100 -115 0
-126 -136 -151 0
-127 -137 -152 0
-128 -138 -153 0
-129 -139 -154 0
-130 -140 -155 0
-91 -131 -141 0
-92 -132 -142 0
-93 -133 -143 0
-94 -134 -144 0
-95 -135 -145 0
-116 -151 -166 0
-117 -152 -167 0
-118 -153 -168 0
-119 -154 -169 0
-120 -155 -170 0
-36 -96 -166 0
-37 -97 -167 0
-38 -98 -168 0
-39 -99 -169 0
-40 -100 -170 0
-66 -116 -126 0
-67 -117 -127 0
-68 -118 -128 0
-69 -119 -129 0
-70 -120 -130 0
-106 -111 -141 0
-107 -112 -142 0
-108 -113 -143 0
-109 -114 -144 0
-110 -115 -145 0
-6 -16 -146 0
-7 -17 -147 0
-8 -18 -148 0
-9 -19 -149 0
-10 -20 -150 0
-96 -126 -156 0
-97 -127 -157 0
-98 -128 -158 0
-99 -129 -159 0
-100 -130 -160 0
-56 -86 -116 0
-57 -87 -117 0
-58 -88 -118 0
-59 -89 -119 0
-60 -90 -120 0
-81 -106 -141 0
-82 -107 -142 0
-83 -108 -143 0
-84 -109 -144 0
-85 -110 -145 0
-31 -146 -156 0
-32 -147 -157 0
-33 -148 -158 0
-34 -149 -159 0
-35 -150 -160 0
-26 -101 -116 0
-27 -102 -117 0
-28 -103 -118 0
-29 -104 -119 0
-30 -105 -120 0
-56 -86 -161 0
-57 -87 -162 0
-58 -88 -163 0
-59 -89 -164 0
-60 -90 -165 0
-36 -101 -126 0
-37 -102 -127 0
-38 -103 -128 0
-39 -104 -129 0
-40 -105 -130 0
-51 -81 -121 0
-52 -82 -122 0
-53 -83 -123 0
-54 -84 -124 0
-55 -85 -125 0
-91 -136 -146 0
-92 -137 -147 0
-93 -138 -148 0
-94 -139 -149 0
-95 -140 -150 0
-6 -141 -156 0
-7 -142 -157 0
-8 -143 -158 0
-9 -144 -159 0
-10 -145 -160 0
-46 -101 -136 0
-47 -102 -137 0
-48 -103 -138 0
-49 -104 -139 0
-50 -105 -140 0
-66 -76 -86 0
-67 -77 -87 0
-68 -78 -88 0
-69 -79 -89 0
-70 -80 -90 0
-81 -111 -146 0
-82 -112 -147 0
-83 -113 -148 0
-84 -114 -149 0
-85 -115 -150 0
-46 -76 -126 0
-47 -77 -127 0
-48 -78 -128 0
-49 -79 -129 0
-50 -80 -130 0
-26 -91 -131 0
-27 -92 -132 0
-28 -93 -133 0
-29 -94 -134 0
-30 -95 -135 0
-31 -71 -166 0
-32 -72 -167 0
-33 -73 -168 0
-34 -74 -169 0
-35 -75 -170 0
-11 -21 -46 0
-12 -22 -47 0
-13 -23 -48 0
-14 -24 -49 0
-15 -25 -50 0
-11 -111 -131 0
-12 -112 -132 0
-13 -113 -133 0
-14 -114 -134 0
-15 -115 -135 0
-41 -76 -91 0
-42 -77 -92 0
-43 -78 -93 0
-44 -79 -94 0
-45 -80 -95 0
-11 -71 -111 0
-12 -72 -112 0
-13 -73 -113 0
-14 -74 -114 0
-15 -75 -115 0
-6 -71 -81 0
-7 -72 -82 0
-8 -73 -83 0
-9 -74 -84 0
-10 -75 -85 0
-21 -71 -121 0
-22 -72 -122 0
-23 -73 -123 0
-24 -74 -124 0
-25 -75 -125 0
-1 -91 -96 0
-2 -92 -97 0
-3 -93 -98 0
-4 -94 -99 0
-5 -95 -100 0
-6 -31 -61 0
-7 -32 -62 0
-8 -33 -63 0
-9 -34 -64 0
-10 -35 -65 0
-16 -71 -91 0
-17 -72 -92 0
-18 -73 -93 0
-19 -74 -94 0
-20 -75 -95 0
-6 -71 -126 0
-7 -72 -127 0
-8 -73 -128 0
-9 -74 -129 0
-10 -75 -130 0
-21 -71 -166 0
-22 -72 -167 0
-23 -73 -168 0
-24 -74 -169 0
-25 -75 -170 0
-71 -141 -166 0
-72 -142 -167 0
-73 -143 -168 0
-74 -144 -169 0
-75 -145 -170 0
-16 -71 -136 0
-17 -72 -137 0
-18 -73 -138 0
-19 -74 -139 0
-20 -75 -140 0
-51 -101 -131 0
-52 -102 -132 0
-53 -103 -133 0
-54 -104 -134 0
-55 -105 -135 0
-81 -126 -151 0
-82 -127 -152 0
-83 -128 -153 0
-84 -129 -154 0
-85 -130 -155 0
-61 -121 -131 0
-62 -122 -132 0
-63 -123 -133 0
-64 -124 -134 0
-65 -125 -135 0
-6 -16 -31 0
-7 -17 -32 0
-8 -18 -33 0
-9 -19 -34 0
-10 -20 -35 0
-11 -36 -51 0
-12 -37 -52 0
-13 -38 -53 0
-14 -39 -54 0
-15 -40 -55 0
-11 -76 -116 0
-12 -77 -117 0
-13 -78 -118 0
-14 -79 -119 0
-15 -80 -120 0
-21 -36 -61 0
-22 -37 -62 0
-23 -38 -63 0
-24 -39 -64 0
-25 -40 -65 0
-11 -91 -96 0
-12 -92 -97 0
-13 -93 -98 0
-14 -94 -99 0
-15 -95 -100 0
-21 -76 -126 0
-22 -77 -127 0
-23 -78 -128 0
-24 -79 -129 0
-25 -80 -130 0
-11 -76 -161 0
-12 -77 -162 0
-13 -78 -163 0
-14 -79 -164 0
-15 -80 -165 0
-96 -111 -151 0
-97 -112 -152 0
-98 -113 -153 0
-99 -114 -154 0
-100 -115 -155 0
-56 -86 -91 0
-57 -87 -92 0
-58 -88 -93 0
-59 -89 -94 0
-60 -90 -95 0
-51 -76 -166 0
-52 -77 -167 0
-53 -78 -168 0
-54 -79 -169 0
-55 -80 -170 0
-66 -111 -121 0
-67 -112 -122 0
-68 -113 -123 0
-69 -114 -124 0
-70 -115 -125 0
-11 -146 -171 0
-12 -147 -172 0
-13 -148 -173 0
-14 -149 -174 0
-15 -150 -175 0
-16 -86 -96 0
-17 -87 -97 0
-18 -88 -98 0
-19 -89 -99 0
-20 -90 -100 0
-51 -81 -96 0
-52 -82 -97 0
-53 -83 -98 0
-54 -84 -99 0
-55 -85 -100 0
-6 -86 -131 0
-7 -87 -132 0
-8 -88 -133 0
-9 -89 -134 0
-10 -90 -135 0
-61 -81 -106 0
-62 -82 -107 0
-63 -83 -108 0
-64 -84 -109 0
-65 -85 -110 0
-21 -41 -66 0
-22 -42 -67 0
-23 -43 -68 0
-24 -44 -69 0
-25 -45 -70 0
-6 -101 -111 0
-7 -102 -112 0
-8 -103 -113 0
-9 -104 -114 0
-10 -105 -115 0
-16 -31 -141 0
-17 -32 -142 0
-18 -33 -143 0
-19 -34 -144 0
-20 -35 -145 0
-1 -121 -126 0
-2 -122 -127 0
-3 -123 -128 0
-4 -124 -129 0
-5 -125 -130 0
-21 -106 -161 0
-22 -107 -162 0
-23 -108 -163 0
-24 -109 -164 0
-25 -110 -165 0
-6 -46 -156 0
-7 -47 -157 0
-8 -48 -158 0
-9 -49 -159 0
-10 -50 -160 0
-51 -96 -106 0
-52 -97 -107 0
-53 -98 -108 0
-54 -99 -109 0
-55 -100 -110 0
-86 -156 -161 0
-87 -157 -162 0
-88 -158 -163 0
-89 -159 -164 0
-90 -160 -165 0
-46 -76 -101 0
-47 -77 -102 0
-48 -78 -103 0
-49 -79 -104 0
-50 -80 -105 0
-66 -76 -106 0
-67 -77 -107 0
-68 -78 -108 0
-69 -79 -109 0
-70 -80 -110 0
-36 -131 -136 0
-37 -132 -137 0
-38 -133 -138 0
-39 -134 -139 0
-40 -135 -140 0
-61 -96 -161 0
-62 -97 -162 0
-63 -98 -163 0
-64 -99 -164 0
-65 -100 -165 0
-31 -71 -96 0
-32 -72 -97 0
-33 -73 -98 0
-34 -74 -99 0
-35 -75 -100 0
-31 -111 -161 0
-32 -112 -162 0
-33 -113 -163 0
-34 -114 -164 0
-35 -115 -165 0
-6 -106 -116 0
-7 -107 -117 0
-8 -108 -118 0
-9 -109 -119 0
-10 -110 -120 0
-21 -111 -166 0
-22 -112 -167 0
-23 -113 -168 0
-24 -114 -169 0
-25 -115 -170 0
-66 -91 -131 0
-67 -92 -132 0
-68 -93 -133 0
-69 -94 -134 0
-70 -95 -135 0
-16 -106 -126 0
-17 -107 -127 0
-18 -108 -128 0
-19 -109 -129 0
-20 -110 -130 0
-71 -121 -156 0
-72 -122 -157 0
-73 -123 -158 0
-74 -124 -159 0
-75 -125 -160 0
-56 -116 -121 0
-57 -117 -122 0
-58 -118 -123 0
-59 -119 -124 0
-60 -120 -125 0
-6 -66 -141 0
-7 -67 -142 0
-8 -68 -143 0
-9 -69 -144 0
-10 -70 -145 0
-101 -141 -161 0
-102 -142 -162 0
-103 -143 -163 0
-104 -144 -164 0
-105 -145 -165 0
-86 -121 -146 0
-87 -122 -147 0
-88 -123 -148 0
-89 -124 -149 0
-90 -125 -150 0
-51 -116 -136 0
-52 -117 -137 0
-53 -118 -138 0
-54 -119 -139 0
-55 -120 -140 0
-11 -71 -86 0
-12 -72 -87 0
-13 -73 -88 0
-14 -74 -89 0
-15 -75 -90 0
-26 -76 -166 0
-27 -77 -167 0
-28 -78 -168 0
-29 -79 -169 0
-30 -80 -170 0
-31 -76 -101 0
-32 -77 -102 0
-33 -78 -103 0
-34 -79 -104 0
-35 -80 -105 0
-21 -71 -96 0
-22 -72 -97 0
-23 -73 -98 0
-24 -74 -99 0
-25 -75 -100 0
-26 -36 -146 0
-27 -37 -147 0
-28 -38 -148 0
-29 -39 -149 0
-30 -40 -150 0
-41 -76 -111 0
-42 -77 -112 0
-43 -78 -113 0
-44 -79 -114 0
-45 -80 -115 0
-46 -96 -131 0
-47 -97 -132 0
-48 -98 -133 0
-49 -99 -134 0
-50 -100 -135 0
-66 -96 -136 0
-67 -97 -137 0
-68 -98 -138 0
-69 -99 -139 0
-70 -100 -140 0
-91 -111 -151 0
-92 -112 -152 0
-93 -113 -153 0
-94 -114 -154 0
-95 -115 -155 0
-46 -106 -111 0
-47 -107 -112 0
-48 -108 -113 0
-49 -109 -114 0
-50 -110 -115 0
-126 -136 -146 0
-127 -137 -147 0
-128 -138 -148 0
-129 -139 -149 0
-130 -140 -150 0
-11 -76 -91 0
-12 -77 -92 0
-13 -78 -93 0
-14 -79 -94 0
-15 -80 -95 0
-6 -121 -166 0
-7 -122 -167 0
-8 -123 -168 0
-9 -124 -169 0
-10 -125 -170 0
-21 -76 -101 0
-22 -77 -102 0
-23 -78 -103 0
-24 -79 -104 0
-25 -80 -105 0
-116 -151 -161 0
-117 -152 -162 0
-118 -153 -163 0
-119 -154 -164 0
-120 -155 -165 0
-31 -46 -171 0
-32 -47 -172 0
-33 -48 -173 0
-34 -49 -174 0
-35 -50 -175 0
-101 -156 -166 0
-102 -157 -167 0
-103 -158 -168 0
-104 -159 -169 0
-105 -160 -170 0
-121 -131 -151 0
-122 -132 -152 0
-123 -133 -153 0
-124 -134 -154 0
-125 -135 -155 0
-76 -151 -166 0
-77 -152 -167 0
-78 -153 -168 0
-79 -154 -169 0
-80 -155 -170 0
-56 -86 -111 0
-57 -87 -112 0
-58 -88 -113 0
-59 -89 -114 0
-60 -90 -115 0
-46 -111 -136 0
-47 -112 -137 0
-48 -113 -138 0
-49 -114 -139 0
-50 -115 -140 0
-51 -91 -166 0
-52 -92 -167 0
-53 -93 -168 0
-54 -94 -169 0
-55 -95 -170 0
-6 -86 -106 0
-7 -87 -107 0
-8 -88 -108 0
-9 -89 -109 0
-10 -90 -110 0
-16 -46 -51 0
-17 -47 -52 0
-18 -48 -53 0
-19 -49 -54 0
-20 -50 -55 0
-21 -31 -146 0
-22 -32 -147 0
-23 -33 -148 0
-24 -34 -149 0
-25 -35 -150 0
-16 -86 -116 0
-17 -87 -117 0
-18 -88 -118 0
-19 -89 -119 0
-20 -90 -120 0
-41 -51 -141 0
-42 -52 -142 0
-43 -53 -143 0
-44 -54 -144 0
-45 -55 -145 0
-6 -141 -151 0
-7 -142 -152 0
-8 -143 -153 0
-9 -144 -154 0
-10 -145 -155 0
-71 -101 -146 0
-72 -102 -147 0
-73 -103 -148 0
-74 -104 -149 0
-75 -105 -150 0
-1 -161 -166 0
-2 -162 -167 0
-3 -163 -168 0
-4 -164 -169 0
-5 -165 -170 0
-6 -101 -131 0
-7 -102 -132 0
-8 -103 -133 0
-9 -104 -134 0
-10 -105 -135 0
-16 -86 -161 0
-17 -87 -162 0
-18 -88 -163 0
-19 -89 -164 0
-20 -90 -165 0
-96 -141 -161 0
-97 -142 -162 0
-98 -143 -163 0
-99 -144 -164 0
-100 -145 -165 0
-16 -46 -141 0
-17 -47 -142 0
-18 -48 -143 0
-19 -49 -144 0
-20 -50 -145 0
-26 -91 -126 0
-27 -92 -127 0
-28 -93 -128 0
-29 -94 -129 0
-30 -95 -130 0
-31 -71 -116 0
-32 -72 -117 0
-33 -73 -118 0
-34 -74 -119 0
-35 -75 -120 0
-56 -101 -116 0
-57 -102 -117 0
-58 -103 -118 0
-59 -104 -119 0
-60 -105 -120 0
-6 -106 -136 0
-7 -107 -137 0
-8 -108 -138 0
-9 -109 -139 0
-10 -110 -140 0
-81 -121 -141 0
-82 -122 -142 0
-83 -123 -143 0
-84 -124 -144 0
-85 -125 -145 0
-131 -136 -141 0
-132 -137 -142 0
-133 -138 -143 0
-134 -139 -144 0
-135 -140 -145 0
-16 -51 -146 0
-17 -52 -147 0
-18 -53 -148 0
-19 -54 -149 0
-20 -55 -150 0
-71 -81 -156 0
-72 -82 -157 0
-73 -83 -158 0
-74 -84 -159 0
-75 -85 -160 0
-26 -76 -96 0
-27 -77 -97 0
-28 -78 -98 0
-29 -79 -99 0
-30 -80 -100 0
-76 -121 -156 0
-77 -122 -157 0
-78 -123 -158 0
-79 -124 -159 0
-80 -125 -160 0
-11 -111 -126 0
-12 -112 -127 0
-13 -113 -128 0
-14 -114 -129 0
-15 -115 -130 0
-61 -116 -121 0
-62 -117 -122 0
-63 -118 -123 0
-64 -119 -124 0
-65 -120 -125 0
-46 -96 -106 0
-47 -97 -107 0
-48 -98 -108 0
-49 -99 -109 0
-50 -100 -110 0
-91 -166 -171 0
-92 -167 -172 0
-93 -168 -173 0
-94 -169 -174 0
-95 -170 -175 0
-96 -146 -161 0
-97 -147 -162 0
-98 -148 -163 0
-99 -149 -164 0
-100 -150 -165 0
-81 -126 -146 0
-82 -127 -147 0
-83 -128 -148 0
-84 -129 -149 0
-85 -130 -150 0
-6 -31 -56 0
-7 -32 -57 0
-8 -33 -58 0
-9 -34 -59 0
-10 -35 -60 0
-21 -71 -161 0
-22 -72 -162 0
-23 -73 -163 0
-24 -74 -164 0
-25 -75 -165 0
-36 -91 -161 0
-37 -92 -162 0
-38 -93 -163 0
-39 -94 -164 0
-40 -95 -165 0
-96 -161 -171 0
-97 -162 -172 0
-98 -163 -173 0
-99 -164 -174 0
-100 -165 -175 0
-41 -86 -131 0
-42 -87 -132 0
-43 -88 -133 0
-44 -89 -134 0
-45 -90 -135 0
-11 -86 -161 0
-12 -87 -162 0
-13 -88 -163 0
-14 -89 -164 0
-15 -90 -165 0
-116 -136 -156 0
-117 -137 -157 0
-118 -138 -158 0
-119 -139 -159 0
-120 -140 -160 0
-11 -36 -46 0
-12 -37 -47 0
-13 -38 -48 0
-14 -39 -49 0
-15 -40 -50 0
-6 -81 -121 0
-7 -82 -122 0
-8 -83 -123 0
-9 -84 -124 0
-10 -85 -125 0
-16 -66 -151 0
-17 -67 -152 0
-18 -68 -153 0
-19 -69 -154 0
-20 -70 -155 0
-16 -81 -131 0
-17 -82 -132 0
-18 -83 -133 0
-19 -84 -134 0
-20 -85 -135 0
-91 -131 -156 0
-92 -132 -157 0
-93 -133 -158 0
-94 -134 -159 0
-95 -135 -160 0
-61 -76 -81 0
-62 -77 -82 0
-63 -78 -83 0
-64 -79 -84 0
-65 -80 -85 0
-76 -96 -141 0
-77 -97 -142 0
-78 -98 -143 0
-79 -99 -144 0
-80 -100 -145 0
-86 -136 -171 0
-87 -137 -172 0
-88 -138 -173 0
-89 -139 -174 0
-90 -140 -175 0
-61 -76 -126 0
-62 -77 -127 0
-63 -78 -128 0
-64 -79 -129 0
-65 -80 -130 0
-31 -51 -61 0
-32 -52 -62 0
-33 -53 -63 0
-34 -54 -64 0
-35 -55 -65 0
-66 -111 -116 0
-67 -112 -117 0
-68 -113 -118 0
-69 -114 -119 0
-70 -115 -120 0
-16 -31 -46 0
-17 -32 -47 0
-18 -33 -48 0
-19 -34 -49 0
-20 -35 -50 0
-26 -71 -116 0
-27 -72 -117 0
-28 -73 -118 0
-29 -74 -119 0
-30 -75 -120 0
-46 -71 -91 0
-47 -72 -92 0
-48 -73 -93 0
-49 -74 -94 0
-50 -75 -95 0
-11 -31 -156 0
-12 -32 -157 0
-13 -33 -158 0
-14 -34 -159 0
-15 -35 -160 0
-6 -46 -61 0
-7 -47 -62 0
-8 -48 -63 0
-9 -49 -64 0
-10 -50 -65 0
-26 -71 -161 0
-27 -72 -162 0
-28 -73 -163 0
-29 -74 -164 0
-30 -75 -165 0
-6 -86 -126 0
-7 -87 -127 0
-8 -88 -128 0
-9 -89 -129 0
-10 -90 -130 0
-31 -51 -151 0
-32 -52 -152 0
-33 -53 -153 0
-34 -54 -154 0
-35 -55 -155 0
-6 -101 -106 0
-7 -102 -107 0
-8 -103 -108 0
-9 -104 -109 0
-10 -105 -110 0
-16 -86 -136 0
-17 -87 -137 0
-18 -88 -138 0
-19 -89 -139 0
-20 -90 -140 0
-6 -141 -171 0
-7 -142 -172 0
-8 -143 -173 0
-9 -144 -174 0
-10 -145 -175 0
-56 -96 -131 0
-57 -97 -132 0
-58 -98 -133 0
-59 -99 -134 0
-60 -100 -135 0
-101 -121 -171 0
-102 -122 -172 0
-103 -123 -173 0
-104 -124 -174 0
-105 -125 -175 0
-51 -96 -101 0
-52 -97 -102 0
-53 -98 -103 0
-54 -99 -104 0
-55 -100 -105 0
-46 -76 -96 0
-47 -77 -97 0
-48 -78 -98 0
-49 -79 -99 0
-50 -80 -100 0
-21 -91 -126 0
-22 -92 -127 0
-23 -93 -128 0
-24 -94 -129 0
-25 -95 -130 0
-46 -116 -161 0
-47 -117 -162 0
-48 -118 -163 0
-49 -119 -164 0
-50 -120 -165 0
-76 -116 -171 0
-77 -117 -172 0
-78 -118 -173 0
-79 -119 -174 0
-80 -120 -175 0
-6 -51 -66 0
-7 -52 -67 0
-8 -53 -68 0
-9 -54 -69 0
-10 -55 -70 0
-91 -146 -161 0
-92 -147 -162 0
-93 -148 -163 0
-94 -149 -164 0
-95 -150 -165 0
-21 -111 -161 0
-22 -112 -162 0
-23 -113 -163 0
-24 -114 -164 0
-25 -115 -165 0
-31 -126 -136 0
-32 -127 -137 0
-33 -128 -138 0
-34 -129 -139 0
-35 -130 -140 0
-66 -91 -126 0
-67 -92 -127 0
-68 -93 -128 0
-69 -94 -129 0
-70 -95 -130 0
-21 -56 -66 0
-22 -57 -67 0
-23 -58 -68 0
-24 -59 -69 0
-25 -60 -70 0
-26 -76 -116 0
-27 -77 -117 0
-28 -78 -118 0
-29 -79 -119 0
-30 -80 -120 0
-66 -106 -136 0
-67 -107 -137 0
-68 -108 -138 0
-69 -109 -139 0
-70 -110 -140 0
-11 -71 -81 0
-12 -72 -82 0
-13 -73 -83 0
-14 -74 -84 0
-15 -75 -85 0
-21 -71 -91 0
-22 -72 -92 0
-23 -73 -93 0
-24 -74 -94 0
-25 -75 -95 0
-11 -86 -91 0
-12 -87 -92 0
-13 -88 -93 0
-14 -89 -94 0
-15 -90 -95 0
-81 -86 -146 0
-82 -87 -147 0
-83 -88 -148 0
-84 -89 -149 0
-85 -90 -150 0
-26 -51 -151 0
-27 -52 -152 0
-28 -53 -153 0
-29 -54 -154 0
-30 -55 -155 0
-11 -86 -136 0
-12 -87 -137 0
-13 -88 -138 0
-14 -89 -139 0
-15 -90 -140 0
-21 -126 -166 0
-22 -127 -167 0
-23 -128 -168 0
-24 -129 -169 0
-25 -130 -170 0
-31 -101 -166 0
-32 -102 -167 0
-33 -103 -168 0
-34 -104 -169 0
-35 -105 -170 0
-51 -76 -91 0
-52 -77 -92 0
-53 -78 -93 0
-54 -79 -94 0
-55 -80 -95 0
-101 -156 -161 0
-102 -157 -162 0
-103 -158 -163 0
-104 -159 -164 0
-105 -160 -165 0
-101 -116 -141 0
-102 -117 -142 0
-103 -118 -143 0
-104 -119 -144 0
-105 -120 -145 0
-61 -76 -101 0
-62 -77 -102 0
-63 -78 -103 0
-64 -79 -104 0
-65 -80 -105 0
-21 -31 -51 0
-22 -32 -52 0
-23 -33 -53 0
-24 -34 -54 0
-25 -35 -55 0
-51 -131 -136 0
-52 -132 -137 0
-53 -133 -138 0
-54 -134 -139 0
-55 -135 -140 0
-56 -151 -156 0
-57 -152 -157 0
-58 -153 -158 0
-59 -154 -159 0
-60 -155 -160 0
-26 -71 -91 0
-27 -72 -92 0
-28 -73 -93 0
-29 -74 -94 0
-30 -75 -95 0
-51 -91 -116 0
-52 -92 -117 0
-53 -93 -118 0
-54 -94 -119 0
-55 -95 -120 0
-71 -116 -171 0
-72 -117 -172 0
-73 -118 -173 0
-74 -119 -174 0
-75 -120 -175 0
-76 -151 -161 0
-77 -152 -162 0
-78 -153 -163 0
-79 -154 -164 0
-80 -155 -165 0
-66 -111 -136 0
-67 -112 -137 0
-68 -113 -138 0
-69 -114 -139 0
-70 -115 -140 0
-26 -71 -136 0
-27 -72 -137 0
-28 -73 -138 0
-29 -74 -139 0
-30 -75 -140 0
-51 -91 -161 0
-52 -92 -162 0
-53 -93 -163 0
-54 -94 -164 0
-55 -95 -165 0
-21 -31 -141 0
-22 -32 -142 0
-23 -33 -143 0
-24 -34 -144 0
-25 -35 -145 0
-66 -71 -116 0
-67 -72 -117 0
-68 -73 -118 0
-69 -74 -119 0
-70 -75 -120 0
-106 -126 -141 0
-107 -127 -142 0
-108 -128 -143 0
-109 -129 -144 0
-110 -130 -145 0
-1 -26 -31 0
-2 -27 -32 0
-3 -28 -33 0
-4 -29 -34 0
-5 -30 -35 0
-81 -101 -151 0
-82 -102 -152 0
-83 -103 -153 0
-84 -104 -154 0
-85 -105 -155 0
-56 -96 -106 0
-57 -97 -107 0
-58 -98 -108 0
-59 -99 -109 0
-60 -100 -110 0
-101 -121 -146 0
-102 -122 -147 0
-103 -123 -148 0
-104 -124 -149 0
-105 -125 -150 0
-106 -141 -166 0
-107 -142 -167 0
-108 -143 -168 0
-109 -144 -169 0
-110 -145 -170 0
-41 -161 -166 0
-42 -162 -167 0
-43 -163 -168 0
-44 -164 -169 0
-45 -165 -170 0
-21 -91 -101 0
-22 -92 -102 0
-23 -93 -103 0
-24 -94 -104 0
-25 -95 -105 0
-61 -96 -131 0
-62 -97 -132 0
-63 -98 -133 0
-64 -99 -134 0
-65 -100 -135 0
-6 -11 -21 0
-7 -12 -22 0
-8 -13 -23 0
-9 -14 -24 0
-10 -15 -25 0
-41 -71 -76 0
-42 -72 -77 0
-43 -73 -78 0
-44 -74 -79 0
-45 -75 -80 0
-51 -56 -146 0
-52 -57 -147 0
-53 -58 -148 0
-54 -59 -149 0
-55 -60 -150 0
-66 -91 -101 0
-67 -92 -102 0
-68 -93 -103 0
-69 -94 -104 0
-70 -95 -105 0
-26 -31 -156 0
-27 -32 -157 0
-28 -33 -158 0
-29 -34 -159 0
-30 -35 -160 0
-56 -101 -111 0
-57 -102 -112 0
-58 -103 -113 0
-59 -104 -114 0
-60 -105 -115 0
-111 -126 -156 0
-112 -127 -157 0
-113 -128 -158 0
-114 -129 -159 0
-115 -130 -160 0
-16 -101 -116 0
-17 -102 -117 0
-18 -103 -118 0
-19 -104 -119 0
-20 -105 -120 0
-31 -81 -111 0
-32 -82 -112 0
-33 -83 -113 0
-34 -84 -114 0
-35 -85 -115 0
-66 -106 -111 0
-67 -107 -112 0
-68 -108 -113 0
-69 -109 -114 0
-70 -110 -115 0
-6 -116 -131 0
-7 -117 -132 0
-8 -118 -133 0
-9 -119 -134 0
-10 -120 -135 0
-16 -101 -161 0
-17 -102 -162 0
-18 -103 -163 0
-19 -104 -164 0
-20 -105 -165 0
-101 -136 -151 0
-102 -137 -152 0
-103 -138 -153 0
-104 -139 -154 0
-105 -140 -155 0
-21 -81 -161 0
-22 -82 -162 0
-23 -83 -163 0
-24 -84 -164 0
-25 -85 -165 0
-51 -111 -126 0
-52 -112 -127 0
-53 -113 -128 0
-54 -114 -129 0
-55 -115 -130 0
-11 -126 -131 0
-12 -127 -132 0
-13 -128 -133 0
-14 -129 -134 0
-15 -130 -135 0
-31 -86 -116 0
-32 -87 -117 0
-33 -88 -118 0
-34 -89 -119 0
-35 -90 -120 0
-36 -106 -136 0
-37 -107 -137 0
-38 -108 -138 0
-39 -109 -139 0
-40 -110 -140 0
-26 -51 -171 0
-27 -52 -172 0
-28 -53 -173 0
-29 -54 -174 0
-30 -55 -175 0
-41 -86 -126 0
-42 -87 -127 0
-43 -88 -128 0
-44 -89 -129 0
-45 -90 -130 0
-11 -141 -156 0
-12 -142 -157 0
-13 -143 -158 0
-14 -144 -159 0
-15 -145 -160 0
-31 -86 -161 0
-32 -87 -162 0
-33 -88 -163 0
-34 -89 -164 0
-35 -90 -165 0
-46 -91 -166 0
-47 -92 -167 0
-48 -93 -168 0
-49 -94 -169 0
-50 -95 -170 0
-1 -61 -66 0
-2 -62 -67 0
-3 -63 -68 0
-4 -64 -69 0
-5 -65 -70 0
-21 -86 -166 0
-22 -87 -167 0
-23 -88 -168 0
-24 -89 -169 0
-25 -90 -170 0
-96 -121 -146 0
-97 -122 -147 0
-98 -123 -148 0
-99 -124 -149 0
-100 -125 -150 0
-21 -46 -146 0
-22 -47 -147 0
-23 -48 -148 0
-24 -49 -149 0
-25 -50 -150 0
-6 -81 -161 0
-7 -82 -162 0
-8 -83 -163 0
-9 -84 -164 0
-10 -85 -165 0
-86 -96 -146 0
-87 -97 -147 0
-88 -98 -148 0
-89 -99 -149 0
-90 -100 -150 0
-31 -51 -56 0
-32 -52 -57 0
-33 -53 -58 0
-34 -54 -59 0
-35 -55 -60 0
-26 -71 -111 0
-27 -72 -112 0
-28 -73 -113 0
-29 -74 -114 0
-30 -75 -115 0
-46 -71 -86 0
-47 -72 -87 0
-48 -73 -88 0
-49 -74 -89 0
-50 -75 -90 0
-6 -46 -56 0
-7 -47 -57 0
-8 -48 -58 0
-9 -49 -59 0
-10 -50 -60 0
-36 -71 -166 0
-37 -72 -167 0
-38 -73 -168 0
-39 -74 -169 0
-40 -75 -170 0
-66 -126 -166 0
-67 -127 -167 0
-68 -128 -168 0
-69 -129 -169 0
-70 -130 -170 0
-66 -141 -146 0
-67 -142 -147 0
-68 -143 -148 0
-69 -144 -149 0
-70 -145 -150 0
-31 -61 -146 0
-32 -62 -147 0
-33 -63 -148 0
-34 -64 -149 0
-35 -65 -150 0
-16 -116 -166 0
-17 -117 -167 0
-18 -118 -168 0
-19 -119 -169 0
-20 -120 -170 0
-26 -86 -116 0
-27 -87 -117 0
-28 -88 -118 0
-29 -89 -119 0
-30 -90 -120 0
-56 -61 -66 0
-57 -62 -67 0
-58 -63 -68 0
-59 -64 -69 0
-60 -65 -70 0
-11 -66 -146 0
-12 -67 -147 0
-13 -68 -148 0
-14 -69 -149 0
-15 -70 -150 0
-11 -81 -126 0
-12 -82 -127 0
-13 -83 -128 0
-14 -84 -129 0
-15 -85 -130 0
-21 -66 -156 0
-22 -67 -157 0
-23 -68 -158 0
-24 -69 -159 0
-25 -70 -160 0
-31 -81 -131 0
-32 -82 -132 0
-33 -83 -133 0
-34 -84 -134 0
-35 -85 -135 0
-21 -81 -136 0
-22 -82 -137 0
-23 -83 -138 0
-24 -84 -139 0
-25 -85 -140 0
-66 -106 -131 0
-67 -107 -132 0
-68 -108 -133 0
-69 -109 -134 0
-70 -110 -135 0
-76 -141 -161 0
-77 -142 -162 0
-78 -143 -163 0
-79 -144 -164 0
-80 -145 -165 0
-26 -51 -56 0
-27 -52 -57 0
-28 -53 -58 0
-29 -54 -59 0
-30 -55 -60 0
-51 -71 -81 0
-52 -72 -82 0
-53 -73 -83 0
-54 -74 -84 0
-55 -75 -85 0
-116 -126 -141 0
-117 -127 -142 0
-118 -128 -143 0
-119 -129 -144 0
-120 -130 -145 0
-56 -131 -166 0
-57 -132 -167 0
-58 -133 -168 0
-59 -134 -169 0
-60 -135 -170 0
-51 -71 -126 0
-52 -72 -127 0
-53 -73 -128 0
-54 -74 -129 0
-55 -75 -130 0
-76 -91 -151 0
-77 -92 -152 0
-78 -93 -153 0
-79 -94 -154 0
-80 -95 -155 0
-31 -86 -91 0
-32 -87 -92 0
-33 -88 -93 0
-34 -89 -94 0
-35 -90 -95 0
-61 -71 -136 0
-62 -72 -137 0
-63 -73 -138 0
-64 -74 -139 0
-65 -75 -140 0
-11 -46 -66 0
-12 -47 -67 0
-13 -48 -68 0
-14 -49 -69 0
-15 -50 -70 0
-41 -86 -101 0
-42 -87 -102 0
-43 -88 -103 0
-44 -89 -104 0
-45 -90 -105 0
-11 -86 -131 0
-12 -87 -132 0
-13 -88 -133 0
-14 -89 -134 0
-15 -90 -135 0
-31 -86 -136 0
-32 -87 -137 0
-33 -88 -138 0
-34 -89 -139 0
-35 -90 -140 0
-46 -106 -121 0
-47 -107 -122 0
-48 -108 -123 0
-49 -109 -124 0
-50 -110 -125 0
-6 -81 -91 0
-7 -82 -92 0
-8 -83 -93 0
-9 -84 -94 0
-10 -85 -95 0
-91 -121 -141 0
-92 -122 -142 0
-93 -123 -143 0
-94 -124 -144 0
-95 -125 -145 0
-1 -101 -106 0
-2 -102 -107 0
-3 -103 -108 0
-4 -104 -109 0
-5 -105 -110 0
-6 -81 -136 0
-7 -82 -137 0
-8 -83 -138 0
-9 -84 -139 0
-10 -85 -140 0
-11 -46 -156 0
-12 -47 -157 0
-13 -48 -158 0
-14 -49 -159 0
-15 -50 -160 0
-51 -76 -86 0
-52 -77 -87 0
-53 -78 -88 0
-54 -79 -89 0
-55 -80 -90 0
-11 -31 -36 0
-12 -32 -37 0
-13 -33 -38 0
-14 -34 -39 0
-15 -35 -40 0
-16 -26 -146 0
-17 -27 -147 0
-18 -28 -148 0
-19 -29 -149 0
-20 -30 -150 0
-21 -31 -46 0
-22 -32 -47 0
-23 -33 -48 0
-24 -34 -49 0
-25 -35 -50 0
-91 -126 -146 0
-92 -127 -147 0
-93 -128 -148 0
-94 -129 -149 0
-95 -130 -150 0
-6 -136 -166 0
-7 -137 -167 0
-8 -138 -168 0
-9 -139 -169 0
-10 -140 -170 0
-16 -76 -166 0
-17 -77 -167 0
-18 -78 -168 0
-19 -79 -169 0
-20 -80 -170 0
-26 -126 -131 0
-27 -127 -132 0
-28 -128 -133 0
-29 -129 -134 0
-30 -130 -135 0
-46 -71 -106 0
-47 -72 -107 0
-48 -73 -108 0
-49 -74 -109 0
-50 -75 -110 0
-61 -126 -161 0
-62 -127 -162 0
-63 -128 -163 0
-64 -129 -164 0
-65 -130 -165 0
-81 -101 -146 0
-82 -102 -147 0
-83 -103 -148 0
-84 -104 -149 0
-85 -105 -150 0
-6 -41 -51 0
-7 -42 -52 0
-8 -43 -53 0
-9 -44 -54 0
-10 -45 -55 0
-56 -96 -101 0
-57 -97 -102 0
-58 -98 -103 0
-59 -99 -104 0
-60 -100 -105 0
-11 -101 -136 0
-12 -102 -137 0
-13 -103 -138 0
-14 -104 -139 0
-15 -105 -140 0
-106 -141 -161 0
-107 -142 -162 0
-108 -143 -163 0
-109 -144 -164 0
-110 -145 -165 0
-66 -86 -121 0
-67 -87 -122 0
-68 -88 -123 0
-69 -89 -124 0
-70 -90 -125 0
-31 -121 -131 0
-32 -122 -132 0
-33 -123 -133 0
-34 -124 -134 0
-35 -125 -135 0
-26 -31 -61 0
-27 -32 -62 0
-28 -33 -63 0
-29 -34 -64 0
-30 -35 -65 0
-41 -81 -121 0
-42 -82 -122 0
-43 -83 -123 0
-44 -84 -124 0
-45 -85 -125 0
-51 -106 -116 0
-52 -107 -117 0
-53 -108 -118 0
-54 -109 -119 0
-55 -110 -120 0
-11 -26 -56 0
-12 -27 -57 0
-13 -28 -58 0
-14 -29 -59 0
-15 -30 -60 0
-26 -86 -136 0
-27 -87 -137 0
-28 -88 -138 0
-29 -89 -139 0
-30 -90 -140 0
-51 -66 -141 0
-52 -67 -142 0
-53 -68 -143 0
-54 -69 -144 0
-55 -70 -145 0
-46 -141 -156 0
-47 -142 -157 0
-48 -143 -158 0
-49 -144 -159 0
-50 -145 -160 0
-6 -116 -126 0
-7 -117 -127 0
-8 -118 -128 0
-9 -119 -129 0
-10 -120 -130 0
-101 -136 -146 0
-102 -137 -147 0
-103 -138 -148 0
-104 -139 -149 0
-105 -140 -150 0
-106 -156 -166 0
-107 -157 -167 0
-108 -158 -168 0
-109 -159 -169 0
-110 -160 -170 0
-106 -116 -146 0
-107 -117 -147 0
-108 -118 -148 0
-109 -119 -149 0
-110 -120 -150 0
-51 -71 -101 0
-52 -72 -102 0
-53 -73 -103 0
-54 -74 -104 0
-55 -75 -105 0
-61 -111 -131 0
-62 -112 -132 0
-63 -113 -133 0
-64 -114 -134 0
-65 -115 -135 0
-61 -71 -111 0
-62 -72 -112 0
-63 -73 -113 0
-64 -74 -114 0
-65 -75 -115 0
-46 -91 -161 0
-47 -92 -162 0
-48 -93 -163 0
-49 -94 -164 0
-50 -95 -165 0
-6 -26 -66 0
-7 -27 -67 0
-8 -28 -68 0
-9 -29 -69 0
-10 -30 -70 0
-26 -106 -166 0
-27 -107 -167 0
-28 -108 -168 0
-29 -109 -169 0
-30 -110 -170 0
-11 -141 -151 0
-12 -142 -152 0
-13 -143 -153 0
-14 -144 -154 0
-15 -145 -155 0
-26 -66 -146 0
-27 -67 -147 0
-28 -68 -148 0
-29 -69 -149 0
-30 -70 -150 0
-26 -161 -166 0
-27 -162 -167 0
-28 -163 -168 0
-29 -164 -169 0
-30 -165 -170 0
-96 -121 -141 0
-97 -122 -142 0
-98 -123 -143 0
-99 -124 -144 0
-100 -125 -145 0
-56 -76 -136 0
-57 -77 -137 0
-58 -78 -138 0
-59 -79 -139 0
-60 -80 -140 0
-11 -31 -56 0
-12 -32 -57 0
-13 -33 -58 0
-14 -34 -59 0
-15 -35 -60 0
-101 -116 -156 0
-102 -117 -157 0
-103 -118 -158 0
-104 -119 -159 0
-105 -120 -160 0
-61 -126 -136 0
-62 -127 -137 0
-63 -128 -138 0
-64 -129 -139 0
-65 -130 -140 0
-26 -121 -126 0
-27 -122 -127 0
-28 -123 -128 0
-29 -124 -129 0
-30 -125 -130 0
-26 -81 -106 0
-27 -82 -107 0
-28 -83 -108 0
-29 -84 -109 0
-30 -85 -110 0
-36 -121 -136 0
-37 -122 -137 0
-38 -123 -138 0
-39 -124 -139 0
-40 -125 -140 0
-66 -86 -96 0
-67 -87 -97 0
-68 -88 -98 0
-69 -89 -99 0
-70 -90 -100 0
-46 -66 -146 0
-47 -67 -147 0
-48 -68 -148 0
-49 -69 -149 0
-50 -70 -150 0
-11 -116 -136 0
-12 -117 -137 0
-13 -118 -138 0
-14 -119 -139 0
-15 -120 -140 0
-16 -56 -61 0
-17 -57 -62 0
-18 -58 -63 0
-19 -59 -64 0
-20 -60 -65 0
-21 -101 -166 0
-22 -102 -167 0
-23 -103 -168 0
-24 -104 -169 0
-25 -105 -170 0
-31 -61 -141 0
-32 -62 -142 0
-33 -63 -143 0
-34 -64 -144 0
-35 -65 -145 0
-71 -76 -146 0
-72 -77 -147 0
-73 -78 -148 0
-74 -79 -149 0
-75 -80 -150 0
-71 -131 -146 0
-72 -132 -147 0
-73 -133 -148 0
-74 -134 -149 0
-75 -135 -150 0
-61 -91 -121 0
-62 -92 -122 0
-63 -93 -123 0
-64 -94 -124 0
-65 -95 -125 0
-16 -116 -161 0
-17 -117 -162 0
-18 -118 -163 0
-19 -119 -164 0
-20 -120 -165 0
-51 -146 -156 0
-52 -147 -157 0
-53 -148 -158 0
-54 -149 -159 0
-55 -150 -160 0
-26 -86 -111 0
-27 -87 -112 0
-28 -88 -113 0
-29 -89 -114 0
-30 -90 -115 0
-51 -106 -136 0
-52 -107 -137 0
-53 -108 -138 0
-54 -109 -139 0
-55 -110 -140 0
-61 -91 -166 0
-62 -92 -167 0
-63 -93 -168 0
-64 -94 -169 0
-65 -95 -170 0
-36 -86 -121 0
-37 -87 -122 0
-38 -88 -123 0
-39 -89 -124 0
-40 -90 -125 0
-26 -141 -156 0
-27 -142 -157 0
-28 -143 -158 0
-29 -144 -159 0
-30 -145 -160 0
-11 -66 -141 0
-12 -67 -142 0
-13 -68 -143 0
-14 -69 -144 0
-15 -70 -145 0
-21 -66 -151 0
-22 -67 -152 0
-23 -68 -153 0
-24 -69 -154 0
-25 -70 -155 0
-11 -81 -166 0
-12 -82 -167 0
-13 -83 -168 0
-14 -84 -169 0
-15 -85 -170 0
-81 -96 -141 0
-82 -97 -142 0
-83 -98 -143 0
-84 -99 -144 0
-85 -100 -145 0
-51 -71 -76 0
-52 -72 -77 0
-53 -73 -78 0
-54 -74 -79 0
-55 -75 -80 0
-56 -131 -161 0
-57 -132 -162 0
-58 -133 -163 0
-59 -134 -164 0
-60 -135 -165 0
-61 -71 -86 0
-62 -72 -87 0
-63 -73 -88 0
-64 -74 -89 0
-65 -75 -90 0
-76 -91 -146 0
-77 -92 -147 0
-78 -93 -148 0
-79 -94 -149 0
-80 -95 -150 0
-11 -46 -61 0
-12 -47 -62 0
-13 -48 -63 0
-14 -49 -64 0
-15 -50 -65 0
-16 -131 -166 0
-17 -132 -167 0
-18 -133 -168 0
-19 -134 -169 0
-20 -135 -170 0
-21 -86 -91 0
-22 -87 -92 0
-23 -88 -93 0
-24 -89 -94 0
-25 -90 -95 0
-16 -26 -51 0
-17 -27 -52 0
-18 -28 -53 0
-19 -29 -54 0
-20 -30 -55 0
-31 -46 -66 0
-32 -47 -67 0
-33 -48 -68 0
-34 -49 -69 0
-35 -50 -70 0
-101 -111 -156 0
-102 -112 -157 0
-103 -113 -158 0
-104 -114 -159 0
-105 -115 -160 0
-26 -101 -161 0
-27 -102 -162 0
-28 -103 -163 0
-29 -104 -164 0
-30 -105 -165 0
-26 -61 -141 0
-27 -62 -142 0
-28 -63 -143 0
-29 -64 -144 0
-30 -65 -145 0
-66 -121 -131 0
-67 -122 -132 0
-68 -123 -133 0
-69 -124 -134 0
-70 -125 -135 0
-91 -126 -141 0
-92 -127 -142 0
-93 -128 -143 0
-94 -129 -144 0
-95 -130 -145 0
-116 -146 -166 0
-117 -147 -167 0
-118 -148 -168 0
-119 -149 -169 0
-120 -150 -170 0
-16 -76 -161 0
-17 -77 -162 0
-18 -78 -163 0
-19 -79 -164 0
-20 -80 -165 0
-31 -116 -166 0
-32 -117 -167 0
-33 -118 -168 0
-34 -119 -169 0
-35 -120 -170 0
-91 -141 -166 0
-92 -142 -167 0
-93 -143 -168 0
-94 -144 -169 0
-95 -145 -170 0
-1 -131 -136 0
-2 -132 -137 0
-3 -133 -138 0
-4 -134 -139 0
-5 -135 -140 0
-61 -86 -91 0
-62 -87 -92 0
-63 -88 -93 0
-64 -89 -94 0
-65 -90 -95 0
-51 -86 -126 0
-52 -87 -127 0
-53 -88 -128 0
-54 -89 -129 0
-55 -90 -130 0
-101 -131 -141 0
-102 -132 -142 0
-103 -133 -143 0
-104 -134 -144 0
-105 -135 -145 0
-6 -41 -46 0
-7 -42 -47 0
-8 -43 -48 0
-9 -44 -49 0
-10 -45 -50 0
-76 -126 -141 0
-77 -127 -142 0
-78 -128 -143 0
-79 -129 -144 0
-80 -130 -145 0
-66 -126 -136 0
-67 -127 -137 0
-68 -128 -138 0
-69 -129 -139 0
-70 -130 -140 0
-26 -81 -126 0
-27 -82 -127 0
-28 -83 -128 0
-29 -84 -129 0
-30 -85 -130 0
-46 -81 -101 0
-47 -82 -102 0
-48 -83 -103 0
-49 -84 -104 0
-50 -85 -105 0
-116 -121 -156 0
-117 -122 -157 0
-118 -123 -158 0
-119 -124 -159 0
-120 -125 -160 0
-46 -121 -166 0
-47 -122 -167 0
-48 -123 -168 0
-49 -124 -169 0
-50 -125 -170 0
-6 -96 -136 0
-7 -97 -137 0
-8 -98 -138 0
-9 -99 -139 0
-10 -100 -140 0
-66 -86 -161 0
-67 -87 -162 0
-68 -88 -163 0
-69 -89 -164 0
-70 -90 -165 0
-61 -91 -96 0
-62 -92 -97 0
-63 -93 -98 0
-64 -94 -99 0
-65 -95 -100 0
-16 -116 -136 0
-17 -117 -137 0
-18 -118 -138 0
-19 -119 -139 0
-20 -120 -140 0
-56 -71 -131 0
-57 -72 -132 0
-58 -73 -133 0
-59 -74 -134 0
-60 -75 -135 0
-26 -46 -66 0
-27 -47 -67 0
-28 -48 -68 0
-29 -49 -69 0
-30 -50 -70 0
-26 -86 -131 0
-27 -87 -132 0
-28 -88 -133 0
-29 -89 -134 0
-30 -90 -135 0
-46 -86 -106 0
-47 -87 -107 0
-48 -88 -108 0
-49 -89 -109 0
-50 -90 -110 0
-61 -106 -166 0
-62 -107 -167 0
-63 -108 -168 0
-64 -109 -169 0
-65 -110 -170 0
-11 -81 -96 0
-12 -82 -97 0
-13 -83 -98 0
-14 -84 -99 0
-15 -85 -100 0
-21 -121 -126 0
-22 -122 -127 0
-23 -123 -128 0
-24 -124 -129 0
-25 -125 -130 0
-31 -81 -101 0
-32 -82 -102 0
-33 -83 -103 0
-34 -84 -104 0
-35 -85 -105 0
-106 -156 -161 0
-107 -157 -162 0
-108 -158 -163 0
-109 -159 -164 0
-110 -160 -165 0
-71 -96 -151 0
-72 -97 -152 0
-73 -98 -153 0
-74 -99 -154 0
-75 -100 -155 0
-66 -101 -166 0
-67 -102 -167 0
-68 -103 -168 0
-69 -104 -169 0
-70 -105 -170 0
-51 -71 -96 0
-52 -72 -97 0
-53 -73 -98 0
-54 -74 -99 0
-55 -75 -100 0
-116 -126 -156 0
-117 -127 -157 0
-118 -128 -158 0
-119 -129 -159 0
-120 -130 -160 0
-61 -71 -106 0
-62 -72 -107 0
-63 -73 -108 0
-64 -74 -109 0
-65 -75 -110 0
-91 -121 -156 0
-92 -122 -157 0
-93 -123 -158 0
-94 -124 -159 0
-95 -125 -160 0
-16 -91 -121 0
-17 -92 -122 0
-18 -93 -123 0
-19 -94 -124 0
-20 -95 -125 0
-26 -101 -136 0
-27 -102 -137 0
-28 -103 -138 0
-29 -104 -139 0
-30 -105 -140 0
-51 -121 -161 0
-52 -122 -162 0
-53 -123 -163 0
-54 -124 -164 0
-55 -125 -165 0
-86 -146 -161 0
-87 -147 -162 0
-88 -148 -163 0
-89 -149 -164 0
-90 -150 -165 0
-61 -66 -171 0
-62 -67 -172 0
-63 -68 -173 0
-64 -69 -174 0
-65 -70 -175 0
-6 -76 -81 0
-7 -77 -82 0
-8 -78 -83 0
-9 -79 -84 0
-10 -80 -85 0
-11 -96 -101 0
-12 -97 -102 0
-13 -98 -103 0
-14 -99 -104 0
-15 -100 -105 0
-16 -76 -91 0
-17 -77 -92 0
-18 -78 -93 0
-19 -79 -94 0
-20 -80 -95 0
-21 -96 -111 0
-22 -97 -112 0
-23 -98 -113 0
-24 -99 -114 0
-25 -100 -115 0
-26 -116 -161 0
-27 -117 -162 0
-28 -118 -163 0
-29 -119 -164 0
-30 -120 -165 0
-106 -131 -146 0
-107 -132 -147 0
-108 -133 -148 0
-109 -134 -149 0
-110 -135 -150 0
-16 -96 -126 0
-17 -97 -127 0
-18 -98 -128 0
-19 -99 -129 0
-20 -100 -130 0
-51 -86 -101 0
-52 -87 -102 0
-53 -88 -103 0
-54 -89 -104 0
-55 -90 -105 0
-61 -126 -131 0
-62 -127 -132 0
-63 -128 -133 0
-64 -129 -134 0
-65 -130 -135 0
-86 -91 -156 0
-87 -92 -157 0
-88 -93 -158 0
-89 -94 -159 0
-90 -95 -160 0
-96 -136 -141 0
-97 -137 -142 0
-98 -138 -143 0
-99 -139 -144 0
-100 -140 -145 0
-6 -96 -111 0
-7 -97 -112 0
-8 -98 -113 0
-9 -99 -114 0
-10 -100 -115 0
-11 -116 -131 0
-12 -117 -132 0
-13 -118 -133 0
-14 -119 -134 0
-15 -120 -135 0
-106 -136 -151 0
-107 -137 -152 0
-108 -138 -153 0
-109 -139 -154 0
-110 -140 -155 0
-1 -36 -41 0
-2 -37 -42 0
-3 -38 -43 0
-4 -39 -44 0
-5 -40 -45 0
-46 -81 -166 0
-47 -82 -167 0
-48 -83 -168 0
-49 -84 -169 0
-50 -85 -170 0
-56 -111 -126 0
-57 -112 -127 0
-58 -113 -128 0
-59 -114 -129 0
-60 -115 -130 0
-56 -71 -106 0
-57 -72 -107 0
-58 -73 -108 0
-59 -74 -109 0
-60 -75 -110 0
-86 -111 -141 0
-87 -112 -142 0
-88 -113 -143 0
-89 -114 -144 0
-90 -115 -145 0
-6 -111 -121 0
-7 -112 -122 0
-8 -113 -123 0
-9 -114 -124 0
-10 -115 -125 0
-16 -111 -131 0
-17 -112 -132 0
-18 -113 -133 0
-19 -114 -134 0
-20 -115 -135 0
-6 -111 -166 0
-7 -112 -167 0
-8 -113 -168 0
-9 -114 -169 0
-10 -115 -170 0
-111 -121 -141 0
-112 -122 -142 0
-113 -123 -143 0
-114 -124 -144 0
-115 -125 -145 0
-101 -146 -166 0
-102 -147 -167 0
-103 -148 -168 0
-104 -149 -169 0
-105 -150 -170 0
-116 -141 -161 0
-117 -142 -162 0
-118 -143 -163 0
-119 -144 -164 0
-120 -145 -165 0
-86 -126 -151 0
-87 -127 -152 0
-88 -128 -153 0
-89 -129 -154 0
-90 -130 -155 0
-36 -46 -141 0
-37 -47 -142 0
-38 -48 -143 0
-39 -49 -144 0
-40 -50 -145 0
-21 -116 -121 0
-22 -117 -122 0
-23 -118 -123 0
-24 -119 -124 0
-25 -120 -125 0
-96 -116 -151 0
-97 -117 -152 0
-98 -118 -153 0
-99 -119 -154 0
-100 -120 -155 0
-6 -16 -51 0
-7 -17 -52 0
-8 -18 -53 0
-9 -19 -54 0
-10 -20 -55 0
-126 -131 -141 0
-127 -132 -142 0
-128 -133 -143 0
-129 -134 -144 0
-130 -135 -145 0
-21 -116 -166 0
-22 -117 -167 0
-23 -118 -168 0
-24 -119 -169 0
-25 -120 -170 0
-31 -96 -131 0
-32 -97 -132 0
-33 -98 -133 0
-34 -99 -134 0
-35 -100 -135 0
-6 -16 -141 0
-7 -17 -142 0
-8 -18 -143 0
-9 -19 -144 0
-10 -20 -145 0
-81 -91 -156 0
-82 -92 -157 0
-83 -93 -158 0
-84 -94 -159 0
-85 -95 -160 0
-6 -91 -131 0
-7 -92 -132 0
-8 -93 -133 0
-9 -94 -134 0
-10 -95 -135 0
-51 -121 -136 0
-52 -122 -137 0
-53 -123 -138 0
-54 -124 -139 0
-55 -125 -140 0
-61 -81 -126 0
-62 -82 -127 0
-63 -83 -128 0
-64 -84 -129 0
-65 -85 -130 0
-51 -81 -161 0
-52 -82 -162 0
-53 -83 -163 0
-54 -84 -164 0
-55 -85 -165 0
-6 -76 -101 0
-7 -77 -102 0
-8 -78 -103 0
-9 -79 -104 0
-10 -80 -105 0
-21 -96 -131 0
-22 -97 -132 0
-23 -98 -133 0
-24 -99 -134 0
-25 -100 -135 0
-66 -81 -106 0
-67 -82 -107 0
-68 -83 -108 0
-69 -84 -109 0
-70 -85 -110 0
-16 -96 -101 0
-17 -97 -102 0
-18 -98 -103 0
-19 -99 -104 0
-20 -100 -105 0
-96 -131 -156 0
-97 -132 -157 0
-98 -133 -158 0
-99 -134 -159 0
-100 -135 -160 0
-71 -126 -156 0
-72 -127 -157 0
-73 -128 -158 0
-74 -129 -159 0
-75 -130 -160 0
-76 -106 -146 0
-77 -107 -147 0
-78 -108 -148 0
-79 -109 -149 0
-80 -110 -150 0
-6 -146 -156 0
-7 -147 -157 0
-8 -148 -158 0
-9 -149 -159 0
-10 -150 -160 0
-131 -141 -166 0
-132 -142 -167 0
-133 -143 -168 0
-134 -144 -169 0
-135 -145 -170 0
-51 -126 -161 0
-52 -127 -162 0
-53 -128 -163 0
-54 -129 -164 0
-55 -130 -165 0
-36 -81 -86 0
-37 -82 -87 0
-38 -83 -88 0
-39 -84 -89 0
-40 -85 -90 0
-51 -86 -166 0
-52 -87 -167 0
-53 -88 -168 0
-54 -89 -169 0
-55 -90 -170 0
-36 -81 -131 0
-37 -82 -132 0
-38 -83 -133 0
-39 -84 -134 0
-40 -85 -135 0
-46 -121 -161 0
-47 -122 -162 0
-48 -123 -163 0
-49 -124 -164 0
-50 -125 -165 0
-91 -116 -151 0
-92 -117 -152 0
-93 -118 -153 0
-94 -119 -154 0
-95 -120 -155 0
-31 -76 -121 0
-32 -77 -122 0
-33 -78 -123 0
-34 -79 -124 0
-35 -80 -125 0
-71 -91 -141 0
-72 -92 -142 0
-73 -93 -143 0
-74 -94 -144 0
-75 -95 -145 0
-56 -71 -126 0
-57 -72 -127 0
-58 -73 -128 0
-59 -74 -129 0
-60 -75 -130 0
-81 -131 -171 0
-82 -132 -172 0
-83 -133 -173 0
-84 -134 -174 0
-85 -135 -175 0
-26 -46 -61 0
-27 -47 -62 0
-28 -48 -63 0
-29 -49 -64 0
-30 -50 -65 0
-16 -71 -86 0
-17 -72 -87 0
-18 -73 -88 0
-19 -74 -89 0
-20 -75 -90 0
-31 -131 -166 0
-32 -132 -167 0
-33 -133 -168 0
-34 -134 -169 0
-35 -135 -170 0
-41 -91 -111 0
-42 -92 -112 0
-43 -93 -113 0
-44 -94 -114 0
-45 -95 -115 0
-31 -36 -146 0
-32 -37 -147 0
-33 -38 -148 0
-34 -39 -149 0
-35 -40 -150 0
-51 -101 -126 0
-52 -102 -127 0
-53 -103 -128 0
-54 -104 -129 0
-55 -105 -130 0
-11 -76 -111 0
-12 -77 -112 0
-13 -78 -113 0
-14 -79 -114 0
-15 -80 -115 0
-66 -101 -116 0
-67 -102 -117 0
-68 -103 -118 0
-69 -104 -119 0
-70 -105 -120 0
-96 -111 -146 0
-97 -112 -147 0
-98 -113 -148 0
-99 -114 -149 0
-100 -115 -150 0
-41 -96 -116 0
-42 -97 -117 0
-43 -98 -118 0
-44 -99 -119 0
-45 -100 -120 0
-11 -91 -136 0
-12 -92 -137 0
-13 -93 -138 0
-14 -94 -139 0
-15 -95 -140 0
-21 -76 -166 0
-22 -77 -167 0
-23 -78 -168 0
-24 -79 -169 0
-25 -80 -170 0
-106 -111 -156 0
-107 -112 -157 0
-108 -113 -158 0
-109 -114 -159 0
-110 -115 -160 0
-16 -131 -136 0
-17 -132 -137 0
-18 -133 -138 0
-19 -134 -139 0
-20 -135 -140 0
-41 -96 -161 0
-42 -97 -162 0
-43 -98 -163 0
-44 -99 -164 0
-45 -100 -165 0
-16 -91 -116 0
-17 -92 -117 0
-18 -93 -118 0
-19 -94 -119 0
-20 -95 -120 0
-11 -41 -51 0
-12 -42 -52 0
-13 -43 -53 0
-14 -44 -54 0
-15 -45 -55 0
-61 -81 -101 0
-62 -82 -102 0
-63 -83 -103 0
-64 -84 -104 0
-65 -85 -105 0
-21 -41 -61 0
-22 -42 -62 0
-23 -43 -63 0
-24 -44 -64 0
-25 -45 -65 0
-11 -136 -161 0
-12 -137 -162 0
-13 -138 -163 0
-14 -139 -164 0
-15 -140 -165 0
-21 -96 -106 0
-22 -97 -107 0
-23 -98 -108 0
-24 -99 -109 0
-25 -100 -110 0
-16 -36 -66 0
-17 -37 -67 0
-18 -38 -68 0
-19 -39 -69 0
-20 -40 -70 0
-31 -41 -146 0
-32 -42 -147 0
-33 -43 -148 0
-34 -44 -149 0
-35 -45 -150 0
-16 -76 -131 0
-17 -77 -132 0
-18 -78 -133 0
-19 -79 -134 0
-20 -80 -135 0
-66 -81 -126 0
-67 -82 -127 0
-68 -83 -128 0
-69 -84 -129 0
-70 -85 -130 0
-56 -91 -136 0
-57 -92 -137 0
-58 -93 -138 0
-59 -94 -139 0
-60 -95 -140 0
-56 -106 -116 0
-57 -107 -117 0
-58 -108 -118 0
-59 -109 -119 0
-60 -110 -120 0
-61 -86 -106 0
-62 -87 -107 0
-63 -88 -108 0
-64 -89 -109 0
-65 -90 -110 0
-31 -71 -136 0
-32 -72 -137 0
-33 -73 -138 0
-34 -74 -139 0
-35 -75 -140 0
-41 -111 -166 0
-42 -112 -167 0
-43 -113 -168 0
-44 -114 -169 0
-45 -115 -170 0
-6 -51 -156 0
-7 -52 -157 0
-8 -53 -158 0
-9 -54 -159 0
-10 -55 -160 0
-16 -106 -166 0
-17 -107 -167 0
-18 -108 -168 0
-19 -109 -169 0
-20 -110 -170 0
-61 -101 -161 0
-62 -102 -162 0
-63 -103 -163 0
-64 -104 -164 0
-65 -105 -165 0
-76 -81 -156 0
-77 -82 -157 0
-78 -83 -158 0
-79 -84 -159 0
-80 -85 -160 0
-26 -36 -141 0
-27 -37 -142 0
-28 -38 -143 0
-29 -39 -144 0
-30 -40 -145 0
-56 -71 -101 0
-57 -72 -102 0
-58 -73 -103 0
-59 -74 -104 0
-60 -75 -105 0
-31 -91 -121 0
-32 -92 -122 0
-33 -93 -123 0
-34 -94 -124 0
-35 -95 -125 0
-106 -126 -146 0
-107 -127 -147 0
-108 -128 -148 0
-109 -129 -149 0
-110 -130 -150 0
-96 -166 -171 0
-97 -167 -172 0
-98 -168 -173 0
-99 -169 -174 0
-100 -170 -175 0
-101 -146 -161 0
-102 -147 -162 0
-103 -148 -163 0
-104 -149 -164 0
-105 -150 -165 0
-56 -121 -166 0
-57 -122 -167 0
-58 -123 -168 0
-59 -124 -169 0
-60 -125 -170 0
-61 -161 -166 0
-62 -162 -167 0
-63 -163 -168 0
-64 -164 -169 0
-65 -165 -170 0
-11 -76 -86 0
-12 -77 -87 0
-13 -78 -88 0
-14 -79 -89 0
-15 -80 -90 0
-26 -136 -166 0
-27 -137 -167 0
-28 -138 -168 0
-29 -139 -169 0
-30 -140 -170 0
-36 -96 -111 0
-37 -97 -112 0
-38 -98 -113 0
-39 -99 -114 0
-40 -100 -115 0
-6 -16 -46 0
-7 -17 -47 0
-8 -18 -48 0
-9 -19 -49 0
-10 -20 -50 0
-21 -76 -96 0
-22 -77 -97 0
-23 -78 -98 0
-24 -79 -99 0
-25 -80 -100 0
-21 -116 -161 0
-22 -117 -162 0
-23 -118 -163 0
-24 -119 -164 0
-25 -120 -165 0
-26 -41 -146 0
-27 -42 -147 0
-28 -43 -148 0
-29 -44 -149 0
-30 -45 -150 0
-66 -101 -136 0
-67 -102 -137 0
-68 -103 -138 0
-69 -104 -139 0
-70 -105 -140 0
-11 -91 -111 0
-12 -92 -112 0
-13 -93 -113 0
-14 -94 -114 0
-15 -95 -115 0
-31 -96 -126 0
-32 -97 -127 0
-33 -98 -128 0
-34 -99 -129 0
-35 -100 -130 0
-121 -131 -146 0
-122 -132 -147 0
-123 -133 -148 0
-124 -134 -149 0
-125 -135 -150 0
-96 -126 -146 0
-97 -127 -147 0
-98 -128 -148 0
-99 -129 -149 0
-100 -130 -150 0
-1 -71 -76 0
-2 -72 -77 0
-3 -73 -78 0
-4 -74 -79 0
-5 -75 -80 0
-101 -111 -146 0
-102 -112 -147 0
-103 -113 -148 0
-104 -114 -149 0
-105 -115 -150 0
-76 -86 -156 0
-77 -87 -157 0
-78 -88 -158 0
-79 -89 -159 0
-80 -90 -160 0
-46 -101 -126 0
-47 -102 -127 0
-48 -103 -128 0
-49 -104 -129 0
-50 -105 -130 0
-31 -51 -171 0
-32 -52 -172 0
-33 -53 -173 0
-34 -54 -174 0
-35 -55 -175 0
-61 -81 -121 0
-62 -82 -122 0
-63 -83 -123 0
-64 -84 -124 0
-65 -85 -125 0
-101 -126 -171 0
-102 -127 -172 0
-103 -128 -173 0
-104 -129 -174 0
-105 -130 -175 0
-11 -96 -116 0
-12 -97 -117 0
-13 -98 -118 0
-14 -99 -119 0
-15 -100 -120 0
-121 -136 -151 0
-122 -137 -152 0
-123 -138 -153 0
-124 -139 -154 0
-125 -140 -155 0
-66 -81 -101 0
-67 -82 -102 0
-68 -83 -103 0
-69 -84 -104 0
-70 -85 -105 0
-111 -151 -166 0
-112 -152 -167 0
-113 -153 -168 0
-114 -154 -169 0
-115 -155 -170 0
-51 -96 -166 0
-52 -97 -167 0
-53 -98 -168 0
-54 -99 -169 0
-55 -100 -170 0
-66 -76 -121 0
-67 -77 -122 0
-68 -78 -123 0
-69 -79 -124 0
-70 -80 -125 0
-21 -111 -136 0
-22 -112 -137 0
-23 -113 -138 0
-24 -114 -139 0
-25 -115 -140 0
-31 -71 -111 0
-32 -72 -112 0
-33 -73 -113 0
-34 -74 -114 0
-35 -75 -115 0
-6 -146 -151 0
-7 -147 -152 0
-8 -148 -153 0
-9 -149 -154 0
-10 -150 -155 0
-46 -76 -161 0
-47 -77 -162 0
-48 -78 -163 0
-49 -79 -164 0
-50 -80 -165 0
-46 -131 -161 0
-47 -132 -162 0
-48 -133 -163 0
-49 -134 -164 0
-50 -135 -165 0
-66 -131 -166 0
-67 -132 -167 0
-68 -133 -168 0
-69 -134 -169 0
-70 -135 -170 0
-116 -121 -146 0
-117 -122 -147 0
-118 -123 -148 0
-119 -124 -149 0
-120 -125 -150 0
-46 -81 -91 0
-47 -82 -92 0
-48 -83 -93 0
-49 -84 -94 0
-50 -85 -95 0
-91 -116 -146 0
-92 -117 -147 0
-93 -118 -148 0
-94 -119 -149 0
-95 -120 -150 0
-61 -101 -136 0
-62 -102 -137 0
-63 -103 -138 0
-64 -104 -139 0
-65 -105 -140 0
-26 -76 -136 0
-27 -77 -137 0
-28 -78 -138 0
-29 -79 -139 0
-30 -80 -140 0
-46 -96 -101 0
-47 -97 -102 0
-48 -98 -103 0
-49 -99 -104 0
-50 -100 -105 0
-11 -71 -101 0
-12 -72 -102 0
-13 -73 -103 0
-14 -74 -104 0
-15 -75 -105 0
-31 -76 -116 0
-32 -77 -117 0
-33 -78 -118 0
-34 -79 -119 0
-35 -80 -120 0
-46 -136 -166 0
-47 -137 -167 0
-48 -138 -168 0
-49 -139 -169 0
-50 -140 -170 0
-66 -96 -106 0
-67 -97 -107 0
-68 -98 -108 0
-69 -99 -109 0
-70 -100 -110 0
-31 -91 -96 0
-32 -92 -97 0
-33 -93 -98 0
-34 -94 -99 0
-35 -95 -100 0
-6 -111 -136 0
-7 -112 -137 0
-8 -113 -138 0
-9 -114 -139 0
-10 -115 -140 0
-11 -16 -146 0
-12 -17 -147 0
-13 -18 -148 0
-14 -19 -149 0
-15 -20 -150 0
-31 -76 -161 0
-32 -77 -162 0
-33 -78 -163 0
-34 -79 -164 0
-35 -80 -165 0
-6 -71 -116 0
-7 -72 -117 0
-8 -73 -118 0
-9 -74 -119 0
-10 -75 -120 0
-31 -36 -141 0
-32 -37 -142 0
-33 -38 -143 0
-34 -39 -144 0
-35 -40 -145 0
-71 -86 -156 0
-72 -87 -157 0
-73 -88 -158 0
-74 -89 -159 0
-75 -90 -160 0
-16 -71 -126 0
-17 -72 -127 0
-18 -73 -128 0
-19 -74 -129 0
-20 -75 -130 0
-51 -101 -121 0
-52 -102 -122 0
-53 -103 -123 0
-54 -104 -124 0
-55 -105 -125 0
-6 -126 -161 0
-7 -127 -162 0
-8 -128 -163 0
-9 -129 -164 0
-10 -130 -165 0
-6 -71 -161 0
-7 -72 -162 0
-8 -73 -163 0
-9 -74 -164 0
-10 -75 -165 0
-131 -156 -166 0
-132 -157 -167 0
-133 -158 -168 0
-134 -159 -169 0
-135 -160 -170 0
-26 -96 -121 0
-27 -97 -122 0
-28 -98 -123 0
-29 -99 -124 0
-30 -100 -125 0
-51 -61 -146 0
-52 -62 -147 0
-53 -63 -148 0
-54 -64 -149 0
-55 -65 -150 0
-11 -76 -106 0
-12 -77 -107 0
-13 -78 -108 0
-14 -79 -109 0
-15 -80 -110 0
-56 -81 -166 0
-57 -82 -167 0
-58 -83 -168 0
-59 -84 -169 0
-60 -85 -170 0
-61 -121 -166 0
-62 -122 -167 0
-63 -123 -168 0
-64 -124 -169 0
-65 -125 -170 0
-111 -131 -156 0
-112 -132 -157 0
-113 -133 -158 0
-114 -134 -159 0
-115 -135 -160 0
-26 -56 -146 0
-27 -57 -147 0
-28 -58 -148 0
-29 -59 -149 0
-30 -60 -150 0
-21 -76 -161 0
-22 -77 -162 0
-23 -78 -163 0
-24 -79 -164 0
-25 -80 -165 0
-36 -56 -156 0
-37 -57 -157 0
-38 -58 -158 0
-39 -59 -159 0
-40 -60 -160 0
-36 -116 -166 0
-37 -117 -167 0
-38 -118 -168 0
-39 -119 -169 0
-40 -120 -170 0
-71 -146 -161 0
-72 -147 -162 0
-73 -148 -163 0
-74 -149 -164 0
-75 -150 -165 0
-71 -106 -141 0
-72 -107 -142 0
-73 -108 -143 0
-74 -109 -144 0
-75 -110 -145 0
-81 -106 -151 0
-82 -107 -152 0
-83 -108 -153 0
-84 -109 -154 0
-85 -110 -155 0
-11 -41 -46 0
-12 -42 -47 0
-13 -43 -48 0
-14 -44 -49 0
-15 -45 -50 0
-101 -126 -146 0
-102 -127 -147 0
-103 -128 -148 0
-104 -129 -149 0
-105 -130 -150 0
-61 -81 -96 0
-62 -82 -97 0
-63 -83 -98 0
-64 -84 -99 0
-65 -85 -100 0
-91 -136 -156 0
-92 -137 -157 0
-93 -138 -158 0
-94 -139 -159 0
-95 -140 -160 0
-6 -86 -166 0
-7 -87 -167 0
-8 -88 -168 0
-9 -89 -169 0
-10 -90 -170 0
-76 -101 -141 0
-77 -102 -142 0
-78 -103 -143 0
-79 -104 -144 0
-80 -105 -145 0
-86 -101 -151 0
-87 -102 -152 0
-88 -103 -153 0
-89 -104 -154 0
-90 -105 -155 0
-51 -136 -161 0
-52 -137 -162 0
-53 -138 -163 0
-54 -139 -164 0
-55 -140 -165 0
-46 -56 -146 0
-47 -57 -147 0
-48 -58 -148 0
-49 -59 -149 0
-50 -60 -150 0
-6 -51 -61 0
-7 -52 -62 0
-8 -53 -63 0
-9 -54 -64 0
-10 -55 -65 0
-26 -131 -161 0
-27 -132 -162 0
-28 -133 -163 0
-29 -134 -164 0
-30 -135 -165 0
-41 -111 -116 0
-42 -112 -117 0
-43 -113 -118 0
-44 -114 -119 0
-45 -115 -120 0
-56 -106 -111 0
-57 -107 -112 0
-58 -108 -113 0
-59 -109 -114 0
-60 -110 -115 0
-41 -71 -96 0
-42 -72 -97 0
-43 -73 -98 0
-44 -74 -99 0
-45 -75 -100 0
-31 -71 -131 0
-32 -72 -132 0
-33 -73 -133 0
-34 -74 -134 0
-35 -75 -135 0
-6 -146 -171 0
-7 -147 -172 0
-8 -148 -173 0
-9 -149 -174 0
-10 -150 -175 0
-1 -141 -146 0
-2 -142 -147 0
-3 -143 -148 0
-4 -144 -149 0
-5 -145 -150 0
-21 -56 -61 0
-22 -57 -62 0
-23 -58 -63 0
-24 -59 -64 0
-25 -60 -65 0
-26 -76 -111 0
-27 -77 -112 0
-28 -78 -113 0
-29 -79 -114 0
-30 -80 -115 0
-61 -101 -111 0
-62 -102 -112 0
-63 -103 -113 0
-64 -104 -114 0
-65 -105 -115 0
-91 -111 -141 0
-92 -112 -142 0
-93 -113 -143 0
-94 -114 -144 0
-95 -115 -145 0
-31 -76 -91 0
-32 -77 -92 0
-33 -78 -93 0
-34 -79 -94 0
-35 -80 -95 0
-61 -116 -136 0
-62 -117 -137 0
-63 -118 -138 0
-64 -119 -139 0
-65 -120 -140 0
-11 -71 -121 0
-12 -72 -122 0
-13 -73 -123 0
-14 -74 -124 0
-15 -75 -125 0
-31 -76 -136 0
-32 -77 -137 0
-33 -78 -138 0
-34 -79 -139 0
-35 -80 -140 0
-6 -71 -91 0
-7 -72 -92 0
-8 -73 -93 0
-9 -74 -94 0
-10 -75 -95 0
-16 -111 -121 0
-17 -112 -122 0
-18 -113 -123 0
-19 -114 -124 0
-20 -115 -125 0
-11 -71 -166 0
-12 -72 -167 0
-13 -73 -168 0
-14 -74 -169 0
-15 -75 -170 0
-16 -71 -101 0
-17 -72 -102 0
-18 -73 -103 0
-19 -74 -104 0
-20 -75 -105 0
-21 -71 -131 0
-22 -72 -132 0
-23 -73 -133 0
-24 -74 -134 0
-25 -75 -135 0
-6 -126 -136 0
-7 -127 -137 0
-8 -128 -138 0
-9 -129 -139 0
-10 -130 -140 0
-46 -96 -166 0
-47 -97 -167 0
-48 -98 -168 0
-49 -99 -169 0
-50 -100 -170 0
-56 -81 -96 0
-57 -82 -97 0
-58 -83 -98 0
-59 -84 -99 0
-60 -85 -100 0
-86 -126 -141 0
-87 -127 -142 0
-88 -128 -143 0
-89 -129 -144 0
-90 -130 -145 0
-56 -121 -161 0
-57 -122 -162 0
-58 -123 -163 0
-59 -124 -164 0
-60 -125 -165 0
-11 -76 -81 0
-12 -77 -82 0
-13 -78 -83 0
-14 -79 -84 0
-15 -80 -85 0
-21 -76 -91 0
-22 -77 -92 0
-23 -78 -93 0
-24 -79 -94 0
-25 -80 -95 0
-16 -121 -166 0
-17 -122 -167 0
-18 -123 -168 0
-19 -124 -169 0
-20 -125 -170 0
-11 -76 -126 0
-12 -77 -127 0
-13 -78 -128 0
-14 -79 -129 0
-15 -80 -130 0
-26 -41 -141 0
-27 -42 -142 0
-28 -43 -143 0
-29 -44 -144 0
-30 -45 -145 0
-36 -41 -151 0
-37 -42 -152 0
-38 -43 -153 0
-39 -44 -154 0
-40 -45 -155 0
-11 -91 -106 0
-12 -92 -107 0
-13 -93 -108 0
-14 -94 -109 0
-15 -95 -110 0
-21 -76 -136 0
-22 -77 -137 0
-23 -78 -138 0
-24 -79 -139 0
-25 -80 -140 0
-86 -141 -166 0
-87 -142 -167 0
-88 -143 -168 0
-89 -144 -169 0
-90 -145 -170 0
-136 -156 -166 0
-137 -157 -167 0
-138 -158 -168 0
-139 -159 -169 0
-140 -160 -170 0
-81 -91 -146 0
-82 -92 -147 0
-83 -93 -148 0
-84 -94 -149 0
-85 -95 -150 0
-96 -126 -141 0
-97 -127 -142 0
-98 -128 -143 0
-99 -129 -144 0
-100 -130 -145 0
-26 -71 -131 0
-27 -72 -132 0
-28 -73 -133 0
-29 -74 -134 0
-30 -75 -135 0
-36 -111 -161 0
-37 -112 -162 0
-38 -113 -163 0
-39 -114 -164 0
-40 -115 -165 0
-6 -86 -96 0
-7 -87 -97 0
-8 -88 -98 0
-9 -89 -99 0
-10 -90 -100 0
-56 -141 -146 0
-57 -142 -147 0
-58 -143 -148 0
-59 -144 -149 0
-60 -145 -150 0
-41 -106 -131 0
-42 -107 -132 0
-43 -108 -133 0
-44 -109 -134 0
-45 -110 -135 0
-31 -66 -146 0
-32 -67 -147 0
-33 -68 -148 0
-34 -69 -149 0
-35 -70 -150 0
-56 -136 -166 0
-57 -137 -167 0
-58 -138 -168 0
-59 -139 -169 0
-60 -140 -170 0
-101 -121 -141 0
-102 -122 -142 0
-103 -123 -143 0
-104 -124 -144 0
-105 -125 -145 0
-11 -51 -66 0
-12 -52 -67 0
-13 -53 -68 0
-14 -54 -69 0
-15 -55 -70 0
-46 -116 -131 0
-47 -117 -132 0
-48 -118 -133 0
-49 -119 -134 0
-50 -120 -135 0
-61 -96 -126 0
-62 -97 -127 0
-63 -98 -128 0
-64 -99 -129 0
-65 -100 -130 0
-51 -96 -161 0
-52 -97 -162 0
-53 -98 -163 0
-54 -99 -164 0
-55 -100 -165 0
-26 -91 -116 0
-27 -92 -117 0
-28 -93 -118 0
-29 -94 -119 0
-30 -95 -120 0
-51 -56 -141 0
-52 -57 -142 0
-53 -58 -143 0
-54 -59 -144 0
-55 -60 -145 0
-31 -71 -106 0
-32 -72 -107 0
-33 -73 -108 0
-34 -74 -109 0
-35 -75 -110 0
-11 -51 -156 0
-12 -52 -157 0
-13 -53 -158 0
-14 -54 -159 0
-15 -55 -160 0
-6 -11 -61 0
-7 -12 -62 0
-8 -13 -63 0
-9 -14 -64 0
-10 -15 -65 0
-26 -31 -151 0
-27 -32 -152 0
-28 -33 -153 0
-29 -34 -154 0
-30 -35 -155 0
-41 -71 -116 0
-42 -72 -117 0
-43 -73 -118 0
-44 -74 -119 0
-45 -75 -120 0
-106 -146 -166 0
-107 -147 -167 0
-108 -148 -168 0
-109 -149 -169 0
-110 -150 -170 0
-41 -71 -161 0
-42 -72 -162 0
-43 -73 -163 0
-44 -74 -164 0
-45 -75 -165 0
-6 -11 -151 0
-7 -12 -152 0
-8 -13 -153 0
-9 -14 -154 0
-10 -15 -155 0
-36 -76 -96 0
-37 -77 -97 0
-38 -78 -98 0
-39 -79 -99 0
-40 -80 -100 0
-61 -101 -131 0
-62 -102 -132 0
-63 -103 -133 0
-64 -104 -134 0
-65 -105 -135 0
-11 -16 -51 0
-12 -17 -52 0
-13 -18 -53 0
-14 -19 -54 0
-15 -20 -55 0
-26 -76 -131 0
-27 -77 -132 0
-28 -78 -133 0
-29 -79 -134 0
-30 -80 -135 0
-76 -121 -146 0
-77 -122 -147 0
-78 -123 -148 0
-79 -124 -149 0
-80 -125 -150 0
-126 -131 -151 0
-127 -132 -152 0
-128 -133 -153 0
-129 -134 -154 0
-130 -135 -155 0
-11 -71 -96 0
-12 -72 -97 0
-13 -73 -98 0
-14 -74 -99 0
-15 -75 -100 0
-11 -111 -161 0
-12 -112 -162 0
-13 -113 -163 0
-14 -114 -164 0
-15 -115 -165 0
-21 -71 -106 0
-22 -72 -107 0
-23 -73 -108 0
-24 -74 -109 0
-25 -75 -110 0
-11 -16 -141 0
-12 -17 -142 0
-13 -18 -143 0
-14 -19 -144 0
-15 -20 -145 0
-31 -86 -111 0
-32 -87 -112 0
-33 -88 -113 0
-34 -89 -114 0
-35 -90 -115 0
-56 -81 -116 0
-57 -82 -117 0
-58 -83 -118 0
-59 -84 -119 0
-60 -85 -120 0
-131 -156 -161 0
-132 -157 -162 0
-133 -158 -163 0
-134 -159 -164 0
-135 -160 -165 0
-6 -121 -131 0
-7 -122 -132 0
-8 -123 -133 0
-9 -124 -134 0
-10 -125 -135 0
-56 -81 -161 0
-57 -82 -162 0
-58 -83 -163 0
-59 -84 -164 0
-60 -85 -165 0
-41 -46 -146 0
-42 -47 -147 0
-43 -48 -148 0
-44 -49 -149 0
-45 -50 -150 0
-6 -26 -156 0
-7 -27 -157 0
-8 -28 -158 0
-9 -29 -159 0
-10 -30 -160 0
-51 -76 -106 0
-52 -77 -107 0
-53 -78 -108 0
-54 -79 -109 0
-55 -80 -110 0
-16 -81 -166 0
-17 -82 -167 0
-18 -83 -168 0
-19 -84 -169 0
-20 -85 -170 0
-61 -76 -116 0
-62 -77 -117 0
-63 -78 -118 0
-64 -79 -119 0
-65 -80 -120 0
-26 -111 -126 0
-27 -112 -127 0
-28 -113 -128 0
-29 -114 -129 0
-30 -115 -130 0
-51 -91 -131 0
-52 -92 -132 0
-53 -93 -133 0
-54 -94 -134 0
-55 -95 -135 0
-61 -131 -161 0
-62 -132 -162 0
-63 -133 -163 0
-64 -134 -164 0
-65 -135 -165 0
-111 -146 -161 0
-112 -147 -162 0
-113 -148 -163 0
-114 -149 -164 0
-115 -150 -165 0
-11 -146 -156 0
-12 -147 -157 0
-13 -148 -158 0
-14 -149 -159 0
-15 -150 -160 0
-66 -71 -131 0
-67 -72 -132 0
-68 -73 -133 0
-69 -74 -134 0
-70 -75 -135 0
-71 -101 -156 0
-72 -102 -157 0
-73 -103 -158 0
-74 -104 -159 0
-75 -105 -160 0
-61 -96 -101 0
-62 -97 -102 0
-63 -98 -103 0
-64 -99 -104 0
-65 -100 -105 0
-51 -96 -136 0
-52 -97 -137 0
-53 -98 -138 0
-54 -99 -139 0
-55 -100 -140 0
-21 -91 -116 0
-22 -92 -117 0
-23 -93 -118 0
-24 -94 -119 0
-25 -95 -120 0
-46 -56 -141 0
-47 -57 -142 0
-48 -58 -143 0
-49 -59 -144 0
-50 -60 -145 0
-61 -136 -166 0
-62 -137 -167 0
-63 -138 -168 0
-64 -139 -169 0
-65 -140 -170 0
-6 -51 -56 0
-7 -52 -57 0
-8 -53 -58 0
-9 -54 -59 0
-10 -55 -60 0
-66 -76 -136 0
-67 -77 -137 0
-68 -78 -138 0
-69 -79 -139 0
-70 -80 -140 0
-21 -51 -141 0
-22 -52 -142 0
-23 -53 -143 0
-24 -54 -144 0
-25 -55 -145 0
-31 -71 -126 0
-32 -72 -127 0
-33 -73 -128 0
-34 -74 -129 0
-35 -75 -130 0
-71 -121 -141 0
-72 -122 -142 0
-73 -123 -143 0
-74 -124 -144 0
-75 -125 -145 0
-16 -106 -111 0
-17 -107 -112 0
-18 -108 -113 0
-19 -109 -114 0
-20 -110 -115 0
-66 -91 -161 0
-67 -92 -162 0
-68 -93 -163 0
-69 -94 -164 0
-70 -95 -165 0
-81 -121 -151 0
-82 -122 -152 0
-83 -123 -153 0
-84 -124 -154 0
-85 -125 -155 0
-11 -16 -26 0
-12 -17 -27 0
-13 -18 -28 0
-14 -19 -29 0
-15 -20 -30 0
-26 -76 -106 0
-27 -77 -107 0
-28 -78 -108 0
-29 -79 -109 0
-30 -80 -110 0
-36 -76 -116 0
-37 -77 -117 0
-38 -78 -118 0
-39 -79 -119 0
-40 -80 -120 0
-51 -116 -121 0
-52 -117 -122 0
-53 -118 -123 0
-54 -119 -124 0
-55 -120 -125 0
-6 -61 -146 0
-7 -62 -147 0
-8 -63 -148 0
-9 -64 -149 0
-10 -65 -150 0
-21 -71 -81 0
-22 -72 -82 0
-23 -73 -83 0
-24 -74 -84 0
-25 -75 -85 0
-16 -61 -156 0
-17 -62 -157 0
-18 -63 -158 0
-19 -64 -159 0
-20 -65 -160 0
-11 -71 -116 0
-12 -72 -117 0
-13 -73 -118 0
-14 -74 -119 0
-15 -75 -120 0
-36 -76 -161 0
-37 -77 -162 0
-38 -78 -163 0
-39 -79 -164 0
-40 -80 -165 0
-46 -96 -116 0
-47 -97 -117 0
-48 -98 -118 0
-49 -99 -119 0
-50 -100 -120 0
-46 -91 -136 0
-47 -92 -137 0
-48 -93 -138 0
-49 -94 -139 0
-50 -95 -140 0
-56 -81 -91 0
-57 -82 -92 0
-58 -83 -93 0
-59 -84 -94 0
-60 -85 -95 0
-51 -126 -166 0
-52 -127 -167 0
-53 -128 -168 0
-54 -129 -169 0
-55 -130 -170 0
-51 -71 -161 0
-52 -72 -162 0
-53 -73 -163 0
-54 -74 -164 0
-55 -75 -165 0
-31 -86 -131 0
-32 -87 -132 0
-33 -88 -133 0
-34 -89 -134 0
-35 -90 -135 0
-31 -101 -111 0
-32 -102 -112 0
-33 -103 -113 0
-34 -104 -114 0
-35 -105 -115 0
-11 -141 -171 0
-12 -142 -172 0
-13 -143 -173 0
-14 -144 -174 0
-15 -145 -175 0
-6 -81 -131 0
-7 -82 -132 0
-8 -83 -133 0
-9 -84 -134 0
-10 -85 -135 0
-106 -121 -171 0
-107 -122 -172 0
-108 -123 -173 0
-109 -124 -174 0
-110 -125 -175 0
-21 -36 -66 0
-22 -37 -67 0
-23 -38 -68 0
-24 -39 -69 0
-25 -40 -70 0
-16 -26 -141 0
-17 -27 -142 0
-18 -28 -143 0
-19 -29 -144 0
-20 -30 -145 0
-76 -96 -151 0
-77 -97 -152 0
-78 -98 -153 0
-79 -99 -154 0
-80 -100 -155 0
-51 -91 -106 0
-52 -92 -107 0
-53 -93 -108 0
-54 -94 -109 0
-55 -95 -110 0
-36 -71 -91 0
-37 -72 -92 0
-38 -73 -93 0
-39 -74 -94 0
-40 -75 -95 0
-46 -111 -121 0
-47 -112 -122 0
-48 -113 -123 0
-49 -114 -124 0
-50 -115 -125 0
-11 -106 -111 0
-12 -107 -112 0
-13 -108 -113 0
-14 -109 -114 0
-15 -110 -115 0
-31 -106 -116 0
-32 -107 -117 0
-33 -108 -118 0
-34 -109 -119 0
-35 -110 -120 0
-46 -111 -166 0
-47 -112 -167 0
-48 -113 -168 0
-49 -114 -169 0
-50 -115 -170 0
-21 -106 -121 0
-22 -107 -122 0
-23 -108 -123 0
-24 -109 -124 0
-25 -110 -125 0
-41 -106 -126 0
-42 -107 -127 0
-43 -108 -128 0
-44 -109 -129 0
-45 -110 -130 0
-6 -86 -136 0
-7 -87 -137 0
-8 -88 -138 0
-9 -89 -139 0
-10 -90 -140 0
-31 -106 -161 0
-32 -107 -162 0
-33 -108 -163 0
-34 -109 -164 0
-35 -110 -165 0
-16 -31 -146 0
-17 -32 -147 0
-18 -33 -148 0
-19 -34 -149 0
-20 -35 -150 0
-16 -141 -146 0
-17 -142 -147 0
-18 -143 -148 0
-19 -144 -149 0
-20 -145 -150 0
-31 -66 -141 0
-32 -67 -142 0
-33 -68 -143 0
-34 -69 -144 0
-35 -70 -145 0
-56 -136 -161 0
-57 -137 -162 0
-58 -138 -163 0
-59 -139 -164 0
-60 -140 -165 0
-76 -101 -156 0
-77 -102 -157 0
-78 -103 -158 0
-79 -104 -159 0
-80 -105 -160 0
-51 -96 -111 0
-52 -97 -112 0
-53 -98 -113 0
-54 -99 -114 0
-55 -100 -115 0
-11 -51 -61 0
-12 -52 -62 0
-13 -53 -63 0
-14 -54 -64 0
-15 -55 -65 0
-46 -116 -126 0
-47 -117 -127 0
-48 -118 -128 0
-49 -119 -129 0
-50 -120 -130 0
-86 -156 -166 0
-87 -157 -167 0
-88 -158 -168 0
-89 -159 -169 0
-90 -160 -170 0
-86 -116 -146 0
-87 -117 -147 0
-88 -118 -148 0
-89 -119 -149 0
-90 -120 -150 0
-21 -91 -136 0
-22 -92 -137 0
-23 -93 -138 0
-24 -94 -139 0
-25 -95 -140 0
-66 -76 -111 0
-67 -77 -112 0
-68 -78 -113 0
-69 -79 -114 0
-70 -80 -115 0
-21 -111 -126 0
-22 -112 -127 0
-23 -113 -128 0
-24 -114 -129 0
-25 -115 -130 0
-6 -11 -56 0
-7 -12 -57 0
-8 -13 -58 0
-9 -14 -59 0
-10 -15 -60 0
-111 -126 -146 0
-112 -127 -147 0
-113 -128 -148 0
-114 -129 -149 0
-115 -130 -150 0
-106 -146 -161 0
-107 -147 -162 0
-108 -148 -163 0
-109 -149 -164 0
-110 -150 -165 0
-1 -46 -51 0
-2 -47 -52 0
-3 -48 -53 0
-4 -49 -54 0
-5 -50 -55 0
-56 -116 -126 0
-57 -117 -127 0
-58 -118 -128 0
-59 -119 -129 0
-60 -120 -130 0
-81 -141 -161 0
-82 -142 -162 0
-83 -143 -163 0
-84 -144 -164 0
-85 -145 -165 0
-11 -121 -161 0
-12 -122 -162 0
-13 -123 -163 0
-14 -124 -164 0
-15 -125 -165 0
-11 -16 -46 0
-12 -17 -47 0
-13 -18 -48 0
-14 -19 -49 0
-15 -20 -50 0
-31 -141 -156 0
-32 -142 -157 0
-33 -143 -158 0
-34 -144 -159 0
-35 -145 -160 0
-6 -21 -146 0
-7 -22 -147 0
-8 -23 -148 0
-9 -24 -149 0
-10 -25 -150 0
-76 -131 -141 0
-77 -132 -142 0
-78 -133 -143 0
-79 -134 -144 0
-80 -135 -145 0
-61 -111 -126 0
-62 -112 -127 0
-63 -113 -128 0
-64 -114 -129 0
-65 -115 -130 0
-16 -21 -156 0
-17 -22 -157 0
-18 -23 -158 0
-19 -24 -159 0
-20 -25 -160 0
-46 -91 -111 0
-47 -92 -112 0
-48 -93 -113 0
-49 -94 -114 0
-50 -95 -115 0
-51 -111 -161 0
-52 -112 -162 0
-53 -113 -163 0
-54 -114 -164 0
-55 -115 -165 0
-11 -86 -101 0
-12 -87 -102 0
-13 -88 -103 0
-14 -89 -104 0
-15 -90 -105 0
-31 -86 -106 0
-32 -87 -107 0
-33 -88 -108 0
-34 -89 -109 0
-35 -90 -110 0
-11 -126 -166 0
-12 -127 -167 0
-13 -128 -168 0
-14 -129 -169 0
-15 -130 -170 0
-1 -6 -11 0
-2 -7 -12 0
-3 -8 -13 0
-4 -9 -14 0
-5 -10 -15 0
-21 -86 -111 0
-22 -87 -112 0
-23 -88 -113 0
-24 -89 -114 0
-25 -90 -115 0
-41 -126 -136 0
-42 -127 -137 0
-43 -128 -138 0
-44 -129 -139 0
-45 -130 -140 0
-26 -66 -141 0
-27 -67 -142 0
-28 -68 -143 0
-29 -69 -144 0
-30 -70 -145 0
-46 -146 -156 0
-47 -147 -157 0
-48 -148 -158 0
-49 -149 -159 0
-50 -150 -160 0
-56 -81 -111 0
-57 -82 -112 0
-58 -83 -113 0
-59 -84 -114 0
-60 -85 -115 0
-31 -101 -131 0
-32 -102 -132 0
-33 -103 -133 0
-34 -104 -134 0
-35 -105 -135 0
-106 -121 -146 0
-107 -122 -147 0
-108 -123 -148 0
-109 -124 -149 0
-110 -125 -150 0
-56 -76 -131 0
-57 -77 -132 0
-58 -78 -133 0
-59 -79 -134 0
-60 -80 -135 0
-76 -136 -146 0
-77 -137 -147 0
-78 -138 -148 0
-79 -139 -149 0
-80 -140 -150 0
-81 -156 -166 0
-82 -157 -167 0
-83 -158 -168 0
-84 -159 -169 0
-85 -160 -170 0
-26 -71 -101 0
-27 -72 -102 0
-28 -73 -103 0
-29 -74 -104 0
-30 -75 -105 0
-26 -111 -166 0
-27 -112 -167 0
-28 -113 -168 0
-29 -114 -169 0
-30 -115 -170 0
-36 -71 -111 0
-37 -72 -112 0
-38 -73 -113 0
-39 -74 -114 0
-40 -75 -115 0
-11 -146 -151 0
-12 -147 -152 0
-13 -148 -153 0
-14 -149 -154 0
-15 -150 -155 0
-66 -71 -81 0
-67 -72 -82 0
-68 -73 -83 0
-69 -74 -84 0
-70 -75 -85 0
-46 -71 -121 0
-47 -72 -122 0
-48 -73 -123 0
-49 -74 -124 0
-50 -75 -125 0
-11 -106 -131 0
-12 -107 -132 0
-13 -108 -133 0
-14 -109 -134 0
-15 -110 -135 0
-31 -106 -136 0
-32 -107 -137 0
-33 -108 -138 0
-34 -109 -139 0
-35 -110 -140 0
-66 -71 -126 0
-67 -72 -127 0
-68 -73 -128 0
-69 -74 -129 0
-70 -75 -130 0
-46 -71 -166 0
-47 -72 -167 0
-48 -73 -168 0
-49 -74 -169 0
-50 -75 -170 0
-96 -141 -166 0
-97 -142 -167 0
-98 -143 -168 0
-99 -144 -169 0
-100 -145 -170 0
-1 -81 -86 0
-2 -82 -87 0
-3 -83 -88 0
-4 -84 -89 0
-5 -85 -90 0
-86 -101 -141 0
-87 -102 -142 0
-88 -103 -143 0
-89 -104 -144 0
-90 -105 -145 0
-56 -156 -171 0
-57 -157 -172 0
-58 -158 -173 0
-59 -159 -174 0
-60 -160 -175 0
-46 -76 -81 0
-47 -77 -82 0
-48 -78 -83 0
-49 -79 -84 0
-50 -80 -85 0
-21 -91 -111 0
-22 -92 -112 0
-23 -93 -113 0
-24 -94 -114 0
-25 -95 -115 0
-41 -81 -136 0
-42 -82 -137 0
-43 -83 -138 0
-44 -84 -139 0
-45 -85 -140 0
-11 -121 -136 0
-12 -122 -137 0
-13 -123 -138 0
-14 -124 -139 0
-15 -125 -140 0
-31 -81 -121 0
-32 -82 -122 0
-33 -83 -123 0
-34 -84 -124 0
-35 -85 -125 0
-6 -61 -141 0
-7 -62 -142 0
-8 -63 -143 0
-9 -64 -144 0
-10 -65 -145 0
-31 -81 -166 0
-32 -82 -167 0
-33 -83 -168 0
-34 -84 -169 0
-35 -85 -170 0
-116 -131 -156 0
-117 -132 -157 0
-118 -133 -158 0
-119 -134 -159 0
-120 -135 -160 0
-16 -61 -151 0
-17 -62 -152 0
-18 -63 -153 0
-19 -64 -154 0
-20 -65 -155 0
-46 -51 -66 0
-47 -52 -67 0
-48 -53 -68 0
-49 -54 -69 0
-50 -55 -70 0
-26 -146 -156 0
-27 -147 -157 0
-28 -148 -158 0
-29 -149 -159 0
-30 -150 -160 0
-86 -131 -171 0
-87 -132 -172 0
-88 -133 -173 0
-89 -134 -174 0
-90 -135 -175 0
-6 -26 -36 0
-7 -27 -37 0
-8 -28 -38 0
-9 -29 -39 0
-10 -30 -40 0
-11 -46 -56 0
-12 -47 -57 0
-13 -48 -58 0
-14 -49 -59 0
-15 -50 -60 0
-11 -86 -121 0
-12 -87 -122 0
-13 -88 -123 0
-14 -89 -124 0
-15 -90 -125 0
-16 -26 -46 0
-17 -27 -47 0
-18 -28 -48 0
-19 -29 -49 0
-20 -30 -50 0
-31 -46 -61 0
-32 -47 -62 0
-33 -48 -63 0
-34 -49 -64 0
-35 -50 -65 0
-21 -86 -131 0
-22 -87 -132 0
-23 -88 -133 0
-24 -89 -134 0
-25 -90 -135 0
-31 -101 -106 0
-32 -102 -107 0
-33 -103 -108 0
-34 -104 -109 0
-35 -105 -110 0
-31 -86 -126 0
-32 -87 -127 0
-33 -88 -128 0
-34 -89 -129 0
-35 -90 -130 0
-16 -81 -91 0
-17 -82 -92 0
-18 -83 -93 0
-19 -84 -94 0
-20 -85 -95 0
-36 -51 -146 0
-37 -52 -147 0
-38 -53 -148 0
-39 -54 -149 0
-40 -55 -150 0
-16 -66 -156 0
-17 -67 -157 0
-18 -68 -158 0
-19 -69 -159 0
-20 -70 -160 0
-31 -46 -151 0
-32 -47 -152 0
-33 -48 -153 0
-34 -49 -154 0
-35 -50 -155 0
-46 -51 -156 0
-47 -52 -157 0
-48 -53 -158 0
-49 -54 -159 0
-50 -55 -160 0
-56 -76 -106 0
-57 -77 -107 0
-58 -78 -108 0
-59 -79 -109 0
-60 -80 -110 0
-96 -121 -156 0
-97 -122 -157 0
-98 -123 -158 0
-99 -124 -159 0
-100 -125 -160 0
-51 -76 -121 0
-52 -77 -122 0
-53 -78 -123 0
-54 -79 -124 0
-55 -80 -125 0
-51 -91 -101 0
-52 -92 -102 0
-53 -93 -103 0
-54 -94 -104 0
-55 -95 -105 0
-61 -76 -131 0
-62 -77 -132 0
-63 -78 -133 0
-64 -79 -134 0
-65 -80 -135 0
-31 -51 -66 0
-32 -52 -67 0
-33 -53 -68 0
-34 -54 -69 0
-35 -55 -70 0
-46 -111 -116 0
-47 -112 -117 0
-48 -113 -118 0
-49 -114 -119 0
-50 -115 -120 0
-16 -31 -51 0
-17 -32 -52 0
-18 -33 -53 0
-19 -34 -54 0
-20 -35 -55 0
-26 -71 -121 0
-27 -72 -122 0
-28 -73 -123 0
-29 -74 -124 0
-30 -75 -125 0
-51 -131 -166 0
-52 -132 -167 0
-53 -133 -168 0
-54 -134 -169 0
-55 -135 -170 0
-66 -71 -101 0
-67 -72 -102 0
-68 -73 -103 0
-69 -74 -104 0
-70 -75 -105 0
-86 -96 -156 0
-87 -97 -157 0
-88 -98 -158 0
-89 -99 -159 0
-90 -100 -160 0
-6 -46 -66 0
-7 -47 -67 0
-8 -48 -68 0
-9 -49 -69 0
-10 -50 -70 0
-21 -106 -116 0
-22 -107 -117 0
-23 -108 -118 0
-24 -109 -119 0
-25 -110 -120 0
-91 -141 -161 0
-92 -142 -162 0
-93 -143 -163 0
-94 -144 -164 0
-95 -145 -165 0
-106 -126 -171 0
-107 -127 -172 0
-108 -128 -173 0
-109 -129 -174 0
-110 -130 -175 0
-66 -126 -131 0
-67 -127 -132 0
-68 -128 -133 0
-69 -129 -134 0
-70 -130 -135 0
-56 -96 -136 0
-57 -97 -137 0
-58 -98 -138 0
-59 -99 -139 0
-60 -100 -140 0
-66 -86 -111 0
-67 -87 -112 0
-68 -88 -113 0
-69 -89 -114 0
-70 -90 -115 0
-11 -51 -56 0
-12 -52 -57 0
-13 -53 -58 0
-14 -54 -59 0
-15 -55 -60 0
-41 -121 -131 0
-42 -122 -132 0
-43 -123 -133 0
-44 -124 -134 0
-45 -125 -135 0
-91 -146 -166 0
-92 -147 -167 0
-93 -148 -168 0
-94 -149 -169 0
-95 -150 -170 0
-61 -91 -136 0
-62 -92 -137 0
-63 -93 -138 0
-64 -94 -139 0
-65 -95 -140 0
-61 -106 -116 0
-62 -107 -117 0
-63 -108 -118 0
-64 -109 -119 0
-65 -110 -120 0
-36 -86 -136 0
-37 -87 -137 0
-38 -88 -138 0
-39 -89 -139 0
-40 -90 -140 0
-46 -126 -166 0
-47 -127 -167 0
-48 -128 -168 0
-49 -129 -169 0
-50 -130 -170 0
-31 -81 -96 0
-32 -82 -97 0
-33 -83 -98 0
-34 -84 -99 0
-35 -85 -100 0
-6 -21 -51 0
-7 -22 -52 0
-8 -23 -53 0
-9 -24 -54 0
-10 -25 -55 0
-26 -46 -151 0
-27 -47 -152 0
-28 -48 -153 0
-29 -49 -154 0
-30 -50 -155 0
-11 -81 -136 0
-12 -82 -137 0
-13 -83 -138 0
-14 -84 -139 0
-15 -85 -140 0
-21 -26 -146 0
-22 -27 -147 0
-23 -28 -148 0
-24 -29 -149 0
-25 -30 -150 0
-6 -116 -161 0
-7 -117 -162 0
-8 -118 -163 0
-9 -119 -164 0
-10 -120 -165 0
-71 -96 -146 0
-72 -97 -147 0
-73 -98 -148 0
-74 -99 -149 0
-75 -100 -150 0
-6 -21 -141 0
-7 -22 -142 0
-8 -23 -143 0
-9 -24 -144 0
-10 -25 -145 0
-26 -51 -66 0
-27 -52 -67 0
-28 -53 -68 0
-29 -54 -69 0
-30 -55 -70 0
-81 -96 -156 0
-82 -97 -157 0
-83 -98 -158 0
-84 -99 -159 0
-85 -100 -160 0
-46 -91 -106 0
-47 -92 -107 0
-48 -93 -108 0
-49 -94 -109 0
-50 -95 -110 0
-91 -161 -171 0
-92 -162 -172 0
-93 -163 -173 0
-94 -164 -174 0
-95 -165 -175 0
-26 -106 -111 0
-27 -107 -112 0
-28 -108 -113 0
-29 -109 -114 0
-30 -110 -115 0
-36 -106 -121 0
-37 -107 -122 0
-38 -108 -123 0
-39 -109 -124 0
-40 -110 -125 0
-6 -26 -56 0
-7 -27 -57 0
-8 -28 -58 0
-9 -29 -59 0
-10 -30 -60 0
-46 -106 -131 0
-47 -107 -132 0
-48 -108 -133 0
-49 -109 -134 0
-50 -110 -135 0
-6 -81 -101 0
-7 -82 -102 0
-8 -83 -103 0
-9 -84 -104 0
-10 -85 -105 0
-106 -121 -141 0
-107 -122 -142 0
-108 -123 -143 0
-109 -124 -144 0
-110 -125 -145 0
-16 -81 -111 0
-17 -82 -112 0
-18 -83 -113 0
-19 -84 -114 0
-20 -85 -115 0
-56 -76 -126 0
-57 -77 -127 0
-58 -78 -128 0
-59 -79 -129 0
-60 -80 -130 0
-81 -156 -161 0
-82 -157 -162 0
-83 -158 -163 0
-84 -159 -164 0
-85 -160 -165 0
-41 -101 -121 0
-42 -102 -122 0
-43 -103 -123 0
-44 -104 -124 0
-45 -105 -125 0
-6 -76 -121 0
-7 -77 -122 0
-8 -78 -123 0
-9 -79 -124 0
-10 -80 -125 0
-81 -116 -141 0
-82 -117 -142 0
-83 -118 -143 0
-84 -119 -144 0
-85 -120 -145 0
-91 -126 -156 0
-92 -127 -157 0
-93 -128 -158 0
-94 -129 -159 0
-95 -130 -160 0
-6 -76 -166 0
-7 -77 -167 0
-8 -78 -168 0
-9 -79 -169 0
-10 -80 -170 0
-66 -71 -76 0
-67 -72 -77 0
-68 -73 -78 0
-69 -74 -79 0
-70 -75 -80 0
-36 -121 -126 0
-37 -122 -127 0
-38 -123 -128 0
-39 -124 -129 0
-40 -125 -130 0
-21 -101 -111 0
-22 -102 -112 0
-23 -103 -113 0
-24 -104 -114 0
-25 -105 -115 0
-76 -126 -156 0
-77 -127 -157 0
-78 -128 -158 0
-79 -129 -159 0
-80 -130 -160 0
-6 -96 -106 0
-7 -97 -107 0
-8 -98 -108 0
-9 -99 -109 0
-10 -100 -110 0
-56 -111 -121 0
-57 -112 -122 0
-58 -113 -123 0
-59 -114 -124 0
-60 -115 -125 0
-76 -111 -171 0
-77 -112 -172 0
-78 -113 -173 0
-79 -114 -174 0
-80 -115 -175 0
-26 -86 -101 0
-27 -87 -102 0
-28 -88 -103 0
-29 -89 -104 0
-30 -90 -105 0
-36 -126 -131 0
-37 -127 -132 0
-38 -128 -133 0
-39 -129 -134 0
-40 -130 -135 0
-51 -106 -126 0
-52 -107 -127 0
-53 -108 -128 0
-54 -109 -129 0
-55 -110 -130 0
-21 -26 -31 0
-22 -27 -32 0
-23 -28 -33 0
-24 -29 -34 0
-25 -30 -35 0
-61 -106 -136 0
-62 -107 -137 0
-63 -108 -138 0
-64 -109 -139 0
-65 -110 -140 0
-46 -86 -121 0
-47 -87 -122 0
-48 -88 -123 0
-49 -89 -124 0
-50 -90 -125 0
-136 -141 -161 0
-137 -142 -162 0
-138 -143 -163 0
-139 -144 -164 0
-140 -145 -165 0
-6 -21 -26 0
-7 -22 -27 0
-8 -23 -28 0
-9 -24 -29 0
-10 -25 -30 0
-16 -101 -121 0
-17 -102 -122 0
-18 -103 -123 0
-19 -104 -124 0
-20 -105 -125 0
-16 -21 -36 0
-17 -22 -37 0
-18 -23 -38 0
-19 -24 -39 0
-20 -25 -40 0
-31 -81 -116 0
-32 -82 -117 0
-33 -83 -118 0
-34 -84 -119 0
-35 -85 -120 0
-26 -46 -171 0
-27 -47 -172 0
-28 -48 -173 0
-29 -49 -174 0
-30 -50 -175 0
-71 -136 -141 0
-72 -137 -142 0
-73 -138 -143 0
-74 -139 -144 0
-75 -140 -145 0
-6 -116 -136 0
-7 -117 -137 0
-8 -118 -138 0
-9 -119 -139 0
-10 -120 -140 0
-11 -26 -156 0
-12 -27 -157 0
-13 -28 -158 0
-14 -29 -159 0
-15 -30 -160 0
-66 -106 -161 0
-67 -107 -162 0
-68 -108 -163 0
-69 -109 -164 0
-70 -110 -165 0
-106 -116 -156 0
-107 -117 -157 0
-108 -118 -158 0
-109 -119 -159 0
-110 -120 -160 0
-71 -151 -166 0
-72 -152 -167 0
-73 -153 -168 0
-74 -154 -169 0
-75 -155 -170 0
-51 -111 -131 0
-52 -112 -132 0
-53 -113 -133 0
-54 -114 -134 0
-55 -115 -135 0
-36 -91 -116 0
-37 -92 -117 0
-38 -93 -118 0
-39 -94 -119 0
-40 -95 -120 0
-16 -21 -171 0
-17 -22 -172 0
-18 -23 -173 0
-19 -24 -174 0
-20 -25 -175 0
-61 -71 -121 0
-62 -72 -122 0
-63 -73 -123 0
-64 -74 -124 0
-65 -75 -125 0
-26 -106 -131 0
-27 -107 -132 0
-28 -108 -133 0
-29 -109 -134 0
-30 -110 -135 0
-31 -46 -56 0
-32 -47 -57 0
-33 -48 -58 0
-34 -49 -59 0
-35 -50 -60 0
-136 -146 -166 0
-137 -147 -167 0
-138 -148 -168 0
-139 -149 -169 0
-140 -150 -170 0
-46 -51 -151 0
-47 -52 -152 0
-48 -53 -153 0
-49 -54 -154 0
-50 -55 -155 0
-76 -146 -166 0
-77 -147 -167 0
-78 -148 -168 0
-79 -149 -169 0
-80 -150 -170 0
-16 -81 -86 0
-17 -82 -87 0
-18 -83 -88 0
-19 -84 -89 0
-20 -85 -90 0
-56 -76 -101 0
-57 -77 -102 0
-58 -78 -103 0
-59 -79 -104 0
-60 -80 -105 0
-111 -141 -166 0
-112 -142 -167 0
-113 -143 -168 0
-114 -144 -169 0
-115 -145 -170 0
-6 -76 -96 0
-7 -77 -97 0
-8 -78 -98 0
-9 -79 -99 0
-10 -80 -100 0
-16 -76 -106 0
-17 -77 -107 0
-18 -78 -108 0
-19 -79 -109 0
-20 -80 -110 0
-11 -31 -66 0
-12 -32 -67 0
-13 -33 -68 0
-14 -34 -69 0
-15 -35 -70 0
-16 -136 -161 0
-17 -137 -162 0
-18 -138 -163 0
-19 -139 -164 0
-20 -140 -165 0
-71 -111 -171 0
-72 -112 -172 0
-73 -113 -173 0
-74 -114 -174 0
-75 -115 -175 0
-61 -86 -126 0
-62 -87 -127 0
-63 -88 -128 0
-64 -89 -129 0
-65 -90 -130 0
-26 -121 -136 0
-27 -122 -137 0
-28 -123 -138 0
-29 -124 -139 0
-30 -125 -140 0
-26 -81 -116 0
-27 -82 -117 0
-28 -83 -118 0
-29 -84 -119 0
-30 -85 -120 0
-66 -86 -106 0
-67 -87 -107 0
-68 -88 -108 0
-69 -89 -109 0
-70 -90 -110 0
-36 -81 -126 0
-37 -82 -127 0
-38 -83 -128 0
-39 -84 -129 0
-40 -85 -130 0
-26 -81 -161 0
-27 -82 -162 0
-28 -83 -163 0
-29 -84 -164 0
-30 -85 -165 0
-96 -136 -156 0
-97 -137 -157 0
-98 -138 -158 0
-99 -139 -159 0
-100 -140 -160 0
-11 -61 -146 0
-12 -62 -147 0
-13 -63 -148 0
-14 -64 -149 0
-15 -65 -150 0
-41 -81 -106 0
-42 -82 -107 0
-43 -83 -108 0
-44 -84 -109 0
-45 -85 -110 0
-21 -61 -156 0
-22 -62 -157 0
-23 -63 -158 0
-24 -64 -159 0
-25 -65 -160 0
-16 -116 -126 0
-17 -117 -127 0
-18 -118 -128 0
-19 -119 -129 0
-20 -120 -130 0
-56 -71 -121 0
-57 -72 -122 0
-58 -73 -123 0
-59 -74 -124 0
-60 -75 -125 0
-26 -46 -56 0
-27 -47 -57 0
-28 -48 -58 0
-29 -49 -59 0
-30 -50 -60 0
-11 -26 -41 0
-12 -27 -42 0
-13 -28 -43 0
-14 -29 -44 0
-15 -30 -45 0
-26 -86 -121 0
-27 -87 -122 0
-28 -88 -123 0
-29 -89 -124 0
-30 -90 -125 0
-46 -86 -96 0
-47 -87 -97 0
-48 -88 -98 0
-49 -89 -99 0
-50 -90 -100 0
-21 -26 -51 0
-22 -27 -52 0
-23 -28 -53 0
-24 -29 -54 0
-25 -30 -55 0
-46 -126 -161 0
-47 -127 -162 0
-48 -128 -163 0
-49 -129 -164 0
-50 -130 -165 0
-26 -86 -166 0
-27 -87 -167 0
-28 -88 -168 0
-29 -89 -169 0
-30 -90 -170 0
-111 -121 -156 0
-112 -122 -157 0
-113 -123 -158 0
-114 -124 -159 0
-115 -125 -160 0
-6 -21 -46 0
-7 -22 -47 0
-8 -23 -48 0
-9 -24 -49 0
-10 -25 -50 0
-21 -81 -96 0
-22 -82 -97 0
-23 -83 -98 0
-24 -84 -99 0
-25 -85 -100 0
-11 -81 -131 0
-12 -82 -132 0
-13 -83 -133 0
-14 -84 -134 0
-15 -85 -135 0
-16 -21 -56 0
-17 -22 -57 0
-18 -23 -58 0
-19 -24 -59 0
-20 -25 -60 0
-21 -121 -161 0
-22 -122 -162 0
-23 -123 -163 0
-24 -124 -164 0
-25 -125 -165 0
-21 -26 -141 0
-22 -27 -142 0
-23 -28 -143 0
-24 -29 -144 0
-25 -30 -145 0
-31 -81 -136 0
-32 -82 -137 0
-33 -83 -138 0
-34 -84 -139 0
-35 -85 -140 0
-81 -136 -171 0
-82 -137 -172 0
-83 -138 -173 0
-84 -139 -174 0
-85 -140 -175 0
-26 -51 -61 0
-27 -52 -62 0
-28 -53 -63 0
-29 -54 -64 0
-30 -55 -65 0
-46 -91 -101 0
-47 -92 -102 0
-48 -93 -103 0
-49 -94 -104 0
-50 -95 -105 0
-6 -91 -101 0
-7 -92 -102 0
-8 -93 -103 0
-9 -94 -104 0
-10 -95 -105 0
-51 -126 -131 0
-52 -127 -132 0
-53 -128 -133 0
-54 -129 -134 0
-55 -130 -135 0
-1 -111 -116 0
-2 -112 -117 0
-3 -113 -118 0
-4 -114 -119 0
-5 -115 -120 0
-16 -91 -111 0
-17 -92 -112 0
-18 -93 -113 0
-19 -94 -114 0
-20 -95 -115 0
-91 -121 -146 0
-92 -122 -147 0
-93 -123 -148 0
-94 -124 -149 0
-95 -125 -150 0
-46 -106 -126 0
-47 -107 -127 0
-48 -108 -128 0
-49 -109 -129 0
-50 -110 -130 0
-56 -76 -121 0
-57 -77 -122 0
-58 -78 -123 0
-59 -79 -124 0
-60 -80 -125 0
-6 -36 -51 0
-7 -37 -52 0
-8 -38 -53 0
-9 -39 -54 0
-10 -40 -55 0
-16 -76 -81 0
-17 -77 -82 0
-18 -78 -83 0
-19 -79 -84 0
-20 -80 -85 0
-6 -76 -116 0
-7 -77 -117 0
-8 -78 -118 0
-9 -79 -119 0
-10 -80 -120 0
-16 -36 -61 0
-17 -37 -62 0
-18 -38 -63 0
-19 -39 -64 0
-20 -40 -65 0
-21 -136 -166 0
-22 -137 -167 0
-23 -138 -168 0
-24 -139 -169 0
-25 -140 -170 0
-31 -41 -141 0
-32 -42 -142 0
-33 -43 -143 0
-34 -44 -144 0
-35 -45 -145 0
-66 -81 -121 0
-67 -82 -122 0
-68 -83 -123 0
-69 -84 -124 0
-70 -85 -125 0
-16 -96 -116 0
-17 -97 -117 0
-18 -98 -118 0
-19 -99 -119 0
-20 -100 -120 0
-56 -91 -131 0
-57 -92 -132 0
-58 -93 -133 0
-59 -94 -134 0
-60 -95 -135 0
-66 -81 -166 0
-67 -82 -167 0
-68 -83 -168 0
-69 -84 -169 0
-70 -85 -170 0
-51 -86 -91 0
-52 -87 -92 0
-53 -88 -93 0
-54 -89 -94 0
-55 -90 -95 0
-101 -131 -151 0
-102 -132 -152 0
-103 -133 -153 0
-104 -134 -154 0
-105 -135 -155 0
-61 -86 -101 0
-62 -87 -102 0
-63 -88 -103 0
-64 -89 -104 0
-65 -90 -105 0
-26 -81 -91 0
-27 -82 -92 0
-28 -83 -93 0
-29 -84 -94 0
-30 -85 -95 0
-21 -101 -106 0
-22 -102 -107 0
-23 -103 -108 0
-24 -104 -109 0
-25 -105 -110 0
-36 -81 -101 0
-37 -82 -102 0
-38 -83 -103 0
-39 -84 -104 0
-40 -85 -105 0
-46 -121 -131 0
-47 -122 -132 0
-48 -123 -133 0
-49 -124 -134 0
-50 -125 -135 0
-16 -41 -66 0
-17 -42 -67 0
-18 -43 -68 0
-19 -44 -69 0
-20 -45 -70 0
-26 -81 -136 0
-27 -82 -137 0
-28 -83 -138 0
-29 -84 -139 0
-30 -85 -140 0
-11 -116 -121 0
-12 -117 -122 0
-13 -118 -123 0
-14 -119 -124 0
-15 -120 -125 0
-66 -86 -126 0
-67 -87 -127 0
-68 -88 -128 0
-69 -89 -129 0
-70 -90 -130 0
-106 -136 -141 0
-107 -137 -142 0
-108 -138 -143 0
-109 -139 -144 0
-110 -140 -145 0
-11 -116 -166 0
-12 -117 -167 0
-13 -118 -168 0
-14 -119 -169 0
-15 -120 -170 0
-96 -146 -166 0
-97 -147 -167 0
-98 -148 -168 0
-99 -149 -169 0
-100 -150 -170 0
-11 -21 -146 0
-12 -22 -147 0
-13 -23 -148 0
-14 -24 -149 0
-15 -25 -150 0
-61 -91 -106 0
-62 -92 -107 0
-63 -93 -108 0
-64 -94 -109 0
-65 -95 -110 0
-141 -146 -151 0
-142 -147 -152 0
-143 -148 -153 0
-144 -149 -154 0
-145 -150 -155 0
-26 -86 -96 0
-27 -87 -97 0
-28 -88 -98 0
-29 -89 -99 0
-30 -90 -100 0
-51 -106 -121 0
-52 -107 -122 0
-53 -108 -123 0
-54 -109 -124 0
-55 -110 -125 0
-36 -86 -106 0
-37 -87 -107 0
-38 -88 -108 0
-39 -89 -109 0
-40 -90 -110 0
-46 -126 -136 0
-47 -127 -137 0
-48 -128 -138 0
-49 -129 -139 0
-50 -130 -140 0
-11 -26 -61 0
-12 -27 -62 0
-13 -28 -63 0
-14 -29 -64 0
-15 -30 -65 0
-16 -111 -166 0
-17 -112 -167 0
-18 -113 -168 0
-19 -114 -169 0
-20 -115 -170 0
-11 -121 -126 0
-12 -122 -127 0
-13 -123 -128 0
-14 -124 -129 0
-15 -125 -130 0
-61 -106 -131 0
-62 -107 -132 0
-63 -108 -133 0
-64 -109 -134 0
-65 -110 -135 0
-11 -81 -106 0
-12 -82 -107 0
-13 -83 -108 0
-14 -84 -109 0
-15 -85 -110 0
-46 -86 -161 0
-47 -87 -162 0
-48 -88 -163 0
-49 -89 -164 0
-50 -90 -165 0
-21 -81 -116 0
-22 -82 -117 0
-23 -83 -118 0
-24 -84 -119 0
-25 -85 -120 0
-111 -136 -156 0
-112 -137 -157 0
-113 -138 -158 0
-114 -139 -159 0
-115 -140 -160 0
-96 -116 -141 0
-97 -117 -142 0
-98 -118 -143 0
-99 -119 -144 0
-100 -120 -145 0
-66 -101 -131 0
-67 -102 -132 0
-68 -103 -133 0
-69 -104 -134 0
-70 -105 -135 0
-71 -151 -161 0
-72 -152 -162 0
-73 -153 -163 0
-74 -154 -164 0
-75 -155 -165 0
-31 -56 -146 0
-32 -57 -147 0
-33 -58 -148 0
-34 -59 -149 0
-35 -60 -150 0
-56 -126 -166 0
-57 -127 -167 0
-58 -128 -168 0
-59 -129 -169 0
-60 -130 -170 0
-16 -91 -131 0
-17 -92 -132 0
-18 -93 -133 0
-19 -94 -134 0
-20 -95 -135 0
-41 -56 -156 0
-42 -57 -157 0
-43 -58 -158 0
-44 -59 -159 0
-45 -60 -160 0
-51 -81 -106 0
-52 -82 -107 0
-53 -83 -108 0
-54 -84 -109 0
-55 -85 -110 0
-46 -101 -121 0
-47 -102 -122 0
-48 -103 -123 0
-49 -104 -124 0
-50 -105 -125 0
-86 -106 -151 0
-87 -107 -152 0
-88 -108 -153 0
-89 -109 -154 0
-90 -110 -155 0
-61 -81 -161 0
-62 -82 -162 0
-63 -83 -163 0
-64 -84 -164 0
-65 -85 -165 0
-1 -16 -21 0
-2 -17 -22 0
-3 -18 -23 0
-4 -19 -24 0
-5 -20 -25 0
-21 -96 -121 0
-22 -97 -122 0
-23 -98 -123 0
-24 -99 -124 0
-25 -100 -125 0
-41 -101 -136 0
-42 -102 -137 0
-43 -103 -138 0
-44 -104 -139 0
-45 -105 -140 0
-66 -121 -161 0
-67 -122 -162 0
-68 -123 -163 0
-69 -124 -164 0
-70 -125 -165 0
-56 -91 -106 0
-57 -92 -107 0
-58 -93 -108 0
-59 -94 -109 0
-60 -95 -110 0
-96 -131 -146 0
-97 -132 -147 0
-98 -133 -148 0
-99 -134 -149 0
-100 -135 -150 0
-111 -151 -161 0
-112 -152 -162 0
-113 -153 -163 0
-114 -154 -164 0
-115 -155 -165 0
-16 -96 -136 0
-17 -97 -137 0
-18 -98 -138 0
-19 -99 -139 0
-20 -100 -140 0
-41 -116 -161 0
-42 -117 -162 0
-43 -118 -163 0
-44 -119 -164 0
-45 -120 -165 0
-71 -126 -146 0
-72 -127 -147 0
-73 -128 -148 0
-74 -129 -149 0
-75 -130 -150 0
-61 -86 -121 0
-62 -87 -122 0
-63 -88 -123 0
-64 -89 -124 0
-65 -90 -125 0
-11 -101 -116 0
-12 -102 -117 0
-13 -103 -118 0
-14 -104 -119 0
-15 -105 -120 0
-11 -21 -31 0
-12 -22 -32 0
-13 -23 -33 0
-14 -24 -34 0
-15 -25 -35 0
-26 -81 -111 0
-27 -82 -112 0
-28 -83 -113 0
-29 -84 -114 0
-30 -85 -115 0
-21 -101 -126 0
-22 -102 -127 0
-23 -103 -128 0
-24 -104 -129 0
-25 -105 -130 0
-41 -61 -66 0
-42 -62 -67 0
-43 -63 -68 0
-44 -64 -69 0
-45 -65 -70 0
-46 -81 -86 0
-47 -82 -87 0
-48 -83 -88 0
-49 -84 -89 0
-50 -85 -90 0
-61 -86 -166 0
-62 -87 -167 0
-63 -88 -168 0
-64 -89 -169 0
-65 -90 -170 0
-66 -86 -101 0
-67 -87 -102 0
-68 -88 -103 0
-69 -89 -104 0
-70 -90 -105 0
-11 -61 -141 0
-12 -62 -142 0
-13 -63 -143 0
-14 -64 -144 0
-15 -65 -145 0
-16 -56 -66 0
-17 -57 -67 0
-18 -58 -68 0
-19 -59 -69 0
-20 -60 -70 0
-21 -61 -151 0
-22 -62 -152 0
-23 -63 -153 0
-24 -64 -154 0
-25 -65 -155 0
-31 -76 -111 0
-32 -77 -112 0
-33 -78 -113 0
-34 -79 -114 0
-35 -80 -115 0
-131 -146 -161 0
-132 -147 -162 0
-133 -148 -163 0
-134 -149 -164 0
-135 -150 -165 0
-6 -111 -131 0
-7 -112 -132 0
-8 -113 -133 0
-9 -114 -134 0
-10 -115 -135 0
-6 -71 -111 0
-7 -72 -112 0
-8 -73 -113 0
-9 -74 -114 0
-10 -75 -115 0
-21 -131 -161 0
-22 -132 -162 0
-23 -133 -163 0
-24 -134 -164 0
-25 -135 -165 0
-21 -26 -46 0
-22 -27 -47 0
-23 -28 -48 0
-24 -29 -49 0
-25 -30 -50 0
-31 -91 -136 0
-32 -92 -137 0
-33 -93 -138 0
-34 -94 -139 0
-35 -95 -140 0
-41 -76 -166 0
-42 -77 -167 0
-43 -78 -168 0
-44 -79 -169 0
-45 -80 -170 0
-16 -71 -166 0
-17 -72 -167 0
-18 -73 -168 0
-19 -74 -169 0
-20 -75 -170 0
-21 -116 -131 0
-22 -117 -132 0
-23 -118 -133 0
-24 -119 -134 0
-25 -120 -135 0
-26 -56 -141 0
-27 -57 -142 0
-28 -58 -143 0
-29 -59 -144 0
-30 -60 -145 0
-31 -136 -161 0
-32 -137 -162 0
-33 -138 -163 0
-34 -139 -164 0
-35 -140 -165 0
-36 -41 -171 0
-37 -42 -172 0
-38 -43 -173 0
-39 -44 -174 0
-40 -45 -175 0
-66 -116 -131 0
-67 -117 -132 0
-68 -118 -133 0
-69 -119 -134 0
-70 -120 -135 0
-6 -131 -161 0
-7 -132 -162 0
-8 -133 -163 0
-9 -134 -164 0
-10 -135 -165 0
-16 -91 -106 0
-17 -92 -107 0
-18 -93 -108 0
-19 -94 -109 0
-20 -95 -110 0
-81 -146 -166 0
-82 -147 -167 0
-83 -148 -168 0
-84 -149 -169 0
-85 -150 -170 0
-56 -86 -166 0
-57 -87 -167 0
-58 -88 -168 0
-59 -89 -169 0
-60 -90 -170 0
-101 -126 -141 0
-102 -127 -142 0
-103 -128 -143 0
-104 -129 -144 0
-105 -130 -145 0
-36 -101 -131 0
-37 -102 -132 0
-38 -103 -133 0
-39 -104 -134 0
-40 -105 -135 0
-61 -66 -156 0
-62 -67 -157 0
-63 -68 -158 0
-64 -69 -159 0
-65 -70 -160 0
-6 -36 -46 0
-7 -37 -47 0
-8 -38 -48 0
-9 -39 -49 0
-10 -40 -50 0
-26 -61 -146 0
-27 -62 -147 0
-28 -63 -148 0
-29 -64 -149 0
-30 -65 -150 0
-6 -76 -111 0
-7 -77 -112 0
-8 -78 -113 0
-9 -79 -114 0
-10 -80 -115 0
-11 -96 -131 0
-12 -97 -132 0
-13 -98 -133 0
-14 -99 -134 0
-15 -100 -135 0
-66 -121 -136 0
-67 -122 -137 0
-68 -123 -138 0
-69 -124 -139 0
-70 -125 -140 0
-16 -76 -121 0
-17 -77 -122 0
-18 -78 -123 0
-19 -79 -124 0
-20 -80 -125 0
-31 -116 -126 0
-32 -117 -127 0
-33 -118 -128 0
-34 -119 -129 0
-35 -120 -130 0
-66 -81 -116 0
-67 -82 -117 0
-68 -83 -118 0
-69 -84 -119 0
-70 -85 -120 0
-16 -96 -111 0
-17 -97 -112 0
-18 -98 -113 0
-19 -99 -114 0
-20 -100 -115 0
-86 -91 -141 0
-87 -92 -142 0
-88 -93 -143 0
-89 -94 -144 0
-90 -95 -145 0
-76 -106 -156 0
-77 -107 -157 0
-78 -108 -158 0
-79 -109 -159 0
-80 -110 -160 0
-11 -21 -51 0
-12 -22 -52 0
-13 -23 -53 0
-14 -24 -54 0
-15 -25 -55 0
-16 -41 -61 0
-17 -42 -62 0
-18 -43 -63 0
-19 -44 -64 0
-20 -45 -65 0
-26 -81 -131 0
-27 -82 -132 0
-28 -83 -133 0
-29 -84 -134 0
-30 -85 -135 0
-11 -21 -141 0
-12 -22 -142 0
-13 -23 -143 0
-14 -24 -144 0
-15 -25 -145 0
-11 -111 -136 0
-12 -112 -137 0
-13 -113 -138 0
-14 -114 -139 0
-15 -115 -140 0
-51 -116 -166 0
-52 -117 -167 0
-53 -118 -168 0
-54 -119 -169 0
-55 -120 -170 0
-66 -96 -121 0
-67 -97 -122 0
-68 -98 -123 0
-69 -99 -124 0
-70 -100 -125 0
-31 -76 -131 0
-32 -77 -132 0
-33 -78 -133 0
-34 -79 -134 0
-35 -80 -135 0
-71 -91 -151 0
-72 -92 -152 0
-73 -93 -153 0
-74 -94 -154 0
-75 -95 -155 0
-6 -71 -86 0
-7 -72 -87 0
-8 -73 -88 0
-9 -74 -89 0
-10 -75 -90 0
-31 -91 -111 0
-32 -92 -112 0
-33 -93 -113 0
-34 -94 -114 0
-35 -95 -115 0
-46 -96 -161 0
-47 -97 -162 0
-48 -98 -163 0
-49 -99 -164 0
-50 -100 -165 0
-16 -71 -96 0
-17 -72 -97 0
-18 -73 -98 0
-19 -74 -99 0
-20 -75 -100 0
-56 -71 -136 0
-57 -72 -137 0
-58 -73 -138 0
-59 -74 -139 0
-60 -75 -140 0
-16 -111 -161 0
-17 -112 -162 0
-18 -113 -163 0
-19 -114 -164 0
-20 -115 -165 0
-66 -96 -166 0
-67 -97 -167 0
-68 -98 -168 0
-69 -99 -169 0
-70 -100 -170 0
-41 -91 -166 0
-42 -92 -167 0
-43 -93 -168 0
-44 -94 -169 0
-45 -95 -170 0
-6 -31 -156 0
-7 -32 -157 0
-8 -33 -158 0
-9 -34 -159 0
-10 -35 -160 0
-61 -121 -136 0
-62 -122 -137 0
-63 -123 -138 0
-64 -124 -139 0
-65 -125 -140 0
-21 -76 -86 0
-22 -77 -87 0
-23 -78 -88 0
-24 -79 -89 0
-25 -80 -90 0
-26 -96 -136 0
-27 -97 -137 0
-28 -98 -138 0
-29 -99 -139 0
-30 -100 -140 0
-136 -156 -161 0
-137 -157 -162 0
-138 -158 -163 0
-139 -159 -164 0
-140 -160 -165 0
-31 -96 -116 0
-32 -97 -117 0
-33 -98 -118 0
-34 -99 -119 0
-35 -100 -120 0
-11 -131 -166 0
-12 -132 -167 0
-13 -133 -168 0
-14 -134 -169 0
-15 -135 -170 0
-56 -86 -96 0
-57 -87 -97 0
-58 -88 -98 0
-59 -89 -99 0
-60 -90 -100 0
-6 -91 -116 0
-7 -92 -117 0
-8 -93 -118 0
-9 -94 -119 0
-10 -95 -120 0
