p cnf 75 1990
1 2 3 4 5 0
-1 -2 0
-1 -3 0
-1 -4 0
-1 -5 0
-2 -3 0
-2 -4 0
-2 -5 0
-3 -4 0
-3 -5 0
-4 -5 0
6 7 8 9 10 0
-6 -7 0
-6 -8 0
-6 -9 0
-6 -10 0
-7 -8 0
-7 -9 0
-7 -10 0
-8 -9 0
-8 -10 0
-9 -10 0
11 12 13 14 15 0
-11 -12 0
-11 -13 0
-11 -14 0
-11 -15 0
-12 -13 0
-12 -14 0
-12 -15 0
-13 -14 0
-13 -15 0
-14 -15 0
16 17 18 19 20 0
-16 -17 0
-16 -18 0
-16 -19 0
-16 -20 0
-17 -18 0
-17 -19 0
-17 -20 0
-18 -19 0
-18 -20 0
-19 -20 0
21 22 23 24 25 0
-21 -22 0
-21 -23 0
-21 -24 0
-21 -25 0
-22 -23 0
-22 -24 0
-22 -25 0
-23 -24 0
-23 -25 0
-24 -25 0
26 27 28 29 30 0
-26 -27 0
-26 -28 0
-26 -29 0
-26 -30 0
-27 -28 0
-27 -29 0
-27 -30 0
-28 -29 0
-28 -30 0
-29 -30 0
31 32 33 34 35 0
-31 -32 0
-31 -33 0
-31 -34 0
-31 -35 0
-32 -33 0
-32 -34 0
-32 -35 0
-33 -34 0
-33 -35 0
-34 -35 0
36 37 38 39 40 0
-36 -37 0
-36 -38 0
-36 -39 0
-36 -40 0
-37 -38 0
-37 -39 0
-37 -40 0
-38 -39 0
-38 -40 0
-39 -40 0
41 42 43 44 45 0
-41 -42 0
-41 -43 0
-41 -44 0
-41 -45 0
-42 -43 0
-42 -44 0
-42 -45 0
-43 -44 0
-43 -45 0
-44 -45 0
46 47 48 49 50 0
-46 -47 0
-46 -48 0
-46 -49 0
-46 -50 0
-47 -48 0
-47 -49 0
-47 -50 0
-48 -49 0
-48 -50 0
-49 -50 0
51 52 53 54 55 0
-51 -52 0
-51 -53 0
-51 -54 0
-51 -55 0
-52 -53 0
-52 -54 0
-52 -55 0
-53 -54 0
-53 -55 0
-54 -55 0
56 57 58 59 60 0
-56 -57 0
-56 -58 0
-56 -59 0
-56 -60 0
-57 -58 0
-57 -59 0
-57 -60 0
-58 -59 0
-58 -60 0
-59 -60 0
61 62 63 64 65 0
-61 -62 0
-61 -63 0
-61 -64 0
-61 -65 0
-62 -63 0
-62 -64 0
-62 -65 0
-63 -64 0
-63 -65 0
-64 -65 0
66 67 68 69 70 0
-66 -67 0
-66 -68 0
-66 -69 0
-66 -70 0
-67 -68 0
-67 -69 0
-67 -70 0
-68 -69 0
-68 -70 0
-69 -70 0
71 72 73 74 75 0
-71 -72 0
-71 -73 0
-71 -74 0
-71 -75 0
-72 -73 0
-72 -74 0
-72 -75 0
-73 -74 0
-73 -75 0
-74 -75 0
-21 -46 0
-22 -47 0
-23 -48 0
-24 -49 0
-25 -50 0
-16 -66 0
-17 -67 0
-18 -68 0
-19 -69 0
-20 -70 0
-26 -51 0
-27 -52 0
-28 -53 0
-29 -54 0
-30 -55 0
-41 -46 0
-42 -47 0
-43 -48 0
-44 -49 0
-45 -50 0
-1 -26 0
-2 -27 0
-3 -28 0
-4 -29 0
-5 -30 0
-1 -71 0
-2 -72 0
-3 -73 0
-4 -74 0
-5 -75 0
-11 -56 0
-12 -57 0
-13 -58 0
-14 -59 0
-15 -60 0
-56 -71 0
-57 -72 0
-58 -73 0
-59 -74 0
-60 -75 0
-31 -56 0
-32 -57 0
-33 -58 0
-34 -59 0
-35 -60 0
-36 -51 0
-37 -52 0
-38 -53 0
-39 -54 0
-40 -55 0
-16 -31 0
-17 -32 0
-18 -33 0
-19 -34 0
-20 -35 0
-26 -61 0
-27 -62 0
-28 -63 0
-29 -64 0
-30 -65 0
-41 -56 0
-42 -57 0
-43 -58 0
-44 -59 0
-45 -60 0
-46 -51 0
-47 -52 0
-48 -53 0
-49 -54 0
-50 -55 0
-1 -36 0
-2 -37 0
-3 -38 0
-4 -39 0
-5 -40 0
-31 -66 0
-32 -67 0
-33 -68 0
-34 -69 0
-35 -70 0
-36 -61 0
-37 -62 0
-38 -63 0
-39 -64 0
-40 -65 0
-16 -41 0
-17 -42 0
-18 -43 0
-19 -44 0
-20 -45 0
-26 -71 0
-27 -72 0
-28 -73 0
-29 -74 0
-30 -75 0
-1 -46 0
-2 -47 0
-3 -48 0
-4 -49 0
-5 -50 0
-6 -51 0
-7 -52 0
-8 -53 0
-9 -54 0
-10 -55 0
-61 -66 0
-62 -67 0
-63 -68 0
-64 -69 0
-65 -70 0
-16 -51 0
-17 -52 0
-18 -53 0
-19 -54 0
-20 -55 0
-26 -36 0
-27 -37 0
-28 -38 0
-29 -39 0
-30 -40 0
-46 -71 0
-47 -72 0
-48 -73 0
-49 -74 0
-50 -75 0
-6 -16 0
-7 -17 0
-8 -18 0
-9 -19 0
-10 -20 0
-6 -61 0
-7 -62 0
-8 -63 0
-9 -64 0
-10 -65 0
-66 -71 0
-67 -72 0
-68 -73 0
-69 -74 0
-70 -75 0
-26 -46 0
-27 -47 0
-28 -48 0
-29 -49 0
-30 -50 0
-21 -56 0
-22 -57 0
-23 -58 0
-24 -59 0
-25 -60 0
-6 -71 0
-7 -72 0
-8 -73 0
-9 -74 0
-10 -75 0
-11 -66 0
-12 -67 0
-13 -68 0
-14 -69 0
-15 -70 0
-36 -46 0
-37 -47 0
-38 -48 0
-39 -49 0
-40 -50 0
-16 -26 0
-17 -27 0
-18 -28 0
-19 -29 0
-20 -30 0
-16 -71 0
-17 -72 0
-18 -73 0
-19 -74 0
-20 -75 0
-26 -56 0
-27 -57 0
-28 -58 0
-29 -59 0
-30 -60 0
-21 -66 0
-22 -67 0
-23 -68 0
-24 -69 0
-25 -70 0
-41 -66 0
-42 -67 0
-43 -68 0
-44 -69 0
-45 -70 0
-6 -36 0
-7 -37 0
-8 -38 0
-9 -39 0
-10 -40 0
-11 -31 0
-12 -32 0
-13 -33 0
-14 -34 0
-15 -35 0
-36 -56 0
-37 -57 0
-38 -58 0
-39 -59 0
-40 -60 0
-16 -36 0
-17 -37 0
-18 -38 0
-19 -39 0
-20 -40 0
-21 -31 0
-22 -32 0
-23 -33 0
-24 -34 0
-25 -35 0
-26 -66 0
-27 -67 0
-28 -68 0
-29 -69 0
-30 -70 0
-51 -61 0
-52 -62 0
-53 -63 0
-54 -64 0
-55 -65 0
-6 -46 0
-7 -47 0
-8 -48 0
-9 -49 0
-10 -50 0
-1 -56 0
-2 -57 0
-3 -58 0
-4 -59 0
-5 -60 0
-11 -41 0
-12 -42 0
-13 -43 0
-14 -44 0
-15 -45 0
-31 -41 0
-32 -42 0
-33 -43 0
-34 -44 0
-35 -45 0
-26 -31 0
-27 -32 0
-28 -33 0
-29 -34 0
-30 -35 0
-21 -41 0
-22 -42 0
-23 -43 0
-24 -44 0
-25 -45 0
-6 -11 0
-7 -12 0
-8 -13 0
-9 -14 0
-10 -15 0
-51 -71 0
-52 -72 0
-53 -73 0
-54 -74 0
-55 -75 0
-6 -56 0
-7 -57 0
-8 -58 0
-9 -59 0
-10 -60 0
-1 -66 0
-2 -67 0
-3 -68 0
-4 -69 0
-5 -70 0
-11 -51 0
-12 -52 0
-13 -53 0
-14 -54 0
-15 -55 0
-31 -51 0
-32 -52 0
-33 -53 0
-34 -54 0
-35 -55 0
-61 -71 0
-62 -72 0
-63 -73 0
-64 -74 0
-65 -75 0
-16 -56 0
-17 -57 0
-18 -58 0
-19 -59 0
-20 -60 0
-21 -51 0
-22 -52 0
-23 -53 0
-24 -54 0
-25 -55 0
-41 -51 0
-42 -52 0
-43 -53 0
-44 -54 0
-45 -55 0
-6 -21 0
-7 -22 0
-8 -23 0
-9 -24 0
-10 -25 0
-1 -31 0
-2 -32 0
-3 -33 0
-4 -34 0
-5 -35 0
-11 -16 0
-12 -17 0
-13 -18 0
-14 -19 0
-15 -20 0
-6 -66 0
-7 -67 0
-8 -68 0
-9 -69 0
-10 -70 0
-11 -61 0
-12 -62 0
-13 -63 0
-14 -64 0
-15 -65 0
-31 -61 0
-32 -62 0
-33 -63 0
-34 -64 0
-35 -65 0
-16 -21 0
-17 -22 0
-18 -23 0
-19 -24 0
-20 -25 0
-21 -61 0
-22 -62 0
-23 -63 0
-24 -64 0
-25 -65 0
-41 -61 0
-42 -62 0
-43 -63 0
-44 -64 0
-45 -65 0
-6 -31 0
-7 -32 0
-8 -33 0
-9 -34 0
-10 -35 0
-1 -41 0
-2 -42 0
-3 -43 0
-4 -44 0
-5 -45 0
-11 -26 0
-12 -27 0
-13 -28 0
-14 -29 0
-15 -30 0
-46 -56 0
-47 -57 0
-48 -58 0
-49 -59 0
-50 -60 0
-11 -71 0
-12 -72 0
-13 -73 0
-14 -74 0
-15 -75 0
-36 -66 0
-37 -67 0
-38 -68 0
-39 -69 0
-40 -70 0
-21 -26 0
-22 -27 0
-23 -28 0
-24 -29 0
-25 -30 0
-21 -71 0
-22 -72 0
-23 -73 0
-24 -74 0
-25 -75 0
-1 -6 0
-2 -7 0
-3 -8 0
-4 -9 0
-5 -10 0
-41 -71 0
-42 -72 0
-43 -73 0
-44 -74 0
-45 -75 0
-46 -66 0
-47 -67 0
-48 -68 0
-49 -69 0
-50 -70 0
-1 -51 0
-2 -52 0
-3 -53 0
-4 -54 0
-5 -55 0
-11 -36 0
-12 -37 0
-13 -38 0
-14 -39 0
-15 -40 0
-21 -36 0
-22 -37 0
-23 -38 0
-24 -39 0
-25 -40 0
-1 -16 0
-2 -17 0
-3 -18 0
-4 -19 0
-5 -20 0
-1 -61 0
-2 -62 0
-3 -63 0
-4 -64 0
-5 -65 0
-11 -46 0
-12 -47 0
-13 -48 0
-14 -49 0
-15 -50 0
-56 -61 0
-57 -62 0
-58 -63 0
-59 -64 0
-60 -65 0
-31 -46 0
-32 -47 0
-33 -48 0
-34 -49 0
-35 -50 0
-36 -41 0
-37 -42 0
-38 -43 0
-39 -44 0
-40 -45 0
-36 -51 -56 0
-37 -52 -57 0
-38 -53 -58 0
-39 -54 -59 0
-40 -55 -60 0
-46 -51 -66 0
-47 -52 -67 0
-48 -53 -68 0
-49 -54 -69 0
-50 -55 -70 0
-11 -41 -61 0
-12 -42 -62 0
-13 -43 -63 0
-14 -44 -64 0
-15 -45 -65 0
-6 -26 -36 0
-7 -27 -37 0
-8 -28 -38 0
-9 -29 -39 0
-10 -30 -40 0
-26 -31 -41 0
-27 -32 -42 0
-28 -33 -43 0
-29 -34 -44 0
-30 -35 -45 0
-21 -51 -56 0
-22 -52 -57 0
-23 -53 -58 0
-24 -54 -59 0
-25 -55 -60 0
-16 -26 -46 0
-17 -27 -47 0
-18 -28 -48 0
-19 -29 -49 0
-20 -30 -50 0
-21 -46 -66 0
-22 -47 -67 0
-23 -48 -68 0
-24 -49 -69 0
-25 -50 -70 0
-31 -46 -61 0
-32 -47 -62 0
-33 -48 -63 0
-34 -49 -64 0
-35 -50 -65 0
-6 -36 -66 0
-7 -37 -67 0
-8 -38 -68 0
-9 -39 -69 0
-10 -40 -70 0
-56 -61 -66 0
-57 -62 -67 0
-58 -63 -68 0
-59 -64 -69 0
-60 -65 -70 0
-41 -66 -71 0
-42 -67 -72 0
-43 -68 -73 0
-44 -69 -74 0
-45 -70 -75 0
-11 -36 -66 0
-12 -37 -67 0
-13 -38 -68 0
-14 -39 -69 0
-15 -40 -70 0
-16 -61 -71 0
-17 -62 -72 0
-18 -63 -73 0
-19 -64 -74 0
-20 -65 -75 0
-31 -51 -66 0
-32 -52 -67 0
-33 -53 -68 0
-34 -54 -69 0
-35 -55 -70 0
-1 -41 -56 0
-2 -42 -57 0
-3 -43 -58 0
-4 -44 -59 0
-5 -45 -60 0
-11 -21 -26 0
-12 -22 -27 0
-13 -23 -28 0
-14 -24 -29 0
-15 -25 -30 0
-31 -56 -61 0
-32 -57 -62 0
-33 -58 -63 0
-34 -59 -64 0
-35 -60 -65 0
-41 -56 -71 0
-42 -57 -72 0
-43 -58 -73 0
-44 -59 -74 0
-45 -60 -75 0
-1 -11 -21 0
-2 -12 -22 0
-3 -13 -23 0
-4 -14 -24 0
-5 -15 -25 0
-11 -21 -71 0
-12 -22 -72 0
-13 -23 -73 0
-14 -24 -74 0
-15 -25 -75 0
-1 -11 -66 0
-2 -12 -67 0
-3 -13 -68 0
-4 -14 -69 0
-5 -15 -70 0
-1 -26 -61 0
-2 -27 -62 0
-3 -28 -63 0
-4 -29 -64 0
-5 -30 -65 0
-26 -51 -56 0
-27 -52 -57 0
-28 -53 -58 0
-29 -54 -59 0
-30 -55 -60 0
-31 -36 -41 0
-32 -37 -42 0
-33 -38 -43 0
-34 -39 -44 0
-35 -40 -45 0
-46 -56 -66 0
-47 -57 -67 0
-48 -58 -68 0
-49 -59 -69 0
-50 -60 -70 0
-11 -41 -71 0
-12 -42 -72 0
-13 -43 -73 0
-14 -44 -74 0
-15 -45 -75 0
-11 -51 -56 0
-12 -52 -57 0
-13 -53 -58 0
-14 -54 -59 0
-15 -55 -60 0
-31 -46 -71 0
-32 -47 -72 0
-33 -48 -73 0
-34 -49 -74 0
-35 -50 -75 0
-6 -31 -41 0
-7 -32 -42 0
-8 -33 -43 0
-9 -34 -44 0
-10 -35 -45 0
-21 -51 -66 0
-22 -52 -67 0
-23 -53 -68 0
-24 -54 -69 0
-25 -55 -70 0
-16 -36 -41 0
-17 -37 -42 0
-18 -38 -43 0
-19 -39 -44 0
-20 -40 -45 0
-1 -6 -41 0
-2 -7 -42 0
-3 -8 -43 0
-4 -9 -44 0
-5 -10 -45 0
-1 -16 -26 0
-2 -17 -27 0
-3 -18 -28 0
-4 -19 -29 0
-5 -20 -30 0
-26 -41 -66 0
-27 -42 -67 0
-28 -43 -68 0
-29 -44 -69 0
-30 -45 -70 0
-1 -16 -71 0
-2 -17 -72 0
-3 -18 -73 0
-4 -19 -74 0
-5 -20 -75 0
-11 -31 -36 0
-12 -32 -37 0
-13 -33 -38 0
-14 -34 -39 0
-15 -35 -40 0
-21 -36 -41 0
-22 -37 -42 0
-23 -38 -43 0
-24 -39 -44 0
-25 -40 -45 0
-6 -61 -71 0
-7 -62 -72 0
-8 -63 -73 0
-9 -64 -74 0
-10 -65 -75 0
-11 -21 -36 0
-12 -22 -37 0
-13 -23 -38 0
-14 -24 -39 0
-15 -25 -40 0
-16 -21 -61 0
-17 -22 -62 0
-18 -23 -63 0
-19 -24 -64 0
-20 -25 -65 0
-21 -61 -66 0
-22 -62 -67 0
-23 -63 -68 0
-24 -64 -69 0
-25 -65 -70 0
-1 -11 -31 0
-2 -12 -32 0
-3 -13 -33 0
-4 -14 -34 0
-5 -15 -35 0
-26 -51 -66 0
-27 -52 -67 0
-28 -53 -68 0
-29 -54 -69 0
-30 -55 -70 0
-1 -21 -46 0
-2 -22 -47 0
-3 -23 -48 0
-4 -24 -49 0
-5 -25 -50 0
-6 -26 -56 0
-7 -27 -57 0
-8 -28 -58 0
-9 -29 -59 0
-10 -30 -60 0
-6 -36 -41 0
-7 -37 -42 0
-8 -38 -43 0
-9 -39 -44 0
-10 -40 -45 0
-6 -31 -51 0
-7 -32 -52 0
-8 -33 -53 0
-9 -34 -54 0
-10 -35 -55 0
-16 -26 -66 0
-17 -27 -67 0
-18 -28 -68 0
-19 -29 -69 0
-20 -30 -70 0
-16 -36 -51 0
-17 -37 -52 0
-18 -38 -53 0
-19 -39 -54 0
-20 -40 -55 0
-1 -6 -51 0
-2 -7 -52 0
-3 -8 -53 0
-4 -9 -54 0
-5 -10 -55 0
-1 -16 -36 0
-2 -17 -37 0
-3 -18 -38 0
-4 -19 -39 0
-5 -20 -40 0
-26 -31 -61 0
-27 -32 -62 0
-28 -33 -63 0
-29 -34 -64 0
-30 -35 -65 0
-11 -31 -46 0
-12 -32 -47 0
-13 -33 -48 0
-14 -34 -49 0
-15 -35 -50 0
-11 -26 -56 0
-12 -27 -57 0
-13 -28 -58 0
-14 -29 -59 0
-15 -30 -60 0
-6 -16 -21 0
-7 -17 -22 0
-8 -18 -23 0
-9 -19 -24 0
-10 -20 -25 0
-11 -36 -41 0
-12 -37 -42 0
-13 -38 -43 0
-14 -39 -44 0
-15 -40 -45 0
-16 -51 -61 0
-17 -52 -62 0
-18 -53 -63 0
-19 -54 -64 0
-20 -55 -65 0
-21 -26 -66 0
-22 -27 -67 0
-23 -28 -68 0
-24 -29 -69 0
-25 -30 -70 0
-21 -31 -56 0
-22 -32 -57 0
-23 -33 -58 0
-24 -34 -59 0
-25 -35 -60 0
-6 -16 -66 0
-7 -17 -67 0
-8 -18 -68 0
-9 -19 -69 0
-10 -20 -70 0
-36 -56 -66 0
-37 -57 -67 0
-38 -58 -68 0
-39 -59 -69 0
-40 -60 -70 0
-6 -21 -61 0
-7 -22 -62 0
-8 -23 -63 0
-9 -24 -64 0
-10 -25 -65 0
-1 -51 -61 0
-2 -52 -62 0
-3 -53 -63 0
-4 -54 -64 0
-5 -55 -65 0
-1 -46 -71 0
-2 -47 -72 0
-3 -48 -73 0
-4 -49 -74 0
-5 -50 -75 0
-1 -11 -41 0
-2 -12 -42 0
-3 -13 -43 0
-4 -14 -44 0
-5 -15 -45 0
-61 -66 -71 0
-62 -67 -72 0
-63 -68 -73 0
-64 -69 -74 0
-65 -70 -75 0
-6 -41 -61 0
-7 -42 -62 0
-8 -43 -63 0
-9 -44 -64 0
-10 -45 -65 0
-11 -16 -66 0
-12 -17 -67 0
-13 -18 -68 0
-14 -19 -69 0
-15 -20 -70 0
-11 -41 -46 0
-12 -42 -47 0
-13 -43 -48 0
-14 -44 -49 0
-15 -45 -50 0
-16 -41 -71 0
-17 -42 -72 0
-18 -43 -73 0
-19 -44 -74 0
-20 -45 -75 0
-31 -36 -61 0
-32 -37 -62 0
-33 -38 -63 0
-34 -39 -64 0
-35 -40 -65 0
-21 -41 -56 0
-22 -42 -57 0
-23 -43 -58 0
-24 -44 -59 0
-25 -45 -60 0
-36 -61 -71 0
-37 -62 -72 0
-38 -63 -73 0
-39 -64 -74 0
-40 -65 -75 0
-16 -26 -31 0
-17 -27 -32 0
-18 -28 -33 0
-19 -29 -34 0
-20 -30 -35 0
-21 -46 -51 0
-22 -47 -52 0
-23 -48 -53 0
-24 -49 -54 0
-25 -50 -55 0
-1 -6 -16 0
-2 -7 -17 0
-3 -8 -18 0
-4 -9 -19 0
-5 -10 -20 0
-11 -56 -71 0
-12 -57 -72 0
-13 -58 -73 0
-14 -59 -74 0
-15 -60 -75 0
-26 -31 -71 0
-27 -32 -72 0
-28 -33 -73 0
-29 -34 -74 0
-30 -35 -75 0
-41 -46 -56 0
-42 -47 -57 0
-43 -48 -58 0
-44 -49 -59 0
-45 -50 -60 0
-36 -41 -51 0
-37 -42 -52 0
-38 -43 -53 0
-39 -44 -54 0
-40 -45 -55 0
-21 -26 -31 0
-22 -27 -32 0
-23 -28 -33 0
-24 -29 -34 0
-25 -30 -35 0
-6 -51 -61 0
-7 -52 -62 0
-8 -53 -63 0
-9 -54 -64 0
-10 -55 -65 0
-11 -26 -66 0
-12 -27 -67 0
-13 -28 -68 0
-14 -29 -69 0
-15 -30 -70 0
-6 -16 -31 0
-7 -17 -32 0
-8 -18 -33 0
-9 -19 -34 0
-10 -20 -35 0
-6 -11 -41 0
-7 -12 -42 0
-8 -13 -43 0
-9 -14 -44 0
-10 -15 -45 0
-6 -21 -26 0
-7 -22 -27 0
-8 -23 -28 0
-9 -24 -29 0
-10 -25 -30 0
-21 -36 -61 0
-22 -37 -62 0
-23 -38 -63 0
-24 -39 -64 0
-25 -40 -65 0
-16 -21 -36 0
-17 -22 -37 0
-18 -23 -38 0
-19 -24 -39 0
-20 -25 -40 0
-6 -21 -71 0
-7 -22 -72 0
-8 -23 -73 0
-9 -24 -74 0
-10 -25 -75 0
-1 -51 -71 0
-2 -52 -72 0
-3 -53 -73 0
-4 -54 -74 0
-5 -55 -75 0
-26 -36 -46 0
-27 -37 -47 0
-28 -38 -48 0
-29 -39 -49 0
-30 -40 -50 0
-11 -16 -31 0
-12 -17 -32 0
-13 -18 -33 0
-14 -19 -34 0
-15 -20 -35 0
-26 -61 -71 0
-27 -62 -72 0
-28 -63 -73 0
-29 -64 -74 0
-30 -65 -75 0
-1 -21 -66 0
-2 -22 -67 0
-3 -23 -68 0
-4 -24 -69 0
-5 -25 -70 0
-1 -31 -51 0
-2 -32 -52 0
-3 -33 -53 0
-4 -34 -54 0
-5 -35 -55 0
-11 -46 -51 0
-12 -47 -52 0
-13 -48 -53 0
-14 -49 -54 0
-15 -50 -55 0
-16 -56 -61 0
-17 -57 -62 0
-18 -58 -63 0
-19 -59 -64 0
-20 -60 -65 0
-16 -26 -41 0
-17 -27 -42 0
-18 -28 -43 0
-19 -29 -44 0
-20 -30 -45 0
-21 -41 -66 0
-22 -42 -67 0
-23 -43 -68 0
-24 -44 -69 0
-25 -45 -70 0
-31 -36 -71 0
-32 -37 -72 0
-33 -38 -73 0
-34 -39 -74 0
-35 -40 -75 0
-31 -46 -56 0
-32 -47 -57 0
-33 -48 -58 0
-34 -49 -59 0
-35 -50 -60 0
-26 -41 -51 0
-27 -42 -52 0
-28 -43 -53 0
-29 -44 -54 0
-30 -45 -55 0
-51 -66 -71 0
-52 -67 -72 0
-53 -68 -73 0
-54 -69 -74 0
-55 -70 -75 0
-11 -26 -31 0
-12 -27 -32 0
-13 -28 -33 0
-14 -29 -34 0
-15 -30 -35 0
-21 -26 -41 0
-22 -27 -42 0
-23 -28 -43 0
-24 -29 -44 0
-25 -30 -45 0
-11 -31 -66 0
-12 -32 -67 0
-13 -33 -68 0
-14 -34 -69 0
-15 -35 -70 0
-6 -11 -51 0
-7 -12 -52 0
-8 -13 -53 0
-9 -14 -54 0
-10 -15 -55 0
-21 -36 -71 0
-22 -37 -72 0
-23 -38 -73 0
-24 -39 -74 0
-25 -40 -75 0
-16 -21 -46 0
-17 -22 -47 0
-18 -23 -48 0
-19 -24 -49 0
-20 -25 -50 0
-41 -56 -66 0
-42 -57 -67 0
-43 -58 -68 0
-44 -59 -69 0
-45 -60 -70 0
-26 -36 -56 0
-27 -37 -57 0
-28 -38 -58 0
-29 -39 -59 0
-30 -40 -60 0
-1 -11 -61 0
-2 -12 -62 0
-3 -13 -63 0
-4 -14 -64 0
-5 -15 -65 0
-11 -16 -41 0
-12 -17 -42 0
-13 -18 -43 0
-14 -19 -44 0
-15 -20 -45 0
-21 -56 -71 0
-22 -57 -72 0
-23 -58 -73 0
-24 -59 -74 0
-25 -60 -75 0
-16 -41 -46 0
-17 -42 -47 0
-18 -43 -48 0
-19 -44 -49 0
-20 -45 -50 0
-36 -51 -61 0
-37 -52 -62 0
-38 -53 -63 0
-39 -54 -64 0
-40 -55 -65 0
-1 -21 -31 0
-2 -22 -32 0
-3 -23 -33 0
-4 -24 -34 0
-5 -25 -35 0
-41 -61 -71 0
-42 -62 -72 0
-43 -63 -73 0
-44 -64 -74 0
-45 -65 -75 0
-46 -51 -71 0
-47 -52 -72 0
-48 -53 -73 0
-49 -54 -74 0
-50 -55 -75 0
-6 -26 -41 0
-7 -27 -42 0
-8 -28 -43 0
-9 -29 -44 0
-10 -30 -45 0
-11 -46 -61 0
-12 -47 -62 0
-13 -48 -63 0
-14 -49 -64 0
-15 -50 -65 0
-6 -31 -36 0
-7 -32 -37 0
-8 -33 -38 0
-9 -34 -39 0
-10 -35 -40 0
-26 -46 -56 0
-27 -47 -57 0
-28 -48 -58 0
-29 -49 -59 0
-30 -50 -60 0
-6 -11 -16 0
-7 -12 -17 0
-8 -13 -18 0
-9 -14 -19 0
-10 -15 -20 0
-21 -31 -41 0
-22 -32 -42 0
-23 -33 -43 0
-24 -34 -44 0
-25 -35 -45 0
-11 -36 -71 0
-12 -37 -72 0
-13 -38 -73 0
-14 -39 -74 0
-15 -40 -75 0
-6 -21 -46 0
-7 -22 -47 0
-8 -23 -48 0
-9 -24 -49 0
-10 -25 -50 0
-1 -41 -61 0
-2 -42 -62 0
-3 -43 -63 0
-4 -44 -64 0
-5 -45 -65 0
-16 -21 -56 0
-17 -22 -57 0
-18 -23 -58 0
-19 -24 -59 0
-20 -25 -60 0
-26 -36 -66 0
-27 -37 -67 0
-28 -38 -68 0
-29 -39 -69 0
-30 -40 -70 0
-6 -41 -46 0
-7 -42 -47 0
-8 -43 -48 0
-9 -44 -49 0
-10 -45 -50 0
-11 -61 -66 0
-12 -62 -67 0
-13 -63 -68 0
-14 -64 -69 0
-15 -65 -70 0
-11 -16 -51 0
-12 -17 -52 0
-13 -18 -53 0
-14 -19 -54 0
-15 -20 -55 0
-16 -41 -56 0
-17 -42 -57 0
-18 -43 -58 0
-19 -44 -59 0
-20 -45 -60 0
-16 -31 -71 0
-17 -32 -72 0
-18 -33 -73 0
-19 -34 -74 0
-20 -35 -75 0
-1 -21 -41 0
-2 -22 -42 0
-3 -23 -43 0
-4 -24 -44 0
-5 -25 -45 0
-16 -46 -51 0
-17 -47 -52 0
-18 -48 -53 0
-19 -49 -54 0
-20 -50 -55 0
-1 -26 -36 0
-2 -27 -37 0
-3 -28 -38 0
-4 -29 -39 0
-5 -30 -40 0
-26 -51 -61 0
-27 -52 -62 0
-28 -53 -63 0
-29 -54 -64 0
-30 -55 -65 0
-31 -36 -46 0
-32 -37 -47 0
-33 -38 -48 0
-34 -39 -49 0
-35 -40 -50 0
-11 -46 -71 0
-12 -47 -72 0
-13 -48 -73 0
-14 -49 -74 0
-15 -50 -75 0
-1 -31 -71 0
-2 -32 -72 0
-3 -33 -73 0
-4 -34 -74 0
-5 -35 -75 0
-6 -31 -46 0
-7 -32 -47 0
-8 -33 -48 0
-9 -34 -49 0
-10 -35 -50 0
-1 -36 -66 0
-2 -37 -67 0
-3 -38 -68 0
-4 -39 -69 0
-5 -40 -70 0
-46 -61 -66 0
-47 -62 -67 0
-48 -63 -68 0
-49 -64 -69 0
-50 -65 -70 0
-31 -41 -51 0
-32 -42 -52 0
-33 -43 -53 0
-34 -44 -54 0
-35 -45 -55 0
-51 -56 -61 0
-52 -57 -62 0
-53 -58 -63 0
-54 -59 -64 0
-55 -60 -65 0
-26 -41 -71 0
-27 -42 -72 0
-28 -43 -73 0
-29 -44 -74 0
-30 -45 -75 0
-11 -66 -71 0
-12 -67 -72 0
-13 -68 -73 0
-14 -69 -74 0
-15 -70 -75 0
-26 -46 -66 0
-27 -47 -67 0
-28 -48 -68 0
-29 -49 -69 0
-30 -50 -70 0
-1 -56 -66 0
-2 -57 -67 0
-3 -58 -68 0
-4 -59 -69 0
-5 -60 -70 0
-11 -26 -51 0
-12 -27 -52 0
-13 -28 -53 0
-14 -29 -54 0
-15 -30 -55 0
-6 -11 -26 0
-7 -12 -27 0
-8 -13 -28 0
-9 -14 -29 0
-10 -15 -30 0
-1 -16 -46 0
-2 -17 -47 0
-3 -18 -48 0
-4 -19 -49 0
-5 -20 -50 0
-16 -36 -61 0
-17 -37 -62 0
-18 -38 -63 0
-19 -39 -64 0
-20 -40 -65 0
-16 -51 -56 0
-17 -52 -57 0
-18 -53 -58 0
-19 -54 -59 0
-20 -55 -60 0
-21 -36 -46 0
-22 -37 -47 0
-23 -38 -48 0
-24 -39 -49 0
-25 -40 -50 0
-6 -66 -71 0
-7 -67 -72 0
-8 -68 -73 0
-9 -69 -74 0
-10 -70 -75 0
-6 -11 -71 0
-7 -12 -72 0
-8 -13 -73 0
-9 -14 -74 0
-10 -15 -75 0
-1 -11 -36 0
-2 -12 -37 0
-3 -13 -38 0
-4 -14 -39 0
-5 -15 -40 0
-41 -51 -61 0
-42 -52 -62 0
-43 -53 -63 0
-44 -54 -64 0
-45 -55 -65 0
-6 -41 -56 0
-7 -42 -57 0
-8 -43 -58 0
-9 -44 -59 0
-10 -45 -60 0
-11 -16 -61 0
-12 -17 -62 0
-13 -18 -63 0
-14 -19 -64 0
-15 -20 -65 0
-6 -46 -51 0
-7 -47 -52 0
-8 -48 -53 0
-9 -49 -54 0
-10 -50 -55 0
-11 -21 -56 0
-12 -22 -57 0
-13 -23 -58 0
-14 -24 -59 0
-15 -25 -60 0
-16 -41 -66 0
-17 -42 -67 0
-18 -43 -68 0
-19 -44 -69 0
-20 -45 -70 0
-1 -21 -51 0
-2 -22 -52 0
-3 -23 -53 0
-4 -24 -54 0
-5 -25 -55 0
-1 -31 -36 0
-2 -32 -37 0
-3 -33 -38 0
-4 -34 -39 0
-5 -35 -40 0
-1 -26 -46 0
-2 -27 -47 0
-3 -28 -48 0
-4 -29 -49 0
-5 -30 -50 0
-16 -46 -61 0
-17 -47 -62 0
-18 -48 -63 0
-19 -49 -64 0
-20 -50 -65 0
-31 -36 -56 0
-32 -37 -57 0
-33 -38 -58 0
-34 -39 -59 0
-35 -40 -60 0
-6 -31 -56 0
-7 -32 -57 0
-8 -33 -58 0
-9 -34 -59 0
-10 -35 -60 0
-51 -56 -71 0
-52 -57 -72 0
-53 -58 -73 0
-54 -59 -74 0
-55 -60 -75 0
-36 -41 -46 0
-37 -42 -47 0
-38 -43 -48 0
-39 -44 -49 0
-40 -45 -50 0
-6 -51 -56 0
-7 -52 -57 0
-8 -53 -58 0
-9 -54 -59 0
-10 -55 -60 0
-11 -36 -46 0
-12 -37 -47 0
-13 -38 -48 0
-14 -39 -49 0
-15 -40 -50 0
-1 -6 -71 0
-2 -7 -72 0
-3 -8 -73 0
-4 -9 -74 0
-5 -10 -75 0
-1 -61 -71 0
-2 -62 -72 0
-3 -63 -73 0
-4 -64 -74 0
-5 -65 -75 0
-1 -16 -56 0
-2 -17 -57 0
-3 -18 -58 0
-4 -19 -59 0
-5 -20 -60 0
-16 -51 -66 0
-17 -52 -67 0
-18 -53 -68 0
-19 -54 -69 0
-20 -55 -70 0
-16 -36 -71 0
-17 -37 -72 0
-18 -38 -73 0
-19 -39 -74 0
-20 -40 -75 0
-21 -36 -56 0
-22 -37 -57 0
-23 -38 -58 0
-24 -39 -59 0
-25 -40 -60 0
-6 -21 -66 0
-7 -22 -67 0
-8 -23 -68 0
-9 -24 -69 0
-10 -25 -70 0
-36 -56 -71 0
-37 -57 -72 0
-38 -58 -73 0
-39 -59 -74 0
-40 -60 -75 0
-31 -51 -61 0
-32 -52 -62 0
-33 -53 -63 0
-34 -54 -64 0
-35 -55 -65 0
-16 -31 -46 0
-17 -32 -47 0
-18 -33 -48 0
-19 -34 -49 0
-20 -35 -50 0
-41 -51 -71 0
-42 -52 -72 0
-43 -53 -73 0
-44 -54 -74 0
-45 -55 -75 0
-6 -41 -66 0
-7 -42 -67 0
-8 -43 -68 0
-9 -44 -69 0
-10 -45 -70 0
-6 -46 -61 0
-7 -47 -62 0
-8 -48 -63 0
-9 -49 -64 0
-10 -50 -65 0
-16 -46 -71 0
-17 -47 -72 0
-18 -48 -73 0
-19 -49 -74 0
-20 -50 -75 0
-1 -26 -56 0
-2 -27 -57 0
-3 -28 -58 0
-4 -29 -59 0
-5 -30 -60 0
-1 -36 -41 0
-2 -37 -42 0
-3 -38 -43 0
-4 -39 -44 0
-5 -40 -45 0
-21 -46 -56 0
-22 -47 -57 0
-23 -48 -58 0
-24 -49 -59 0
-25 -50 -60 0
-46 -56 -61 0
-47 -57 -62 0
-48 -58 -63 0
-49 -59 -64 0
-50 -60 -65 0
-26 -41 -46 0
-27 -42 -47 0
-28 -43 -48 0
-29 -44 -49 0
-30 -45 -50 0
-16 -66 -71 0
-17 -67 -72 0
-18 -68 -73 0
-19 -69 -74 0
-20 -70 -75 0
-31 -41 -71 0
-32 -42 -72 0
-33 -43 -73 0
-34 -44 -74 0
-35 -45 -75 0
-36 -46 -51 0
-37 -47 -52 0
-38 -48 -53 0
-39 -49 -54 0
-40 -50 -55 0
-1 -6 -36 0
-2 -7 -37 0
-3 -8 -38 0
-4 -9 -39 0
-5 -10 -40 0
-1 -16 -21 0
-2 -17 -22 0
-3 -18 -23 0
-4 -19 -24 0
-5 -20 -25 0
-6 -36 -71 0
-7 -37 -72 0
-8 -38 -73 0
-9 -39 -74 0
-10 -40 -75 0
-11 -26 -71 0
-12 -27 -72 0
-13 -28 -73 0
-14 -29 -74 0
-15 -30 -75 0
-26 -56 -71 0
-27 -57 -72 0
-28 -58 -73 0
-29 -59 -74 0
-30 -60 -75 0
-6 -21 -31 0
-7 -22 -32 0
-8 -23 -33 0
-9 -24 -34 0
-10 -25 -35 0
-21 -36 -66 0
-22 -37 -67 0
-23 -38 -68 0
-24 -39 -69 0
-25 -40 -70 0
-6 -16 -51 0
-7 -17 -52 0
-8 -18 -53 0
-9 -19 -54 0
-10 -20 -55 0
-26 -36 -51 0
-27 -37 -52 0
-28 -38 -53 0
-29 -39 -54 0
-30 -40 -55 0
-31 -51 -71 0
-32 -52 -72 0
-33 -53 -73 0
-34 -54 -74 0
-35 -55 -75 0
-16 -31 -56 0
-17 -32 -57 0
-18 -33 -58 0
-19 -34 -59 0
-20 -35 -60 0
-31 -56 -66 0
-32 -57 -67 0
-33 -58 -68 0
-34 -59 -69 0
-35 -60 -70 0
-1 -21 -26 0
-2 -22 -27 0
-3 -23 -28 0
-4 -24 -29 0
-5 -25 -30 0
-6 -46 -71 0
-7 -47 -72 0
-8 -48 -73 0
-9 -49 -74 0
-10 -50 -75 0
-1 -21 -71 0
-2 -22 -72 0
-3 -23 -73 0
-4 -24 -74 0
-5 -25 -75 0
-1 -36 -51 0
-2 -37 -52 0
-3 -38 -53 0
-4 -39 -54 0
-5 -40 -55 0
-46 -56 -71 0
-47 -57 -72 0
-48 -58 -73 0
-49 -59 -74 0
-50 -60 -75 0
-6 -26 -51 0
-7 -27 -52 0
-8 -28 -53 0
-9 -29 -54 0
-10 -30 -55 0
-26 -31 -56 0
-27 -32 -57 0
-28 -33 -58 0
-29 -34 -59 0
-30 -35 -60 0
-16 -26 -61 0
-17 -27 -62 0
-18 -28 -63 0
-19 -29 -64 0
-20 -30 -65 0
-36 -46 -61 0
-37 -47 -62 0
-38 -48 -63 0
-39 -49 -64 0
-40 -50 -65 0
-1 -16 -31 0
-2 -17 -32 0
-3 -18 -33 0
-4 -19 -34 0
-5 -20 -35 0
-21 -26 -46 0
-22 -27 -47 0
-23 -28 -48 0
-24 -29 -49 0
-25 -30 -50 0
-1 -46 -51 0
-2 -47 -52 0
-3 -48 -53 0
-4 -49 -54 0
-5 -50 -55 0
-21 -31 -51 0
-22 -32 -52 0
-23 -33 -53 0
-24 -34 -54 0
-25 -35 -55 0
-46 -66 -71 0
-47 -67 -72 0
-48 -68 -73 0
-49 -69 -74 0
-50 -70 -75 0
-6 -16 -61 0
-7 -17 -62 0
-8 -18 -63 0
-9 -19 -64 0
-10 -20 -65 0
-26 -36 -61 0
-27 -37 -62 0
-28 -38 -63 0
-29 -39 -64 0
-30 -40 -65 0
-31 -61 -66 0
-32 -62 -67 0
-33 -63 -68 0
-34 -64 -69 0
-35 -65 -70 0
-21 -61 -71 0
-22 -62 -72 0
-23 -63 -73 0
-24 -64 -74 0
-25 -65 -75 0
-1 -26 -31 0
-2 -27 -32 0
-3 -28 -33 0
-4 -29 -34 0
-5 -30 -35 0
-6 -56 -66 0
-7 -57 -67 0
-8 -58 -68 0
-9 -59 -69 0
-10 -60 -70 0
-21 -41 -51 0
-22 -42 -52 0
-23 -43 -53 0
-24 -44 -54 0
-25 -45 -55 0
-1 -6 -11 0
-2 -7 -12 0
-3 -8 -13 0
-4 -9 -14 0
-5 -10 -15 0
-6 -36 -46 0
-7 -37 -47 0
-8 -38 -48 0
-9 -39 -49 0
-10 -40 -50 0
-6 -26 -61 0
-7 -27 -62 0
-8 -28 -63 0
-9 -29 -64 0
-10 -30 -65 0
-1 -56 -61 0
-2 -57 -62 0
-3 -58 -63 0
-4 -59 -64 0
-5 -60 -65 0
-11 -56 -66 0
-12 -57 -67 0
-13 -58 -68 0
-14 -59 -69 0
-15 -60 -70 0
-1 -6 -56 0
-2 -7 -57 0
-3 -8 -58 0
-4 -9 -59 0
-5 -10 -60 0
-6 -11 -21 0
-7 -12 -22 0
-8 -13 -23 0
-9 -14 -24 0
-10 -15 -25 0
-11 -26 -46 0
-12 -27 -47 0
-13 -28 -48 0
-14 -29 -49 0
-15 -30 -50 0
-16 -36 -56 0
-17 -37 -57 0
-18 -38 -58 0
-19 -39 -59 0
-20 -40 -60 0
-11 -31 -51 0
-12 -32 -52 0
-13 -33 -53 0
-14 -34 -54 0
-15 -35 -55 0
-1 -46 -61 0
-2 -47 -62 0
-3 -48 -63 0
-4 -49 -64 0
-5 -50 -65 0
-6 -16 -26 0
-7 -17 -27 0
-8 -18 -28 0
-9 -19 -29 0
-10 -20 -30 0
-21 -31 -61 0
-22 -32 -62 0
-23 -33 -63 0
-24 -34 -64 0
-25 -35 -65 0
-26 -36 -71 0
-27 -37 -72 0
-28 -38 -73 0
-29 -39 -74 0
-30 -40 -75 0
-11 -16 -56 0
-12 -17 -57 0
-13 -18 -58 0
-14 -19 -59 0
-15 -20 -60 0
-1 -51 -66 0
-2 -52 -67 0
-3 -53 -68 0
-4 -54 -69 0
-5 -55 -70 0
-11 -21 -51 0
-12 -22 -52 0
-13 -23 -53 0
-14 -24 -54 0
-15 -25 -55 0
-31 -66 -71 0
-32 -67 -72 0
-33 -68 -73 0
-34 -69 -74 0
-35 -70 -75 0
-1 -11 -46 0
-2 -12 -47 0
-3 -13 -48 0
-4 -14 -49 0
-5 -15 -50 0
-1 -26 -41 0
-2 -27 -42 0
-3 -28 -43 0
-4 -29 -44 0
-5 -30 -45 0
-26 -61 -66 0
-27 -62 -67 0
-28 -63 -68 0
-29 -64 -69 0
-30 -65 -70 0
-11 -41 -51 0
-12 -42 -52 0
-13 -43 -53 0
-14 -44 -54 0
-15 -45 -55 0
-31 -36 -66 0
-32 -37 -67 0
-33 -38 -68 0
-34 -39 -69 0
-35 -40 -70 0
-21 -41 -61 0
-22 -42 -62 0
-23 -43 -63 0
-24 -44 -64 0
-25 -45 -65 0
-51 -56 -66 0
-52 -57 -67 0
-53 -58 -68 0
-54 -59 -69 0
-55 -60 -70 0
-41 -46 -61 0
-42 -47 -62 0
-43 -48 -63 0
-44 -49 -64 0
-45 -50 -65 0
-6 -26 -71 0
-7 -27 -72 0
-8 -28 -73 0
-9 -29 -74 0
-10 -30 -75 0
-6 -31 -66 0
-7 -32 -67 0
-8 -33 -68 0
-9 -34 -69 0
-10 -35 -70 0
-1 -56 -71 0
-2 -57 -72 0
-3 -58 -73 0
-4 -59 -74 0
-5 -60 -75 0
-16 -36 -66 0
-17 -37 -67 0
-18 -38 -68 0
-19 -39 -69 0
-20 -40 -70 0
-1 -6 -66 0
-2 -7 -67 0
-3 -8 -68 0
-4 -9 -69 0
-5 -10 -70 0
-1 -61 -66 0
-2 -62 -67 0
-3 -63 -68 0
-4 -64 -69 0
-5 -65 -70 0
-11 -31 -61 0
-12 -32 -62 0
-13 -33 -63 0
-14 -34 -64 0
-15 -35 -65 0
-21 -31 -71 0
-22 -32 -72 0
-23 -33 -73 0
-24 -34 -74 0
-25 -35 -75 0
-36 -51 -71 0
-37 -52 -72 0
-38 -53 -73 0
-39 -54 -74 0
-40 -55 -75 0
-11 -16 -21 0
-12 -17 -22 0
-13 -18 -23 0
-14 -19 -24 0
-15 -20 -25 0
-16 -31 -41 0
-17 -32 -42 0
-18 -33 -43 0
-19 -34 -44 0
-20 -35 -45 0
-41 -51 -66 0
-42 -52 -67 0
-43 -53 -68 0
-44 -54 -69 0
-45 -55 -70 0
-41 -56 -61 0
-42 -57 -62 0
-43 -58 -63 0
-44 -59 -64 0
-45 -60 -65 0
-6 -46 -56 0
-7 -47 -57 0
-8 -48 -58 0
-9 -49 -59 0
-10 -50 -60 0
-11 -21 -61 0
-12 -22 -62 0
-13 -23 -63 0
-14 -24 -64 0
-15 -25 -65 0
-16 -46 -66 0
-17 -47 -67 0
-18 -48 -68 0
-19 -49 -69 0
-20 -50 -70 0
-1 -11 -56 0
-2 -12 -57 0
-3 -13 -58 0
-4 -14 -59 0
-5 -15 -60 0
