p cnf 375 16450
1 2 3 4 5 0
-1 -2 0
-1 -3 0
-1 -4 0
-1 -5 0
-2 -3 0
-2 -4 0
-2 -5 0
-3 -4 0
-3 -5 0
-4 -5 0
6 7 8 9 10 0
-6 -7 0
-6 -8 0
-6 -9 0
-6 -10 0
-7 -8 0
-7 -9 0
-7 -10 0
-8 -9 0
-8 -10 0
-9 -10 0
11 12 13 14 15 0
-11 -12 0
-11 -13 0
-11 -14 0
-11 -15 0
-12 -13 0
-12 -14 0
-12 -15 0
-13 -14 0
-13 -15 0
-14 -15 0
16 17 18 19 20 0
-16 -17 0
-16 -18 0
-16 -19 0
-16 -20 0
-17 -18 0
-17 -19 0
-17 -20 0
-18 -19 0
-18 -20 0
-19 -20 0
21 22 23 24 25 0
-21 -22 0
-21 -23 0
-21 -24 0
-21 -25 0
-22 -23 0
-22 -24 0
-22 -25 0
-23 -24 0
-23 -25 0
-24 -25 0
26 27 28 29 30 0
-26 -27 0
-26 -28 0
-26 -29 0
-26 -30 0
-27 -28 0
-27 -29 0
-27 -30 0
-28 -29 0
-28 -30 0
-29 -30 0
31 32 33 34 35 0
-31 -32 0
-31 -33 0
-31 -34 0
-31 -35 0
-32 -33 0
-32 -34 0
-32 -35 0
-33 -34 0
-33 -35 0
-34 -35 0
36 37 38 39 40 0
-36 -37 0
-36 -38 0
-36 -39 0
-36 -40 0
-37 -38 0
-37 -39 0
-37 -40 0
-38 -39 0
-38 -40 0
-39 -40 0
41 42 43 44 45 0
-41 -42 0
-41 -43 0
-41 -44 0
-41 -45 0
-42 -43 0
-42 -44 0
-42 -45 0
-43 -44 0
-43 -45 0
-44 -45 0
46 47 48 49 50 0
-46 -47 0
-46 -48 0
-46 -49 0
-46 -50 0
-47 -48 0
-47 -49 0
-47 -50 0
-48 -49 0
-48 -50 0
-49 -50 0
51 52 53 54 55 0
-51 -52 0
-51 -53 0
-51 -54 0
-51 -55 0
-52 -53 0
-52 -54 0
-52 -55 0
-53 -54 0
-53 -55 0
-54 -55 0
56 57 58 59 60 0
-56 -57 0
-56 -58 0
-56 -59 0
-56 -60 0
-57 -58 0
-57 -59 0
-57 -60 0
-58 -59 0
-58 -60 0
-59 -60 0
61 62 63 64 65 0
-61 -62 0
-61 -63 0
-61 -64 0
-61 -65 0
-62 -63 0
-62 -64 0
-62 -65 0
-63 -64 0
-63 -65 0
-64 -65 0
66 67 68 69 70 0
-66 -67 0
-66 -68 0
-66 -69 0
-66 -70 0
-67 -68 0
-67 -69 0
-67 -70 0
-68 -69 0
-68 -70 0
-69 -70 0
71 72 73 74 75 0
-71 -72 0
-71 -73 0
-71 -74 0
-71 -75 0
-72 -73 0
-72 -74 0
-72 -75 0
-73 -74 0
-73 -75 0
-74 -75 0
76 77 78 79 80 0
-76 -77 0
-76 -78 0
-76 -79 0
-76 -80 0
-77 -78 0
-77 -79 0
-77 -80 0
-78 -79 0
-78 -80 0
-79 -80 0
81 82 83 84 85 0
-81 -82 0
-81 -83 0
-81 -84 0
-81 -85 0
-82 -83 0
-82 -84 0
-82 -85 0
-83 -84 0
-83 -85 0
-84 -85 0
86 87 88 89 90 0
-86 -87 0
-86 -88 0
-86 -89 0
-86 -90 0
-87 -88 0
-87 -89 0
-87 -90 0
-88 -89 0
-88 -90 0
-89 -90 0
91 92 93 94 95 0
-91 -92 0
-91 -93 0
-91 -94 0
-91 -95 0
-92 -93 0
-92 -94 0
-92 -95 0
-93 -94 0
-93 -95 0
-94 -95 0
96 97 98 99 100 0
-96 -97 0
-96 -98 0
-96 -99 0
-96 -100 0
-97 -98 0
-97 -99 0
-97 -100 0
-98 -99 0
-98 -100 0
-99 -100 0
101 102 103 104 105 0
-101 -102 0
-101 -103 0
-101 -104 0
-101 -105 0
-102 -103 0
-102 -104 0
-102 -105 0
-103 -104 0
-103 -105 0
-104 -105 0
106 107 108 109 110 0
-106 -107 0
-106 -108 0
-106 -109 0
-106 -110 0
-107 -108 0
-107 -109 0
-107 -110 0
-108 -109 0
-108 -110 0
-109 -110 0
111 112 113 114 115 0
-111 -112 0
-111 -113 0
-111 -114 0
-111 -115 0
-112 -113 0
-112 -114 0
-112 -115 0
-113 -114 0
-113 -115 0
-114 -115 0
116 117 118 119 120 0
-116 -117 0
-116 -118 0
-116 -119 0
-116 -120 0
-117 -118 0
-117 -119 0
-117 -120 0
-118 -119 0
-118 -120 0
-119 -120 0
121 122 123 124 125 0
-121 -122 0
-121 -123 0
-121 -124 0
-121 -125 0
-122 -123 0
-122 -124 0
-122 -125 0
-123 -124 0
-123 -125 0
-124 -125 0
126 127 128 129 130 0
-126 -127 0
-126 -128 0
-126 -129 0
-126 -130 0
-127 -128 0
-127 -129 0
-127 -130 0
-128 -129 0
-128 -130 0
-129 -130 0
131 132 133 134 135 0
-131 -132 0
-131 -133 0
-131 -134 0
-131 -135 0
-132 -133 0
-132 -134 0
-132 -135 0
-133 -134 0
-133 -135 0
-134 -135 0
136 137 138 139 140 0
-136 -137 0
-136 -138 0
-136 -139 0
-136 -140 0
-137 -138 0
-137 -139 0
-137 -140 0
-138 -139 0
-138 -140 0
-139 -140 0
141 142 143 144 145 0
-141 -142 0
-141 -143 0
-141 -144 0
-141 -145 0
-142 -143 0
-142 -144 0
-142 -145 0
-143 -144 0
-143 -145 0
-144 -145 0
146 147 148 149 150 0
-146 -147 0
-146 -148 0
-146 -149 0
-146 -150 0
-147 -148 0
-147 -149 0
-147 -150 0
-148 -149 0
-148 -150 0
-149 -150 0
151 152 153 154 155 0
-151 -152 0
-151 -153 0
-151 -154 0
-151 -155 0
-152 -153 0
-152 -154 0
-152 -155 0
-153 -154 0
-153 -155 0
-154 -155 0
156 157 158 159 160 0
-156 -157 0
-156 -158 0
-156 -159 0
-156 -160 0
-157 -158 0
-157 -159 0
-157 -160 0
-158 -159 0
-158 -160 0
-159 -160 0
161 162 163 164 165 0
-161 -162 0
-161 -163 0
-161 -164 0
-161 -165 0
-162 -163 0
-162 -164 0
-162 -165 0
-163 -164 0
-163 -165 0
-164 -165 0
166 167 168 169 170 0
-166 -167 0
-166 -168 0
-166 -169 0
-166 -170 0
-167 -168 0
-167 -169 0
-167 -170 0
-168 -169 0
-168 -170 0
-169 -170 0
171 172 173 174 175 0
-171 -172 0
-171 -173 0
-171 -174 0
-171 -175 0
-172 -173 0
-172 -174 0
-172 -175 0
-173 -174 0
-173 -175 0
-174 -175 0
176 177 178 179 180 0
-176 -177 0
-176 -178 0
-176 -179 0
-176 -180 0
-177 -178 0
-177 -179 0
-177 -180 0
-178 -179 0
-178 -180 0
-179 -180 0
181 182 183 184 185 0
-181 -182 0
-181 -183 0
-181 -184 0
-181 -185 0
-182 -183 0
-182 -184 0
-182 -185 0
-183 -184 0
-183 -185 0
-184 -185 0
186 187 188 189 190 0
-186 -187 0
-186 -188 0
-186 -189 0
-186 -190 0
-187 -188 0
-187 -189 0
-187 -190 0
-188 -189 0
-188 -190 0
-189 -190 0
191 192 193 194 195 0
-191 -192 0
-191 -193 0
-191 -194 0
-191 -195 0
-192 -193 0
-192 -194 0
-192 -195 0
-193 -194 0
-193 -195 0
-194 -195 0
196 197 198 199 200 0
-196 -197 0
-196 -198 0
-196 -199 0
-196 -200 0
-197 -198 0
-197 -199 0
-197 -200 0
-198 -199 0
-198 -200 0
-199 -200 0
201 202 203 204 205 0
-201 -202 0
-201 -203 0
-201 -204 0
-201 -205 0
-202 -203 0
-202 -204 0
-202 -205 0
-203 -204 0
-203 -205 0
-204 -205 0
206 207 208 209 210 0
-206 -207 0
-206 -208 0
-206 -209 0
-206 -210 0
-207 -208 0
-207 -209 0
-207 -210 0
-208 -209 0
-208 -210 0
-209 -210 0
211 212 213 214 215 0
-211 -212 0
-211 -213 0
-211 -214 0
-211 -215 0
-212 -213 0
-212 -214 0
-212 -215 0
-213 -214 0
-213 -215 0
-214 -215 0
216 217 218 219 220 0
-216 -217 0
-216 -218 0
-216 -219 0
-216 -220 0
-217 -218 0
-217 -219 0
-217 -220 0
-218 -219 0
-218 -220 0
-219 -220 0
221 222 223 224 225 0
-221 -222 0
-221 -223 0
-221 -224 0
-221 -225 0
-222 -223 0
-222 -224 0
-222 -225 0
-223 -224 0
-223 -225 0
-224 -225 0
226 227 228 229 230 0
-226 -227 0
-226 -228 0
-226 -229 0
-226 -230 0
-227 -228 0
-227 -229 0
-227 -230 0
-228 -229 0
-228 -230 0
-229 -230 0
231 232 233 234 235 0
-231 -232 0
-231 -233 0
-231 -234 0
-231 -235 0
-232 -233 0
-232 -234 0
-232 -235 0
-233 -234 0
-233 -235 0
-234 -235 0
236 237 238 239 240 0
-236 -237 0
-236 -238 0
-236 -239 0
-236 -240 0
-237 -238 0
-237 -239 0
-237 -240 0
-238 -239 0
-238 -240 0
-239 -240 0
241 242 243 244 245 0
-241 -242 0
-241 -243 0
-241 -244 0
-241 -245 0
-242 -243 0
-242 -244 0
-242 -245 0
-243 -244 0
-243 -245 0
-244 -245 0
246 247 248 249 250 0
-246 -247 0
-246 -248 0
-246 -249 0
-246 -250 0
-247 -248 0
-247 -249 0
-247 -250 0
-248 -249 0
-248 -250 0
-249 -250 0
251 252 253 254 255 0
-251 -252 0
-251 -253 0
-251 -254 0
-251 -255 0
-252 -253 0
-252 -254 0
-252 -255 0
-253 -254 0
-253 -255 0
-254 -255 0
256 257 258 259 260 0
-256 -257 0
-256 -258 0
-256 -259 0
-256 -260 0
-257 -258 0
-257 -259 0
-257 -260 0
-258 -259 0
-258 -260 0
-259 -260 0
261 262 263 264 265 0
-261 -262 0
-261 -263 0
-261 -264 0
-261 -265 0
-262 -263 0
-262 -264 0
-262 -265 0
-263 -264 0
-263 -265 0
-264 -265 0
266 267 268 269 270 0
-266 -267 0
-266 -268 0
-266 -269 0
-266 -270 0
-267 -268 0
-267 -269 0
-267 -270 0
-268 -269 0
-268 -270 0
-269 -270 0
271 272 273 274 275 0
-271 -272 0
-271 -273 0
-271 -274 0
-271 -275 0
-272 -273 0
-272 -274 0
-272 -275 0
-273 -274 0
-273 -275 0
-274 -275 0
276 277 278 279 280 0
-276 -277 0
-276 -278 0
-276 -279 0
-276 -280 0
-277 -278 0
-277 -279 0
-277 -280 0
-278 -279 0
-278 -280 0
-279 -280 0
281 282 283 284 285 0
-281 -282 0
-281 -283 0
-281 -284 0
-281 -285 0
-282 -283 0
-282 -284 0
-282 -285 0
-283 -284 0
-283 -285 0
-284 -285 0
286 287 288 289 290 0
-286 -287 0
-286 -288 0
-286 -289 0
-286 -290 0
-287 -288 0
-287 -289 0
-287 -290 0
-288 -289 0
-288 -290 0
-289 -290 0
291 292 293 294 295 0
-291 -292 0
-291 -293 0
-291 -294 0
-291 -295 0
-292 -293 0
-292 -294 0
-292 -295 0
-293 -294 0
-293 -295 0
-294 -295 0
296 297 298 299 300 0
-296 -297 0
-296 -298 0
-296 -299 0
-296 -300 0
-297 -298 0
-297 -299 0
-297 -300 0
-298 -299 0
-298 -300 0
-299 -300 0
301 302 303 304 305 0
-301 -302 0
-301 -303 0
-301 -304 0
-301 -305 0
-302 -303 0
-302 -304 0
-302 -305 0
-303 -304 0
-303 -305 0
-304 -305 0
306 307 308 309 310 0
-306 -307 0
-306 -308 0
-306 -309 0
-306 -310 0
-307 -308 0
-307 -309 0
-307 -310 0
-308 -309 0
-308 -310 0
-309 -310 0
311 312 313 314 315 0
-311 -312 0
-311 -313 0
-311 -314 0
-311 -315 0
-312 -313 0
-312 -314 0
-312 -315 0
-313 -314 0
-313 -315 0
-314 -315 0
316 317 318 319 320 0
-316 -317 0
-316 -318 0
-316 -319 0
-316 -320 0
-317 -318 0
-317 -319 0
-317 -320 0
-318 -319 0
-318 -320 0
-319 -320 0
321 322 323 324 325 0
-321 -322 0
-321 -323 0
-321 -324 0
-321 -325 0
-322 -323 0
-322 -324 0
-322 -325 0
-323 -324 0
-323 -325 0
-324 -325 0
326 327 328 329 330 0
-326 -327 0
-326 -328 0
-326 -329 0
-326 -330 0
-327 -328 0
-327 -329 0
-327 -330 0
-328 -329 0
-328 -330 0
-329 -330 0
331 332 333 334 335 0
-331 -332 0
-331 -333 0
-331 -334 0
-331 -335 0
-332 -333 0
-332 -334 0
-332 -335 0
-333 -334 0
-333 -335 0
-334 -335 0
336 337 338 339 340 0
-336 -337 0
-336 -338 0
-336 -339 0
-336 -340 0
-337 -338 0
-337 -339 0
-337 -340 0
-338 -339 0
-338 -340 0
-339 -340 0
341 342 343 344 345 0
-341 -342 0
-341 -343 0
-341 -344 0
-341 -345 0
-342 -343 0
-342 -344 0
-342 -345 0
-343 -344 0
-343 -345 0
-344 -345 0
346 347 348 349 350 0
-346 -347 0
-346 -348 0
-346 -349 0
-346 -350 0
-347 -348 0
-347 -349 0
-347 -350 0
-348 -349 0
-348 -350 0
-349 -350 0
351 352 353 354 355 0
-351 -352 0
-351 -353 0
-351 -354 0
-351 -355 0
-352 -353 0
-352 -354 0
-352 -355 0
-353 -354 0
-353 -355 0
-354 -355 0
356 357 358 359 360 0
-356 -357 0
-356 -358 0
-356 -359 0
-356 -360 0
-357 -358 0
-357 -359 0
-357 -360 0
-358 -359 0
-358 -360 0
-359 -360 0
361 362 363 364 365 0
-361 -362 0
-361 -363 0
-361 -364 0
-361 -365 0
-362 -363 0
-362 -364 0
-362 -365 0
-363 -364 0
-363 -365 0
-364 -365 0
366 367 368 369 370 0
-366 -367 0
-366 -368 0
-366 -369 0
-366 -370 0
-367 -368 0
-367 -369 0
-367 -370 0
-368 -369 0
-368 -370 0
-369 -370 0
371 372 373 374 375 0
-371 -372 0
-371 -373 0
-371 -374 0
-371 -375 0
-372 -373 0
-372 -374 0
-372 -375 0
-373 -374 0
-373 -375 0
-374 -375 0
251 256 261 266 271 1 6 11 16 21 26 31 36 41 46 0
252 257 262 267 272 2 7 12 17 22 27 32 37 42 47 0
253 258 263 268 273 3 8 13 18 23 28 33 38 43 48 0
254 259 264 269 274 4 9 14 19 24 29 34 39 44 49 0
255 260 265 270 275 5 10 15 20 25 30 35 40 45 50 0
252 257 262 267 277 2 7 12 22 27 37 0
253 258 263 268 283 3 8 13 23 28 38 0
254 259 264 269 289 4 9 14 24 29 39 0
255 260 265 270 295 5 10 15 25 30 40 0
251 256 261 266 296 1 6 11 21 26 36 0
254 259 264 269 304 4 9 14 24 29 39 0
252 257 262 267 307 2 7 12 22 27 37 0
255 260 265 270 315 5 10 15 25 30 40 0
253 258 263 268 318 3 8 13 23 28 38 0
251 256 261 266 321 1 6 11 21 26 36 0
253 258 263 268 328 3 8 13 23 28 38 0
255 260 265 270 335 5 10 15 25 30 40 0
252 257 262 267 337 2 7 12 22 27 37 0
254 259 264 269 344 4 9 14 24 29 39 0
251 256 261 266 346 1 6 11 21 26 36 0
255 260 265 270 355 5 10 15 25 30 40 0
254 259 264 269 359 4 9 14 24 29 39 0
253 258 263 268 363 3 8 13 23 28 38 0
252 257 262 267 367 2 7 12 22 27 37 0
251 256 261 266 371 1 6 11 21 26 36 0
253 258 263 273 278 3 8 18 23 33 43 0
254 259 264 274 284 4 9 19 24 34 44 0
255 260 265 275 290 5 10 20 25 35 45 0
251 256 261 271 291 1 6 16 21 31 41 0
252 257 262 272 297 2 7 17 22 32 42 0
252 257 262 272 302 2 7 17 22 32 42 0
255 260 265 275 310 5 10 20 25 35 45 0
253 258 263 273 313 3 8 18 23 33 43 0
251 256 261 271 316 1 6 16 21 31 41 0
254 259 264 274 324 4 9 19 24 34 44 0
255 260 265 275 330 5 10 20 25 35 45 0
252 257 262 272 332 2 7 17 22 32 42 0
254 259 264 274 339 4 9 19 24 34 44 0
251 256 261 271 341 1 6 16 21 31 41 0
253 258 263 273 348 3 8 18 23 33 43 0
254 259 264 274 354 4 9 19 24 34 44 0
253 258 263 273 358 3 8 18 23 33 43 0
252 257 262 272 362 2 7 17 22 32 42 0
251 256 261 271 366 1 6 16 21 31 41 0
255 260 265 275 375 5 10 20 25 35 45 0
253 258 263 278 283 3 8 23 53 0
252 257 262 277 297 2 7 22 67 0
252 257 262 277 302 2 7 22 0
253 258 263 278 318 3 8 23 0
253 258 263 278 328 3 8 23 0
252 257 262 277 332 2 7 22 0
252 257 262 277 362 2 7 22 0
253 258 263 278 363 3 8 23 0
254 259 264 284 289 4 9 24 74 0
254 259 264 284 304 4 9 24 0
253 258 263 283 313 3 8 23 0
254 259 264 284 344 4 9 24 0
253 258 263 283 348 3 8 23 0
253 258 263 283 358 3 8 23 0
254 259 264 284 359 4 9 24 0
255 260 265 290 295 5 10 25 90 0
255 260 265 290 315 5 10 25 0
254 259 264 289 324 4 9 24 0
255 260 265 290 335 5 10 25 0
254 259 264 289 339 4 9 24 0
254 259 264 289 354 4 9 24 0
255 260 265 290 355 5 10 25 0
251 256 261 291 296 1 6 21 96 0
255 260 265 295 310 5 10 25 0
251 256 261 291 321 1 6 21 0
255 260 265 295 330 5 10 25 0
251 256 261 291 346 1 6 21 0
251 256 261 291 371 1 6 21 0
255 260 265 295 375 5 10 25 0
252 257 262 297 307 2 7 22 0
251 256 261 296 316 1 6 21 0
252 257 262 297 337 2 7 22 0
251 256 261 296 341 1 6 21 0
251 256 261 296 366 1 6 21 0
252 257 262 297 367 2 7 22 0
252 257 262 302 307 2 7 22 102 0
254 259 264 304 324 4 9 24 119 0
252 257 262 302 337 2 7 22 0
254 259 264 304 339 4 9 24 0
254 259 264 304 354 4 9 24 0
252 257 262 302 367 2 7 22 0
255 260 265 310 315 5 10 25 125 0
252 257 262 307 332 2 7 22 0
255 260 265 310 335 5 10 25 0
255 260 265 310 355 5 10 25 0
252 257 262 307 362 2 7 22 0
253 258 263 313 318 3 8 23 138 0
253 258 263 313 328 3 8 23 0
255 260 265 315 330 5 10 25 0
253 258 263 313 363 3 8 23 0
255 260 265 315 375 5 10 25 0
251 256 261 316 321 1 6 21 146 0
251 256 261 316 346 1 6 21 0
253 258 263 318 348 3 8 23 0
253 258 263 318 358 3 8 23 0
251 256 261 316 371 1 6 21 0
251 256 261 321 341 1 6 21 0
254 259 264 324 344 4 9 24 0
254 259 264 324 359 4 9 24 0
251 256 261 321 366 1 6 21 0
255 260 265 330 335 5 10 25 155 0
253 258 263 328 348 3 8 23 168 0
255 260 265 330 355 5 10 25 0
253 258 263 328 358 3 8 23 0
252 257 262 332 337 2 7 22 172 0
252 257 262 332 367 2 7 22 0
255 260 265 335 375 5 10 25 0
254 259 264 339 344 4 9 24 189 0
254 259 264 339 359 4 9 24 0
252 257 262 337 362 2 7 22 0
251 256 261 341 346 1 6 21 196 0
254 259 264 344 354 4 9 24 0
251 256 261 341 371 1 6 21 0
253 258 263 348 363 3 8 23 0
251 256 261 346 366 1 6 21 0
254 259 264 354 359 4 9 24 204 0
255 260 265 355 375 5 10 25 220 0
253 258 263 358 363 3 8 23 223 0
252 257 262 362 367 2 7 22 237 0
251 256 261 366 371 1 6 21 246 0
254 259 269 274 279 4 14 19 29 34 49 0
255 260 270 275 285 5 15 20 30 35 50 0
251 256 266 271 286 1 11 16 26 31 46 0
252 257 267 272 292 2 12 17 27 32 47 0
253 258 268 273 298 3 13 18 28 33 48 0
255 260 270 275 305 5 15 20 30 35 50 0
253 258 268 273 308 3 13 18 28 33 48 0
251 256 266 271 311 1 11 16 26 31 46 0
254 259 269 274 319 4 14 19 29 34 49 0
252 257 267 272 322 2 12 17 27 32 47 0
252 257 267 272 327 2 12 17 27 32 47 0
254 259 269 274 334 4 14 19 29 34 49 0
251 256 266 271 336 1 11 16 26 31 46 0
253 258 268 273 343 3 13 18 28 33 48 0
255 260 270 275 350 5 15 20 30 35 50 0
253 258 268 273 353 3 13 18 28 33 48 0
252 257 267 272 357 2 12 17 27 32 47 0
251 256 266 271 361 1 11 16 26 31 46 0
255 260 270 275 370 5 15 20 30 35 50 0
254 259 269 274 374 4 14 19 29 34 49 0
254 259 269 279 289 4 14 29 59 0
252 257 267 277 292 2 12 27 62 0
254 259 269 279 304 4 14 29 0
252 257 267 277 322 2 12 27 0
252 257 267 277 327 2 12 27 0
254 259 269 279 344 4 14 29 0
252 257 267 277 357 2 12 27 0
254 259 269 279 359 4 14 29 0
255 260 270 285 295 5 15 30 80 0
253 258 268 283 298 3 13 28 83 0
253 258 268 283 308 3 13 28 0
255 260 270 285 315 5 15 30 0
255 260 270 285 335 5 15 30 0
253 258 268 283 343 3 13 28 0
253 258 268 283 353 3 13 28 0
255 260 270 285 355 5 15 30 0
251 256 266 286 296 1 11 26 91 0
254 259 269 289 319 4 14 29 0
251 256 266 286 321 1 11 26 0
254 259 269 289 334 4 14 29 0
251 256 266 286 346 1 11 26 0
251 256 266 286 371 1 11 26 0
254 259 269 289 374 4 14 29 0
255 260 270 295 305 5 15 30 0
252 257 267 292 307 2 12 27 0
252 257 267 292 337 2 12 27 0
255 260 270 295 350 5 15 30 0
252 257 267 292 367 2 12 27 0
255 260 270 295 370 5 15 30 0
251 256 266 296 311 1 11 26 0
253 258 268 298 318 3 13 28 0
253 258 268 298 328 3 13 28 0
251 256 266 296 336 1 11 26 0
251 256 266 296 361 1 11 26 0
253 258 268 298 363 3 13 28 0
255 260 270 305 315 5 15 30 110 0
254 259 269 304 319 4 14 29 114 0
254 259 269 304 334 4 14 29 0
255 260 270 305 335 5 15 30 0
255 260 270 305 355 5 15 30 0
254 259 269 304 374 4 14 29 0
253 258 268 308 318 3 13 28 128 0
252 257 267 307 322 2 12 27 132 0
252 257 267 307 327 2 12 27 0
253 258 268 308 328 3 13 28 0
252 257 267 307 357 2 12 27 0
253 258 268 308 363 3 13 28 0
251 256 266 311 321 1 11 26 141 0
251 256 266 311 346 1 11 26 0
255 260 270 315 350 5 15 30 0
255 260 270 315 370 5 15 30 0
251 256 266 311 371 1 11 26 0
253 258 268 318 343 3 13 28 0
254 259 269 319 344 4 14 29 0
253 258 268 318 353 3 13 28 0
254 259 269 319 359 4 14 29 0
251 256 266 321 336 1 11 26 0
252 257 267 322 337 2 12 27 0
251 256 266 321 361 1 11 26 0
252 257 267 322 367 2 12 27 0
252 257 267 327 337 2 12 27 157 0
253 258 268 328 343 3 13 28 163 0
253 258 268 328 353 3 13 28 0
252 257 267 327 367 2 12 27 0
254 259 269 334 344 4 14 29 179 0
255 260 270 335 350 5 15 30 185 0
254 259 269 334 359 4 14 29 0
255 260 270 335 370 5 15 30 0
251 256 266 336 346 1 11 26 191 0
252 257 267 337 357 2 12 27 0
251 256 266 336 371 1 11 26 0
253 258 268 343 363 3 13 28 0
254 259 269 344 374 4 14 29 0
255 260 270 350 355 5 15 30 0
251 256 266 346 361 1 11 26 0
253 258 268 353 363 3 13 28 208 0
255 260 270 355 370 5 15 30 215 0
252 257 267 357 367 2 12 27 227 0
254 259 269 359 374 4 14 29 234 0
251 256 266 361 371 1 11 26 241 0
254 259 274 279 284 4 19 34 54 0
253 258 273 278 298 3 18 33 68 0
253 258 273 278 308 3 18 33 0
254 259 274 279 324 4 19 34 0
254 259 274 279 339 4 19 34 0
253 258 273 278 343 3 18 33 0
253 258 273 278 353 3 18 33 0
254 259 274 279 354 4 19 34 0
255 260 275 285 290 5 20 35 75 0
255 260 275 285 310 5 20 35 0
254 259 274 284 319 4 19 34 0
255 260 275 285 330 5 20 35 0
254 259 274 284 334 4 19 34 0
254 259 274 284 374 4 19 34 0
255 260 275 285 375 5 20 35 0
251 256 271 286 291 1 16 31 86 0
255 260 275 290 305 5 20 35 0
251 256 271 286 316 1 16 31 0
251 256 271 286 341 1 16 31 0
255 260 275 290 350 5 20 35 0
251 256 271 286 366 1 16 31 0
255 260 275 290 370 5 20 35 0
252 257 272 292 297 2 17 32 97 0
252 257 272 292 302 2 17 32 0
251 256 271 291 311 1 16 31 0
252 257 272 292 332 2 17 32 0
251 256 271 291 336 1 16 31 0
251 256 271 291 361 1 16 31 0
252 257 272 292 362 2 17 32 0
253 258 273 298 313 3 18 33 0
252 257 272 297 322 2 17 32 0
252 257 272 297 327 2 17 32 0
253 258 273 298 348 3 18 33 0
252 257 272 297 357 2 17 32 0
253 258 273 298 358 3 18 33 0
255 260 275 305 310 5 20 35 105 0
252 257 272 302 322 2 17 32 117 0
252 257 272 302 327 2 17 32 0
255 260 275 305 330 5 20 35 0
252 257 272 302 357 2 17 32 0
255 260 275 305 375 5 20 35 0
253 258 273 308 313 3 18 33 123 0
253 258 273 308 348 3 18 33 0
255 260 275 310 350 5 20 35 0
253 258 273 308 358 3 18 33 0
255 260 275 310 370 5 20 35 0
251 256 271 311 316 1 16 31 136 0
251 256 271 311 341 1 16 31 0
253 258 273 313 343 3 18 33 0
253 258 273 313 353 3 18 33 0
251 256 271 311 366 1 16 31 0
254 259 274 319 324 4 19 34 149 0
251 256 271 316 336 1 16 31 0
254 259 274 319 339 4 19 34 0
254 259 274 319 354 4 19 34 0
251 256 271 316 361 1 16 31 0
252 257 272 322 332 2 17 32 0
254 259 274 324 334 4 19 34 0
252 257 272 322 362 2 17 32 0
254 259 274 324 374 4 19 34 0
252 257 272 327 332 2 17 32 152 0
255 260 275 330 350 5 20 35 170 0
252 257 272 327 362 2 17 32 0
255 260 275 330 370 5 20 35 0
254 259 274 334 339 4 19 34 174 0
254 259 274 334 354 4 19 34 0
252 257 272 332 357 2 17 32 0
251 256 271 336 341 1 16 31 186 0
251 256 271 336 366 1 16 31 0
254 259 274 339 374 4 19 34 0
253 258 273 343 348 3 18 33 198 0
253 258 273 343 358 3 18 33 0
251 256 271 341 361 1 16 31 0
253 258 273 348 353 3 18 33 0
255 260 275 350 375 5 20 35 0
253 258 273 353 358 3 18 33 203 0
254 259 274 354 374 4 19 34 219 0
252 257 272 357 362 2 17 32 222 0
251 256 271 361 366 1 16 31 236 0
255 260 275 370 375 5 20 35 250 0
254 259 279 284 289 4 54 59 74 0
253 258 278 283 298 3 53 68 83 0
254 259 279 284 304 4 54 0
253 258 278 283 308 3 53 0
253 258 278 283 343 3 53 0
254 259 279 284 344 4 54 0
253 258 278 283 353 3 53 0
254 259 279 284 359 4 54 0
254 259 279 289 324 4 59 0
254 259 279 289 339 4 59 0
254 259 279 289 354 4 59 0
252 257 277 292 297 2 62 67 97 0
252 257 277 292 302 2 62 0
252 257 277 292 332 2 62 0
252 257 277 292 362 2 62 0
253 258 278 298 318 3 68 0
252 257 277 297 322 2 67 0
252 257 277 297 327 2 67 0
253 258 278 298 328 3 68 0
252 257 277 297 357 2 67 0
253 258 278 298 363 3 68 0
252 257 277 302 322 2 117 0
254 259 279 304 324 4 119 0
252 257 277 302 327 2 0
254 259 279 304 339 4 0
254 259 279 304 354 4 0
252 257 277 302 357 2 0
253 258 278 308 318 3 128 0
253 258 278 308 328 3 0
253 258 278 308 363 3 0
253 258 278 318 343 3 0
253 258 278 318 353 3 0
252 257 277 322 332 2 0
254 259 279 324 344 4 0
254 259 279 324 359 4 0
252 257 277 322 362 2 0
252 257 277 327 332 2 152 0
253 258 278 328 343 3 163 0
253 258 278 328 353 3 0
252 257 277 327 362 2 0
252 257 277 332 357 2 0
254 259 279 339 344 4 189 0
254 259 279 339 359 4 0
254 259 279 344 354 4 0
253 258 278 343 363 3 0
254 259 279 354 359 4 204 0
253 258 278 353 363 3 208 0
252 257 277 357 362 2 222 0
255 260 285 290 295 5 75 80 90 0
255 260 285 290 315 5 75 0
254 259 284 289 319 4 74 0
254 259 284 289 334 4 74 0
255 260 285 290 335 5 75 0
255 260 285 290 355 5 75 0
254 259 284 289 374 4 74 0
255 260 285 295 310 5 80 0
255 260 285 295 330 5 80 0
255 260 285 295 375 5 80 0
253 258 283 298 313 3 83 0
253 258 283 298 348 3 83 0
253 258 283 298 358 3 83 0
254 259 284 304 319 4 114 0
254 259 284 304 334 4 0
254 259 284 304 374 4 0
253 258 283 308 313 3 123 0
255 260 285 310 315 5 125 0
255 260 285 310 335 5 0
253 258 283 308 348 3 0
255 260 285 310 355 5 0
253 258 283 308 358 3 0
255 260 285 315 330 5 0
253 258 283 313 343 3 0
253 258 283 313 353 3 0
255 260 285 315 375 5 0
254 259 284 319 344 4 0
254 259 284 319 359 4 0
255 260 285 330 335 5 155 0
255 260 285 330 355 5 0
254 259 284 334 344 4 179 0
254 259 284 334 359 4 0
255 260 285 335 375 5 0
253 258 283 343 348 3 198 0
253 258 283 343 358 3 0
254 259 284 344 374 4 0
253 258 283 348 353 3 0
253 258 283 353 358 3 203 0
255 260 285 355 375 5 220 0
254 259 284 359 374 4 234 0
251 256 286 291 296 1 86 91 96 0
255 260 290 295 305 5 90 0
251 256 286 291 321 1 86 0
251 256 286 291 346 1 86 0
255 260 290 295 350 5 90 0
255 260 290 295 370 5 90 0
251 256 286 291 371 1 86 0
251 256 286 296 316 1 91 0
251 256 286 296 341 1 91 0
251 256 286 296 366 1 91 0
255 260 290 305 315 5 110 0
255 260 290 305 335 5 0
255 260 290 305 355 5 0
255 260 290 315 350 5 0
255 260 290 315 370 5 0
251 256 286 316 321 1 146 0
254 259 289 319 324 4 149 0
254 259 289 319 339 4 0
251 256 286 316 346 1 0
254 259 289 319 354 4 0
251 256 286 316 371 1 0
254 259 289 324 334 4 0
251 256 286 321 341 1 0
251 256 286 321 366 1 0
254 259 289 324 374 4 0
254 259 289 334 339 4 174 0
255 260 290 335 350 5 185 0
254 259 289 334 354 4 0
255 260 290 335 370 5 0
254 259 289 339 374 4 0
251 256 286 341 346 1 196 0
251 256 286 341 371 1 0
255 260 290 350 355 5 0
251 256 286 346 366 1 0
255 260 290 355 370 5 215 0
254 259 289 354 374 4 219 0
251 256 286 366 371 1 246 0
252 257 292 297 307 2 97 0
251 256 291 296 311 1 96 0
251 256 291 296 336 1 96 0
252 257 292 297 337 2 97 0
251 256 291 296 361 1 96 0
252 257 292 297 367 2 97 0
252 257 292 302 307 2 102 0
255 260 295 305 310 5 105 0
255 260 295 305 330 5 0
252 257 292 302 337 2 0
252 257 292 302 367 2 0
255 260 295 305 375 5 0
252 257 292 307 332 2 0
255 260 295 310 350 5 0
252 257 292 307 362 2 0
255 260 295 310 370 5 0
251 256 291 311 321 1 141 0
251 256 291 311 346 1 0
251 256 291 311 371 1 0
251 256 291 321 336 1 0
251 256 291 321 361 1 0
255 260 295 330 350 5 170 0
255 260 295 330 370 5 0
252 257 292 332 337 2 172 0
252 257 292 332 367 2 0
251 256 291 336 346 1 191 0
252 257 292 337 362 2 0
251 256 291 336 371 1 0
251 256 291 346 361 1 0
255 260 295 350 375 5 0
252 257 292 362 367 2 237 0
251 256 291 361 371 1 241 0
255 260 295 370 375 5 250 0
252 257 297 307 322 2 132 0
252 257 297 307 327 2 0
252 257 297 307 357 2 0
251 256 296 311 316 1 136 0
253 258 298 313 318 3 138 0
253 258 298 313 328 3 0
251 256 296 311 341 1 0
253 258 298 313 363 3 0
251 256 296 311 366 1 0
251 256 296 316 336 1 0
253 258 298 318 348 3 0
253 258 298 318 358 3 0
251 256 296 316 361 1 0
252 257 297 322 337 2 0
252 257 297 322 367 2 0
252 257 297 327 337 2 157 0
253 258 298 328 348 3 168 0
253 258 298 328 358 3 0
252 257 297 327 367 2 0
251 256 296 336 341 1 186 0
252 257 297 337 357 2 0
251 256 296 336 366 1 0
251 256 296 341 361 1 0
253 258 298 348 363 3 0
253 258 298 358 363 3 223 0
252 257 297 357 367 2 227 0
251 256 296 361 366 1 236 0
255 260 305 310 315 5 105 110 125 0
252 257 302 307 322 2 102 117 132 0
252 257 302 307 327 2 102 0
255 260 305 310 335 5 105 0
255 260 305 310 355 5 105 0
252 257 302 307 357 2 102 0
255 260 305 315 330 5 110 0
255 260 305 315 375 5 110 0
254 259 304 319 324 4 114 119 149 0
254 259 304 319 339 4 114 0
254 259 304 319 354 4 114 0
254 259 304 324 334 4 119 0
252 257 302 322 337 2 117 0
252 257 302 322 367 2 117 0
254 259 304 324 374 4 119 0
255 260 305 330 335 5 155 0
252 257 302 327 337 2 157 0
255 260 305 330 355 5 0
252 257 302 327 367 2 0
254 259 304 334 339 4 174 0
254 259 304 334 354 4 0
255 260 305 335 375 5 0
252 257 302 337 357 2 0
254 259 304 339 374 4 0
254 259 304 354 374 4 219 0
255 260 305 355 375 5 220 0
252 257 302 357 367 2 227 0
253 258 308 313 318 3 123 128 138 0
253 258 308 313 328 3 123 0
255 260 310 315 350 5 125 0
253 258 308 313 363 3 123 0
255 260 310 315 370 5 125 0
253 258 308 318 348 3 128 0
253 258 308 318 358 3 128 0
252 257 307 322 332 2 132 0
252 257 307 322 362 2 132 0
252 257 307 327 332 2 152 0
253 258 308 328 348 3 168 0
253 258 308 328 358 3 0
252 257 307 327 362 2 0
255 260 310 335 350 5 185 0
252 257 307 332 357 2 0
255 260 310 335 370 5 0
255 260 310 350 355 5 0
253 258 308 348 363 3 0
255 260 310 355 370 5 215 0
252 257 307 357 362 2 222 0
253 258 308 358 363 3 223 0
251 256 311 316 321 1 136 141 146 0
253 258 313 318 343 3 138 0
251 256 311 316 346 1 136 0
253 258 313 318 353 3 138 0
251 256 311 316 371 1 136 0
251 256 311 321 341 1 141 0
251 256 311 321 366 1 141 0
253 258 313 328 343 3 163 0
255 260 315 330 350 5 170 0
253 258 313 328 353 3 0
255 260 315 330 370 5 0
251 256 311 341 346 1 196 0
253 258 313 343 363 3 0
251 256 311 341 371 1 0
251 256 311 346 366 1 0
255 260 315 350 375 5 0
253 258 313 353 363 3 208 0
251 256 311 366 371 1 246 0
255 260 315 370 375 5 250 0
251 256 316 321 336 1 146 0
254 259 319 324 344 4 149 0
254 259 319 324 359 4 149 0
251 256 316 321 361 1 146 0
254 259 319 339 344 4 189 0
251 256 316 336 346 1 191 0
254 259 319 339 359 4 0
251 256 316 336 371 1 0
253 258 318 343 348 3 198 0
254 259 319 344 354 4 0
253 258 318 343 358 3 0
253 258 318 348 353 3 0
251 256 316 346 361 1 0
253 258 318 353 358 3 203 0
254 259 319 354 359 4 204 0
251 256 316 361 371 1 241 0
252 257 322 332 337 2 172 0
254 259 324 334 344 4 179 0
254 259 324 334 359 4 0
252 257 322 332 367 2 0
251 256 321 336 341 1 186 0
252 257 322 337 362 2 0
251 256 321 336 366 1 0
251 256 321 341 361 1 0
254 259 324 344 374 4 0
254 259 324 359 374 4 234 0
251 256 321 361 366 1 236 0
252 257 322 362 367 2 237 0
252 257 327 332 337 2 152 157 172 0
255 260 330 335 350 5 155 170 185 0
252 257 327 332 367 2 152 0
255 260 330 335 370 5 155 0
252 257 327 337 362 2 157 0
253 258 328 343 348 3 163 168 198 0
253 258 328 343 358 3 163 0
253 258 328 348 353 3 168 0
255 260 330 350 355 5 170 0
253 258 328 353 358 3 203 0
255 260 330 355 370 5 215 0
252 257 327 362 367 2 237 0
254 259 334 339 344 4 174 179 189 0
252 257 332 337 357 2 172 0
254 259 334 339 359 4 174 0
254 259 334 344 354 4 179 0
255 260 335 350 375 5 185 0
254 259 334 354 359 4 204 0
252 257 332 357 367 2 227 0
255 260 335 370 375 5 250 0
251 256 336 341 346 1 186 191 196 0
251 256 336 341 371 1 186 0
254 259 339 344 374 4 189 0
251 256 336 346 366 1 191 0
252 257 337 357 362 2 222 0
254 259 339 359 374 4 234 0
251 256 336 366 371 1 246 0
251 256 341 346 361 1 196 0
253 258 343 348 363 3 198 0
254 259 344 354 374 4 219 0
253 258 343 358 363 3 223 0
251 256 341 361 371 1 241 0
253 258 348 353 363 3 208 0
255 260 350 355 375 5 220 0
251 256 346 361 366 1 236 0
253 258 353 358 363 3 203 208 223 0
254 259 354 359 374 4 204 219 234 0
255 260 355 370 375 5 215 220 250 0
252 257 357 362 367 2 222 227 237 0
251 256 361 366 371 1 236 241 246 0
255 265 270 275 280 10 15 20 40 45 50 0
251 261 266 271 281 6 11 16 36 41 46 0
252 262 267 272 287 7 12 17 37 42 47 0
253 263 268 273 293 8 13 18 38 43 48 0
254 264 269 274 299 9 14 19 39 44 49 0
253 263 268 273 303 8 13 18 38 43 48 0
251 261 266 271 306 6 11 16 36 41 46 0
254 264 269 274 314 9 14 19 39 44 49 0
252 262 267 272 317 7 12 17 37 42 47 0
255 265 270 275 325 10 15 20 40 45 50 0
254 264 269 274 329 9 14 19 39 44 49 0
251 261 266 271 331 6 11 16 36 41 46 0
253 263 268 273 338 8 13 18 38 43 48 0
255 265 270 275 345 10 15 20 40 45 50 0
252 262 267 272 347 7 12 17 37 42 47 0
252 262 267 272 352 7 12 17 37 42 47 0
251 261 266 271 356 6 11 16 36 41 46 0
255 265 270 275 365 10 15 20 40 45 50 0
254 264 269 274 369 9 14 19 39 44 49 0
253 263 268 273 373 8 13 18 38 43 48 0
252 262 267 277 287 7 12 37 57 0
255 265 270 280 295 10 15 40 65 0
255 265 270 280 315 10 15 40 0
252 262 267 277 317 7 12 37 0
255 265 270 280 335 10 15 40 0
252 262 267 277 347 7 12 37 0
252 262 267 277 352 7 12 37 0
255 265 270 280 355 10 15 40 0
253 263 268 283 293 8 13 38 78 0
251 261 266 281 296 6 11 36 81 0
253 263 268 283 303 8 13 38 0
251 261 266 281 321 6 11 36 0
253 263 268 283 338 8 13 38 0
251 261 266 281 346 6 11 36 0
251 261 266 281 371 6 11 36 0
253 263 268 283 373 8 13 38 0
254 264 269 289 299 9 14 39 94 0
252 262 267 287 307 7 12 37 0
254 264 269 289 314 9 14 39 0
254 264 269 289 329 9 14 39 0
252 262 267 287 337 7 12 37 0
252 262 267 287 367 7 12 37 0
254 264 269 289 369 9 14 39 0
253 263 268 293 318 8 13 38 0
255 265 270 295 325 10 15 40 0
253 263 268 293 328 8 13 38 0
255 265 270 295 345 10 15 40 0
253 263 268 293 363 8 13 38 0
255 265 270 295 365 10 15 40 0
254 264 269 299 304 9 14 39 0
251 261 266 296 306 6 11 36 0
251 261 266 296 331 6 11 36 0
254 264 269 299 344 9 14 39 0
251 261 266 296 356 6 11 36 0
254 264 269 299 359 9 14 39 0
254 264 269 304 314 9 14 39 109 0
253 263 268 303 318 8 13 38 113 0
253 263 268 303 328 8 13 38 0
254 264 269 304 329 9 14 39 0
253 263 268 303 363 8 13 38 0
254 264 269 304 369 9 14 39 0
252 262 267 307 317 7 12 37 127 0
251 261 266 306 321 6 11 36 131 0
251 261 266 306 346 6 11 36 0
252 262 267 307 347 7 12 37 0
252 262 267 307 352 7 12 37 0
251 261 266 306 371 6 11 36 0
255 265 270 315 325 10 15 40 145 0
254 264 269 314 344 9 14 39 0
255 265 270 315 345 10 15 40 0
254 264 269 314 359 9 14 39 0
255 265 270 315 365 10 15 40 0
252 262 267 317 337 7 12 37 0
253 263 268 318 338 8 13 38 0
252 262 267 317 367 7 12 37 0
253 263 268 318 373 8 13 38 0
251 261 266 321 331 6 11 36 0
255 265 270 325 335 10 15 40 0
255 265 270 325 355 10 15 40 0
251 261 266 321 356 6 11 36 0
253 263 268 328 338 8 13 38 158 0
254 264 269 329 344 9 14 39 164 0
254 264 269 329 359 9 14 39 0
253 263 268 328 373 8 13 38 0
255 265 270 335 345 10 15 40 180 0
251 261 266 331 346 6 11 36 181 0
255 265 270 335 365 10 15 40 0
251 261 266 331 371 6 11 36 0
252 262 267 337 347 7 12 37 192 0
252 262 267 337 352 7 12 37 0
253 263 268 338 363 8 13 38 0
255 265 270 345 355 10 15 40 0
254 264 269 344 369 9 14 39 0
251 261 266 346 356 6 11 36 0
252 262 267 347 367 7 12 37 0
255 265 270 355 365 10 15 40 210 0
252 262 267 352 367 7 12 37 212 0
254 264 269 359 369 9 14 39 229 0
251 261 266 356 371 6 11 36 231 0
253 263 268 363 373 8 13 38 243 0
255 265 275 280 290 10 20 45 60 0
253 263 273 278 293 8 18 43 63 0
253 263 273 278 303 8 18 43 0
255 265 275 280 310 10 20 45 0
255 265 275 280 330 10 20 45 0
253 263 273 278 338 8 18 43 0
253 263 273 278 373 8 18 43 0
255 265 275 280 375 10 20 45 0
251 261 271 281 291 6 16 41 76 0
254 264 274 284 299 9 19 44 84 0
254 264 274 284 314 9 19 44 0
251 261 271 281 316 6 16 41 0
254 264 274 284 329 9 19 44 0
251 261 271 281 341 6 16 41 0
251 261 271 281 366 6 16 41 0
254 264 274 284 369 9 19 44 0
252 262 272 287 297 7 17 42 92 0
252 262 272 287 302 7 17 42 0
255 265 275 290 325 10 20 45 0
252 262 272 287 332 7 17 42 0
255 265 275 290 345 10 20 45 0
252 262 272 287 362 7 17 42 0
255 265 275 290 365 10 20 45 0
251 261 271 291 306 6 16 41 0
253 263 273 293 313 8 18 43 0
251 261 271 291 331 6 16 41 0
253 263 273 293 348 8 18 43 0
251 261 271 291 356 6 16 41 0
253 263 273 293 358 8 18 43 0
252 262 272 297 317 7 17 42 0
254 264 274 299 324 9 19 44 0
254 264 274 299 339 9 19 44 0
252 262 272 297 347 7 17 42 0
252 262 272 297 352 7 17 42 0
254 264 274 299 354 9 19 44 0
253 263 273 303 313 8 18 43 108 0
252 262 272 302 317 7 17 42 112 0
252 262 272 302 347 7 17 42 0
253 263 273 303 348 8 18 43 0
252 262 272 302 352 7 17 42 0
253 263 273 303 358 8 18 43 0
251 261 271 306 316 6 16 41 126 0
255 265 275 310 325 10 20 45 135 0
251 261 271 306 341 6 16 41 0
255 265 275 310 345 10 20 45 0
255 265 275 310 365 10 20 45 0
251 261 271 306 366 6 16 41 0
254 264 274 314 324 9 19 44 144 0
253 263 273 313 338 8 18 43 0
254 264 274 314 339 9 19 44 0
254 264 274 314 354 9 19 44 0
253 263 273 313 373 8 18 43 0
251 261 271 316 331 6 16 41 0
252 262 272 317 332 7 17 42 0
251 261 271 316 356 6 16 41 0
252 262 272 317 362 7 17 42 0
254 264 274 324 329 9 19 44 0
255 265 275 325 330 10 20 45 0
254 264 274 324 369 9 19 44 0
255 265 275 325 375 10 20 45 0
254 264 274 329 339 9 19 44 159 0
255 265 275 330 345 10 20 45 165 0
254 264 274 329 354 9 19 44 0
255 265 275 330 365 10 20 45 0
251 261 271 331 341 6 16 41 176 0
252 262 272 332 347 7 17 42 182 0
252 262 272 332 352 7 17 42 0
251 261 271 331 366 6 16 41 0
253 263 273 338 348 8 18 43 193 0
253 263 273 338 358 8 18 43 0
254 264 274 339 369 9 19 44 0
251 261 271 341 356 6 16 41 0
255 265 275 345 375 10 20 45 0
252 262 272 347 362 7 17 42 0
253 263 273 348 373 8 18 43 0
252 262 272 352 362 7 17 42 207 0
254 264 274 354 369 9 19 44 214 0
251 261 271 356 366 6 16 41 226 0
253 263 273 358 373 8 18 43 233 0
255 265 275 365 375 10 20 45 245 0
253 263 278 283 293 8 53 63 78 0
253 263 278 283 303 8 53 0
253 263 278 283 338 8 53 0
253 263 278 283 373 8 53 0
255 265 280 290 295 10 60 65 90 0
252 262 277 287 297 7 57 67 92 0
252 262 277 287 302 7 57 0
255 265 280 290 315 10 60 0
252 262 277 287 332 7 57 0
255 265 280 290 335 10 60 0
255 265 280 290 355 10 60 0
252 262 277 287 362 7 57 0
255 265 280 295 310 10 65 0
253 263 278 293 318 8 63 0
253 263 278 293 328 8 63 0
255 265 280 295 330 10 65 0
253 263 278 293 363 8 63 0
255 265 280 295 375 10 65 0
252 262 277 297 317 7 67 0
252 262 277 297 347 7 67 0
252 262 277 297 352 7 67 0
252 262 277 302 317 7 112 0
253 263 278 303 318 8 113 0
253 263 278 303 328 8 0
252 262 277 302 347 7 0
252 262 277 302 352 7 0
253 263 278 303 363 8 0
255 265 280 310 315 10 125 0
255 265 280 310 335 10 0
255 265 280 310 355 10 0
255 265 280 315 330 10 0
255 265 280 315 375 10 0
252 262 277 317 332 7 0
253 263 278 318 338 8 0
252 262 277 317 362 7 0
253 263 278 318 373 8 0
255 265 280 330 335 10 155 0
253 263 278 328 338 8 158 0
255 265 280 330 355 10 0
253 263 278 328 373 8 0
252 262 277 332 347 7 182 0
252 262 277 332 352 7 0
255 265 280 335 375 10 0
253 263 278 338 363 8 0
252 262 277 347 362 7 0
252 262 277 352 362 7 207 0
255 265 280 355 375 10 220 0
253 263 278 363 373 8 243 0
254 264 284 289 299 9 74 84 94 0
254 264 284 289 314 9 74 0
254 264 284 289 329 9 74 0
254 264 284 289 369 9 74 0
251 261 281 291 296 6 76 81 96 0
253 263 283 293 313 8 78 0
251 261 281 291 321 6 76 0
251 261 281 291 346 6 76 0
253 263 283 293 348 8 78 0
253 263 283 293 358 8 78 0
251 261 281 291 371 6 76 0
254 264 284 299 304 9 84 0
251 261 281 296 316 6 81 0
251 261 281 296 341 6 81 0
254 264 284 299 344 9 84 0
254 264 284 299 359 9 84 0
251 261 281 296 366 6 81 0
253 263 283 303 313 8 108 0
254 264 284 304 314 9 109 0
254 264 284 304 329 9 0
253 263 283 303 348 8 0
253 263 283 303 358 8 0
254 264 284 304 369 9 0
253 263 283 313 338 8 0
254 264 284 314 344 9 0
254 264 284 314 359 9 0
253 263 283 313 373 8 0
251 261 281 316 321 6 146 0
251 261 281 316 346 6 0
251 261 281 316 371 6 0
251 261 281 321 341 6 0
251 261 281 321 366 6 0
254 264 284 329 344 9 164 0
254 264 284 329 359 9 0
253 263 283 338 348 8 193 0
253 263 283 338 358 8 0
251 261 281 341 346 6 196 0
254 264 284 344 369 9 0
251 261 281 341 371 6 0
251 261 281 346 366 6 0
253 263 283 348 373 8 0
254 264 284 359 369 9 229 0
253 263 283 358 373 8 233 0
251 261 281 366 371 6 246 0
255 265 290 295 325 10 90 0
255 265 290 295 345 10 90 0
255 265 290 295 365 10 90 0
252 262 287 297 307 7 92 0
254 264 289 299 324 9 94 0
252 262 287 297 337 7 92 0
254 264 289 299 339 9 94 0
254 264 289 299 354 9 94 0
252 262 287 297 367 7 92 0
252 262 287 302 307 7 102 0
252 262 287 302 337 7 0
252 262 287 302 367 7 0
252 262 287 307 332 7 0
252 262 287 307 362 7 0
254 264 289 314 324 9 144 0
255 265 290 315 325 10 145 0
254 264 289 314 339 9 0
255 265 290 315 345 10 0
254 264 289 314 354 9 0
255 265 290 315 365 10 0
254 264 289 324 329 9 0
255 265 290 325 335 10 0
255 265 290 325 355 10 0
254 264 289 324 369 9 0
254 264 289 329 339 9 159 0
254 264 289 329 354 9 0
252 262 287 332 337 7 172 0
255 265 290 335 345 10 180 0
255 265 290 335 365 10 0
252 262 287 332 367 7 0
252 262 287 337 362 7 0
254 264 289 339 369 9 0
255 265 290 345 355 10 0
255 265 290 355 365 10 210 0
254 264 289 354 369 9 214 0
252 262 287 362 367 7 237 0
251 261 291 296 306 6 96 0
251 261 291 296 331 6 96 0
251 261 291 296 356 6 96 0
251 261 291 306 321 6 131 0
255 265 295 310 325 10 135 0
255 265 295 310 345 10 0
251 261 291 306 346 6 0
255 265 295 310 365 10 0
251 261 291 306 371 6 0
253 263 293 313 318 8 138 0
253 263 293 313 328 8 0
253 263 293 313 363 8 0
253 263 293 318 348 8 0
253 263 293 318 358 8 0
255 265 295 325 330 10 0
251 261 291 321 331 6 0
251 261 291 321 356 6 0
255 265 295 325 375 10 0
255 265 295 330 345 10 165 0
253 263 293 328 348 8 168 0
253 263 293 328 358 8 0
255 265 295 330 365 10 0
251 261 291 331 346 6 181 0
251 261 291 331 371 6 0
255 265 295 345 375 10 0
251 261 291 346 356 6 0
253 263 293 348 363 8 0
253 263 293 358 363 8 223 0
251 261 291 356 371 6 231 0
255 265 295 365 375 10 245 0
254 264 299 304 324 9 119 0
254 264 299 304 339 9 0
254 264 299 304 354 9 0
251 261 296 306 316 6 126 0
252 262 297 307 317 7 127 0
251 261 296 306 341 6 0
252 262 297 307 347 7 0
252 262 297 307 352 7 0
251 261 296 306 366 6 0
251 261 296 316 331 6 0
252 262 297 317 337 7 0
251 261 296 316 356 6 0
252 262 297 317 367 7 0
254 264 299 324 344 9 0
254 264 299 324 359 9 0
251 261 296 331 341 6 176 0
251 261 296 331 366 6 0
254 264 299 339 344 9 189 0
252 262 297 337 347 7 192 0
252 262 297 337 352 7 0
254 264 299 339 359 9 0
254 264 299 344 354 9 0
251 261 296 341 356 6 0
252 262 297 347 367 7 0
254 264 299 354 359 9 204 0
252 262 297 352 367 7 212 0
251 261 296 356 366 6 226 0
252 262 302 307 317 7 102 112 127 0
252 262 302 307 347 7 102 0
252 262 302 307 352 7 102 0
253 263 303 313 318 8 108 113 138 0
254 264 304 314 324 9 109 119 144 0
253 263 303 313 328 8 108 0
254 264 304 314 339 9 109 0
254 264 304 314 354 9 109 0
253 263 303 313 363 8 108 0
252 262 302 317 337 7 112 0
253 263 303 318 348 8 113 0
253 263 303 318 358 8 113 0
252 262 302 317 367 7 112 0
254 264 304 324 329 9 119 0
254 264 304 324 369 9 119 0
254 264 304 329 339 9 159 0
253 263 303 328 348 8 168 0
254 264 304 329 354 9 0
253 263 303 328 358 8 0
252 262 302 337 347 7 192 0
252 262 302 337 352 7 0
254 264 304 339 369 9 0
253 263 303 348 363 8 0
252 262 302 347 367 7 0
252 262 302 352 367 7 212 0
254 264 304 354 369 9 214 0
253 263 303 358 363 8 223 0
255 265 310 315 325 10 125 135 145 0
255 265 310 315 345 10 125 0
255 265 310 315 365 10 125 0
251 261 306 316 321 6 126 131 146 0
252 262 307 317 332 7 127 0
251 261 306 316 346 6 126 0
252 262 307 317 362 7 127 0
251 261 306 316 371 6 126 0
255 265 310 325 335 10 135 0
251 261 306 321 341 6 131 0
255 265 310 325 355 10 135 0
251 261 306 321 366 6 131 0
255 265 310 335 345 10 180 0
252 262 307 332 347 7 182 0
252 262 307 332 352 7 0
255 265 310 335 365 10 0
251 261 306 341 346 6 196 0
255 265 310 345 355 10 0
251 261 306 341 371 6 0
252 262 307 347 362 7 0
251 261 306 346 366 6 0
252 262 307 352 362 7 207 0
255 265 310 355 365 10 210 0
251 261 306 366 371 6 246 0
253 263 313 318 338 8 138 0
253 263 313 318 373 8 138 0
255 265 315 325 330 10 145 0
254 264 314 324 344 9 144 0
254 264 314 324 359 9 144 0
255 265 315 325 375 10 145 0
253 263 313 328 338 8 158 0
255 265 315 330 345 10 165 0
255 265 315 330 365 10 0
253 263 313 328 373 8 0
254 264 314 339 344 9 189 0
254 264 314 339 359 9 0
253 263 313 338 363 8 0
254 264 314 344 354 9 0
255 265 315 345 375 10 0
254 264 314 354 359 9 204 0
253 263 313 363 373 8 243 0
255 265 315 365 375 10 245 0
251 261 316 321 331 6 146 0
251 261 316 321 356 6 146 0
252 262 317 332 337 7 172 0
251 261 316 331 346 6 181 0
252 262 317 332 367 7 0
251 261 316 331 371 6 0
253 263 318 338 348 8 193 0
253 263 318 338 358 8 0
252 262 317 337 362 7 0
251 261 316 346 356 6 0
253 263 318 348 373 8 0
251 261 316 356 371 6 231 0
253 263 318 358 373 8 233 0
252 262 317 362 367 7 237 0
255 265 325 330 335 10 155 0
254 264 324 329 344 9 164 0
255 265 325 330 355 10 0
254 264 324 329 359 9 0
251 261 321 331 341 6 176 0
251 261 321 331 366 6 0
255 265 325 335 375 10 0
251 261 321 341 356 6 0
254 264 324 344 369 9 0
255 265 325 355 375 10 220 0
251 261 321 356 366 6 226 0
254 264 324 359 369 9 229 0
255 265 330 335 345 10 155 165 180 0
255 265 330 335 365 10 155 0
254 264 329 339 344 9 159 164 189 0
253 263 328 338 348 8 158 168 193 0
253 263 328 338 358 8 158 0
254 264 329 339 359 9 159 0
254 264 329 344 354 9 164 0
255 265 330 345 355 10 165 0
253 263 328 348 373 8 168 0
254 264 329 354 359 9 204 0
255 265 330 355 365 10 210 0
253 263 328 358 373 8 233 0
252 262 332 337 347 7 172 182 192 0
252 262 332 337 352 7 172 0
251 261 331 341 346 6 176 181 196 0
251 261 331 341 371 6 176 0
255 265 335 345 375 10 180 0
251 261 331 346 366 6 181 0
252 262 332 347 367 7 182 0
252 262 332 352 367 7 212 0
255 265 335 365 375 10 245 0
251 261 331 366 371 6 246 0
254 264 339 344 369 9 189 0
252 262 337 347 362 7 192 0
253 263 338 348 363 8 193 0
252 262 337 352 362 7 207 0
253 263 338 358 363 8 223 0
254 264 339 359 369 9 229 0
251 261 341 346 356 6 196 0
254 264 344 354 369 9 214 0
255 265 345 355 375 10 220 0
251 261 341 356 371 6 231 0
251 261 346 356 366 6 226 0
252 262 347 362 367 7 237 0
253 263 348 363 373 8 243 0
254 264 354 359 369 9 204 214 229 0
252 262 352 362 367 7 207 212 237 0
255 265 355 365 375 10 210 220 245 0
253 263 358 363 373 8 223 233 243 0
251 261 356 366 371 6 226 231 246 0
255 270 275 280 285 15 20 50 55 0
254 269 274 279 299 14 19 49 69 0
255 270 275 280 305 15 20 50 0
254 269 274 279 314 14 19 49 0
254 269 274 279 329 14 19 49 0
255 270 275 280 350 15 20 50 0
254 269 274 279 369 14 19 49 0
255 270 275 280 370 15 20 50 0
251 266 271 281 286 11 16 46 71 0
251 266 271 281 311 11 16 46 0
255 270 275 285 325 15 20 50 0
251 266 271 281 336 11 16 46 0
255 270 275 285 345 15 20 50 0
251 266 271 281 361 11 16 46 0
255 270 275 285 365 15 20 50 0
252 267 272 287 292 12 17 47 87 0
251 266 271 286 306 11 16 46 0
252 267 272 287 322 12 17 47 0
252 267 272 287 327 12 17 47 0
251 266 271 286 331 11 16 46 0
251 266 271 286 356 11 16 46 0
252 267 272 287 357 12 17 47 0
253 268 273 293 298 13 18 48 98 0
253 268 273 293 308 13 18 48 0
252 267 272 292 317 12 17 47 0
253 268 273 293 343 13 18 48 0
252 267 272 292 347 12 17 47 0
252 267 272 292 352 12 17 47 0
253 268 273 293 353 13 18 48 0
253 268 273 298 303 13 18 48 0
254 269 274 299 319 14 19 49 0
254 269 274 299 334 14 19 49 0
253 268 273 298 338 13 18 48 0
253 268 273 298 373 13 18 48 0
254 269 274 299 374 14 19 49 0
253 268 273 303 308 13 18 48 103 0
255 270 275 305 325 15 20 50 120 0
253 268 273 303 343 13 18 48 0
255 270 275 305 345 15 20 50 0
253 268 273 303 353 13 18 48 0
255 270 275 305 365 15 20 50 0
251 266 271 306 311 11 16 46 121 0
251 266 271 306 336 11 16 46 0
253 268 273 308 338 13 18 48 0
251 266 271 306 361 11 16 46 0
253 268 273 308 373 13 18 48 0
254 269 274 314 319 14 19 49 139 0
251 266 271 311 331 11 16 46 0
254 269 274 314 334 14 19 49 0
251 266 271 311 356 11 16 46 0
254 269 274 314 374 14 19 49 0
252 267 272 317 322 12 17 47 147 0
252 267 272 317 327 12 17 47 0
254 269 274 319 329 14 19 49 0
252 267 272 317 357 12 17 47 0
254 269 274 319 369 14 19 49 0
252 267 272 322 347 12 17 47 0
255 270 275 325 350 15 20 50 0
252 267 272 322 352 12 17 47 0
255 270 275 325 370 15 20 50 0
254 269 274 329 334 14 19 49 154 0
252 267 272 327 347 12 17 47 167 0
252 267 272 327 352 12 17 47 0
254 269 274 329 374 14 19 49 0
251 266 271 331 336 11 16 46 171 0
251 266 271 331 361 11 16 46 0
254 269 274 334 369 14 19 49 0
253 268 273 338 343 13 18 48 188 0
253 268 273 338 353 13 18 48 0
251 266 271 336 356 11 16 46 0
255 270 275 345 350 15 20 50 200 0
255 270 275 345 370 15 20 50 0
253 268 273 343 373 13 18 48 0
252 267 272 347 357 12 17 47 0
255 270 275 350 365 15 20 50 0
252 267 272 352 357 12 17 47 202 0
253 268 273 353 373 13 18 48 218 0
251 266 271 356 361 11 16 46 221 0
255 270 275 365 370 15 20 50 240 0
254 269 274 369 374 14 19 49 249 0
255 270 280 285 295 15 55 65 80 0
255 270 280 285 315 15 55 0
255 270 280 285 335 15 55 0
255 270 280 285 355 15 55 0
252 267 277 287 292 12 57 62 87 0
254 269 279 289 299 14 59 69 94 0
254 269 279 289 314 14 59 0
252 267 277 287 322 12 57 0
252 267 277 287 327 12 57 0
254 269 279 289 329 14 59 0
252 267 277 287 357 12 57 0
254 269 279 289 369 14 59 0
255 270 280 295 305 15 65 0
252 267 277 292 317 12 62 0
252 267 277 292 347 12 62 0
255 270 280 295 350 15 65 0
252 267 277 292 352 12 62 0
255 270 280 295 370 15 65 0
254 269 279 299 304 14 69 0
254 269 279 299 344 14 69 0
254 269 279 299 359 14 69 0
254 269 279 304 314 14 109 0
255 270 280 305 315 15 110 0
254 269 279 304 329 14 0
255 270 280 305 335 15 0
255 270 280 305 355 15 0
254 269 279 304 369 14 0
254 269 279 314 344 14 0
255 270 280 315 350 15 0
254 269 279 314 359 14 0
255 270 280 315 370 15 0
252 267 277 317 322 12 147 0
252 267 277 317 327 12 0
252 267 277 317 357 12 0
252 267 277 322 347 12 0
252 267 277 322 352 12 0
254 269 279 329 344 14 164 0
252 267 277 327 347 12 167 0
252 267 277 327 352 12 0
254 269 279 329 359 14 0
255 270 280 335 350 15 185 0
255 270 280 335 370 15 0
254 269 279 344 369 14 0
255 270 280 350 355 15 0
252 267 277 347 357 12 0
252 267 277 352 357 12 202 0
255 270 280 355 370 15 215 0
254 269 279 359 369 14 229 0
251 266 281 286 296 11 71 81 91 0
251 266 281 286 321 11 71 0
251 266 281 286 346 11 71 0
251 266 281 286 371 11 71 0
253 268 283 293 298 13 78 83 98 0
253 268 283 293 308 13 78 0
255 270 285 295 325 15 80 0
253 268 283 293 343 13 78 0
255 270 285 295 345 15 80 0
253 268 283 293 353 13 78 0
255 270 285 295 365 15 80 0
253 268 283 298 303 13 83 0
251 266 281 296 311 11 81 0
251 266 281 296 336 11 81 0
253 268 283 298 338 13 83 0
251 266 281 296 361 11 81 0
253 268 283 298 373 13 83 0
253 268 283 303 308 13 103 0
253 268 283 303 343 13 0
253 268 283 303 353 13 0
253 268 283 308 338 13 0
253 268 283 308 373 13 0
251 266 281 311 321 11 141 0
255 270 285 315 325 15 145 0
255 270 285 315 345 15 0
251 266 281 311 346 11 0
255 270 285 315 365 15 0
251 266 281 311 371 11 0
255 270 285 325 335 15 0
251 266 281 321 336 11 0
255 270 285 325 355 15 0
251 266 281 321 361 11 0
255 270 285 335 345 15 180 0
255 270 285 335 365 15 0
253 268 283 338 343 13 188 0
251 266 281 336 346 11 191 0
253 268 283 338 353 13 0
251 266 281 336 371 11 0
255 270 285 345 355 15 0
253 268 283 343 373 13 0
251 266 281 346 361 11 0
255 270 285 355 365 15 210 0
253 268 283 353 373 13 218 0
251 266 281 361 371 11 241 0
252 267 287 292 307 12 87 0
252 267 287 292 337 12 87 0
252 267 287 292 367 12 87 0
251 266 286 296 306 11 91 0
254 269 289 299 319 14 94 0
251 266 286 296 331 11 91 0
254 269 289 299 334 14 94 0
251 266 286 296 356 11 91 0
254 269 289 299 374 14 94 0
251 266 286 306 321 11 131 0
252 267 287 307 322 12 132 0
252 267 287 307 327 12 0
251 266 286 306 346 11 0
252 267 287 307 357 12 0
251 266 286 306 371 11 0
254 269 289 314 319 14 139 0
254 269 289 314 334 14 0
254 269 289 314 374 14 0
254 269 289 319 329 14 0
254 269 289 319 369 14 0
251 266 286 321 331 11 0
252 267 287 322 337 12 0
251 266 286 321 356 11 0
252 267 287 322 367 12 0
254 269 289 329 334 14 154 0
252 267 287 327 337 12 157 0
252 267 287 327 367 12 0
254 269 289 329 374 14 0
251 266 286 331 346 11 181 0
254 269 289 334 369 14 0
251 266 286 331 371 11 0
252 267 287 337 357 12 0
251 266 286 346 356 11 0
252 267 287 357 367 12 227 0
251 266 286 356 371 11 231 0
254 269 289 369 374 14 249 0
253 268 293 298 318 13 98 0
253 268 293 298 328 13 98 0
253 268 293 298 363 13 98 0
255 270 295 305 325 15 120 0
255 270 295 305 345 15 0
255 270 295 305 365 15 0
252 267 292 307 317 12 127 0
253 268 293 308 318 13 128 0
253 268 293 308 328 13 0
252 267 292 307 347 12 0
252 267 292 307 352 12 0
253 268 293 308 363 13 0
252 267 292 317 337 12 0
253 268 293 318 343 13 0
253 268 293 318 353 13 0
252 267 292 317 367 12 0
255 270 295 325 350 15 0
255 270 295 325 370 15 0
253 268 293 328 343 13 163 0
253 268 293 328 353 13 0
252 267 292 337 347 12 192 0
252 267 292 337 352 12 0
255 270 295 345 350 15 200 0
253 268 293 343 363 13 0
255 270 295 345 370 15 0
255 270 295 350 365 15 0
252 267 292 347 367 12 0
253 268 293 353 363 13 208 0
252 267 292 352 367 12 212 0
255 270 295 365 370 15 240 0
253 268 298 303 318 13 113 0
254 269 299 304 319 14 114 0
253 268 298 303 328 13 0
254 269 299 304 334 14 0
253 268 298 303 363 13 0
254 269 299 304 374 14 0
251 266 296 306 311 11 121 0
251 266 296 306 336 11 0
251 266 296 306 361 11 0
251 266 296 311 331 11 0
251 266 296 311 356 11 0
253 268 298 318 338 13 0
254 269 299 319 344 14 0
254 269 299 319 359 14 0
253 268 298 318 373 13 0
253 268 298 328 338 13 158 0
253 268 298 328 373 13 0
251 266 296 331 336 11 171 0
254 269 299 334 344 14 179 0
254 269 299 334 359 14 0
251 266 296 331 361 11 0
251 266 296 336 356 11 0
253 268 298 338 363 13 0
254 269 299 344 374 14 0
251 266 296 356 361 11 221 0
254 269 299 359 374 14 234 0
253 268 298 363 373 13 243 0
253 268 303 308 318 13 103 113 128 0
253 268 303 308 328 13 103 0
253 268 303 308 363 13 103 0
254 269 304 314 319 14 109 114 139 0
255 270 305 315 325 15 110 120 145 0
254 269 304 314 334 14 109 0
255 270 305 315 345 15 110 0
255 270 305 315 365 15 110 0
254 269 304 314 374 14 109 0
254 269 304 319 329 14 114 0
253 268 303 318 343 13 113 0
253 268 303 318 353 13 113 0
254 269 304 319 369 14 114 0
255 270 305 325 335 15 120 0
255 270 305 325 355 15 120 0
254 269 304 329 334 14 154 0
253 268 303 328 343 13 163 0
253 268 303 328 353 13 0
254 269 304 329 374 14 0
255 270 305 335 345 15 180 0
255 270 305 335 365 15 0
254 269 304 334 369 14 0
255 270 305 345 355 15 0
253 268 303 343 363 13 0
253 268 303 353 363 13 208 0
255 270 305 355 365 15 210 0
254 269 304 369 374 14 249 0
251 266 306 311 321 11 121 131 141 0
251 266 306 311 346 11 121 0
251 266 306 311 371 11 121 0
252 267 307 317 322 12 127 132 147 0
252 267 307 317 327 12 127 0
253 268 308 318 338 13 128 0
252 267 307 317 357 12 127 0
253 268 308 318 373 13 128 0
251 266 306 321 336 11 131 0
252 267 307 322 347 12 132 0
252 267 307 322 352 12 132 0
251 266 306 321 361 11 131 0
253 268 308 328 338 13 158 0
252 267 307 327 347 12 167 0
252 267 307 327 352 12 0
253 268 308 328 373 13 0
251 266 306 336 346 11 191 0
253 268 308 338 363 13 0
251 266 306 336 371 11 0
252 267 307 347 357 12 0
251 266 306 346 361 11 0
252 267 307 352 357 12 202 0
251 266 306 361 371 11 241 0
253 268 308 363 373 13 243 0
254 269 314 319 344 14 139 0
254 269 314 319 359 14 139 0
251 266 311 321 331 11 141 0
255 270 315 325 350 15 145 0
251 266 311 321 356 11 141 0
255 270 315 325 370 15 145 0
254 269 314 334 344 14 179 0
251 266 311 331 346 11 181 0
254 269 314 334 359 14 0
251 266 311 331 371 11 0
255 270 315 345 350 15 200 0
255 270 315 345 370 15 0
254 269 314 344 374 14 0
251 266 311 346 356 11 0
255 270 315 350 365 15 0
251 266 311 356 371 11 231 0
254 269 314 359 374 14 234 0
255 270 315 365 370 15 240 0
252 267 317 322 337 12 147 0
252 267 317 322 367 12 147 0
252 267 317 327 337 12 157 0
254 269 319 329 344 14 164 0
254 269 319 329 359 14 0
252 267 317 327 367 12 0
253 268 318 338 343 13 188 0
253 268 318 338 353 13 0
252 267 317 337 357 12 0
254 269 319 344 369 14 0
253 268 318 343 373 13 0
253 268 318 353 373 13 218 0
252 267 317 357 367 12 227 0
254 269 319 359 369 14 229 0
251 266 321 331 336 11 171 0
255 270 325 335 350 15 185 0
251 266 321 331 361 11 0
255 270 325 335 370 15 0
252 267 322 337 347 12 192 0
252 267 322 337 352 12 0
251 266 321 336 356 11 0
255 270 325 350 355 15 0
252 267 322 347 367 12 0
252 267 322 352 367 12 212 0
255 270 325 355 370 15 215 0
251 266 321 356 361 11 221 0
254 269 329 334 344 14 154 164 179 0
254 269 329 334 359 14 154 0
253 268 328 338 343 13 158 163 188 0
252 267 327 337 347 12 157 167 192 0
252 267 327 337 352 12 157 0
253 268 328 338 353 13 158 0
253 268 328 343 373 13 163 0
254 269 329 344 374 14 164 0
252 267 327 347 367 12 167 0
252 267 327 352 367 12 212 0
253 268 328 353 373 13 218 0
254 269 329 359 374 14 234 0
251 266 331 336 346 11 171 181 191 0
251 266 331 336 371 11 171 0
255 270 335 345 350 15 180 185 200 0
254 269 334 344 369 14 179 0
255 270 335 345 370 15 180 0
251 266 331 346 361 11 181 0
255 270 335 350 365 15 185 0
254 269 334 359 369 14 229 0
255 270 335 365 370 15 240 0
251 266 331 361 371 11 241 0
253 268 338 343 363 13 188 0
251 266 336 346 356 11 191 0
252 267 337 347 357 12 192 0
252 267 337 352 357 12 202 0
253 268 338 353 363 13 208 0
251 266 336 356 371 11 231 0
255 270 345 350 355 15 200 0
255 270 345 355 370 15 215 0
253 268 343 363 373 13 243 0
254 269 344 369 374 14 249 0
255 270 350 355 365 15 210 0
251 266 346 356 361 11 221 0
252 267 347 357 367 12 227 0
252 267 352 357 367 12 202 212 227 0
255 270 355 365 370 15 210 215 240 0
253 268 353 363 373 13 208 218 243 0
251 266 356 361 371 11 221 231 241 0
254 269 359 369 374 14 229 234 249 0
255 275 280 285 290 20 55 60 75 0
254 274 279 284 299 19 54 69 84 0
255 275 280 285 310 20 55 0
254 274 279 284 314 19 54 0
254 274 279 284 329 19 54 0
255 275 280 285 330 20 55 0
254 274 279 284 369 19 54 0
255 275 280 285 375 20 55 0
255 275 280 290 305 20 60 0
255 275 280 290 350 20 60 0
255 275 280 290 370 20 60 0
253 273 278 293 298 18 63 68 98 0
253 273 278 293 308 18 63 0
253 273 278 293 343 18 63 0
253 273 278 293 353 18 63 0
253 273 278 298 303 18 68 0
254 274 279 299 324 19 69 0
253 273 278 298 338 18 68 0
254 274 279 299 339 19 69 0
254 274 279 299 354 19 69 0
253 273 278 298 373 18 68 0
253 273 278 303 308 18 103 0
255 275 280 305 310 20 105 0
255 275 280 305 330 20 0
253 273 278 303 343 18 0
253 273 278 303 353 18 0
255 275 280 305 375 20 0
253 273 278 308 338 18 0
255 275 280 310 350 20 0
255 275 280 310 370 20 0
253 273 278 308 373 18 0
254 274 279 314 324 19 144 0
254 274 279 314 339 19 0
254 274 279 314 354 19 0
254 274 279 324 329 19 0
254 274 279 324 369 19 0
254 274 279 329 339 19 159 0
255 275 280 330 350 20 170 0
254 274 279 329 354 19 0
255 275 280 330 370 20 0
253 273 278 338 343 18 188 0
253 273 278 338 353 18 0
254 274 279 339 369 19 0
253 273 278 343 373 18 0
255 275 280 350 375 20 0
254 274 279 354 369 19 214 0
253 273 278 353 373 18 218 0
255 275 280 370 375 20 250 0
251 271 281 286 291 16 71 76 86 0
251 271 281 286 316 16 71 0
255 275 285 290 325 20 75 0
251 271 281 286 341 16 71 0
255 275 285 290 345 20 75 0
255 275 285 290 365 20 75 0
251 271 281 286 366 16 71 0
251 271 281 291 311 16 76 0
251 271 281 291 336 16 76 0
251 271 281 291 361 16 76 0
254 274 284 299 319 19 84 0
254 274 284 299 334 19 84 0
254 274 284 299 374 19 84 0
255 275 285 310 325 20 135 0
255 275 285 310 345 20 0
255 275 285 310 365 20 0
251 271 281 311 316 16 136 0
254 274 284 314 319 19 139 0
254 274 284 314 334 19 0
251 271 281 311 341 16 0
251 271 281 311 366 16 0
254 274 284 314 374 19 0
254 274 284 319 329 19 0
251 271 281 316 336 16 0
251 271 281 316 361 16 0
254 274 284 319 369 19 0
255 275 285 325 330 20 0
255 275 285 325 375 20 0
254 274 284 329 334 19 154 0
255 275 285 330 345 20 165 0
255 275 285 330 365 20 0
254 274 284 329 374 19 0
254 274 284 334 369 19 0
251 271 281 336 341 16 186 0
251 271 281 336 366 16 0
251 271 281 341 361 16 0
255 275 285 345 375 20 0
251 271 281 361 366 16 236 0
255 275 285 365 375 20 245 0
254 274 284 369 374 19 249 0
252 272 287 292 297 17 87 92 97 0
252 272 287 292 302 17 87 0
251 271 286 291 306 16 86 0
251 271 286 291 331 16 86 0
252 272 287 292 332 17 87 0
251 271 286 291 356 16 86 0
252 272 287 292 362 17 87 0
252 272 287 297 322 17 92 0
252 272 287 297 327 17 92 0
252 272 287 297 357 17 92 0
252 272 287 302 322 17 117 0
255 275 290 305 325 20 120 0
252 272 287 302 327 17 0
255 275 290 305 345 20 0
252 272 287 302 357 17 0
255 275 290 305 365 20 0
251 271 286 306 316 16 126 0
251 271 286 306 341 16 0
251 271 286 306 366 16 0
251 271 286 316 331 16 0
251 271 286 316 356 16 0
252 272 287 322 332 17 0
255 275 290 325 350 20 0
252 272 287 322 362 17 0
255 275 290 325 370 20 0
252 272 287 327 332 17 152 0
252 272 287 327 362 17 0
251 271 286 331 341 16 176 0
252 272 287 332 357 17 0
251 271 286 331 366 16 0
255 275 290 345 350 20 200 0
251 271 286 341 356 16 0
255 275 290 345 370 20 0
255 275 290 350 365 20 0
252 272 287 357 362 17 222 0
251 271 286 356 366 16 226 0
255 275 290 365 370 20 240 0
253 273 293 298 313 18 98 0
252 272 292 297 317 17 97 0
252 272 292 297 347 17 97 0
253 273 293 298 348 18 98 0
252 272 292 297 352 17 97 0
253 273 293 298 358 18 98 0
252 272 292 302 317 17 112 0
252 272 292 302 347 17 0
252 272 292 302 352 17 0
251 271 291 306 311 16 121 0
253 273 293 308 313 18 123 0
251 271 291 306 336 16 0
253 273 293 308 348 18 0
253 273 293 308 358 18 0
251 271 291 306 361 16 0
251 271 291 311 331 16 0
253 273 293 313 343 18 0
253 273 293 313 353 18 0
251 271 291 311 356 16 0
252 272 292 317 332 17 0
252 272 292 317 362 17 0
251 271 291 331 336 16 171 0
252 272 292 332 347 17 182 0
252 272 292 332 352 17 0
251 271 291 331 361 16 0
251 271 291 336 356 16 0
253 273 293 343 348 18 198 0
253 273 293 343 358 18 0
253 273 293 348 353 18 0
252 272 292 347 362 17 0
253 273 293 353 358 18 203 0
252 272 292 352 362 17 207 0
251 271 291 356 361 16 221 0
253 273 298 303 313 18 108 0
253 273 298 303 348 18 0
253 273 298 303 358 18 0
253 273 298 313 338 18 0
253 273 298 313 373 18 0
252 272 297 317 322 17 147 0
254 274 299 319 324 19 149 0
252 272 297 317 327 17 0
254 274 299 319 339 19 0
254 274 299 319 354 19 0
252 272 297 317 357 17 0
254 274 299 324 334 19 0
252 272 297 322 347 17 0
252 272 297 322 352 17 0
254 274 299 324 374 19 0
252 272 297 327 347 17 167 0
252 272 297 327 352 17 0
254 274 299 334 339 19 174 0
254 274 299 334 354 19 0
253 273 298 338 348 18 193 0
253 273 298 338 358 18 0
254 274 299 339 374 19 0
252 272 297 347 357 17 0
253 273 298 348 373 18 0
252 272 297 352 357 17 202 0
254 274 299 354 374 19 219 0
253 273 298 358 373 18 233 0
253 273 303 308 313 18 103 108 123 0
255 275 305 310 325 20 105 120 135 0
255 275 305 310 345 20 105 0
253 273 303 308 348 18 103 0
253 273 303 308 358 18 103 0
255 275 305 310 365 20 105 0
253 273 303 313 343 18 108 0
253 273 303 313 353 18 108 0
252 272 302 317 322 17 112 117 147 0
252 272 302 317 327 17 112 0
252 272 302 317 357 17 112 0
255 275 305 325 330 20 120 0
252 272 302 322 347 17 117 0
252 272 302 322 352 17 117 0
255 275 305 325 375 20 120 0
255 275 305 330 345 20 165 0
252 272 302 327 347 17 167 0
252 272 302 327 352 17 0
255 275 305 330 365 20 0
253 273 303 343 348 18 198 0
253 273 303 343 358 18 0
255 275 305 345 375 20 0
253 273 303 348 353 18 0
252 272 302 347 357 17 0
252 272 302 352 357 17 202 0
253 273 303 353 358 18 203 0
255 275 305 365 375 20 245 0
251 271 306 311 316 16 121 126 136 0
253 273 308 313 338 18 123 0
251 271 306 311 341 16 121 0
251 271 306 311 366 16 121 0
253 273 308 313 373 18 123 0
251 271 306 316 336 16 126 0
251 271 306 316 361 16 126 0
255 275 310 325 350 20 135 0
255 275 310 325 370 20 135 0
251 271 306 336 341 16 186 0
253 273 308 338 348 18 193 0
253 273 308 338 358 18 0
251 271 306 336 366 16 0
255 275 310 345 350 20 200 0
251 271 306 341 361 16 0
255 275 310 345 370 20 0
255 275 310 350 365 20 0
253 273 308 348 373 18 0
253 273 308 358 373 18 233 0
251 271 306 361 366 16 236 0
255 275 310 365 370 20 240 0
254 274 314 319 324 19 139 144 149 0
251 271 311 316 331 16 136 0
254 274 314 319 339 19 139 0
254 274 314 319 354 19 139 0
251 271 311 316 356 16 136 0
254 274 314 324 334 19 144 0
254 274 314 324 374 19 144 0
254 274 314 334 339 19 174 0
251 271 311 331 341 16 176 0
254 274 314 334 354 19 0
251 271 311 331 366 16 0
253 273 313 338 343 18 188 0
253 273 313 338 353 18 0
254 274 314 339 374 19 0
251 271 311 341 356 16 0
253 273 313 343 373 18 0
253 273 313 353 373 18 218 0
254 274 314 354 374 19 219 0
251 271 311 356 366 16 226 0
254 274 319 324 329 19 149 0
252 272 317 322 332 17 147 0
252 272 317 322 362 17 147 0
254 274 319 324 369 19 149 0
252 272 317 327 332 17 152 0
254 274 319 329 339 19 159 0
254 274 319 329 354 19 0
252 272 317 327 362 17 0
251 271 316 331 336 16 171 0
252 272 317 332 357 17 0
251 271 316 331 361 16 0
251 271 316 336 356 16 0
254 274 319 339 369 19 0
254 274 319 354 369 19 214 0
251 271 316 356 361 16 221 0
252 272 317 357 362 17 222 0
254 274 324 329 334 19 154 0
255 275 325 330 350 20 170 0
255 275 325 330 370 20 0
254 274 324 329 374 19 0
252 272 322 332 347 17 182 0
252 272 322 332 352 17 0
254 274 324 334 369 19 0
252 272 322 347 362 17 0
255 275 325 350 375 20 0
252 272 322 352 362 17 207 0
254 274 324 369 374 19 249 0
255 275 325 370 375 20 250 0
254 274 329 334 339 19 154 159 174 0
252 272 327 332 347 17 152 167 182 0
252 272 327 332 352 17 152 0
254 274 329 334 354 19 154 0
254 274 329 339 374 19 159 0
255 275 330 345 350 20 165 170 200 0
255 275 330 345 370 20 165 0
252 272 327 347 362 17 167 0
255 275 330 350 365 20 170 0
252 272 327 352 362 17 207 0
254 274 329 354 374 19 219 0
255 275 330 365 370 20 240 0
251 271 331 336 341 16 171 176 186 0
251 271 331 336 366 16 171 0
254 274 334 339 369 19 174 0
251 271 331 341 361 16 176 0
252 272 332 347 357 17 182 0
252 272 332 352 357 17 202 0
254 274 334 354 369 19 214 0
251 271 331 361 366 16 236 0
253 273 338 343 348 18 188 193 198 0
251 271 336 341 356 16 186 0
253 273 338 343 358 18 188 0
253 273 338 348 353 18 193 0
253 273 338 353 358 18 203 0
251 271 336 356 366 16 226 0
254 274 339 369 374 19 249 0
253 273 343 348 373 18 198 0
255 275 345 350 375 20 200 0
251 271 341 356 361 16 221 0
253 273 343 358 373 18 233 0
255 275 345 370 375 20 250 0
253 273 348 353 373 18 218 0
252 272 347 357 362 17 222 0
255 275 350 365 375 20 245 0
252 272 352 357 362 17 202 207 222 0
253 273 353 358 373 18 203 218 233 0
254 274 354 369 374 19 214 219 249 0
251 271 356 361 366 16 221 226 236 0
255 275 365 370 375 20 240 245 250 0
255 280 285 290 295 55 60 65 75 80 90 0
254 279 284 289 299 54 59 69 74 84 94 0
254 279 284 289 314 54 59 74 0
255 280 285 290 315 55 60 75 0
254 279 284 289 329 54 59 74 0
255 280 285 290 335 55 60 75 0
255 280 285 290 355 55 60 75 0
254 279 284 289 369 54 59 74 0
253 278 283 293 298 53 63 68 78 83 98 0
253 278 283 293 308 53 63 78 0
255 280 285 295 310 55 65 80 0
255 280 285 295 330 55 65 80 0
253 278 283 293 343 53 63 78 0
253 278 283 293 353 53 63 78 0
255 280 285 295 375 55 65 80 0
253 278 283 298 303 53 68 83 0
254 279 284 299 304 54 69 84 0
253 278 283 298 338 53 68 83 0
254 279 284 299 344 54 69 84 0
254 279 284 299 359 54 69 84 0
253 278 283 298 373 53 68 83 0
253 278 283 303 308 53 103 0
254 279 284 304 314 54 109 0
254 279 284 304 329 54 0
253 278 283 303 343 53 0
253 278 283 303 353 53 0
254 279 284 304 369 54 0
255 280 285 310 315 55 125 0
255 280 285 310 335 55 0
253 278 283 308 338 53 0
255 280 285 310 355 55 0
253 278 283 308 373 53 0
255 280 285 315 330 55 0
254 279 284 314 344 54 0
254 279 284 314 359 54 0
255 280 285 315 375 55 0
255 280 285 330 335 55 155 0
254 279 284 329 344 54 164 0
255 280 285 330 355 55 0
254 279 284 329 359 54 0
255 280 285 335 375 55 0
253 278 283 338 343 53 188 0
253 278 283 338 353 53 0
254 279 284 344 369 54 0
253 278 283 343 373 53 0
253 278 283 353 373 53 218 0
255 280 285 355 375 55 220 0
254 279 284 359 369 54 229 0
252 277 287 292 297 57 62 67 87 92 97 0
252 277 287 292 302 57 62 87 0
255 280 290 295 305 60 65 90 0
252 277 287 292 332 57 62 87 0
255 280 290 295 350 60 65 90 0
252 277 287 292 362 57 62 87 0
255 280 290 295 370 60 65 90 0
252 277 287 297 322 57 67 92 0
254 279 289 299 324 59 69 94 0
252 277 287 297 327 57 67 92 0
254 279 289 299 339 59 69 94 0
254 279 289 299 354 59 69 94 0
252 277 287 297 357 57 67 92 0
255 280 290 305 315 60 110 0
252 277 287 302 322 57 117 0
252 277 287 302 327 57 0
255 280 290 305 335 60 0
255 280 290 305 355 60 0
252 277 287 302 357 57 0
254 279 289 314 324 59 144 0
254 279 289 314 339 59 0
255 280 290 315 350 60 0
254 279 289 314 354 59 0
255 280 290 315 370 60 0
254 279 289 324 329 59 0
252 277 287 322 332 57 0
252 277 287 322 362 57 0
254 279 289 324 369 59 0
252 277 287 327 332 57 152 0
254 279 289 329 339 59 159 0
254 279 289 329 354 59 0
252 277 287 327 362 57 0
255 280 290 335 350 60 185 0
252 277 287 332 357 57 0
255 280 290 335 370 60 0
254 279 289 339 369 59 0
255 280 290 350 355 60 0
254 279 289 354 369 59 214 0
255 280 290 355 370 60 215 0
252 277 287 357 362 57 222 0
252 277 292 297 317 62 67 97 0
253 278 293 298 318 63 68 98 0
253 278 293 298 328 63 68 98 0
252 277 292 297 347 62 67 97 0
252 277 292 297 352 62 67 97 0
253 278 293 298 363 63 68 98 0
255 280 295 305 310 65 105 0
252 277 292 302 317 62 112 0
255 280 295 305 330 65 0
252 277 292 302 347 62 0
252 277 292 302 352 62 0
255 280 295 305 375 65 0
253 278 293 308 318 63 128 0
253 278 293 308 328 63 0
255 280 295 310 350 65 0
253 278 293 308 363 63 0
255 280 295 310 370 65 0
252 277 292 317 332 62 0
253 278 293 318 343 63 0
253 278 293 318 353 63 0
252 277 292 317 362 62 0
253 278 293 328 343 63 163 0
255 280 295 330 350 65 170 0
253 278 293 328 353 63 0
255 280 295 330 370 65 0
252 277 292 332 347 62 182 0
252 277 292 332 352 62 0
253 278 293 343 363 63 0
252 277 292 347 362 62 0
255 280 295 350 375 65 0
252 277 292 352 362 62 207 0
253 278 293 353 363 63 208 0
255 280 295 370 375 65 250 0
253 278 298 303 318 68 113 0
254 279 299 304 324 69 119 0
253 278 298 303 328 68 0
254 279 299 304 339 69 0
254 279 299 304 354 69 0
253 278 298 303 363 68 0
252 277 297 317 322 67 147 0
252 277 297 317 327 67 0
253 278 298 318 338 68 0
252 277 297 317 357 67 0
253 278 298 318 373 68 0
254 279 299 324 344 69 0
252 277 297 322 347 67 0
252 277 297 322 352 67 0
254 279 299 324 359 69 0
253 278 298 328 338 68 158 0
252 277 297 327 347 67 167 0
252 277 297 327 352 67 0
253 278 298 328 373 68 0
254 279 299 339 344 69 189 0
254 279 299 339 359 69 0
253 278 298 338 363 68 0
254 279 299 344 354 69 0
252 277 297 347 357 67 0
252 277 297 352 357 67 202 0
254 279 299 354 359 69 204 0
253 278 298 363 373 68 243 0
255 280 305 310 315 105 110 125 0
253 278 303 308 318 103 113 128 0
253 278 303 308 328 103 0
255 280 305 310 335 105 0
255 280 305 310 355 105 0
253 278 303 308 363 103 0
254 279 304 314 324 109 119 144 0
255 280 305 315 330 110 0
254 279 304 314 339 109 0
254 279 304 314 354 109 0
255 280 305 315 375 110 0
252 277 302 317 322 112 117 147 0
252 277 302 317 327 112 0
253 278 303 318 343 113 0
253 278 303 318 353 113 0
252 277 302 317 357 112 0
254 279 304 324 329 119 0
252 277 302 322 347 117 0
252 277 302 322 352 117 0
254 279 304 324 369 119 0
255 280 305 330 335 155 0
254 279 304 329 339 159 0
253 278 303 328 343 163 0
252 277 302 327 347 167 0
252 277 302 327 352 0
253 278 303 328 353 0
254 279 304 329 354 0
255 280 305 330 355 0
255 280 305 335 375 0
254 279 304 339 369 0
253 278 303 343 363 0
252 277 302 347 357 0
252 277 302 352 357 202 0
253 278 303 353 363 208 0
254 279 304 354 369 214 0
255 280 305 355 375 220 0
255 280 310 315 350 125 0
255 280 310 315 370 125 0
253 278 308 318 338 128 0
253 278 308 318 373 128 0
253 278 308 328 338 158 0
253 278 308 328 373 0
255 280 310 335 350 185 0
255 280 310 335 370 0
253 278 308 338 363 0
255 280 310 350 355 0
255 280 310 355 370 215 0
253 278 308 363 373 243 0
254 279 314 324 344 144 0
254 279 314 324 359 144 0
255 280 315 330 350 170 0
255 280 315 330 370 0
254 279 314 339 344 189 0
254 279 314 339 359 0
254 279 314 344 354 0
255 280 315 350 375 0
254 279 314 354 359 204 0
255 280 315 370 375 250 0
252 277 317 322 332 147 0
252 277 317 322 362 147 0
252 277 317 327 332 152 0
252 277 317 327 362 0
252 277 317 332 357 0
253 278 318 338 343 188 0
253 278 318 338 353 0
253 278 318 343 373 0
253 278 318 353 373 218 0
252 277 317 357 362 222 0
254 279 324 329 344 164 0
254 279 324 329 359 0
252 277 322 332 347 182 0
252 277 322 332 352 0
254 279 324 344 369 0
252 277 322 347 362 0
252 277 322 352 362 207 0
254 279 324 359 369 229 0
252 277 327 332 347 152 167 182 0
255 280 330 335 350 155 170 185 0
252 277 327 332 352 152 0
255 280 330 335 370 155 0
253 278 328 338 343 158 163 188 0
254 279 329 339 344 159 164 189 0
253 278 328 338 353 158 0
254 279 329 339 359 159 0
254 279 329 344 354 164 0
253 278 328 343 373 163 0
255 280 330 350 355 170 0
252 277 327 347 362 167 0
254 279 329 354 359 204 0
252 277 327 352 362 207 0
255 280 330 355 370 215 0
253 278 328 353 373 218 0
252 277 332 347 357 182 0
255 280 335 350 375 185 0
252 277 332 352 357 202 0
255 280 335 370 375 250 0
253 278 338 343 363 188 0
254 279 339 344 369 189 0
253 278 338 353 363 208 0
254 279 339 359 369 229 0
254 279 344 354 369 214 0
253 278 343 363 373 243 0
255 280 350 355 375 220 0
252 277 347 357 362 222 0
252 277 352 357 362 202 207 222 0
254 279 354 359 369 204 214 229 0
253 278 353 363 373 208 218 243 0
255 280 355 370 375 215 220 250 0
251 281 286 291 296 71 76 81 86 91 96 0
251 281 286 291 321 71 76 86 0
255 285 290 295 325 75 80 90 0
255 285 290 295 345 75 80 90 0
251 281 286 291 346 71 76 86 0
255 285 290 295 365 75 80 90 0
251 281 286 291 371 71 76 86 0
251 281 286 296 316 71 81 91 0
254 284 289 299 319 74 84 94 0
254 284 289 299 334 74 84 94 0
251 281 286 296 341 71 81 91 0
251 281 286 296 366 71 81 91 0
254 284 289 299 374 74 84 94 0
254 284 289 314 319 74 139 0
255 285 290 315 325 75 145 0
254 284 289 314 334 74 0
255 285 290 315 345 75 0
255 285 290 315 365 75 0
254 284 289 314 374 74 0
251 281 286 316 321 71 146 0
254 284 289 319 329 74 0
251 281 286 316 346 71 0
254 284 289 319 369 74 0
251 281 286 316 371 71 0
255 285 290 325 335 75 0
251 281 286 321 341 71 0
255 285 290 325 355 75 0
251 281 286 321 366 71 0
254 284 289 329 334 74 154 0
254 284 289 329 374 74 0
255 285 290 335 345 75 180 0
255 285 290 335 365 75 0
254 284 289 334 369 74 0
251 281 286 341 346 71 196 0
255 285 290 345 355 75 0
251 281 286 341 371 71 0
251 281 286 346 366 71 0
255 285 290 355 365 75 210 0
251 281 286 366 371 71 246 0
254 284 289 369 374 74 249 0
251 281 291 296 311 76 81 96 0
253 283 293 298 313 78 83 98 0
251 281 291 296 336 76 81 96 0
253 283 293 298 348 78 83 98 0
253 283 293 298 358 78 83 98 0
251 281 291 296 361 76 81 96 0
253 283 293 308 313 78 123 0
255 285 295 310 325 80 135 0
255 285 295 310 345 80 0
253 283 293 308 348 78 0
253 283 293 308 358 78 0
255 285 295 310 365 80 0
251 281 291 311 321 76 141 0
253 283 293 313 343 78 0
251 281 291 311 346 76 0
253 283 293 313 353 78 0
251 281 291 311 371 76 0
255 285 295 325 330 80 0
251 281 291 321 336 76 0
251 281 291 321 361 76 0
255 285 295 325 375 80 0
255 285 295 330 345 80 165 0
255 285 295 330 365 80 0
251 281 291 336 346 76 191 0
251 281 291 336 371 76 0
253 283 293 343 348 78 198 0
253 283 293 343 358 78 0
255 285 295 345 375 80 0
253 283 293 348 353 78 0
251 281 291 346 361 76 0
253 283 293 353 358 78 203 0
251 281 291 361 371 76 241 0
255 285 295 365 375 80 245 0
253 283 298 303 313 83 108 0
254 284 299 304 319 84 114 0
254 284 299 304 334 84 0
253 283 298 303 348 83 0
253 283 298 303 358 83 0
254 284 299 304 374 84 0
251 281 296 311 316 81 136 0
253 283 298 313 338 83 0
251 281 296 311 341 81 0
251 281 296 311 366 81 0
253 283 298 313 373 83 0
251 281 296 316 336 81 0
254 284 299 319 344 84 0
254 284 299 319 359 84 0
251 281 296 316 361 81 0
254 284 299 334 344 84 179 0
254 284 299 334 359 84 0
251 281 296 336 341 81 186 0
253 283 298 338 348 83 193 0
253 283 298 338 358 83 0
251 281 296 336 366 81 0
251 281 296 341 361 81 0
254 284 299 344 374 84 0
253 283 298 348 373 83 0
253 283 298 358 373 83 233 0
254 284 299 359 374 84 234 0
251 281 296 361 366 81 236 0
253 283 303 308 313 103 108 123 0
253 283 303 308 348 103 0
253 283 303 308 358 103 0
254 284 304 314 319 109 114 139 0
254 284 304 314 334 109 0
253 283 303 313 343 108 0
253 283 303 313 353 108 0
254 284 304 314 374 109 0
254 284 304 319 329 114 0
254 284 304 319 369 114 0
254 284 304 329 334 154 0
254 284 304 329 374 0
254 284 304 334 369 0
253 283 303 343 348 198 0
253 283 303 343 358 0
253 283 303 348 353 0
253 283 303 353 358 203 0
254 284 304 369 374 249 0
255 285 310 315 325 125 135 145 0
253 283 308 313 338 123 0
255 285 310 315 345 125 0
255 285 310 315 365 125 0
253 283 308 313 373 123 0
255 285 310 325 335 135 0
255 285 310 325 355 135 0
255 285 310 335 345 180 0
255 285 310 335 365 0
253 283 308 338 348 193 0
253 283 308 338 358 0
255 285 310 345 355 0
253 283 308 348 373 0
255 285 310 355 365 210 0
253 283 308 358 373 233 0
251 281 311 316 321 136 141 146 0
254 284 314 319 344 139 0
251 281 311 316 346 136 0
254 284 314 319 359 139 0
251 281 311 316 371 136 0
255 285 315 325 330 145 0
251 281 311 321 341 141 0
251 281 311 321 366 141 0
255 285 315 325 375 145 0
255 285 315 330 345 165 0
255 285 315 330 365 0
254 284 314 334 344 179 0
254 284 314 334 359 0
253 283 313 338 343 188 0
253 283 313 338 353 0
251 281 311 341 346 196 0
251 281 311 341 371 0
253 283 313 343 373 0
254 284 314 344 374 0
255 285 315 345 375 0
251 281 311 346 366 0
253 283 313 353 373 218 0
254 284 314 359 374 234 0
255 285 315 365 375 245 0
251 281 311 366 371 246 0
251 281 316 321 336 146 0
251 281 316 321 361 146 0
254 284 319 329 344 164 0
254 284 319 329 359 0
251 281 316 336 346 191 0
251 281 316 336 371 0
254 284 319 344 369 0
251 281 316 346 361 0
254 284 319 359 369 229 0
251 281 316 361 371 241 0
255 285 325 330 335 155 0
255 285 325 330 355 0
255 285 325 335 375 0
251 281 321 336 341 186 0
251 281 321 336 366 0
251 281 321 341 361 0
255 285 325 355 375 220 0
251 281 321 361 366 236 0
254 284 329 334 344 154 164 179 0
255 285 330 335 345 155 165 180 0
254 284 329 334 359 154 0
255 285 330 335 365 155 0
255 285 330 345 355 165 0
254 284 329 344 374 164 0
255 285 330 355 365 210 0
254 284 329 359 374 234 0
254 284 334 344 369 179 0
255 285 335 345 375 180 0
254 284 334 359 369 229 0
255 285 335 365 375 245 0
251 281 336 341 346 186 191 196 0
253 283 338 343 348 188 193 198 0
253 283 338 343 358 188 0
251 281 336 341 371 186 0
253 283 338 348 353 193 0
251 281 336 346 366 191 0
253 283 338 353 358 203 0
251 281 336 366 371 246 0
251 281 341 346 361 196 0
253 283 343 348 373 198 0
255 285 345 355 375 220 0
253 283 343 358 373 233 0
251 281 341 361 371 241 0
254 284 344 369 374 249 0
253 283 348 353 373 218 0
251 281 346 361 366 236 0
253 283 353 358 373 203 218 233 0
255 285 355 365 375 210 220 245 0
254 284 359 369 374 229 234 249 0
251 281 361 366 371 236 241 246 0
251 286 291 296 306 86 91 96 0
252 287 292 297 307 87 92 97 0
251 286 291 296 331 86 91 96 0
252 287 292 297 337 87 92 97 0
251 286 291 296 356 86 91 96 0
252 287 292 297 367 87 92 97 0
252 287 292 302 307 87 102 0
255 290 295 305 325 90 120 0
252 287 292 302 337 87 0
255 290 295 305 345 90 0
255 290 295 305 365 90 0
252 287 292 302 367 87 0
251 286 291 306 321 86 131 0
252 287 292 307 332 87 0
251 286 291 306 346 86 0
252 287 292 307 362 87 0
251 286 291 306 371 86 0
251 286 291 321 331 86 0
255 290 295 325 350 90 0
251 286 291 321 356 86 0
255 290 295 325 370 90 0
252 287 292 332 337 87 172 0
251 286 291 331 346 86 181 0
252 287 292 332 367 87 0
251 286 291 331 371 86 0
252 287 292 337 362 87 0
255 290 295 345 350 90 200 0
255 290 295 345 370 90 0
251 286 291 346 356 86 0
255 290 295 350 365 90 0
251 286 291 356 371 86 231 0
252 287 292 362 367 87 237 0
255 290 295 365 370 90 240 0
251 286 296 306 316 91 126 0
252 287 297 307 322 92 132 0
252 287 297 307 327 92 0
251 286 296 306 341 91 0
252 287 297 307 357 92 0
251 286 296 306 366 91 0
254 289 299 319 324 94 149 0
251 286 296 316 331 91 0
254 289 299 319 339 94 0
254 289 299 319 354 94 0
251 286 296 316 356 91 0
254 289 299 324 334 94 0
252 287 297 322 337 92 0
252 287 297 322 367 92 0
254 289 299 324 374 94 0
252 287 297 327 337 92 157 0
252 287 297 327 367 92 0
254 289 299 334 339 94 174 0
251 286 296 331 341 91 176 0
254 289 299 334 354 94 0
251 286 296 331 366 91 0
252 287 297 337 357 92 0
254 289 299 339 374 94 0
251 286 296 341 356 91 0
254 289 299 354 374 94 219 0
251 286 296 356 366 91 226 0
252 287 297 357 367 92 227 0
252 287 302 307 322 102 117 132 0
252 287 302 307 327 102 0
252 287 302 307 357 102 0
255 290 305 315 325 110 120 145 0
255 290 305 315 345 110 0
255 290 305 315 365 110 0
255 290 305 325 335 120 0
252 287 302 322 337 117 0
255 290 305 325 355 120 0
252 287 302 322 367 117 0
252 287 302 327 337 157 0
252 287 302 327 367 0
255 290 305 335 345 180 0
255 290 305 335 365 0
252 287 302 337 357 0
255 290 305 345 355 0
255 290 305 355 365 210 0
252 287 302 357 367 227 0
251 286 306 316 321 126 131 146 0
251 286 306 316 346 126 0
251 286 306 316 371 126 0
252 287 307 322 332 132 0
251 286 306 321 341 131 0
252 287 307 322 362 132 0
251 286 306 321 366 131 0
252 287 307 327 332 152 0
252 287 307 327 362 0
252 287 307 332 357 0
251 286 306 341 346 196 0
251 286 306 341 371 0
251 286 306 346 366 0
252 287 307 357 362 222 0
251 286 306 366 371 246 0
254 289 314 319 324 139 144 149 0
254 289 314 319 339 139 0
254 289 314 319 354 139 0
254 289 314 324 334 144 0
255 290 315 325 350 145 0
255 290 315 325 370 145 0
254 289 314 324 374 144 0
254 289 314 334 339 174 0
254 289 314 334 354 0
254 289 314 339 374 0
255 290 315 345 350 200 0
255 290 315 345 370 0
255 290 315 350 365 0
254 289 314 354 374 219 0
255 290 315 365 370 240 0
254 289 319 324 329 149 0
251 286 316 321 331 146 0
251 286 316 321 356 146 0
254 289 319 324 369 149 0
254 289 319 329 339 159 0
254 289 319 329 354 0
251 286 316 331 346 181 0
251 286 316 331 371 0
254 289 319 339 369 0
251 286 316 346 356 0
254 289 319 354 369 214 0
251 286 316 356 371 231 0
254 289 324 329 334 154 0
254 289 324 329 374 0
252 287 322 332 337 172 0
251 286 321 331 341 176 0
255 290 325 335 350 185 0
251 286 321 331 366 0
252 287 322 332 367 0
254 289 324 334 369 0
255 290 325 335 370 0
252 287 322 337 362 0
251 286 321 341 356 0
255 290 325 350 355 0
255 290 325 355 370 215 0
251 286 321 356 366 226 0
252 287 322 362 367 237 0
254 289 324 369 374 249 0
252 287 327 332 337 152 157 172 0
254 289 329 334 339 154 159 174 0
254 289 329 334 354 154 0
252 287 327 332 367 152 0
252 287 327 337 362 157 0
254 289 329 339 374 159 0
254 289 329 354 374 219 0
252 287 327 362 367 237 0
252 287 332 337 357 172 0
254 289 334 339 369 174 0
251 286 331 341 346 176 181 196 0
255 290 335 345 350 180 185 200 0
255 290 335 345 370 180 0
251 286 331 341 371 176 0
255 290 335 350 365 185 0
251 286 331 346 366 181 0
254 289 334 354 369 214 0
252 287 332 357 367 227 0
255 290 335 365 370 240 0
251 286 331 366 371 246 0
252 287 337 357 362 222 0
254 289 339 369 374 249 0
255 290 345 350 355 200 0
251 286 341 346 356 196 0
255 290 345 355 370 215 0
251 286 341 356 371 231 0
255 290 350 355 365 210 0
251 286 346 356 366 226 0
255 290 355 365 370 210 215 240 0
254 289 354 369 374 214 219 249 0
252 287 357 362 367 222 227 237 0
251 286 356 366 371 226 231 246 0
251 291 296 306 311 96 121 0
252 292 297 307 317 97 127 0
251 291 296 306 336 96 0
252 292 297 307 347 97 0
252 292 297 307 352 97 0
251 291 296 306 361 96 0
253 293 298 313 318 98 138 0
253 293 298 313 328 98 0
251 291 296 311 331 96 0
251 291 296 311 356 96 0
253 293 298 313 363 98 0
252 292 297 317 337 97 0
253 293 298 318 348 98 0
253 293 298 318 358 98 0
252 292 297 317 367 97 0
253 293 298 328 348 98 168 0
253 293 298 328 358 98 0
251 291 296 331 336 96 171 0
251 291 296 331 361 96 0
252 292 297 337 347 97 192 0
252 292 297 337 352 97 0
251 291 296 336 356 96 0
253 293 298 348 363 98 0
252 292 297 347 367 97 0
252 292 297 352 367 97 212 0
251 291 296 356 361 96 221 0
253 293 298 358 363 98 223 0
252 292 302 307 317 102 112 127 0
255 295 305 310 325 105 120 135 0
255 295 305 310 345 105 0
252 292 302 307 347 102 0
252 292 302 307 352 102 0
255 295 305 310 365 105 0
252 292 302 317 337 112 0
252 292 302 317 367 112 0
255 295 305 325 330 120 0
255 295 305 325 375 120 0
255 295 305 330 345 165 0
255 295 305 330 365 0
252 292 302 337 347 192 0
252 292 302 337 352 0
255 295 305 345 375 0
252 292 302 347 367 0
252 292 302 352 367 212 0
255 295 305 365 375 245 0
253 293 308 313 318 123 128 138 0
251 291 306 311 321 121 131 141 0
253 293 308 313 328 123 0
251 291 306 311 346 121 0
253 293 308 313 363 123 0
251 291 306 311 371 121 0
252 292 307 317 332 127 0
253 293 308 318 348 128 0
253 293 308 318 358 128 0
252 292 307 317 362 127 0
251 291 306 321 336 131 0
255 295 310 325 350 135 0
251 291 306 321 361 131 0
255 295 310 325 370 135 0
253 293 308 328 348 168 0
253 293 308 328 358 0
252 292 307 332 347 182 0
252 292 307 332 352 0
251 291 306 336 346 191 0
251 291 306 336 371 0
255 295 310 345 350 200 0
255 295 310 345 370 0
251 291 306 346 361 0
252 292 307 347 362 0
253 293 308 348 363 0
255 295 310 350 365 0
252 292 307 352 362 207 0
253 293 308 358 363 223 0
255 295 310 365 370 240 0
251 291 306 361 371 241 0
253 293 313 318 343 138 0
253 293 313 318 353 138 0
251 291 311 321 331 141 0
251 291 311 321 356 141 0
253 293 313 328 343 163 0
253 293 313 328 353 0
251 291 311 331 346 181 0
251 291 311 331 371 0
253 293 313 343 363 0
251 291 311 346 356 0
253 293 313 353 363 208 0
251 291 311 356 371 231 0
252 292 317 332 337 172 0
252 292 317 332 367 0
252 292 317 337 362 0
253 293 318 343 348 198 0
253 293 318 343 358 0
253 293 318 348 353 0
253 293 318 353 358 203 0
252 292 317 362 367 237 0
255 295 325 330 350 170 0
255 295 325 330 370 0
251 291 321 331 336 171 0
251 291 321 331 361 0
251 291 321 336 356 0
255 295 325 350 375 0
251 291 321 356 361 221 0
255 295 325 370 375 250 0
253 293 328 343 348 163 168 198 0
255 295 330 345 350 165 170 200 0
253 293 328 343 358 163 0
255 295 330 345 370 165 0
253 293 328 348 353 168 0
255 295 330 350 365 170 0
253 293 328 353 358 203 0
255 295 330 365 370 240 0
251 291 331 336 346 171 181 191 0
252 292 332 337 347 172 182 192 0
252 292 332 337 352 172 0
251 291 331 336 371 171 0
251 291 331 346 361 181 0
252 292 332 347 367 182 0
252 292 332 352 367 212 0
251 291 331 361 371 241 0
251 291 336 346 356 191 0
252 292 337 347 362 192 0
252 292 337 352 362 207 0
251 291 336 356 371 231 0
253 293 343 348 363 198 0
255 295 345 350 375 200 0
253 293 343 358 363 223 0
255 295 345 370 375 250 0
253 293 348 353 363 208 0
251 291 346 356 361 221 0
252 292 347 362 367 237 0
255 295 350 365 375 245 0
253 293 353 358 363 203 208 223 0
252 292 352 362 367 207 212 237 0
251 291 356 361 371 221 231 241 0
255 295 365 370 375 240 245 250 0
253 298 303 313 318 108 113 138 0
253 298 303 313 328 108 0
253 298 303 313 363 108 0
254 299 304 319 324 114 119 149 0
254 299 304 319 339 114 0
253 298 303 318 348 113 0
254 299 304 319 354 114 0
253 298 303 318 358 113 0
254 299 304 324 334 119 0
254 299 304 324 374 119 0
253 298 303 328 348 168 0
253 298 303 328 358 0
254 299 304 334 339 174 0
254 299 304 334 354 0
254 299 304 339 374 0
253 298 303 348 363 0
254 299 304 354 374 219 0
253 298 303 358 363 223 0
251 296 306 311 316 121 126 136 0
251 296 306 311 341 121 0
251 296 306 311 366 121 0
252 297 307 317 322 127 132 147 0
252 297 307 317 327 127 0
251 296 306 316 336 126 0
252 297 307 317 357 127 0
251 296 306 316 361 126 0
252 297 307 322 347 132 0
252 297 307 322 352 132 0
252 297 307 327 347 167 0
252 297 307 327 352 0
251 296 306 336 341 186 0
251 296 306 336 366 0
251 296 306 341 361 0
252 297 307 347 357 0
252 297 307 352 357 202 0
251 296 306 361 366 236 0
251 296 311 316 331 136 0
253 298 313 318 338 138 0
251 296 311 316 356 136 0
253 298 313 318 373 138 0
253 298 313 328 338 158 0
253 298 313 328 373 0
251 296 311 331 341 176 0
251 296 311 331 366 0
253 298 313 338 363 0
251 296 311 341 356 0
251 296 311 356 366 226 0
253 298 313 363 373 243 0
252 297 317 322 337 147 0
254 299 319 324 344 149 0
254 299 319 324 359 149 0
252 297 317 322 367 147 0
252 297 317 327 337 157 0
252 297 317 327 367 0
251 296 316 331 336 171 0
251 296 316 331 361 0
254 299 319 339 344 189 0
253 298 318 338 348 193 0
251 296 316 336 356 0
252 297 317 337 357 0
253 298 318 338 358 0
254 299 319 339 359 0
254 299 319 344 354 0
253 298 318 348 373 0
254 299 319 354 359 204 0
251 296 316 356 361 221 0
252 297 317 357 367 227 0
253 298 318 358 373 233 0
254 299 324 334 344 179 0
254 299 324 334 359 0
252 297 322 337 347 192 0
252 297 322 337 352 0
254 299 324 344 374 0
252 297 322 347 367 0
252 297 322 352 367 212 0
254 299 324 359 374 234 0
252 297 327 337 347 157 167 192 0
253 298 328 338 348 158 168 193 0
252 297 327 337 352 157 0
253 298 328 338 358 158 0
252 297 327 347 367 167 0
253 298 328 348 373 168 0
252 297 327 352 367 212 0
253 298 328 358 373 233 0
251 296 331 336 341 171 176 186 0
254 299 334 339 344 174 179 189 0
254 299 334 339 359 174 0
251 296 331 336 366 171 0
254 299 334 344 354 179 0
251 296 331 341 361 176 0
254 299 334 354 359 204 0
251 296 331 361 366 236 0
251 296 336 341 356 186 0
254 299 339 344 374 189 0
252 297 337 347 357 192 0
253 298 338 348 363 193 0
252 297 337 352 357 202 0
253 298 338 358 363 223 0
251 296 336 356 366 226 0
254 299 339 359 374 234 0
254 299 344 354 374 219 0
251 296 341 356 361 221 0
252 297 347 357 367 227 0
253 298 348 363 373 243 0
252 297 352 357 367 202 212 227 0
254 299 354 359 374 204 219 234 0
251 296 356 361 366 221 226 236 0
253 298 358 363 373 223 233 243 0
253 303 308 313 318 103 108 113 123 128 138 0
255 305 310 315 325 105 110 120 125 135 145 0
253 303 308 313 328 103 108 123 0
255 305 310 315 345 105 110 125 0
253 303 308 313 363 103 108 123 0
255 305 310 315 365 105 110 125 0
252 302 307 317 322 102 112 117 127 132 147 0
252 302 307 317 327 102 112 127 0
253 303 308 318 348 103 113 128 0
252 302 307 317 357 102 112 127 0
253 303 308 318 358 103 113 128 0
255 305 310 325 335 105 120 135 0
252 302 307 322 347 102 117 132 0
252 302 307 322 352 102 117 132 0
255 305 310 325 355 105 120 135 0
252 302 307 327 347 102 167 0
253 303 308 328 348 103 168 0
252 302 307 327 352 102 0
253 303 308 328 358 103 0
255 305 310 335 345 105 180 0
255 305 310 335 365 105 0
255 305 310 345 355 105 0
252 302 307 347 357 102 0
253 303 308 348 363 103 0
252 302 307 352 357 102 202 0
255 305 310 355 365 105 210 0
253 303 308 358 363 103 223 0
254 304 314 319 324 109 114 119 139 144 149 0
254 304 314 319 339 109 114 139 0
253 303 313 318 343 108 113 138 0
253 303 313 318 353 108 113 138 0
254 304 314 319 354 109 114 139 0
255 305 315 325 330 110 120 145 0
254 304 314 324 334 109 119 144 0
254 304 314 324 374 109 119 144 0
255 305 315 325 375 110 120 145 0
253 303 313 328 343 108 163 0
255 305 315 330 345 110 165 0
253 303 313 328 353 108 0
255 305 315 330 365 110 0
254 304 314 334 339 109 174 0
254 304 314 334 354 109 0
254 304 314 339 374 109 0
253 303 313 343 363 108 0
255 305 315 345 375 110 0
253 303 313 353 363 108 208 0
254 304 314 354 374 109 219 0
255 305 315 365 375 110 245 0
254 304 319 324 329 114 119 149 0
252 302 317 322 337 112 117 147 0
252 302 317 322 367 112 117 147 0
254 304 319 324 369 114 119 149 0
252 302 317 327 337 112 157 0
254 304 319 329 339 114 159 0
254 304 319 329 354 114 0
252 302 317 327 367 112 0
252 302 317 337 357 112 0
254 304 319 339 369 114 0
253 303 318 343 348 113 198 0
253 303 318 343 358 113 0
253 303 318 348 353 113 0
253 303 318 353 358 113 203 0
254 304 319 354 369 114 214 0
252 302 317 357 367 112 227 0
254 304 324 329 334 119 154 0
255 305 325 330 335 120 155 0
255 305 325 330 355 120 0
254 304 324 329 374 119 0
254 304 324 334 369 119 0
255 305 325 335 375 120 0
252 302 322 337 347 117 192 0
252 302 322 337 352 117 0
252 302 322 347 367 117 0
252 302 322 352 367 117 212 0
255 305 325 355 375 120 220 0
254 304 324 369 374 119 249 0
254 304 329 334 339 154 159 174 0
255 305 330 335 345 155 165 180 0
254 304 329 334 354 154 0
255 305 330 335 365 155 0
252 302 327 337 347 157 167 192 0
252 302 327 337 352 157 0
254 304 329 339 374 159 0
253 303 328 343 348 163 168 198 0
255 305 330 345 355 165 0
253 303 328 343 358 163 0
253 303 328 348 353 168 0
252 302 327 347 367 167 0
253 303 328 353 358 203 0
255 305 330 355 365 210 0
252 302 327 352 367 212 0
254 304 329 354 374 219 0
254 304 334 339 369 174 0
255 305 335 345 375 180 0
254 304 334 354 369 214 0
255 305 335 365 375 245 0
252 302 337 347 357 192 0
252 302 337 352 357 202 0
254 304 339 369 374 249 0
253 303 343 348 363 198 0
255 305 345 355 375 220 0
253 303 343 358 363 223 0
253 303 348 353 363 208 0
252 302 347 357 367 227 0
253 303 353 358 363 203 208 223 0
252 302 352 357 367 202 212 227 0
255 305 355 365 375 210 220 245 0
254 304 354 369 374 214 219 249 0
251 306 311 316 321 121 126 131 136 141 146 0
253 308 313 318 338 123 128 138 0
251 306 311 316 346 121 126 136 0
251 306 311 316 371 121 126 136 0
253 308 313 318 373 123 128 138 0
251 306 311 321 341 121 131 141 0
255 310 315 325 350 125 135 145 0
251 306 311 321 366 121 131 141 0
255 310 315 325 370 125 135 145 0
253 308 313 328 338 123 158 0
253 308 313 328 373 123 0
253 308 313 338 363 123 0
251 306 311 341 346 121 196 0
255 310 315 345 350 125 200 0
255 310 315 345 370 125 0
251 306 311 341 371 121 0
255 310 315 350 365 125 0
251 306 311 346 366 121 0
255 310 315 365 370 125 240 0
253 308 313 363 373 123 243 0
251 306 311 366 371 121 246 0
252 307 317 322 332 127 132 147 0
251 306 316 321 336 126 131 146 0
251 306 316 321 361 126 131 146 0
252 307 317 322 362 127 132 147 0
252 307 317 327 332 127 152 0
252 307 317 327 362 127 0
252 307 317 332 357 127 0
251 306 316 336 346 126 191 0
253 308 318 338 348 128 193 0
253 308 318 338 358 128 0
251 306 316 336 371 126 0
251 306 316 346 361 126 0
253 308 318 348 373 128 0
252 307 317 357 362 127 222 0
253 308 318 358 373 128 233 0
251 306 316 361 371 126 241 0
252 307 322 332 347 132 182 0
255 310 325 335 350 135 185 0
252 307 322 332 352 132 0
255 310 325 335 370 135 0
251 306 321 336 341 131 186 0
251 306 321 336 366 131 0
251 306 321 341 361 131 0
255 310 325 350 355 135 0
252 307 322 347 362 132 0
252 307 322 352 362 132 207 0
255 310 325 355 370 135 215 0
251 306 321 361 366 131 236 0
252 307 327 332 347 152 167 182 0
252 307 327 332 352 152 0
253 308 328 338 348 158 168 193 0
253 308 328 338 358 158 0
252 307 327 347 362 167 0
253 308 328 348 373 168 0
252 307 327 352 362 207 0
253 308 328 358 373 233 0
255 310 335 345 350 180 185 200 0
255 310 335 345 370 180 0
252 307 332 347 357 182 0
255 310 335 350 365 185 0
252 307 332 352 357 202 0
255 310 335 365 370 240 0
251 306 336 341 346 186 191 196 0
251 306 336 341 371 186 0
253 308 338 348 363 193 0
251 306 336 346 366 191 0
253 308 338 358 363 223 0
251 306 336 366 371 246 0
255 310 345 350 355 200 0
251 306 341 346 361 196 0
255 310 345 355 370 215 0
251 306 341 361 371 241 0
255 310 350 355 365 210 0
252 307 347 357 362 222 0
251 306 346 361 366 236 0
253 308 348 363 373 243 0
252 307 352 357 362 202 207 222 0
255 310 355 365 370 210 215 240 0
253 308 358 363 373 223 233 243 0
251 306 361 366 371 236 241 246 0
251 311 316 321 331 136 141 146 0
254 314 319 324 344 139 144 149 0
251 311 316 321 356 136 141 146 0
254 314 319 324 359 139 144 149 0
251 311 316 331 346 136 181 0
251 311 316 331 371 136 0
253 313 318 338 343 138 188 0
254 314 319 339 344 139 189 0
253 313 318 338 353 138 0
254 314 319 339 359 139 0
254 314 319 344 354 139 0
253 313 318 343 373 138 0
251 311 316 346 356 136 0
254 314 319 354 359 139 204 0
253 313 318 353 373 138 218 0
251 311 316 356 371 136 231 0
255 315 325 330 350 145 170 0
255 315 325 330 370 145 0
251 311 321 331 341 141 176 0
254 314 324 334 344 144 179 0
254 314 324 334 359 144 0
251 311 321 331 366 141 0
251 311 321 341 356 141 0
254 314 324 344 374 144 0
255 315 325 350 375 145 0
251 311 321 356 366 141 226 0
254 314 324 359 374 144 234 0
255 315 325 370 375 145 250 0
253 313 328 338 343 158 163 188 0
253 313 328 338 353 158 0
255 315 330 345 350 165 170 200 0
255 315 330 345 370 165 0
253 313 328 343 373 163 0
255 315 330 350 365 170 0
253 313 328 353 373 218 0
255 315 330 365 370 240 0
254 314 334 339 344 174 179 189 0
254 314 334 339 359 174 0
251 311 331 341 346 176 181 196 0
254 314 334 344 354 179 0
251 311 331 341 371 176 0
251 311 331 346 366 181 0
254 314 334 354 359 204 0
251 311 331 366 371 246 0
253 313 338 343 363 188 0
254 314 339 344 374 189 0
253 313 338 353 363 208 0
254 314 339 359 374 234 0
251 311 341 346 356 196 0
255 315 345 350 375 200 0
254 314 344 354 374 219 0
251 311 341 356 371 231 0
253 313 343 363 373 243 0
255 315 345 370 375 250 0
251 311 346 356 366 226 0
255 315 350 365 375 245 0
254 314 354 359 374 204 219 234 0
253 313 353 363 373 208 218 243 0
251 311 356 366 371 226 231 246 0
255 315 365 370 375 240 245 250 0
254 319 324 329 344 149 164 0
254 319 324 329 359 149 0
251 316 321 331 336 146 171 0
252 317 322 332 337 147 172 0
251 316 321 331 361 146 0
252 317 322 332 367 147 0
251 316 321 336 356 146 0
252 317 322 337 362 147 0
254 319 324 344 369 149 0
251 316 321 356 361 146 221 0
254 319 324 359 369 149 229 0
252 317 322 362 367 147 237 0
252 317 327 332 337 152 157 172 0
252 317 327 332 367 152 0
254 319 329 339 344 159 164 189 0
254 319 329 339 359 159 0
252 317 327 337 362 157 0
254 319 329 344 354 164 0
254 319 329 354 359 204 0
252 317 327 362 367 237 0
251 316 331 336 346 171 181 191 0
252 317 332 337 357 172 0
251 316 331 336 371 171 0
251 316 331 346 361 181 0
252 317 332 357 367 227 0
251 316 331 361 371 241 0
253 318 338 343 348 188 193 198 0
253 318 338 343 358 188 0
254 319 339 344 369 189 0
253 318 338 348 353 193 0
251 316 336 346 356 191 0
253 318 338 353 358 203 0
252 317 337 357 362 222 0
254 319 339 359 369 229 0
251 316 336 356 371 231 0
253 318 343 348 373 198 0
254 319 344 354 369 214 0
253 318 343 358 373 233 0
253 318 348 353 373 218 0
251 316 346 356 361 221 0
254 319 354 359 369 204 214 229 0
253 318 353 358 373 203 218 233 0
252 317 357 362 367 222 227 237 0
251 316 356 361 371 221 231 241 0
254 324 329 334 344 154 164 179 0
255 325 330 335 350 155 170 185 0
254 324 329 334 359 154 0
255 325 330 335 370 155 0
254 324 329 344 374 164 0
255 325 330 350 355 170 0
255 325 330 355 370 215 0
254 324 329 359 374 234 0
251 321 331 336 341 171 176 186 0
252 322 332 337 347 172 182 192 0
252 322 332 337 352 172 0
251 321 331 336 366 171 0
251 321 331 341 361 176 0
254 324 334 344 369 179 0
252 322 332 347 367 182 0
255 325 335 350 375 185 0
252 322 332 352 367 212 0
254 324 334 359 369 229 0
251 321 331 361 366 236 0
255 325 335 370 375 250 0
251 321 336 341 356 186 0
252 322 337 347 362 192 0
252 322 337 352 362 207 0
251 321 336 356 366 226 0
251 321 341 356 361 221 0
254 324 344 369 374 249 0
255 325 350 355 375 220 0
252 322 347 362 367 237 0
252 322 352 362 367 207 212 237 0
255 325 355 370 375 215 220 250 0
251 321 356 361 366 221 226 236 0
254 324 359 369 374 229 234 249 0
254 329 334 339 344 154 159 164 174 179 189 0
252 327 332 337 347 152 157 167 172 182 192 0
252 327 332 337 352 152 157 172 0
254 329 334 339 359 154 159 174 0
255 330 335 345 350 155 165 170 180 185 200 0
254 329 334 344 354 154 164 179 0
255 330 335 345 370 155 165 180 0
255 330 335 350 365 155 170 185 0
252 327 332 347 367 152 167 182 0
254 329 334 354 359 154 204 0
252 327 332 352 367 152 212 0
255 330 335 365 370 155 240 0
253 328 338 343 348 158 163 168 188 193 198 0
253 328 338 343 358 158 163 188 0
254 329 339 344 374 159 164 189 0
253 328 338 348 353 158 168 193 0
252 327 337 347 362 157 167 192 0
253 328 338 353 358 158 203 0
252 327 337 352 362 157 207 0
254 329 339 359 374 159 234 0
255 330 345 350 355 165 170 200 0
253 328 343 348 373 163 168 198 0
255 330 345 355 370 165 215 0
254 329 344 354 374 164 219 0
253 328 343 358 373 163 233 0
255 330 350 355 365 170 210 0
253 328 348 353 373 168 218 0
252 327 347 362 367 167 237 0
253 328 353 358 373 203 218 233 0
254 329 354 359 374 204 219 234 0
252 327 352 362 367 207 212 237 0
255 330 355 365 370 210 215 240 0
251 331 336 341 346 171 176 181 186 191 196 0
254 334 339 344 369 174 179 189 0
251 331 336 341 371 171 176 186 0
252 332 337 347 357 172 182 192 0
251 331 336 346 366 171 181 191 0
252 332 337 352 357 172 202 0
254 334 339 359 369 174 229 0
251 331 336 366 371 171 246 0
251 331 341 346 361 176 181 196 0
255 335 345 350 375 180 185 200 0
254 334 344 354 369 179 214 0
251 331 341 361 371 176 241 0
255 335 345 370 375 180 250 0
252 332 347 357 367 182 227 0
251 331 346 361 366 181 236 0
255 335 350 365 375 185 245 0
252 332 352 357 367 202 212 227 0
254 334 354 359 369 204 214 229 0
251 331 361 366 371 236 241 246 0
255 335 365 370 375 240 245 250 0
251 336 341 346 356 186 191 196 0
253 338 343 348 363 188 193 198 0
253 338 343 358 363 188 223 0
251 336 341 356 371 186 231 0
254 339 344 369 374 189 249 0
253 338 348 353 363 193 208 0
252 337 347 357 362 192 222 0
251 336 346 356 366 191 226 0
252 337 352 357 362 202 207 222 0
253 338 353 358 363 203 208 223 0
251 336 356 366 371 226 231 246 0
254 339 359 369 374 229 234 249 0
255 345 350 355 375 200 220 0
251 341 346 356 361 196 221 0
253 343 348 363 373 198 243 0
254 344 354 369 374 214 219 249 0
255 345 355 370 375 215 220 250 0
251 341 356 361 371 221 231 241 0
253 343 358 363 373 223 233 243 0
253 348 353 363 373 208 218 243 0
255 350 355 365 375 210 220 245 0
251 346 356 361 366 221 226 236 0
252 347 357 362 367 222 227 237 0
252 352 357 362 367 202 207 212 222 227 237 0
253 353 358 363 373 203 208 218 223 233 243 0
254 354 359 369 374 204 214 219 229 234 249 0
255 355 365 370 375 210 215 220 240 245 250 0
251 356 361 366 371 221 226 231 236 241 246 0
256 261 266 271 276 21 26 31 36 41 46 0
257 262 267 272 282 22 27 32 37 42 47 0
258 263 268 273 288 23 28 33 38 43 48 0
259 264 269 274 294 24 29 34 39 44 49 0
260 265 270 275 300 25 30 35 40 45 50 0
256 261 266 271 301 21 26 31 36 41 46 0
259 264 269 274 309 24 29 34 39 44 49 0
257 262 267 272 312 22 27 32 37 42 47 0
260 265 270 275 320 25 30 35 40 45 50 0
258 263 268 273 323 23 28 33 38 43 48 0
256 261 266 271 326 21 26 31 36 41 46 0
258 263 268 273 333 23 28 33 38 43 48 0
260 265 270 275 340 25 30 35 40 45 50 0
257 262 267 272 342 22 27 32 37 42 47 0
259 264 269 274 349 24 29 34 39 44 49 0
256 261 266 271 351 21 26 31 36 41 46 0
260 265 270 275 360 25 30 35 40 45 50 0
259 264 269 274 364 24 29 34 39 44 49 0
258 263 268 273 368 23 28 33 38 43 48 0
257 262 267 272 372 22 27 32 37 42 47 0
257 262 267 277 282 22 27 37 52 0
256 261 266 276 296 21 26 36 66 0
257 262 267 277 312 22 27 37 0
256 261 266 276 321 21 26 36 0
257 262 267 277 342 22 27 37 0
256 261 266 276 346 21 26 36 0
256 261 266 276 371 21 26 36 0
257 262 267 277 372 22 27 37 0
258 263 268 283 288 23 28 38 73 0
257 262 267 282 307 22 27 37 0
258 263 268 283 323 23 28 38 0
258 263 268 283 333 23 28 38 0
257 262 267 282 337 22 27 37 0
257 262 267 282 367 22 27 37 0
258 263 268 283 368 23 28 38 0
259 264 269 289 294 24 29 39 89 0
259 264 269 289 309 24 29 39 0
258 263 268 288 318 23 28 38 0
258 263 268 288 328 23 28 38 0
259 264 269 289 349 24 29 39 0
258 263 268 288 363 23 28 38 0
259 264 269 289 364 24 29 39 0
260 265 270 295 300 25 30 40 100 0
259 264 269 294 304 24 29 39 0
260 265 270 295 320 25 30 40 0
260 265 270 295 340 25 30 40 0
259 264 269 294 344 24 29 39 0
259 264 269 294 359 24 29 39 0
260 265 270 295 360 25 30 40 0
256 261 266 296 301 21 26 36 0
260 265 270 300 315 25 30 40 0
256 261 266 296 326 21 26 36 0
260 265 270 300 335 25 30 40 0
256 261 266 296 351 21 26 36 0
260 265 270 300 355 25 30 40 0
259 264 269 304 309 24 29 39 104 0
256 261 266 301 321 21 26 36 116 0
256 261 266 301 346 21 26 36 0
259 264 269 304 349 24 29 39 0
259 264 269 304 364 24 29 39 0
256 261 266 301 371 21 26 36 0
257 262 267 307 312 22 27 37 122 0
257 262 267 307 342 22 27 37 0
259 264 269 309 344 24 29 39 0
259 264 269 309 359 24 29 39 0
257 262 267 307 372 22 27 37 0
260 265 270 315 320 25 30 40 140 0
257 262 267 312 337 22 27 37 0
260 265 270 315 340 25 30 40 0
260 265 270 315 360 25 30 40 0
257 262 267 312 367 22 27 37 0
258 263 268 318 323 23 28 38 148 0
258 263 268 318 333 23 28 38 0
260 265 270 320 335 25 30 40 0
260 265 270 320 355 25 30 40 0
258 263 268 318 368 23 28 38 0
256 261 266 321 326 21 26 36 0
258 263 268 323 328 23 28 38 0
256 261 266 321 351 21 26 36 0
258 263 268 323 363 23 28 38 0
258 263 268 328 333 23 28 38 153 0
256 261 266 326 346 21 26 36 166 0
258 263 268 328 368 23 28 38 0
256 261 266 326 371 21 26 36 0
260 265 270 335 340 25 30 40 175 0
260 265 270 335 360 25 30 40 0
258 263 268 333 363 23 28 38 0
257 262 267 337 342 22 27 37 187 0
260 265 270 340 355 25 30 40 0
257 262 267 337 372 22 27 37 0
259 264 269 344 349 24 29 39 199 0
259 264 269 344 364 24 29 39 0
257 262 267 342 367 22 27 37 0
256 261 266 346 351 21 26 36 0
259 264 269 349 359 24 29 39 0
260 265 270 355 360 25 30 40 205 0
256 261 266 351 371 21 26 36 216 0
259 264 269 359 364 24 29 39 224 0
258 263 268 363 368 23 28 38 238 0
257 262 267 367 372 22 27 37 247 0
258 263 273 278 288 23 33 43 58 0
256 261 271 276 291 21 31 41 61 0
256 261 271 276 316 21 31 41 0
258 263 273 278 323 23 33 43 0
258 263 273 278 333 23 33 43 0
256 261 271 276 341 21 31 41 0
256 261 271 276 366 21 31 41 0
258 263 273 278 368 23 33 43 0
259 264 274 284 294 24 34 44 79 0
257 262 272 282 297 22 32 42 82 0
257 262 272 282 302 22 32 42 0
259 264 274 284 309 24 34 44 0
257 262 272 282 332 22 32 42 0
259 264 274 284 349 24 34 44 0
257 262 272 282 362 22 32 42 0
259 264 274 284 364 24 34 44 0
260 265 275 290 300 25 35 45 95 0
258 263 273 288 313 23 33 43 0
260 265 275 290 320 25 35 45 0
260 265 275 290 340 25 35 45 0
258 263 273 288 348 23 33 43 0
258 263 273 288 358 23 33 43 0
260 265 275 290 360 25 35 45 0
256 261 271 291 301 21 31 41 0
259 264 274 294 324 24 34 44 0
256 261 271 291 326 21 31 41 0
259 264 274 294 339 24 34 44 0
256 261 271 291 351 21 31 41 0
259 264 274 294 354 24 34 44 0
260 265 275 300 310 25 35 45 0
257 262 272 297 312 22 32 42 0
260 265 275 300 330 25 35 45 0
257 262 272 297 342 22 32 42 0
257 262 272 297 372 22 32 42 0
260 265 275 300 375 25 35 45 0
257 262 272 302 312 22 32 42 107 0
256 261 271 301 316 21 31 41 111 0
256 261 271 301 341 21 31 41 0
257 262 272 302 342 22 32 42 0
256 261 271 301 366 21 31 41 0
257 262 272 302 372 22 32 42 0
260 265 275 310 320 25 35 45 130 0
259 264 274 309 324 24 34 44 134 0
259 264 274 309 339 24 34 44 0
260 265 275 310 340 25 35 45 0
259 264 274 309 354 24 34 44 0
260 265 275 310 360 25 35 45 0
258 263 273 313 323 23 33 43 143 0
257 262 272 312 332 22 32 42 0
258 263 273 313 333 23 33 43 0
257 262 272 312 362 22 32 42 0
258 263 273 313 368 23 33 43 0
256 261 271 316 326 21 31 41 0
260 265 275 320 330 25 35 45 0
256 261 271 316 351 21 31 41 0
260 265 275 320 375 25 35 45 0
258 263 273 323 348 23 33 43 0
259 264 274 324 349 24 34 44 0
258 263 273 323 358 23 33 43 0
259 264 274 324 364 24 34 44 0
260 265 275 330 340 25 35 45 160 0
256 261 271 326 341 21 31 41 161 0
260 265 275 330 360 25 35 45 0
256 261 271 326 366 21 31 41 0
257 262 272 332 342 22 32 42 177 0
258 263 273 333 348 23 33 43 183 0
258 263 273 333 358 23 33 43 0
257 262 272 332 372 22 32 42 0
259 264 274 339 349 24 34 44 194 0
259 264 274 339 364 24 34 44 0
260 265 275 340 375 25 35 45 0
256 261 271 341 351 21 31 41 0
257 262 272 342 362 22 32 42 0
259 264 274 349 354 24 34 44 0
258 263 273 348 368 23 33 43 0
259 264 274 354 364 24 34 44 209 0
256 261 271 351 366 21 31 41 211 0
258 263 273 358 368 23 33 43 228 0
260 265 275 360 375 25 35 45 235 0
257 262 272 362 372 22 32 42 242 0
258 263 278 283 288 23 53 58 73 0
257 262 277 282 297 22 52 67 82 0
257 262 277 282 302 22 52 0
258 263 278 283 323 23 53 0
257 262 277 282 332 22 52 0
258 263 278 283 333 23 53 0
257 262 277 282 362 22 52 0
258 263 278 283 368 23 53 0
258 263 278 288 318 23 58 0
258 263 278 288 328 23 58 0
258 263 278 288 363 23 58 0
256 261 276 291 296 21 61 66 96 0
256 261 276 291 321 21 61 0
256 261 276 291 346 21 61 0
256 261 276 291 371 21 61 0
257 262 277 297 312 22 67 0
256 261 276 296 316 21 66 0
256 261 276 296 341 21 66 0
257 262 277 297 342 22 67 0
256 261 276 296 366 21 66 0
257 262 277 297 372 22 67 0
257 262 277 302 312 22 107 0
257 262 277 302 342 22 0
257 262 277 302 372 22 0
257 262 277 312 332 22 0
257 262 277 312 362 22 0
256 261 276 316 321 21 146 0
258 263 278 318 323 23 148 0
258 263 278 318 333 23 0
256 261 276 316 346 21 0
258 263 278 318 368 23 0
256 261 276 316 371 21 0
258 263 278 323 328 23 0
256 261 276 321 341 21 0
258 263 278 323 363 23 0
256 261 276 321 366 21 0
258 263 278 328 333 23 153 0
258 263 278 328 368 23 0
257 262 277 332 342 22 177 0
258 263 278 333 363 23 0
257 262 277 332 372 22 0
256 261 276 341 346 21 196 0
257 262 277 342 362 22 0
256 261 276 341 371 21 0
256 261 276 346 366 21 0
258 263 278 363 368 23 238 0
257 262 277 362 372 22 242 0
256 261 276 366 371 21 246 0
259 264 284 289 294 24 74 79 89 0
259 264 284 289 309 24 74 0
258 263 283 288 313 23 73 0
258 263 283 288 348 23 73 0
259 264 284 289 349 24 74 0
258 263 283 288 358 23 73 0
259 264 284 289 364 24 74 0
259 264 284 294 304 24 79 0
259 264 284 294 344 24 79 0
259 264 284 294 359 24 79 0
257 262 282 297 307 22 82 0
257 262 282 297 337 22 82 0
257 262 282 297 367 22 82 0
257 262 282 302 307 22 102 0
259 264 284 304 309 24 104 0
257 262 282 302 337 22 0
259 264 284 304 349 24 0
259 264 284 304 364 24 0
257 262 282 302 367 22 0
257 262 282 307 332 22 0
259 264 284 309 344 24 0
259 264 284 309 359 24 0
257 262 282 307 362 22 0
258 263 283 313 323 23 143 0
258 263 283 313 333 23 0
258 263 283 313 368 23 0
258 263 283 323 348 23 0
258 263 283 323 358 23 0
257 262 282 332 337 22 172 0
258 263 283 333 348 23 183 0
258 263 283 333 358 23 0
257 262 282 332 367 22 0
257 262 282 337 362 22 0
259 264 284 344 349 24 199 0
259 264 284 344 364 24 0
259 264 284 349 359 24 0
258 263 283 348 368 23 0
259 264 284 359 364 24 224 0
258 263 283 358 368 23 228 0
257 262 282 362 367 22 237 0
260 265 290 295 300 25 90 95 100 0
260 265 290 295 320 25 90 0
259 264 289 294 324 24 89 0
259 264 289 294 339 24 89 0
260 265 290 295 340 25 90 0
259 264 289 294 354 24 89 0
260 265 290 295 360 25 90 0
260 265 290 300 315 25 95 0
260 265 290 300 335 25 95 0
260 265 290 300 355 25 95 0
259 264 289 309 324 24 134 0
259 264 289 309 339 24 0
259 264 289 309 354 24 0
258 263 288 313 318 23 138 0
260 265 290 315 320 25 140 0
258 263 288 313 328 23 0
260 265 290 315 340 25 0
260 265 290 315 360 25 0
258 263 288 313 363 23 0
260 265 290 320 335 25 0
258 263 288 318 348 23 0
260 265 290 320 355 25 0
258 263 288 318 358 23 0
259 264 289 324 349 24 0
259 264 289 324 364 24 0
258 263 288 328 348 23 168 0
258 263 288 328 358 23 0
260 265 290 335 340 25 175 0
260 265 290 335 360 25 0
259 264 289 339 349 24 194 0
260 265 290 340 355 25 0
259 264 289 339 364 24 0
259 264 289 349 354 24 0
258 263 288 348 363 23 0
260 265 290 355 360 25 205 0
259 264 289 354 364 24 209 0
258 263 288 358 363 23 223 0
256 261 291 296 301 21 96 0
260 265 295 300 310 25 100 0
256 261 291 296 326 21 96 0
260 265 295 300 330 25 100 0
256 261 291 296 351 21 96 0
260 265 295 300 375 25 100 0
256 261 291 301 321 21 116 0
259 264 294 304 324 24 119 0
259 264 294 304 339 24 0
256 261 291 301 346 21 0
259 264 294 304 354 24 0
256 261 291 301 371 21 0
260 265 295 310 320 25 130 0
260 265 295 310 340 25 0
260 265 295 310 360 25 0
260 265 295 320 330 25 0
260 265 295 320 375 25 0
256 261 291 321 326 21 0
259 264 294 324 344 24 0
256 261 291 321 351 21 0
259 264 294 324 359 24 0
260 265 295 330 340 25 160 0
256 261 291 326 346 21 166 0
260 265 295 330 360 25 0
256 261 291 326 371 21 0
259 264 294 339 344 24 189 0
259 264 294 339 359 24 0
260 265 295 340 375 25 0
259 264 294 344 354 24 0
256 261 291 346 351 21 0
259 264 294 354 359 24 204 0
256 261 291 351 371 21 216 0
260 265 295 360 375 25 235 0
256 261 296 301 316 21 111 0
256 261 296 301 341 21 0
256 261 296 301 366 21 0
257 262 297 307 312 22 122 0
260 265 300 310 315 25 125 0
260 265 300 310 335 25 0
257 262 297 307 342 22 0
260 265 300 310 355 25 0
257 262 297 307 372 22 0
260 265 300 315 330 25 0
257 262 297 312 337 22 0
257 262 297 312 367 22 0
260 265 300 315 375 25 0
256 261 296 316 326 21 0
256 261 296 316 351 21 0
260 265 300 330 335 25 155 0
256 261 296 326 341 21 161 0
260 265 300 330 355 25 0
256 261 296 326 366 21 0
260 265 300 335 375 25 0
257 262 297 337 342 22 187 0
257 262 297 337 372 22 0
256 261 296 341 351 21 0
257 262 297 342 367 22 0
256 261 296 351 366 21 211 0
260 265 300 355 375 25 220 0
257 262 297 367 372 22 247 0
257 262 302 307 312 22 102 107 122 0
259 264 304 309 324 24 104 119 134 0
259 264 304 309 339 24 104 0
257 262 302 307 342 22 102 0
259 264 304 309 354 24 104 0
257 262 302 307 372 22 102 0
257 262 302 312 337 22 107 0
257 262 302 312 367 22 107 0
256 261 301 316 321 21 111 116 146 0
256 261 301 316 346 21 111 0
256 261 301 316 371 21 111 0
256 261 301 321 341 21 116 0
259 264 304 324 349 24 119 0
259 264 304 324 364 24 119 0
256 261 301 321 366 21 116 0
257 262 302 337 342 22 187 0
259 264 304 339 349 24 194 0
259 264 304 339 364 24 0
257 262 302 337 372 22 0
256 261 301 341 346 21 196 0
257 262 302 342 367 22 0
256 261 301 341 371 21 0
259 264 304 349 354 24 0
256 261 301 346 366 21 0
259 264 304 354 364 24 209 0
256 261 301 366 371 21 246 0
257 262 302 367 372 22 247 0
260 265 310 315 320 25 125 130 140 0
257 262 307 312 332 22 122 0
260 265 310 315 340 25 125 0
260 265 310 315 360 25 125 0
257 262 307 312 362 22 122 0
260 265 310 320 335 25 130 0
260 265 310 320 355 25 130 0
259 264 309 324 344 24 134 0
259 264 309 324 359 24 134 0
260 265 310 335 340 25 175 0
257 262 307 332 342 22 177 0
260 265 310 335 360 25 0
257 262 307 332 372 22 0
259 264 309 339 344 24 189 0
260 265 310 340 355 25 0
259 264 309 339 359 24 0
259 264 309 344 354 24 0
257 262 307 342 362 22 0
259 264 309 354 359 24 204 0
260 265 310 355 360 25 205 0
257 262 307 362 372 22 242 0
258 263 313 318 323 23 138 143 148 0
260 265 315 320 330 25 140 0
258 263 313 318 333 23 138 0
258 263 313 318 368 23 138 0
260 265 315 320 375 25 140 0
258 263 313 323 328 23 143 0
258 263 313 323 363 23 143 0
258 263 313 328 333 23 153 0
260 265 315 330 340 25 160 0
260 265 315 330 360 25 0
258 263 313 328 368 23 0
257 262 312 332 337 22 172 0
258 263 313 333 363 23 0
257 262 312 332 367 22 0
257 262 312 337 362 22 0
260 265 315 340 375 25 0
260 265 315 360 375 25 235 0
257 262 312 362 367 22 237 0
258 263 313 363 368 23 238 0
256 261 316 321 326 21 146 0
258 263 318 323 348 23 148 0
256 261 316 321 351 21 146 0
258 263 318 323 358 23 148 0
260 265 320 330 335 25 155 0
256 261 316 326 346 21 166 0
260 265 320 330 355 25 0
256 261 316 326 371 21 0
258 263 318 333 348 23 183 0
258 263 318 333 358 23 0
260 265 320 335 375 25 0
256 261 316 346 351 21 0
258 263 318 348 368 23 0
256 261 316 351 371 21 216 0
260 265 320 355 375 25 220 0
258 263 318 358 368 23 228 0
256 261 321 326 341 21 161 0
258 263 323 328 348 23 168 0
258 263 323 328 358 23 0
256 261 321 326 366 21 0
259 264 324 344 349 24 199 0
256 261 321 341 351 21 0
259 264 324 344 364 24 0
259 264 324 349 359 24 0
258 263 323 348 363 23 0
256 261 321 351 366 21 211 0
258 263 323 358 363 23 223 0
259 264 324 359 364 24 224 0
260 265 330 335 340 25 155 160 175 0
258 263 328 333 348 23 153 168 183 0
258 263 328 333 358 23 153 0
260 265 330 335 360 25 155 0
260 265 330 340 355 25 160 0
256 261 326 341 346 21 161 166 196 0
256 261 326 341 371 21 161 0
256 261 326 346 366 21 166 0
258 263 328 348 368 23 168 0
260 265 330 355 360 25 205 0
258 263 328 358 368 23 228 0
256 261 326 366 371 21 246 0
257 262 332 337 342 22 172 177 187 0
257 262 332 337 372 22 172 0
260 265 335 340 375 25 175 0
257 262 332 342 367 22 177 0
258 263 333 348 363 23 183 0
258 263 333 358 363 23 223 0
260 265 335 360 375 25 235 0
257 262 332 367 372 22 247 0
259 264 339 344 349 24 189 194 199 0
257 262 337 342 362 22 187 0
259 264 339 344 364 24 189 0
259 264 339 349 359 24 194 0
260 265 340 355 375 25 220 0
259 264 339 359 364 24 224 0
257 262 337 362 372 22 242 0
256 261 341 346 351 21 196 0
259 264 344 349 354 24 199 0
259 264 344 354 364 24 209 0
256 261 341 351 371 21 216 0
257 262 342 362 367 22 237 0
259 264 349 354 359 24 204 0
256 261 346 351 366 21 211 0
258 263 348 363 368 23 238 0
259 264 354 359 364 24 204 209 224 0
260 265 355 360 375 25 205 220 235 0
256 261 351 366 371 21 211 216 246 0
258 263 358 363 368 23 223 228 238 0
257 262 362 367 372 22 237 242 247 0
256 266 271 276 286 26 31 46 56 0
259 269 274 279 294 29 34 49 64 0
259 269 274 279 309 29 34 49 0
256 266 271 276 311 26 31 46 0
256 266 271 276 336 26 31 46 0
259 269 274 279 349 29 34 49 0
256 266 271 276 361 26 31 46 0
259 269 274 279 364 29 34 49 0
257 267 272 282 292 27 32 47 77 0
260 270 275 285 300 30 35 50 85 0
260 270 275 285 320 30 35 50 0
257 267 272 282 322 27 32 47 0
257 267 272 282 327 27 32 47 0
260 270 275 285 340 30 35 50 0
257 267 272 282 357 27 32 47 0
260 270 275 285 360 30 35 50 0
258 268 273 288 298 28 33 48 93 0
256 266 271 286 301 26 31 46 0
258 268 273 288 308 28 33 48 0
256 266 271 286 326 26 31 46 0
258 268 273 288 343 28 33 48 0
256 266 271 286 351 26 31 46 0
258 268 273 288 353 28 33 48 0
257 267 272 292 312 27 32 47 0
259 269 274 294 319 29 34 49 0
259 269 274 294 334 29 34 49 0
257 267 272 292 342 27 32 47 0
257 267 272 292 372 27 32 47 0
259 269 274 294 374 29 34 49 0
260 270 275 300 305 30 35 50 0
258 268 273 298 323 28 33 48 0
258 268 273 298 333 28 33 48 0
260 270 275 300 350 30 35 50 0
258 268 273 298 368 28 33 48 0
260 270 275 300 370 30 35 50 0
256 266 271 301 311 26 31 46 106 0
260 270 275 305 320 30 35 50 115 0
256 266 271 301 336 26 31 46 0
260 270 275 305 340 30 35 50 0
260 270 275 305 360 30 35 50 0
256 266 271 301 361 26 31 46 0
259 269 274 309 319 29 34 49 129 0
258 268 273 308 323 28 33 48 133 0
258 268 273 308 333 28 33 48 0
259 269 274 309 334 29 34 49 0
258 268 273 308 368 28 33 48 0
259 269 274 309 374 29 34 49 0
257 267 272 312 322 27 32 47 142 0
256 266 271 311 326 26 31 46 0
257 267 272 312 327 27 32 47 0
256 266 271 311 351 26 31 46 0
257 267 272 312 357 27 32 47 0
259 269 274 319 349 29 34 49 0
260 270 275 320 350 30 35 50 0
259 269 274 319 364 29 34 49 0
260 270 275 320 370 30 35 50 0
257 267 272 322 342 27 32 47 0
258 268 273 323 343 28 33 48 0
258 268 273 323 353 28 33 48 0
257 267 272 322 372 27 32 47 0
256 266 271 326 336 26 31 46 156 0
257 267 272 327 342 27 32 47 162 0
256 266 271 326 361 26 31 46 0
257 267 272 327 372 27 32 47 0
258 268 273 333 343 28 33 48 178 0
259 269 274 334 349 29 34 49 184 0
258 268 273 333 353 28 33 48 0
259 269 274 334 364 29 34 49 0
260 270 275 340 350 30 35 50 195 0
256 266 271 336 351 26 31 46 0
260 270 275 340 370 30 35 50 0
257 267 272 342 357 27 32 47 0
258 268 273 343 368 28 33 48 0
260 270 275 350 360 30 35 50 0
259 269 274 349 374 29 34 49 0
256 266 271 351 361 26 31 46 206 0
258 268 273 353 368 28 33 48 213 0
260 270 275 360 370 30 35 50 230 0
257 267 272 357 372 27 32 47 232 0
259 269 274 364 374 29 34 49 244 0
257 267 277 282 292 27 52 62 77 0
257 267 277 282 322 27 52 0
257 267 277 282 327 27 52 0
257 267 277 282 357 27 52 0
259 269 279 289 294 29 59 64 89 0
256 266 276 286 296 26 56 66 91 0
259 269 279 289 309 29 59 0
256 266 276 286 321 26 56 0
256 266 276 286 346 26 56 0
259 269 279 289 349 29 59 0
259 269 279 289 364 29 59 0
256 266 276 286 371 26 56 0
259 269 279 294 304 29 64 0
257 267 277 292 312 27 62 0
257 267 277 292 342 27 62 0
259 269 279 294 344 29 64 0
259 269 279 294 359 29 64 0
257 267 277 292 372 27 62 0
256 266 276 296 311 26 66 0
256 266 276 296 336 26 66 0
256 266 276 296 361 26 66 0
259 269 279 304 309 29 104 0
259 269 279 304 349 29 0
259 269 279 304 364 29 0
259 269 279 309 344 29 0
259 269 279 309 359 29 0
256 266 276 311 321 26 141 0
257 267 277 312 322 27 142 0
257 267 277 312 327 27 0
256 266 276 311 346 26 0
257 267 277 312 357 27 0
256 266 276 311 371 26 0
256 266 276 321 336 26 0
257 267 277 322 342 27 0
256 266 276 321 361 26 0
257 267 277 322 372 27 0
257 267 277 327 342 27 162 0
257 267 277 327 372 27 0
256 266 276 336 346 26 191 0
256 266 276 336 371 26 0
259 269 279 344 349 29 199 0
257 267 277 342 357 27 0
259 269 279 344 364 29 0
259 269 279 349 359 29 0
256 266 276 346 361 26 0
259 269 279 359 364 29 224 0
257 267 277 357 372 27 232 0
256 266 276 361 371 26 241 0
258 268 283 288 298 28 73 83 93 0
258 268 283 288 308 28 73 0
258 268 283 288 343 28 73 0
258 268 283 288 353 28 73 0
260 270 285 295 300 30 80 85 100 0
257 267 282 292 307 27 77 0
260 270 285 295 320 30 80 0
257 267 282 292 337 27 77 0
260 270 285 295 340 30 80 0
260 270 285 295 360 30 80 0
257 267 282 292 367 27 77 0
260 270 285 300 315 30 85 0
258 268 283 298 323 28 83 0
258 268 283 298 333 28 83 0
260 270 285 300 335 30 85 0
260 270 285 300 355 30 85 0
258 268 283 298 368 28 83 0
257 267 282 307 322 27 132 0
258 268 283 308 323 28 133 0
257 267 282 307 327 27 0
258 268 283 308 333 28 0
257 267 282 307 357 27 0
258 268 283 308 368 28 0
260 270 285 315 320 30 140 0
260 270 285 315 340 30 0
260 270 285 315 360 30 0
260 270 285 320 335 30 0
260 270 285 320 355 30 0
257 267 282 322 337 27 0
258 268 283 323 343 28 0
258 268 283 323 353 28 0
257 267 282 322 367 27 0
257 267 282 327 337 27 157 0
257 267 282 327 367 27 0
260 270 285 335 340 30 175 0
258 268 283 333 343 28 178 0
258 268 283 333 353 28 0
260 270 285 335 360 30 0
260 270 285 340 355 30 0
257 267 282 337 357 27 0
258 268 283 343 368 28 0
260 270 285 355 360 30 205 0
258 268 283 353 368 28 213 0
257 267 282 357 367 27 227 0
259 269 289 294 319 29 89 0
259 269 289 294 334 29 89 0
259 269 289 294 374 29 89 0
256 266 286 296 301 26 91 0
258 268 288 298 318 28 93 0
256 266 286 296 326 26 91 0
258 268 288 298 328 28 93 0
256 266 286 296 351 26 91 0
258 268 288 298 363 28 93 0
256 266 286 301 321 26 116 0
256 266 286 301 346 26 0
256 266 286 301 371 26 0
258 268 288 308 318 28 128 0
259 269 289 309 319 29 129 0
258 268 288 308 328 28 0
259 269 289 309 334 29 0
258 268 288 308 363 28 0
259 269 289 309 374 29 0
258 268 288 318 343 28 0
259 269 289 319 349 29 0
258 268 288 318 353 28 0
259 269 289 319 364 29 0
256 266 286 321 326 26 0
256 266 286 321 351 26 0
258 268 288 328 343 28 163 0
256 266 286 326 346 26 166 0
258 268 288 328 353 28 0
256 266 286 326 371 26 0
259 269 289 334 349 29 184 0
259 269 289 334 364 29 0
258 268 288 343 363 28 0
256 266 286 346 351 26 0
259 269 289 349 374 29 0
258 268 288 353 363 28 208 0
256 266 286 351 371 26 216 0
259 269 289 364 374 29 244 0
260 270 295 300 305 30 100 0
260 270 295 300 350 30 100 0
260 270 295 300 370 30 100 0
259 269 294 304 319 29 114 0
260 270 295 305 320 30 115 0
259 269 294 304 334 29 0
260 270 295 305 340 30 0
260 270 295 305 360 30 0
259 269 294 304 374 29 0
257 267 292 307 312 27 122 0
257 267 292 307 342 27 0
257 267 292 307 372 27 0
257 267 292 312 337 27 0
257 267 292 312 367 27 0
259 269 294 319 344 29 0
260 270 295 320 350 30 0
259 269 294 319 359 29 0
260 270 295 320 370 30 0
259 269 294 334 344 29 179 0
259 269 294 334 359 29 0
257 267 292 337 342 27 187 0
260 270 295 340 350 30 195 0
260 270 295 340 370 30 0
257 267 292 337 372 27 0
257 267 292 342 367 27 0
259 269 294 344 374 29 0
260 270 295 350 360 30 0
260 270 295 360 370 30 230 0
259 269 294 359 374 29 234 0
257 267 292 367 372 27 247 0
256 266 296 301 311 26 106 0
260 270 300 305 315 30 110 0
260 270 300 305 335 30 0
256 266 296 301 336 26 0
260 270 300 305 355 30 0
256 266 296 301 361 26 0
256 266 296 311 326 26 0
260 270 300 315 350 30 0
256 266 296 311 351 26 0
260 270 300 315 370 30 0
258 268 298 318 323 28 148 0
258 268 298 318 333 28 0
258 268 298 318 368 28 0
258 268 298 323 328 28 0
258 268 298 323 363 28 0
258 268 298 328 333 28 153 0
256 266 296 326 336 26 156 0
256 266 296 326 361 26 0
258 268 298 328 368 28 0
260 270 300 335 350 30 185 0
258 268 298 333 363 28 0
260 270 300 335 370 30 0
256 266 296 336 351 26 0
260 270 300 350 355 30 0
256 266 296 351 361 26 206 0
260 270 300 355 370 30 215 0
258 268 298 363 368 28 238 0
259 269 304 309 319 29 104 114 129 0
259 269 304 309 334 29 104 0
259 269 304 309 374 29 104 0
260 270 305 315 320 30 110 115 140 0
256 266 301 311 321 26 106 116 141 0
260 270 305 315 340 30 110 0
256 266 301 311 346 26 106 0
260 270 305 315 360 30 110 0
256 266 301 311 371 26 106 0
260 270 305 320 335 30 115 0
259 269 304 319 349 29 114 0
260 270 305 320 355 30 115 0
259 269 304 319 364 29 114 0
256 266 301 321 336 26 116 0
256 266 301 321 361 26 116 0
260 270 305 335 340 30 175 0
259 269 304 334 349 29 184 0
260 270 305 335 360 30 0
259 269 304 334 364 29 0
256 266 301 336 346 26 191 0
260 270 305 340 355 30 0
256 266 301 336 371 26 0
256 266 301 346 361 26 0
259 269 304 349 374 29 0
260 270 305 355 360 30 205 0
256 266 301 361 371 26 241 0
259 269 304 364 374 29 244 0
257 267 307 312 322 27 122 132 142 0
257 267 307 312 327 27 122 0
257 267 307 312 357 27 122 0
258 268 308 318 323 28 128 133 148 0
258 268 308 318 333 28 128 0
259 269 309 319 344 29 129 0
259 269 309 319 359 29 129 0
258 268 308 318 368 28 128 0
258 268 308 323 328 28 133 0
257 267 307 322 342 27 132 0
258 268 308 323 363 28 133 0
257 267 307 322 372 27 132 0
258 268 308 328 333 28 153 0
257 267 307 327 342 27 162 0
258 268 308 328 368 28 0
257 267 307 327 372 27 0
259 269 309 334 344 29 179 0
259 269 309 334 359 29 0
258 268 308 333 363 28 0
257 267 307 342 357 27 0
259 269 309 344 374 29 0
257 267 307 357 372 27 232 0
259 269 309 359 374 29 234 0
258 268 308 363 368 28 238 0
260 270 315 320 350 30 140 0
260 270 315 320 370 30 140 0
256 266 311 321 326 26 141 0
257 267 312 322 337 27 142 0
256 266 311 321 351 26 141 0
257 267 312 322 367 27 142 0
257 267 312 327 337 27 157 0
256 266 311 326 346 26 166 0
257 267 312 327 367 27 0
256 266 311 326 371 26 0
260 270 315 340 350 30 195 0
257 267 312 337 357 27 0
260 270 315 340 370 30 0
256 266 311 346 351 26 0
260 270 315 350 360 30 0
256 266 311 351 371 26 216 0
257 267 312 357 367 27 227 0
260 270 315 360 370 30 230 0
258 268 318 323 343 28 148 0
258 268 318 323 353 28 148 0
258 268 318 333 343 28 178 0
260 270 320 335 350 30 185 0
258 268 318 333 353 28 0
260 270 320 335 370 30 0
259 269 319 344 349 29 199 0
259 269 319 344 364 29 0
258 268 318 343 368 28 0
260 270 320 350 355 30 0
259 269 319 349 359 29 0
258 268 318 353 368 28 213 0
260 270 320 355 370 30 215 0
259 269 319 359 364 29 224 0
256 266 321 326 336 26 156 0
258 268 323 328 343 28 163 0
258 268 323 328 353 28 0
256 266 321 326 361 26 0
257 267 322 337 342 27 187 0
256 266 321 336 351 26 0
257 267 322 337 372 27 0
258 268 323 343 363 28 0
257 267 322 342 367 27 0
256 266 321 351 361 26 206 0
258 268 323 353 363 28 208 0
257 267 322 367 372 27 247 0
258 268 328 333 343 28 153 163 178 0
258 268 328 333 353 28 153 0
257 267 327 337 342 27 157 162 187 0
256 266 326 336 346 26 156 166 191 0
256 266 326 336 371 26 156 0
257 267 327 337 372 27 157 0
257 267 327 342 367 27 162 0
258 268 328 343 368 28 163 0
256 266 326 346 361 26 166 0
258 268 328 353 368 28 213 0
256 266 326 361 371 26 241 0
257 267 327 367 372 27 247 0
260 270 335 340 350 30 175 185 195 0
260 270 335 340 370 30 175 0
259 269 334 344 349 29 179 184 199 0
258 268 333 343 363 28 178 0
259 269 334 344 364 29 179 0
259 269 334 349 359 29 184 0
260 270 335 350 360 30 185 0
258 268 333 353 363 28 208 0
259 269 334 359 364 29 224 0
260 270 335 360 370 30 230 0
257 267 337 342 357 27 187 0
256 266 336 346 351 26 191 0
260 270 340 350 355 30 195 0
260 270 340 355 370 30 215 0
256 266 336 351 371 26 216 0
257 267 337 357 372 27 232 0
259 269 344 349 374 29 199 0
257 267 342 357 367 27 227 0
258 268 343 363 368 28 238 0
259 269 344 364 374 29 244 0
260 270 350 355 360 30 205 0
256 266 346 351 361 26 206 0
259 269 349 359 374 29 234 0
260 270 355 360 370 30 205 215 230 0
258 268 353 363 368 28 208 213 238 0
256 266 351 361 371 26 206 216 241 0
259 269 359 364 374 29 224 234 244 0
257 267 357 367 372 27 227 232 247 0
259 274 279 284 294 34 54 64 79 0
259 274 279 284 309 34 54 0
259 274 279 284 349 34 54 0
259 274 279 284 364 34 54 0
256 271 276 286 291 31 56 61 86 0
258 273 278 288 298 33 58 68 93 0
258 273 278 288 308 33 58 0
256 271 276 286 316 31 56 0
256 271 276 286 341 31 56 0
258 273 278 288 343 33 58 0
258 273 278 288 353 33 58 0
256 271 276 286 366 31 56 0
256 271 276 291 311 31 61 0
259 274 279 294 324 34 64 0
256 271 276 291 336 31 61 0
259 274 279 294 339 34 64 0
259 274 279 294 354 34 64 0
256 271 276 291 361 31 61 0
258 273 278 298 323 33 68 0
258 273 278 298 333 33 68 0
258 273 278 298 368 33 68 0
258 273 278 308 323 33 133 0
259 274 279 309 324 34 134 0
258 273 278 308 333 33 0
259 274 279 309 339 34 0
259 274 279 309 354 34 0
258 273 278 308 368 33 0
256 271 276 311 316 31 136 0
256 271 276 311 341 31 0
256 271 276 311 366 31 0
256 271 276 316 336 31 0
256 271 276 316 361 31 0
258 273 278 323 343 33 0
259 274 279 324 349 34 0
258 273 278 323 353 33 0
259 274 279 324 364 34 0
258 273 278 333 343 33 178 0
258 273 278 333 353 33 0
256 271 276 336 341 31 186 0
259 274 279 339 349 34 194 0
259 274 279 339 364 34 0
256 271 276 336 366 31 0
256 271 276 341 361 31 0
258 273 278 343 368 33 0
259 274 279 349 354 34 0
259 274 279 354 364 34 209 0
258 273 278 353 368 33 213 0
256 271 276 361 366 31 236 0
260 275 285 290 300 35 75 85 95 0
260 275 285 290 320 35 75 0
260 275 285 290 340 35 75 0
260 275 285 290 360 35 75 0
257 272 282 292 297 32 77 82 97 0
257 272 282 292 302 32 77 0
259 274 284 294 319 34 79 0
257 272 282 292 332 32 77 0
259 274 284 294 334 34 79 0
257 272 282 292 362 32 77 0
259 274 284 294 374 34 79 0
260 275 285 300 310 35 85 0
257 272 282 297 322 32 82 0
257 272 282 297 327 32 82 0
260 275 285 300 330 35 85 0
257 272 282 297 357 32 82 0
260 275 285 300 375 35 85 0
257 272 282 302 322 32 117 0
257 272 282 302 327 32 0
257 272 282 302 357 32 0
259 274 284 309 319 34 129 0
260 275 285 310 320 35 130 0
259 274 284 309 334 34 0
260 275 285 310 340 35 0
260 275 285 310 360 35 0
259 274 284 309 374 34 0
260 275 285 320 330 35 0
259 274 284 319 349 34 0
259 274 284 319 364 34 0
260 275 285 320 375 35 0
257 272 282 322 332 32 0
257 272 282 322 362 32 0
257 272 282 327 332 32 152 0
260 275 285 330 340 35 160 0
260 275 285 330 360 35 0
257 272 282 327 362 32 0
259 274 284 334 349 34 184 0
257 272 282 332 357 32 0
259 274 284 334 364 34 0
260 275 285 340 375 35 0
259 274 284 349 374 34 0
257 272 282 357 362 32 222 0
260 275 285 360 375 35 235 0
259 274 284 364 374 34 244 0
256 271 286 291 301 31 86 0
256 271 286 291 326 31 86 0
256 271 286 291 351 31 86 0
260 275 290 300 305 35 95 0
258 273 288 298 313 33 93 0
258 273 288 298 348 33 93 0
260 275 290 300 350 35 95 0
258 273 288 298 358 33 93 0
260 275 290 300 370 35 95 0
256 271 286 301 316 31 111 0
260 275 290 305 320 35 115 0
260 275 290 305 340 35 0
256 271 286 301 341 31 0
260 275 290 305 360 35 0
256 271 286 301 366 31 0
258 273 288 308 313 33 123 0
258 273 288 308 348 33 0
258 273 288 308 358 33 0
258 273 288 313 343 33 0
258 273 288 313 353 33 0
256 271 286 316 326 31 0
260 275 290 320 350 35 0
256 271 286 316 351 31 0
260 275 290 320 370 35 0
256 271 286 326 341 31 161 0
256 271 286 326 366 31 0
260 275 290 340 350 35 195 0
260 275 290 340 370 35 0
258 273 288 343 348 33 198 0
256 271 286 341 351 31 0
258 273 288 343 358 33 0
258 273 288 348 353 33 0
260 275 290 350 360 35 0
258 273 288 353 358 33 203 0
256 271 286 351 366 31 211 0
260 275 290 360 370 35 230 0
257 272 292 297 312 32 97 0
257 272 292 297 342 32 97 0
257 272 292 297 372 32 97 0
256 271 291 301 311 31 106 0
257 272 292 302 312 32 107 0
256 271 291 301 336 31 0
257 272 292 302 342 32 0
256 271 291 301 361 31 0
257 272 292 302 372 32 0
256 271 291 311 326 31 0
257 272 292 312 332 32 0
256 271 291 311 351 31 0
257 272 292 312 362 32 0
259 274 294 319 324 34 149 0
259 274 294 319 339 34 0
259 274 294 319 354 34 0
259 274 294 324 334 34 0
259 274 294 324 374 34 0
256 271 291 326 336 31 156 0
256 271 291 326 361 31 0
259 274 294 334 339 34 174 0
257 272 292 332 342 32 177 0
259 274 294 334 354 34 0
257 272 292 332 372 32 0
256 271 291 336 351 31 0
259 274 294 339 374 34 0
257 272 292 342 362 32 0
256 271 291 351 361 31 206 0
259 274 294 354 374 34 219 0
257 272 292 362 372 32 242 0
260 275 300 305 310 35 105 0
260 275 300 305 330 35 0
260 275 300 305 375 35 0
260 275 300 310 350 35 0
260 275 300 310 370 35 0
257 272 297 312 322 32 142 0
258 273 298 313 323 33 143 0
257 272 297 312 327 32 0
258 273 298 313 333 33 0
257 272 297 312 357 32 0
258 273 298 313 368 33 0
257 272 297 322 342 32 0
258 273 298 323 348 33 0
258 273 298 323 358 33 0
257 272 297 322 372 32 0
257 272 297 327 342 32 162 0
260 275 300 330 350 35 170 0
260 275 300 330 370 35 0
257 272 297 327 372 32 0
258 273 298 333 348 33 183 0
258 273 298 333 358 33 0
257 272 297 342 357 32 0
258 273 298 348 368 33 0
260 275 300 350 375 35 0
258 273 298 358 368 33 228 0
257 272 297 357 372 32 232 0
260 275 300 370 375 35 250 0
260 275 305 310 320 35 105 115 130 0
260 275 305 310 340 35 105 0
260 275 305 310 360 35 105 0
256 271 301 311 316 31 106 111 136 0
257 272 302 312 322 32 107 117 142 0
257 272 302 312 327 32 107 0
256 271 301 311 341 31 106 0
257 272 302 312 357 32 107 0
256 271 301 311 366 31 106 0
260 275 305 320 330 35 115 0
256 271 301 316 336 31 111 0
256 271 301 316 361 31 111 0
260 275 305 320 375 35 115 0
257 272 302 322 342 32 117 0
257 272 302 322 372 32 117 0
260 275 305 330 340 35 160 0
257 272 302 327 342 32 162 0
260 275 305 330 360 35 0
257 272 302 327 372 32 0
256 271 301 336 341 31 186 0
256 271 301 336 366 31 0
260 275 305 340 375 35 0
257 272 302 342 357 32 0
256 271 301 341 361 31 0
257 272 302 357 372 32 232 0
260 275 305 360 375 35 235 0
256 271 301 361 366 31 236 0
258 273 308 313 323 33 123 133 143 0
258 273 308 313 333 33 123 0
258 273 308 313 368 33 123 0
259 274 309 319 324 34 129 134 149 0
259 274 309 319 339 34 129 0
260 275 310 320 350 35 130 0
259 274 309 319 354 34 129 0
260 275 310 320 370 35 130 0
259 274 309 324 334 34 134 0
258 273 308 323 348 33 133 0
258 273 308 323 358 33 133 0
259 274 309 324 374 34 134 0
259 274 309 334 339 34 174 0
258 273 308 333 348 33 183 0
259 274 309 334 354 34 0
258 273 308 333 358 33 0
260 275 310 340 350 35 195 0
260 275 310 340 370 35 0
259 274 309 339 374 34 0
260 275 310 350 360 35 0
258 273 308 348 368 33 0
259 274 309 354 374 34 219 0
258 273 308 358 368 33 228 0
260 275 310 360 370 35 230 0
256 271 311 316 326 31 136 0
256 271 311 316 351 31 136 0
257 272 312 322 332 32 142 0
258 273 313 323 343 33 143 0
258 273 313 323 353 33 143 0
257 272 312 322 362 32 142 0
257 272 312 327 332 32 152 0
256 271 311 326 341 31 161 0
257 272 312 327 362 32 0
256 271 311 326 366 31 0
258 273 313 333 343 33 178 0
258 273 313 333 353 33 0
257 272 312 332 357 32 0
256 271 311 341 351 31 0
258 273 313 343 368 33 0
256 271 311 351 366 31 211 0
258 273 313 353 368 33 213 0
257 272 312 357 362 32 222 0
259 274 319 324 349 34 149 0
259 274 319 324 364 34 149 0
256 271 316 326 336 31 156 0
260 275 320 330 350 35 170 0
256 271 316 326 361 31 0
260 275 320 330 370 35 0
259 274 319 339 349 34 194 0
256 271 316 336 351 31 0
259 274 319 339 364 34 0
259 274 319 349 354 34 0
260 275 320 350 375 35 0
256 271 316 351 361 31 206 0
259 274 319 354 364 34 209 0
260 275 320 370 375 35 250 0
257 272 322 332 342 32 177 0
259 274 324 334 349 34 184 0
259 274 324 334 364 34 0
257 272 322 332 372 32 0
258 273 323 343 348 33 198 0
258 273 323 343 358 33 0
257 272 322 342 362 32 0
258 273 323 348 353 33 0
259 274 324 349 374 34 0
258 273 323 353 358 33 203 0
257 272 322 362 372 32 242 0
259 274 324 364 374 34 244 0
257 272 327 332 342 32 152 162 177 0
257 272 327 332 372 32 152 0
256 271 326 336 341 31 156 161 186 0
260 275 330 340 350 35 160 170 195 0
256 271 326 336 366 31 156 0
260 275 330 340 370 35 160 0
256 271 326 341 361 31 161 0
257 272 327 342 362 32 162 0
260 275 330 350 360 35 170 0
260 275 330 360 370 35 230 0
256 271 326 361 366 31 236 0
257 272 327 362 372 32 242 0
259 274 334 339 349 34 174 184 194 0
259 274 334 339 364 34 174 0
258 273 333 343 348 33 178 183 198 0
257 272 332 342 357 32 177 0
258 273 333 343 358 33 178 0
258 273 333 348 353 33 183 0
259 274 334 349 354 34 184 0
258 273 333 353 358 33 203 0
259 274 334 354 364 34 209 0
257 272 332 357 372 32 232 0
256 271 336 341 351 31 186 0
259 274 339 349 374 34 194 0
260 275 340 350 375 35 195 0
256 271 336 351 366 31 211 0
259 274 339 364 374 34 244 0
260 275 340 370 375 35 250 0
258 273 343 348 368 33 198 0
256 271 341 351 361 31 206 0
257 272 342 357 362 32 222 0
258 273 343 358 368 33 228 0
258 273 348 353 368 33 213 0
259 274 349 354 374 34 219 0
260 275 350 360 375 35 235 0
258 273 353 358 368 33 203 213 228 0
256 271 351 361 366 31 206 211 236 0
259 274 354 364 374 34 209 219 244 0
257 272 357 362 372 32 222 232 242 0
260 275 360 370 375 35 230 235 250 0
259 279 284 289 294 54 59 64 74 79 89 0
258 278 283 288 298 53 58 68 73 83 93 0
258 278 283 288 308 53 58 73 0
259 279 284 289 309 54 59 74 0
258 278 283 288 343 53 58 73 0
259 279 284 289 349 54 59 74 0
258 278 283 288 353 53 58 73 0
259 279 284 289 364 54 59 74 0
257 277 282 292 297 52 62 67 77 82 97 0
257 277 282 292 302 52 62 77 0
259 279 284 294 304 54 64 79 0
257 277 282 292 332 52 62 77 0
259 279 284 294 344 54 64 79 0
259 279 284 294 359 54 64 79 0
257 277 282 292 362 52 62 77 0
257 277 282 297 322 52 67 82 0
258 278 283 298 323 53 68 83 0
257 277 282 297 327 52 67 82 0
258 278 283 298 333 53 68 83 0
257 277 282 297 357 52 67 82 0
258 278 283 298 368 53 68 83 0
259 279 284 304 309 54 104 0
257 277 282 302 322 52 117 0
257 277 282 302 327 52 0
259 279 284 304 349 54 0
257 277 282 302 357 52 0
259 279 284 304 364 54 0
258 278 283 308 323 53 133 0
258 278 283 308 333 53 0
259 279 284 309 344 54 0
259 279 284 309 359 54 0
258 278 283 308 368 53 0
257 277 282 322 332 52 0
258 278 283 323 343 53 0
258 278 283 323 353 53 0
257 277 282 322 362 52 0
257 277 282 327 332 52 152 0
257 277 282 327 362 52 0
258 278 283 333 343 53 178 0
258 278 283 333 353 53 0
257 277 282 332 357 52 0
259 279 284 344 349 54 199 0
259 279 284 344 364 54 0
258 278 283 343 368 53 0
259 279 284 349 359 54 0
258 278 283 353 368 53 213 0
257 277 282 357 362 52 222 0
259 279 284 359 364 54 224 0
256 276 286 291 296 56 61 66 86 91 96 0
256 276 286 291 321 56 61 86 0
259 279 289 294 324 59 64 89 0
259 279 289 294 339 59 64 89 0
256 276 286 291 346 56 61 86 0
259 279 289 294 354 59 64 89 0
256 276 286 291 371 56 61 86 0
256 276 286 296 316 56 66 91 0
258 278 288 298 318 58 68 93 0
258 278 288 298 328 58 68 93 0
256 276 286 296 341 56 66 91 0
258 278 288 298 363 58 68 93 0
256 276 286 296 366 56 66 91 0
258 278 288 308 318 58 128 0
259 279 289 309 324 59 134 0
258 278 288 308 328 58 0
259 279 289 309 339 59 0
259 279 289 309 354 59 0
258 278 288 308 363 58 0
256 276 286 316 321 56 146 0
258 278 288 318 343 58 0
256 276 286 316 346 56 0
258 278 288 318 353 58 0
256 276 286 316 371 56 0
256 276 286 321 341 56 0
259 279 289 324 349 59 0
259 279 289 324 364 59 0
256 276 286 321 366 56 0
258 278 288 328 343 58 163 0
258 278 288 328 353 58 0
259 279 289 339 349 59 194 0
259 279 289 339 364 59 0
256 276 286 341 346 56 196 0
258 278 288 343 363 58 0
256 276 286 341 371 56 0
259 279 289 349 354 59 0
256 276 286 346 366 56 0
258 278 288 353 363 58 208 0
259 279 289 354 364 59 209 0
256 276 286 366 371 56 246 0
256 276 291 296 311 61 66 96 0
257 277 292 297 312 62 67 97 0
256 276 291 296 336 61 66 96 0
257 277 292 297 342 62 67 97 0
256 276 291 296 361 61 66 96 0
257 277 292 297 372 62 67 97 0
257 277 292 302 312 62 107 0
259 279 294 304 324 64 119 0
259 279 294 304 339 64 0
257 277 292 302 342 62 0
259 279 294 304 354 64 0
257 277 292 302 372 62 0
256 276 291 311 321 61 141 0
257 277 292 312 332 62 0
256 276 291 311 346 61 0
257 277 292 312 362 62 0
256 276 291 311 371 61 0
256 276 291 321 336 61 0
259 279 294 324 344 64 0
259 279 294 324 359 64 0
256 276 291 321 361 61 0
257 277 292 332 342 62 177 0
257 277 292 332 372 62 0
259 279 294 339 344 64 189 0
256 276 291 336 346 61 191 0
259 279 294 339 359 64 0
256 276 291 336 371 61 0
259 279 294 344 354 64 0
257 277 292 342 362 62 0
256 276 291 346 361 61 0
259 279 294 354 359 64 204 0
256 276 291 361 371 61 241 0
257 277 292 362 372 62 242 0
256 276 296 311 316 66 136 0
257 277 297 312 322 67 142 0
257 277 297 312 327 67 0
256 276 296 311 341 66 0
257 277 297 312 357 67 0
256 276 296 311 366 66 0
258 278 298 318 323 68 148 0
258 278 298 318 333 68 0
256 276 296 316 336 66 0
256 276 296 316 361 66 0
258 278 298 318 368 68 0
258 278 298 323 328 68 0
257 277 297 322 342 67 0
258 278 298 323 363 68 0
257 277 297 322 372 67 0
258 278 298 328 333 68 153 0
257 277 297 327 342 67 162 0
258 278 298 328 368 68 0
257 277 297 327 372 67 0
258 278 298 333 363 68 0
256 276 296 336 341 66 186 0
256 276 296 336 366 66 0
257 277 297 342 357 67 0
256 276 296 341 361 66 0
257 277 297 357 372 67 232 0
256 276 296 361 366 66 236 0
258 278 298 363 368 68 238 0
259 279 304 309 324 104 119 134 0
259 279 304 309 339 104 0
259 279 304 309 354 104 0
257 277 302 312 322 107 117 142 0
257 277 302 312 327 107 0
257 277 302 312 357 107 0
257 277 302 322 342 117 0
259 279 304 324 349 119 0
259 279 304 324 364 119 0
257 277 302 322 372 117 0
257 277 302 327 342 162 0
257 277 302 327 372 0
259 279 304 339 349 194 0
259 279 304 339 364 0
257 277 302 342 357 0
259 279 304 349 354 0
259 279 304 354 364 209 0
257 277 302 357 372 232 0
258 278 308 318 323 128 133 148 0
258 278 308 318 333 128 0
258 278 308 318 368 128 0
258 278 308 323 328 133 0
259 279 309 324 344 134 0
259 279 309 324 359 134 0
258 278 308 323 363 133 0
258 278 308 328 333 153 0
258 278 308 328 368 0
258 278 308 333 363 0
259 279 309 339 344 189 0
259 279 309 339 359 0
259 279 309 344 354 0
259 279 309 354 359 204 0
258 278 308 363 368 238 0
256 276 311 316 321 136 141 146 0
256 276 311 316 346 136 0
256 276 311 316 371 136 0
257 277 312 322 332 142 0
256 276 311 321 341 141 0
257 277 312 322 362 142 0
256 276 311 321 366 141 0
257 277 312 327 332 152 0
257 277 312 327 362 0
257 277 312 332 357 0
256 276 311 341 346 196 0
256 276 311 341 371 0
256 276 311 346 366 0
257 277 312 357 362 222 0
256 276 311 366 371 246 0
256 276 316 321 336 146 0
258 278 318 323 343 148 0
258 278 318 323 353 148 0
256 276 316 321 361 146 0
258 278 318 333 343 178 0
258 278 318 333 353 0
256 276 316 336 346 191 0
256 276 316 336 371 0
258 278 318 343 368 0
256 276 316 346 361 0
258 278 318 353 368 213 0
256 276 316 361 371 241 0
258 278 323 328 343 163 0
258 278 323 328 353 0
257 277 322 332 342 177 0
257 277 322 332 372 0
256 276 321 336 341 186 0
256 276 321 336 366 0
259 279 324 344 349 199 0
256 276 321 341 361 0
257 277 322 342 362 0
258 278 323 343 363 0
259 279 324 344 364 0
259 279 324 349 359 0
258 278 323 353 363 208 0
259 279 324 359 364 224 0
256 276 321 361 366 236 0
257 277 322 362 372 242 0
257 277 327 332 342 152 162 177 0
258 278 328 333 343 153 163 178 0
258 278 328 333 353 153 0
257 277 327 332 372 152 0
257 277 327 342 362 162 0
258 278 328 343 368 163 0
258 278 328 353 368 213 0
257 277 327 362 372 242 0
257 277 332 342 357 177 0
258 278 333 343 363 178 0
258 278 333 353 363 208 0
257 277 332 357 372 232 0
256 276 336 341 346 186 191 196 0
259 279 339 344 349 189 194 199 0
259 279 339 344 364 189 0
256 276 336 341 371 186 0
259 279 339 349 359 194 0
256 276 336 346 366 191 0
259 279 339 359 364 224 0
256 276 336 366 371 246 0
259 279 344 349 354 199 0
256 276 341 346 361 196 0
259 279 344 354 364 209 0
257 277 342 357 362 222 0
258 278 343 363 368 238 0
256 276 341 361 371 241 0
259 279 349 354 359 204 0
256 276 346 361 366 236 0
259 279 354 359 364 204 209 224 0
258 278 353 363 368 208 213 238 0
257 277 357 362 372 222 232 242 0
256 276 361 366 371 236 241 246 0
260 285 290 295 300 75 80 85 90 95 100 0
259 284 289 294 319 74 79 89 0
260 285 290 295 320 75 80 90 0
259 284 289 294 334 74 79 89 0
260 285 290 295 340 75 80 90 0
260 285 290 295 360 75 80 90 0
259 284 289 294 374 74 79 89 0
258 283 288 298 313 73 83 93 0
260 285 290 300 315 75 85 95 0
260 285 290 300 335 75 85 95 0
258 283 288 298 348 73 83 93 0
260 285 290 300 355 75 85 95 0
258 283 288 298 358 73 83 93 0
258 283 288 308 313 73 123 0
259 284 289 309 319 74 129 0
259 284 289 309 334 74 0
258 283 288 308 348 73 0
258 283 288 308 358 73 0
259 284 289 309 374 74 0
260 285 290 315 320 75 140 0
260 285 290 315 340 75 0
258 283 288 313 343 73 0
258 283 288 313 353 73 0
260 285 290 315 360 75 0
260 285 290 320 335 75 0
259 284 289 319 349 74 0
260 285 290 320 355 75 0
259 284 289 319 364 74 0
260 285 290 335 340 75 175 0
259 284 289 334 349 74 184 0
260 285 290 335 360 75 0
259 284 289 334 364 74 0
260 285 290 340 355 75 0
258 283 288 343 348 73 198 0
258 283 288 343 358 73 0
258 283 288 348 353 73 0
259 284 289 349 374 74 0
258 283 288 353 358 73 203 0
260 285 290 355 360 75 205 0
259 284 289 364 374 74 244 0
257 282 292 297 307 77 82 97 0
260 285 295 300 310 80 85 100 0
260 285 295 300 330 80 85 100 0
257 282 292 297 337 77 82 97 0
257 282 292 297 367 77 82 97 0
260 285 295 300 375 80 85 100 0
257 282 292 302 307 77 102 0
259 284 294 304 319 79 114 0
259 284 294 304 334 79 0
257 282 292 302 337 77 0
257 282 292 302 367 77 0
259 284 294 304 374 79 0
260 285 295 310 320 80 130 0
257 282 292 307 332 77 0
260 285 295 310 340 80 0
260 285 295 310 360 80 0
257 282 292 307 362 77 0
260 285 295 320 330 80 0
259 284 294 319 344 79 0
259 284 294 319 359 79 0
260 285 295 320 375 80 0
260 285 295 330 340 80 160 0
260 285 295 330 360 80 0
257 282 292 332 337 77 172 0
259 284 294 334 344 79 179 0
259 284 294 334 359 79 0
257 282 292 332 367 77 0
257 282 292 337 362 77 0
260 285 295 340 375 80 0
259 284 294 344 374 79 0
259 284 294 359 374 79 234 0
260 285 295 360 375 80 235 0
257 282 292 362 367 77 237 0
260 285 300 310 315 85 125 0
257 282 297 307 322 82 132 0
257 282 297 307 327 82 0
260 285 300 310 335 85 0
260 285 300 310 355 85 0
257 282 297 307 357 82 0
258 283 298 313 323 83 143 0
260 285 300 315 330 85 0
258 283 298 313 333 83 0
258 283 298 313 368 83 0
260 285 300 315 375 85 0
257 282 297 322 337 82 0
258 283 298 323 348 83 0
258 283 298 323 358 83 0
257 282 297 322 367 82 0
260 285 300 330 335 85 155 0
257 282 297 327 337 82 157 0
260 285 300 330 355 85 0
257 282 297 327 367 82 0
258 283 298 333 348 83 183 0
258 283 298 333 358 83 0
260 285 300 335 375 85 0
257 282 297 337 357 82 0
258 283 298 348 368 83 0
260 285 300 355 375 85 220 0
257 282 297 357 367 82 227 0
258 283 298 358 368 83 228 0
259 284 304 309 319 104 114 129 0
257 282 302 307 322 102 117 132 0
257 282 302 307 327 102 0
259 284 304 309 334 104 0
257 282 302 307 357 102 0
259 284 304 309 374 104 0
259 284 304 319 349 114 0
259 284 304 319 364 114 0
257 282 302 322 337 117 0
257 282 302 322 367 117 0
257 282 302 327 337 157 0
257 282 302 327 367 0
259 284 304 334 349 184 0
259 284 304 334 364 0
257 282 302 337 357 0
259 284 304 349 374 0
257 282 302 357 367 227 0
259 284 304 364 374 244 0
260 285 310 315 320 125 130 140 0
258 283 308 313 323 123 133 143 0
258 283 308 313 333 123 0
260 285 310 315 340 125 0
260 285 310 315 360 125 0
258 283 308 313 368 123 0
260 285 310 320 335 130 0
259 284 309 319 344 129 0
260 285 310 320 355 130 0
259 284 309 319 359 129 0
257 282 307 322 332 132 0
258 283 308 323 348 133 0
258 283 308 323 358 133 0
257 282 307 322 362 132 0
257 282 307 327 332 152 0
257 282 307 327 362 0
260 285 310 335 340 175 0
259 284 309 334 344 179 0
258 283 308 333 348 183 0
257 282 307 332 357 0
258 283 308 333 358 0
259 284 309 334 359 0
260 285 310 335 360 0
260 285 310 340 355 0
259 284 309 344 374 0
258 283 308 348 368 0
260 285 310 355 360 205 0
257 282 307 357 362 222 0
258 283 308 358 368 228 0
259 284 309 359 374 234 0
260 285 315 320 330 140 0
260 285 315 320 375 140 0
258 283 313 323 343 143 0
258 283 313 323 353 143 0
260 285 315 330 340 160 0
260 285 315 330 360 0
258 283 313 333 343 178 0
258 283 313 333 353 0
260 285 315 340 375 0
258 283 313 343 368 0
258 283 313 353 368 213 0
260 285 315 360 375 235 0
260 285 320 330 335 155 0
260 285 320 330 355 0
260 285 320 335 375 0
259 284 319 344 349 199 0
259 284 319 344 364 0
259 284 319 349 359 0
260 285 320 355 375 220 0
259 284 319 359 364 224 0
257 282 322 332 337 172 0
257 282 322 332 367 0
257 282 322 337 362 0
258 283 323 343 348 198 0
258 283 323 343 358 0
258 283 323 348 353 0
258 283 323 353 358 203 0
257 282 322 362 367 237 0
257 282 327 332 337 152 157 172 0
260 285 330 335 340 155 160 175 0
260 285 330 335 360 155 0
257 282 327 332 367 152 0
260 285 330 340 355 160 0
257 282 327 337 362 157 0
260 285 330 355 360 205 0
257 282 327 362 367 237 0
257 282 332 337 357 172 0
260 285 335 340 375 175 0
258 283 333 343 348 178 183 198 0
259 284 334 344 349 179 184 199 0
258 283 333 343 358 178 0
259 284 334 344 364 179 0
258 283 333 348 353 183 0
259 284 334 349 359 184 0
258 283 333 353 358 203 0
259 284 334 359 364 224 0
257 282 332 357 367 227 0
260 285 335 360 375 235 0
260 285 340 355 375 220 0
257 282 337 357 362 222 0
258 283 343 348 368 198 0
259 284 344 349 374 199 0
258 283 343 358 368 228 0
259 284 344 364 374 244 0
258 283 348 353 368 213 0
259 284 349 359 374 234 0
258 283 353 358 368 203 213 228 0
260 285 355 360 375 205 220 235 0
257 282 357 362 367 222 227 237 0
259 284 359 364 374 224 234 244 0
256 286 291 296 301 86 91 96 0
260 290 295 300 305 90 95 100 0
256 286 291 296 326 86 91 96 0
260 290 295 300 350 90 95 100 0
256 286 291 296 351 86 91 96 0
260 290 295 300 370 90 95 100 0
260 290 295 305 320 90 115 0
256 286 291 301 321 86 116 0
260 290 295 305 340 90 0
256 286 291 301 346 86 0
260 290 295 305 360 90 0
256 286 291 301 371 86 0
259 289 294 319 324 89 149 0
259 289 294 319 339 89 0
260 290 295 320 350 90 0
259 289 294 319 354 89 0
260 290 295 320 370 90 0
256 286 291 321 326 86 0
259 289 294 324 334 89 0
256 286 291 321 351 86 0
259 289 294 324 374 89 0
256 286 291 326 346 86 166 0
256 286 291 326 371 86 0
259 289 294 334 339 89 174 0
259 289 294 334 354 89 0
260 290 295 340 350 90 195 0
260 290 295 340 370 90 0
259 289 294 339 374 89 0
256 286 291 346 351 86 0
260 290 295 350 360 90 0
256 286 291 351 371 86 216 0
259 289 294 354 374 89 219 0
260 290 295 360 370 90 230 0
260 290 300 305 315 95 110 0
256 286 296 301 316 91 111 0
260 290 300 305 335 95 0
256 286 296 301 341 91 0
260 290 300 305 355 95 0
256 286 296 301 366 91 0
258 288 298 313 318 93 138 0
258 288 298 313 328 93 0
260 290 300 315 350 95 0
258 288 298 313 363 93 0
260 290 300 315 370 95 0
256 286 296 316 326 91 0
258 288 298 318 348 93 0
256 286 296 316 351 91 0
258 288 298 318 358 93 0
256 286 296 326 341 91 161 0
258 288 298 328 348 93 168 0
258 288 298 328 358 93 0
256 286 296 326 366 91 0
260 290 300 335 350 95 185 0
260 290 300 335 370 95 0
256 286 296 341 351 91 0
260 290 300 350 355 95 0
258 288 298 348 363 93 0
256 286 296 351 366 91 211 0
260 290 300 355 370 95 215 0
258 288 298 358 363 93 223 0
260 290 305 315 320 110 115 140 0
260 290 305 315 340 110 0
260 290 305 315 360 110 0
256 286 301 316 321 111 116 146 0
260 290 305 320 335 115 0
256 286 301 316 346 111 0
260 290 305 320 355 115 0
256 286 301 316 371 111 0
256 286 301 321 341 116 0
256 286 301 321 366 116 0
260 290 305 335 340 175 0
260 290 305 335 360 0
260 290 305 340 355 0
256 286 301 341 346 196 0
256 286 301 341 371 0
256 286 301 346 366 0
260 290 305 355 360 205 0
256 286 301 366 371 246 0
258 288 308 313 318 123 128 138 0
258 288 308 313 328 123 0
258 288 308 313 363 123 0
259 289 309 319 324 129 134 149 0
259 289 309 319 339 129 0
258 288 308 318 348 128 0
259 289 309 319 354 129 0
258 288 308 318 358 128 0
259 289 309 324 334 134 0
259 289 309 324 374 134 0
258 288 308 328 348 168 0
258 288 308 328 358 0
259 289 309 334 339 174 0
259 289 309 334 354 0
259 289 309 339 374 0
258 288 308 348 363 0
259 289 309 354 374 219 0
258 288 308 358 363 223 0
258 288 313 318 343 138 0
260 290 315 320 350 140 0
258 288 313 318 353 138 0
260 290 315 320 370 140 0
258 288 313 328 343 163 0
258 288 313 328 353 0
260 290 315 340 350 195 0
260 290 315 340 370 0
258 288 313 343 363 0
260 290 315 350 360 0
258 288 313 353 363 208 0
260 290 315 360 370 230 0
256 286 316 321 326 146 0
259 289 319 324 349 149 0
256 286 316 321 351 146 0
259 289 319 324 364 149 0
256 286 316 326 346 166 0
256 286 316 326 371 0
260 290 320 335 350 185 0
260 290 320 335 370 0
259 289 319 339 349 194 0
259 289 319 339 364 0
258 288 318 343 348 198 0
258 288 318 343 358 0
256 286 316 346 351 0
258 288 318 348 353 0
259 289 319 349 354 0
260 290 320 350 355 0
258 288 318 353 358 203 0
259 289 319 354 364 209 0
260 290 320 355 370 215 0
256 286 316 351 371 216 0
256 286 321 326 341 161 0
256 286 321 326 366 0
259 289 324 334 349 184 0
259 289 324 334 364 0
256 286 321 341 351 0
259 289 324 349 374 0
256 286 321 351 366 211 0
259 289 324 364 374 244 0
256 286 326 341 346 161 166 196 0
258 288 328 343 348 163 168 198 0
258 288 328 343 358 163 0
256 286 326 341 371 161 0
258 288 328 348 353 168 0
256 286 326 346 366 166 0
258 288 328 353 358 203 0
256 286 326 366 371 246 0
259 289 334 339 349 174 184 194 0
260 290 335 340 350 175 185 195 0
259 289 334 339 364 174 0
260 290 335 340 370 175 0
259 289 334 349 354 184 0
260 290 335 350 360 185 0
259 289 334 354 364 209 0
260 290 335 360 370 230 0
260 290 340 350 355 195 0
259 289 339 349 374 194 0
260 290 340 355 370 215 0
259 289 339 364 374 244 0
256 286 341 346 351 196 0
258 288 343 348 363 198 0
256 286 341 351 371 216 0
258 288 343 358 363 223 0
260 290 350 355 360 205 0
258 288 348 353 363 208 0
256 286 346 351 366 211 0
259 289 349 354 374 219 0
258 288 353 358 363 203 208 223 0
260 290 355 360 370 205 215 230 0
259 289 354 364 374 209 219 244 0
256 286 351 366 371 211 216 246 0
260 295 300 305 310 100 105 0
256 291 296 301 311 96 106 0
260 295 300 305 330 100 0
256 291 296 301 336 96 0
256 291 296 301 361 96 0
260 295 300 305 375 100 0
257 292 297 307 312 97 122 0
257 292 297 307 342 97 0
260 295 300 310 350 100 0
260 295 300 310 370 100 0
257 292 297 307 372 97 0
256 291 296 311 326 96 0
257 292 297 312 337 97 0
256 291 296 311 351 96 0
257 292 297 312 367 97 0
256 291 296 326 336 96 156 0
260 295 300 330 350 100 170 0
256 291 296 326 361 96 0
260 295 300 330 370 100 0
257 292 297 337 342 97 187 0
256 291 296 336 351 96 0
257 292 297 337 372 97 0
257 292 297 342 367 97 0
260 295 300 350 375 100 0
256 291 296 351 361 96 206 0
257 292 297 367 372 97 247 0
260 295 300 370 375 100 250 0
257 292 302 307 312 102 107 122 0
260 295 305 310 320 105 115 130 0
260 295 305 310 340 105 0
257 292 302 307 342 102 0
260 295 305 310 360 105 0
257 292 302 307 372 102 0
256 291 301 311 321 106 116 141 0
257 292 302 312 337 107 0
256 291 301 311 346 106 0
257 292 302 312 367 107 0
256 291 301 311 371 106 0
259 294 304 319 324 114 119 149 0
260 295 305 320 330 115 0
259 294 304 319 339 114 0
259 294 304 319 354 114 0
260 295 305 320 375 115 0
259 294 304 324 334 119 0
256 291 301 321 336 116 0
256 291 301 321 361 116 0
259 294 304 324 374 119 0
260 295 305 330 340 160 0
260 295 305 330 360 0
259 294 304 334 339 174 0
259 294 304 334 354 0
257 292 302 337 342 187 0
256 291 301 336 346 191 0
256 291 301 336 371 0
257 292 302 337 372 0
259 294 304 339 374 0
260 295 305 340 375 0
257 292 302 342 367 0
256 291 301 346 361 0
259 294 304 354 374 219 0
260 295 305 360 375 235 0
256 291 301 361 371 241 0
257 292 302 367 372 247 0
257 292 307 312 332 122 0
257 292 307 312 362 122 0
260 295 310 320 350 130 0
260 295 310 320 370 130 0
257 292 307 332 342 177 0
257 292 307 332 372 0
260 295 310 340 350 195 0
260 295 310 340 370 0
257 292 307 342 362 0
260 295 310 350 360 0
260 295 310 360 370 230 0
257 292 307 362 372 242 0
256 291 311 321 326 141 0
256 291 311 321 351 141 0
256 291 311 326 346 166 0
256 291 311 326 371 0
257 292 312 332 337 172 0
257 292 312 332 367 0
257 292 312 337 362 0
256 291 311 346 351 0
256 291 311 351 371 216 0
257 292 312 362 367 237 0
259 294 319 324 344 149 0
259 294 319 324 359 149 0
260 295 320 330 350 170 0
260 295 320 330 370 0
259 294 319 339 344 189 0
259 294 319 339 359 0
259 294 319 344 354 0
260 295 320 350 375 0
259 294 319 354 359 204 0
260 295 320 370 375 250 0
256 291 321 326 336 156 0
256 291 321 326 361 0
259 294 324 334 344 179 0
259 294 324 334 359 0
256 291 321 336 351 0
259 294 324 344 374 0
256 291 321 351 361 206 0
259 294 324 359 374 234 0
256 291 326 336 346 156 166 191 0
260 295 330 340 350 160 170 195 0
260 295 330 340 370 160 0
256 291 326 336 371 156 0
260 295 330 350 360 170 0
256 291 326 346 361 166 0
260 295 330 360 370 230 0
256 291 326 361 371 241 0
257 292 332 337 342 172 177 187 0
259 294 334 339 344 174 179 189 0
259 294 334 339 359 174 0
257 292 332 337 372 172 0
259 294 334 344 354 179 0
257 292 332 342 367 177 0
259 294 334 354 359 204 0
257 292 332 367 372 247 0
257 292 337 342 362 187 0
259 294 339 344 374 189 0
256 291 336 346 351 191 0
260 295 340 350 375 195 0
256 291 336 351 371 216 0
259 294 339 359 374 234 0
257 292 337 362 372 242 0
260 295 340 370 375 250 0
259 294 344 354 374 219 0
257 292 342 362 367 237 0
256 291 346 351 361 206 0
260 295 350 360 375 235 0
259 294 354 359 374 204 219 234 0
256 291 351 361 371 206 216 241 0
260 295 360 370 375 230 235 250 0
257 292 362 367 372 237 242 247 0
260 300 305 310 315 105 110 125 0
260 300 305 310 335 105 0
260 300 305 310 355 105 0
256 296 301 311 316 106 111 136 0
260 300 305 315 330 110 0
256 296 301 311 341 106 0
256 296 301 311 366 106 0
260 300 305 315 375 110 0
256 296 301 316 336 111 0
256 296 301 316 361 111 0
260 300 305 330 335 155 0
260 300 305 330 355 0
260 300 305 335 375 0
256 296 301 336 341 186 0
256 296 301 336 366 0
256 296 301 341 361 0
260 300 305 355 375 220 0
256 296 301 361 366 236 0
257 297 307 312 322 122 132 142 0
257 297 307 312 327 122 0
260 300 310 315 350 125 0
257 297 307 312 357 122 0
260 300 310 315 370 125 0
257 297 307 322 342 132 0
257 297 307 322 372 132 0
257 297 307 327 342 162 0
257 297 307 327 372 0
260 300 310 335 350 185 0
260 300 310 335 370 0
257 297 307 342 357 0
260 300 310 350 355 0
260 300 310 355 370 215 0
257 297 307 357 372 232 0
258 298 313 318 323 138 143 148 0
256 296 311 316 326 136 0
258 298 313 318 333 138 0
256 296 311 316 351 136 0
258 298 313 318 368 138 0
258 298 313 323 328 143 0
257 297 312 322 337 142 0
258 298 313 323 363 143 0
257 297 312 322 367 142 0
258 298 313 328 333 153 0
257 297 312 327 337 157 0
256 296 311 326 341 161 0
260 300 315 330 350 170 0
256 296 311 326 366 0
257 297 312 327 367 0
258 298 313 328 368 0
260 300 315 330 370 0
258 298 313 333 363 0
257 297 312 337 357 0
256 296 311 341 351 0
260 300 315 350 375 0
256 296 311 351 366 211 0
257 297 312 357 367 227 0
258 298 313 363 368 238 0
260 300 315 370 375 250 0
258 298 318 323 348 148 0
258 298 318 323 358 148 0
256 296 316 326 336 156 0
256 296 316 326 361 0
258 298 318 333 348 183 0
258 298 318 333 358 0
256 296 316 336 351 0
258 298 318 348 368 0
256 296 316 351 361 206 0
258 298 318 358 368 228 0
258 298 323 328 348 168 0
258 298 323 328 358 0
257 297 322 337 342 187 0
257 297 322 337 372 0
257 297 322 342 367 0
258 298 323 348 363 0
258 298 323 358 363 223 0
257 297 322 367 372 247 0
258 298 328 333 348 153 168 183 0
260 300 330 335 350 155 170 185 0
258 298 328 333 358 153 0
260 300 330 335 370 155 0
256 296 326 336 341 156 161 186 0
257 297 327 337 342 157 162 187 0
256 296 326 336 366 156 0
257 297 327 337 372 157 0
256 296 326 341 361 161 0
257 297 327 342 367 162 0
260 300 330 350 355 170 0
258 298 328 348 368 168 0
260 300 330 355 370 215 0
258 298 328 358 368 228 0
256 296 326 361 366 236 0
257 297 327 367 372 247 0
258 298 333 348 363 183 0
260 300 335 350 375 185 0
258 298 333 358 363 223 0
260 300 335 370 375 250 0
256 296 336 341 351 186 0
257 297 337 342 357 187 0
256 296 336 351 366 211 0
257 297 337 357 372 232 0
256 296 341 351 361 206 0
257 297 342 357 367 227 0
260 300 350 355 375 220 0
258 298 348 363 368 238 0
256 296 351 361 366 206 211 236 0
260 300 355 370 375 215 220 250 0
258 298 358 363 368 223 228 238 0
257 297 357 367 372 227 232 247 0
260 305 310 315 320 105 110 115 125 130 140 0
257 302 307 312 322 102 107 117 122 132 142 0
257 302 307 312 327 102 107 122 0
260 305 310 315 340 105 110 125 0
257 302 307 312 357 102 107 122 0
260 305 310 315 360 105 110 125 0
259 304 309 319 324 104 114 119 129 134 149 0
260 305 310 320 335 105 115 130 0
259 304 309 319 339 104 114 129 0
259 304 309 319 354 104 114 129 0
260 305 310 320 355 105 115 130 0
259 304 309 324 334 104 119 134 0
257 302 307 322 342 102 117 132 0
257 302 307 322 372 102 117 132 0
259 304 309 324 374 104 119 134 0
257 302 307 327 342 102 162 0
257 302 307 327 372 102 0
259 304 309 334 339 104 174 0
260 305 310 335 340 105 175 0
259 304 309 334 354 104 0
260 305 310 335 360 105 0
260 305 310 340 355 105 0
259 304 309 339 374 104 0
257 302 307 342 357 102 0
260 305 310 355 360 105 205 0
259 304 309 354 374 104 219 0
257 302 307 357 372 102 232 0
256 301 311 316 321 106 111 116 136 141 146 0
260 305 315 320 330 110 115 140 0
256 301 311 316 346 106 111 136 0
256 301 311 316 371 106 111 136 0
260 305 315 320 375 110 115 140 0
257 302 312 322 337 107 117 142 0
256 301 311 321 341 106 116 141 0
256 301 311 321 366 106 116 141 0
257 302 312 322 367 107 117 142 0
257 302 312 327 337 107 157 0
260 305 315 330 340 110 160 0
260 305 315 330 360 110 0
257 302 312 327 367 107 0
257 302 312 337 357 107 0
260 305 315 340 375 110 0
256 301 311 341 346 106 196 0
256 301 311 341 371 106 0
256 301 311 346 366 106 0
257 302 312 357 367 107 227 0
260 305 315 360 375 110 235 0
256 301 311 366 371 106 246 0
256 301 316 321 336 111 116 146 0
259 304 319 324 349 114 119 149 0
256 301 316 321 361 111 116 146 0
259 304 319 324 364 114 119 149 0
260 305 320 330 335 115 155 0
260 305 320 330 355 115 0
260 305 320 335 375 115 0
256 301 316 336 346 111 191 0
259 304 319 339 349 114 194 0
259 304 319 339 364 114 0
256 301 316 336 371 111 0
259 304 319 349 354 114 0
256 301 316 346 361 111 0
259 304 319 354 364 114 209 0
260 305 320 355 375 115 220 0
256 301 316 361 371 111 241 0
259 304 324 334 349 119 184 0
259 304 324 334 364 119 0
256 301 321 336 341 116 186 0
257 302 322 337 342 117 187 0
256 301 321 336 366 116 0
257 302 322 337 372 117 0
256 301 321 341 361 116 0
257 302 322 342 367 117 0
259 304 324 349 374 119 0
256 301 321 361 366 116 236 0
259 304 324 364 374 119 244 0
257 302 322 367 372 117 247 0
260 305 330 335 340 155 160 175 0
260 305 330 335 360 155 0
257 302 327 337 342 157 162 187 0
260 305 330 340 355 160 0
257 302 327 337 372 157 0
257 302 327 342 367 162 0
260 305 330 355 360 205 0
257 302 327 367 372 247 0
259 304 334 339 349 174 184 194 0
259 304 334 339 364 174 0
260 305 335 340 375 175 0
259 304 334 349 354 184 0
259 304 334 354 364 209 0
260 305 335 360 375 235 0
256 301 336 341 346 186 191 196 0
257 302 337 342 357 187 0
256 301 336 341 371 186 0
256 301 336 346 366 191 0
259 304 339 349 374 194 0
260 305 340 355 375 220 0
257 302 337 357 372 232 0
259 304 339 364 374 244 0
256 301 336 366 371 246 0
256 301 341 346 361 196 0
257 302 342 357 367 227 0
256 301 341 361 371 241 0
259 304 349 354 374 219 0
256 301 346 361 366 236 0
260 305 355 360 375 205 220 235 0
259 304 354 364 374 209 219 244 0
257 302 357 367 372 227 232 247 0
256 301 361 366 371 236 241 246 0
258 308 313 318 323 123 128 133 138 143 148 0
258 308 313 318 333 123 128 138 0
260 310 315 320 350 125 130 140 0
258 308 313 318 368 123 128 138 0
260 310 315 320 370 125 130 140 0
258 308 313 323 328 123 133 143 0
257 307 312 322 332 122 132 142 0
257 307 312 322 362 122 132 142 0
258 308 313 323 363 123 133 143 0
257 307 312 327 332 122 152 0
258 308 313 328 333 123 153 0
257 307 312 327 362 122 0
258 308 313 328 368 123 0
257 307 312 332 357 122 0
258 308 313 333 363 123 0
260 310 315 340 350 125 195 0
260 310 315 340 370 125 0
260 310 315 350 360 125 0
257 307 312 357 362 122 222 0
260 310 315 360 370 125 230 0
258 308 313 363 368 123 238 0
259 309 319 324 344 129 134 149 0
258 308 318 323 348 128 133 148 0
258 308 318 323 358 128 133 148 0
259 309 319 324 359 129 134 149 0
258 308 318 333 348 128 183 0
260 310 320 335 350 130 185 0
258 308 318 333 358 128 0
260 310 320 335 370 130 0
259 309 319 339 344 129 189 0
259 309 319 339 359 129 0
259 309 319 344 354 129 0
260 310 320 350 355 130 0
258 308 318 348 368 128 0
259 309 319 354 359 129 204 0
260 310 320 355 370 130 215 0
258 308 318 358 368 128 228 0
258 308 323 328 348 133 168 0
258 308 323 328 358 133 0
257 307 322 332 342 132 177 0
259 309 324 334 344 134 179 0
259 309 324 334 359 134 0
257 307 322 332 372 132 0
257 307 322 342 362 132 0
259 309 324 344 374 134 0
258 308 323 348 363 133 0
258 308 323 358 363 133 223 0
259 309 324 359 374 134 234 0
257 307 322 362 372 132 242 0
257 307 327 332 342 152 162 177 0
258 308 328 333 348 153 168 183 0
258 308 328 333 358 153 0
257 307 327 332 372 152 0
257 307 327 342 362 162 0
258 308 328 348 368 168 0
258 308 328 358 368 228 0
257 307 327 362 372 242 0
259 309 334 339 344 174 179 189 0
260 310 335 340 350 175 185 195 0
259 309 334 339 359 174 0
260 310 335 340 370 175 0
259 309 334 344 354 179 0
257 307 332 342 357 177 0
260 310 335 350 360 185 0
258 308 333 348 363 183 0
259 309 334 354 359 204 0
258 308 333 358 363 223 0
260 310 335 360 370 230 0
257 307 332 357 372 232 0
259 309 339 344 374 189 0
260 310 340 350 355 195 0
260 310 340 355 370 215 0
259 309 339 359 374 234 0
259 309 344 354 374 219 0
257 307 342 357 362 222 0
260 310 350 355 360 205 0
258 308 348 363 368 238 0
260 310 355 360 370 205 215 230 0
259 309 354 359 374 204 219 234 0
258 308 358 363 368 223 228 238 0
257 307 357 362 372 222 232 242 0
256 311 316 321 326 136 141 146 0
258 313 318 323 343 138 143 148 0
256 311 316 321 351 136 141 146 0
258 313 318 323 353 138 143 148 0
256 311 316 326 346 136 166 0
260 315 320 330 350 140 170 0
260 315 320 330 370 140 0
256 311 316 326 371 136 0
258 313 318 333 343 138 178 0
258 313 318 333 353 138 0
258 313 318 343 368 138 0
256 311 316 346 351 136 0
260 315 320 350 375 140 0
258 313 318 353 368 138 213 0
256 311 316 351 371 136 216 0
260 315 320 370 375 140 250 0
256 311 321 326 341 141 161 0
258 313 323 328 343 143 163 0
258 313 323 328 353 143 0
256 311 321 326 366 141 0
257 312 322 332 337 142 172 0
257 312 322 332 367 142 0
257 312 322 337 362 142 0
256 311 321 341 351 141 0
258 313 323 343 363 143 0
258 313 323 353 363 143 208 0
256 311 321 351 366 141 211 0
257 312 322 362 367 142 237 0
257 312 327 332 337 152 157 172 0
258 313 328 333 343 153 163 178 0
258 313 328 333 353 153 0
257 312 327 332 367 152 0
260 315 330 340 350 160 170 195 0
257 312 327 337 362 157 0
260 315 330 340 370 160 0
256 311 326 341 346 161 166 196 0
258 313 328 343 368 163 0
256 311 326 341 371 161 0
260 315 330 350 360 170 0
256 311 326 346 366 166 0
258 313 328 353 368 213 0
260 315 330 360 370 230 0
257 312 327 362 367 237 0
256 311 326 366 371 246 0
257 312 332 337 357 172 0
258 313 333 343 363 178 0
258 313 333 353 363 208 0
257 312 332 357 367 227 0
260 315 340 350 375 195 0
257 312 337 357 362 222 0
260 315 340 370 375 250 0
256 311 341 346 351 196 0
256 311 341 351 371 216 0
258 313 343 363 368 238 0
256 311 346 351 366 211 0
260 315 350 360 375 235 0
258 313 353 363 368 208 213 238 0
256 311 351 366 371 211 216 246 0
257 312 357 362 367 222 227 237 0
260 315 360 370 375 230 235 250 0
256 316 321 326 336 146 156 0
256 316 321 326 361 146 0
256 316 321 336 351 146 0
258 318 323 343 348 148 198 0
259 319 324 344 349 149 199 0
258 318 323 343 358 148 0
259 319 324 344 364 149 0
258 318 323 348 353 148 0
259 319 324 349 359 149 0
258 318 323 353 358 148 203 0
256 316 321 351 361 146 206 0
259 319 324 359 364 149 224 0
260 320 330 335 350 155 170 185 0
260 320 330 335 370 155 0
256 316 326 336 346 156 166 191 0
256 316 326 336 371 156 0
260 320 330 350 355 170 0
256 316 326 346 361 166 0
260 320 330 355 370 215 0
256 316 326 361 371 241 0
258 318 333 343 348 178 183 198 0
258 318 333 343 358 178 0
258 318 333 348 353 183 0
260 320 335 350 375 185 0
258 318 333 353 358 203 0
260 320 335 370 375 250 0
259 319 339 344 349 189 194 199 0
259 319 339 344 364 189 0
256 316 336 346 351 191 0
259 319 339 349 359 194 0
256 316 336 351 371 216 0
259 319 339 359 364 224 0
259 319 344 349 354 199 0
258 318 343 348 368 198 0
259 319 344 354 364 209 0
258 318 343 358 368 228 0
259 319 349 354 359 204 0
256 316 346 351 361 206 0
258 318 348 353 368 213 0
260 320 350 355 375 220 0
259 319 354 359 364 204 209 224 0
258 318 353 358 368 203 213 228 0
256 316 351 361 371 206 216 241 0
260 320 355 370 375 215 220 250 0
256 321 326 336 341 156 161 186 0
256 321 326 336 366 156 0
258 323 328 343 348 163 168 198 0
258 323 328 343 358 163 0
256 321 326 341 361 161 0
258 323 328 348 353 168 0
258 323 328 353 358 203 0
256 321 326 361 366 236 0
257 322 332 337 342 172 177 187 0
257 322 332 337 372 172 0
259 324 334 344 349 179 184 199 0
259 324 334 344 364 179 0
257 322 332 342 367 177 0
259 324 334 349 359 184 0
259 324 334 359 364 224 0
257 322 332 367 372 247 0
256 321 336 341 351 186 0
257 322 337 342 362 187 0
256 321 336 351 366 211 0
257 322 337 362 372 242 0
258 323 343 348 363 198 0
259 324 344 349 374 199 0
256 321 341 351 361 206 0
258 323 343 358 363 223 0
257 322 342 362 367 237 0
259 324 344 364 374 244 0
258 323 348 353 363 208 0
259 324 349 359 374 234 0
258 323 353 358 363 203 208 223 0
256 321 351 361 366 206 211 236 0
259 324 359 364 374 224 234 244 0
257 322 362 367 372 237 242 247 0
257 327 332 337 342 152 157 162 172 177 187 0
260 330 335 340 350 155 160 170 175 185 195 0
260 330 335 340 370 155 160 175 0
257 327 332 337 372 152 157 172 0
258 328 333 343 348 153 163 168 178 183 198 0
258 328 333 343 358 153 163 178 0
257 327 332 342 367 152 162 177 0
258 328 333 348 353 153 168 183 0
260 330 335 350 360 155 170 185 0
258 328 333 353 358 153 203 0
260 330 335 360 370 155 230 0
257 327 332 367 372 152 247 0
256 326 336 341 346 156 161 166 186 191 196 0
257 327 337 342 362 157 162 187 0
256 326 336 341 371 156 161 186 0
260 330 340 350 355 160 170 195 0
256 326 336 346 366 156 166 191 0
260 330 340 355 370 160 215 0
257 327 337 362 372 157 242 0
256 326 336 366 371 156 246 0
256 326 341 346 361 161 166 196 0
258 328 343 348 368 163 168 198 0
258 328 343 358 368 163 228 0
257 327 342 362 367 162 237 0
256 326 341 361 371 161 241 0
260 330 350 355 360 170 205 0
258 328 348 353 368 168 213 0
256 326 346 361 366 166 236 0
258 328 353 358 368 203 213 228 0
260 330 355 360 370 205 215 230 0
256 326 361 366 371 236 241 246 0
257 327 362 367 372 237 242 247 0
259 334 339 344 349 174 179 184 189 194 199 0
257 332 337 342 357 172 177 187 0
259 334 339 344 364 174 179 189 0
259 334 339 349 359 174 184 194 0
260 335 340 350 375 175 185 195 0
259 334 339 359 364 174 224 0
257 332 337 357 372 172 232 0
260 335 340 370 375 175 250 0
259 334 344 349 354 179 184 199 0
258 333 343 348 363 178 183 198 0
259 334 344 354 364 179 209 0
258 333 343 358 363 178 223 0
257 332 342 357 367 177 227 0
259 334 349 354 359 184 204 0
258 333 348 353 363 183 208 0
260 335 350 360 375 185 235 0
258 333 353 358 363 203 208 223 0
259 334 354 359 364 204 209 224 0
257 332 357 367 372 227 232 247 0
260 335 360 370 375 230 235 250 0
256 336 341 346 351 186 191 196 0
259 339 344 349 374 189 194 199 0
256 336 341 351 371 186 216 0
257 337 342 357 362 187 222 0
259 339 344 364 374 189 244 0
256 336 346 351 366 191 211 0
260 340 350 355 375 195 220 0
259 339 349 359 374 194 234 0
256 336 351 366 371 211 216 246 0
260 340 355 370 375 215 220 250 0
257 337 357 362 372 222 232 242 0
259 339 359 364 374 224 234 244 0
256 341 346 351 361 196 206 0
259 344 349 354 374 199 219 0
258 343 348 363 368 198 238 0
256 341 351 361 371 206 216 241 0
259 344 354 364 374 209 219 244 0
257 342 357 362 367 222 227 237 0
258 343 358 363 368 223 228 238 0
259 349 354 359 374 204 219 234 0
260 350 355 360 375 205 220 235 0
256 346 351 361 366 206 211 236 0
258 348 353 363 368 208 213 238 0
258 353 358 363 368 203 208 213 223 228 238 0
259 354 359 364 374 204 209 219 224 234 244 0
260 355 360 370 375 205 215 220 230 235 250 0
256 351 361 366 371 206 211 216 236 241 246 0
257 357 362 367 372 222 227 232 237 242 247 0
261 266 271 276 281 36 41 46 51 0
265 270 275 280 300 40 45 50 70 0
261 266 271 276 306 36 41 46 0
265 270 275 280 320 40 45 50 0
261 266 271 276 331 36 41 46 0
265 270 275 280 340 40 45 50 0
261 266 271 276 356 36 41 46 0
265 270 275 280 360 40 45 50 0
262 267 272 282 287 37 42 47 72 0
261 266 271 281 301 36 41 46 0
262 267 272 282 317 37 42 47 0
261 266 271 281 326 36 41 46 0
262 267 272 282 347 37 42 47 0
261 266 271 281 351 36 41 46 0
262 267 272 282 352 37 42 47 0
263 268 273 288 293 38 43 48 88 0
263 268 273 288 303 38 43 48 0
262 267 272 287 312 37 42 47 0
263 268 273 288 338 38 43 48 0
262 267 272 287 342 37 42 47 0
262 267 272 287 372 37 42 47 0
263 268 273 288 373 38 43 48 0
264 269 274 294 299 39 44 49 99 0
264 269 274 294 314 39 44 49 0
263 268 273 293 323 38 43 48 0
264 269 274 294 329 39 44 49 0
263 268 273 293 333 38 43 48 0
263 268 273 293 368 38 43 48 0
264 269 274 294 369 39 44 49 0
264 269 274 299 309 39 44 49 0
265 270 275 300 325 40 45 50 0
265 270 275 300 345 40 45 50 0
264 269 274 299 349 39 44 49 0
264 269 274 299 364 39 44 49 0
265 270 275 300 365 40 45 50 0
261 266 271 301 306 36 41 46 101 0
263 268 273 303 323 38 43 48 118 0
261 266 271 301 331 36 41 46 0
263 268 273 303 333 38 43 48 0
261 266 271 301 356 36 41 46 0
263 268 273 303 368 38 43 48 0
264 269 274 309 314 39 44 49 124 0
261 266 271 306 326 36 41 46 0
264 269 274 309 329 39 44 49 0
261 266 271 306 351 36 41 46 0
264 269 274 309 369 39 44 49 0
262 267 272 312 317 37 42 47 137 0
262 267 272 312 347 37 42 47 0
264 269 274 314 349 39 44 49 0
262 267 272 312 352 37 42 47 0
264 269 274 314 364 39 44 49 0
265 270 275 320 325 40 45 50 150 0
262 267 272 317 342 37 42 47 0
265 270 275 320 345 40 45 50 0
265 270 275 320 365 40 45 50 0
262 267 272 317 372 37 42 47 0
263 268 273 323 338 38 43 48 0
265 270 275 325 340 40 45 50 0
265 270 275 325 360 40 45 50 0
263 268 273 323 373 38 43 48 0
261 266 271 326 331 36 41 46 151 0
264 269 274 329 349 39 44 49 169 0
261 266 271 326 356 36 41 46 0
264 269 274 329 364 39 44 49 0
263 268 273 333 338 38 43 48 173 0
261 266 271 331 351 36 41 46 0
263 268 273 333 373 38 43 48 0
265 270 275 340 345 40 45 50 190 0
265 270 275 340 365 40 45 50 0
263 268 273 338 368 38 43 48 0
262 267 272 342 347 37 42 47 197 0
262 267 272 342 352 37 42 47 0
265 270 275 345 360 40 45 50 0
264 269 274 349 369 39 44 49 0
262 267 272 347 372 37 42 47 0
261 266 271 351 356 36 41 46 201 0
262 267 272 352 372 37 42 47 217 0
265 270 275 360 365 40 45 50 225 0
264 269 274 364 369 39 44 49 239 0
263 268 273 368 373 38 43 48 248 0
262 267 277 282 287 37 52 57 72 0
261 266 276 281 296 36 51 66 81 0
262 267 277 282 317 37 52 0
261 266 276 281 321 36 51 0
261 266 276 281 346 36 51 0
262 267 277 282 347 37 52 0
262 267 277 282 352 37 52 0
261 266 276 281 371 36 51 0
262 267 277 287 312 37 57 0
262 267 277 287 342 37 57 0
262 267 277 287 372 37 57 0
265 270 280 295 300 40 65 70 100 0
265 270 280 295 320 40 65 0
265 270 280 295 340 40 65 0
265 270 280 295 360 40 65 0
261 266 276 296 306 36 66 0
265 270 280 300 315 40 70 0
261 266 276 296 331 36 66 0
265 270 280 300 335 40 70 0
265 270 280 300 355 40 70 0
261 266 276 296 356 36 66 0
261 266 276 306 321 36 131 0
261 266 276 306 346 36 0
261 266 276 306 371 36 0
262 267 277 312 317 37 137 0
265 270 280 315 320 40 140 0
265 270 280 315 340 40 0
262 267 277 312 347 37 0
262 267 277 312 352 37 0
265 270 280 315 360 40 0
265 270 280 320 335 40 0
262 267 277 317 342 37 0
265 270 280 320 355 40 0
262 267 277 317 372 37 0
261 266 276 321 331 36 0
261 266 276 321 356 36 0
265 270 280 335 340 40 175 0
261 266 276 331 346 36 181 0
265 270 280 335 360 40 0
261 266 276 331 371 36 0
265 270 280 340 355 40 0
262 267 277 342 347 37 197 0
262 267 277 342 352 37 0
261 266 276 346 356 36 0
262 267 277 347 372 37 0
265 270 280 355 360 40 205 0
262 267 277 352 372 37 217 0
261 266 276 356 371 36 231 0
263 268 283 288 293 38 73 78 88 0
263 268 283 288 303 38 73 0
262 267 282 287 307 37 72 0
262 267 282 287 337 37 72 0
263 268 283 288 338 38 73 0
262 267 282 287 367 37 72 0
263 268 283 288 373 38 73 0
263 268 283 293 323 38 78 0
263 268 283 293 333 38 78 0
263 268 283 293 368 38 78 0
261 266 281 296 301 36 81 0
261 266 281 296 326 36 81 0
261 266 281 296 351 36 81 0
261 266 281 301 321 36 116 0
263 268 283 303 323 38 118 0
263 268 283 303 333 38 0
261 266 281 301 346 36 0
263 268 283 303 368 38 0
261 266 281 301 371 36 0
262 267 282 307 317 37 127 0
262 267 282 307 347 37 0
262 267 282 307 352 37 0
262 267 282 317 337 37 0
262 267 282 317 367 37 0
261 266 281 321 326 36 0
263 268 283 323 338 38 0
261 266 281 321 351 36 0
263 268 283 323 373 38 0
261 266 281 326 346 36 166 0
261 266 281 326 371 36 0
263 268 283 333 338 38 173 0
263 268 283 333 373 38 0
262 267 282 337 347 37 192 0
262 267 282 337 352 37 0
263 268 283 338 368 38 0
261 266 281 346 351 36 0
262 267 282 347 367 37 0
262 267 282 352 367 37 212 0
261 266 281 351 371 36 216 0
263 268 283 368 373 38 248 0
264 269 289 294 299 39 89 94 99 0
264 269 289 294 314 39 89 0
263 268 288 293 318 38 88 0
263 268 288 293 328 38 88 0
264 269 289 294 329 39 89 0
263 268 288 293 363 38 88 0
264 269 289 294 369 39 89 0
264 269 289 299 309 39 94 0
264 269 289 299 349 39 94 0
264 269 289 299 364 39 94 0
263 268 288 303 318 38 113 0
263 268 288 303 328 38 0
263 268 288 303 363 38 0
262 267 287 307 312 37 122 0
264 269 289 309 314 39 124 0
264 269 289 309 329 39 0
262 267 287 307 342 37 0
264 269 289 309 369 39 0
262 267 287 307 372 37 0
262 267 287 312 337 37 0
264 269 289 314 349 39 0
264 269 289 314 364 39 0
262 267 287 312 367 37 0
263 268 288 318 338 38 0
263 268 288 318 373 38 0
263 268 288 328 338 38 158 0
264 269 289 329 349 39 169 0
264 269 289 329 364 39 0
263 268 288 328 373 38 0
262 267 287 337 342 37 187 0
263 268 288 338 363 38 0
262 267 287 337 372 37 0
262 267 287 342 367 37 0
264 269 289 349 369 39 0
264 269 289 364 369 39 239 0
263 268 288 363 373 38 243 0
262 267 287 367 372 37 247 0
264 269 294 299 304 39 99 0
265 270 295 300 325 40 100 0
264 269 294 299 344 39 99 0
265 270 295 300 345 40 100 0
264 269 294 299 359 39 99 0
265 270 295 300 365 40 100 0
264 269 294 304 314 39 109 0
264 269 294 304 329 39 0
264 269 294 304 369 39 0
264 269 294 314 344 39 0
264 269 294 314 359 39 0
263 268 293 318 323 38 148 0
265 270 295 320 325 40 150 0
263 268 293 318 333 38 0
265 270 295 320 345 40 0
265 270 295 320 365 40 0
263 268 293 318 368 38 0
263 268 293 323 328 38 0
265 270 295 325 340 40 0
265 270 295 325 360 40 0
263 268 293 323 363 38 0
263 268 293 328 333 38 153 0
264 269 294 329 344 39 164 0
264 269 294 329 359 39 0
263 268 293 328 368 38 0
263 268 293 333 363 38 0
265 270 295 340 345 40 190 0
265 270 295 340 365 40 0
265 270 295 345 360 40 0
264 269 294 344 369 39 0
265 270 295 360 365 40 225 0
264 269 294 359 369 39 229 0
263 268 293 363 368 38 238 0
261 266 296 301 306 36 101 0
264 269 299 304 309 39 104 0
261 266 296 301 331 36 0
264 269 299 304 349 39 0
261 266 296 301 356 36 0
264 269 299 304 364 39 0
261 266 296 306 326 36 0
264 269 299 309 344 39 0
261 266 296 306 351 36 0
264 269 299 309 359 39 0
265 270 300 315 325 40 145 0
265 270 300 315 345 40 0
265 270 300 315 365 40 0
265 270 300 325 335 40 0
265 270 300 325 355 40 0
261 266 296 326 331 36 151 0
261 266 296 326 356 36 0
265 270 300 335 345 40 180 0
261 266 296 331 351 36 0
265 270 300 335 365 40 0
264 269 299 344 349 39 199 0
265 270 300 345 355 40 0
264 269 299 344 364 39 0
264 269 299 349 359 39 0
261 266 296 351 356 36 201 0
265 270 300 355 365 40 210 0
264 269 299 359 364 39 224 0
264 269 304 309 314 39 104 109 124 0
261 266 301 306 321 36 101 116 131 0
264 269 304 309 329 39 104 0
261 266 301 306 346 36 101 0
264 269 304 309 369 39 104 0
261 266 301 306 371 36 101 0
264 269 304 314 349 39 109 0
264 269 304 314 364 39 109 0
263 268 303 318 323 38 113 118 148 0
263 268 303 318 333 38 113 0
263 268 303 318 368 38 113 0
263 268 303 323 328 38 118 0
261 266 301 321 331 36 116 0
261 266 301 321 356 36 116 0
263 268 303 323 363 38 118 0
263 268 303 328 333 38 153 0
264 269 304 329 349 39 169 0
264 269 304 329 364 39 0
263 268 303 328 368 38 0
261 266 301 331 346 36 181 0
263 268 303 333 363 38 0
261 266 301 331 371 36 0
261 266 301 346 356 36 0
264 269 304 349 369 39 0
261 266 301 356 371 36 231 0
263 268 303 363 368 38 238 0
264 269 304 364 369 39 239 0
262 267 307 312 317 37 122 127 137 0
264 269 309 314 344 39 124 0
262 267 307 312 347 37 122 0
262 267 307 312 352 37 122 0
264 269 309 314 359 39 124 0
262 267 307 317 342 37 127 0
262 267 307 317 372 37 127 0
261 266 306 321 326 36 131 0
261 266 306 321 351 36 131 0
264 269 309 329 344 39 164 0
261 266 306 326 346 36 166 0
264 269 309 329 359 39 0
261 266 306 326 371 36 0
262 267 307 342 347 37 197 0
262 267 307 342 352 37 0
264 269 309 344 369 39 0
261 266 306 346 351 36 0
262 267 307 347 372 37 0
261 266 306 351 371 36 216 0
262 267 307 352 372 37 217 0
264 269 309 359 369 39 229 0
265 270 315 320 325 40 140 145 150 0
262 267 312 317 337 37 137 0
265 270 315 320 345 40 140 0
265 270 315 320 365 40 140 0
262 267 312 317 367 37 137 0
265 270 315 325 340 40 145 0
265 270 315 325 360 40 145 0
265 270 315 340 345 40 190 0
262 267 312 337 347 37 192 0
262 267 312 337 352 37 0
265 270 315 340 365 40 0
264 269 314 344 349 39 199 0
265 270 315 345 360 40 0
264 269 314 344 364 39 0
264 269 314 349 359 39 0
262 267 312 347 367 37 0
262 267 312 352 367 37 212 0
264 269 314 359 364 39 224 0
265 270 315 360 365 40 225 0
265 270 320 325 335 40 150 0
263 268 318 323 338 38 148 0
265 270 320 325 355 40 150 0
263 268 318 323 373 38 148 0
263 268 318 333 338 38 173 0
265 270 320 335 345 40 180 0
265 270 320 335 365 40 0
263 268 318 333 373 38 0
262 267 317 337 342 37 187 0
263 268 318 338 368 38 0
262 267 317 337 372 37 0
265 270 320 345 355 40 0
262 267 317 342 367 37 0
265 270 320 355 365 40 210 0
262 267 317 367 372 37 247 0
263 268 318 368 373 38 248 0
261 266 321 326 331 36 151 0
263 268 323 328 338 38 158 0
261 266 321 326 356 36 0
263 268 323 328 373 38 0
265 270 325 335 340 40 175 0
261 266 321 331 351 36 0
265 270 325 335 360 40 0
265 270 325 340 355 40 0
263 268 323 338 363 38 0
261 266 321 351 356 36 201 0
265 270 325 355 360 40 205 0
263 268 323 363 373 38 243 0
263 268 328 333 338 38 153 158 173 0
261 266 326 331 346 36 151 166 181 0
261 266 326 331 371 36 151 0
263 268 328 333 373 38 153 0
263 268 328 338 368 38 158 0
264 269 329 344 349 39 164 169 199 0
264 269 329 344 364 39 164 0
261 266 326 346 356 36 166 0
264 269 329 349 359 39 169 0
264 269 329 359 364 39 224 0
261 266 326 356 371 36 231 0
263 268 328 368 373 38 248 0
265 270 335 340 345 40 175 180 190 0
263 268 333 338 363 38 173 0
265 270 335 340 365 40 175 0
265 270 335 345 360 40 180 0
261 266 331 346 351 36 181 0
261 266 331 351 371 36 216 0
265 270 335 360 365 40 225 0
263 268 333 363 373 38 243 0
262 267 337 342 347 37 187 192 197 0
262 267 337 342 352 37 187 0
265 270 340 345 355 40 190 0
262 267 337 347 372 37 192 0
265 270 340 355 365 40 210 0
262 267 337 352 372 37 217 0
263 268 338 363 368 38 238 0
262 267 342 347 367 37 197 0
264 269 344 349 369 39 199 0
265 270 345 355 360 40 205 0
262 267 342 352 367 37 212 0
264 269 344 364 369 39 239 0
261 266 346 351 356 36 201 0
264 269 349 359 369 39 229 0
262 267 347 367 372 37 247 0
265 270 355 360 365 40 205 210 225 0
261 266 351 356 371 36 201 216 231 0
262 267 352 367 372 37 212 217 247 0
264 269 359 364 369 39 224 229 239 0
263 268 363 368 373 38 238 243 248 0
261 271 276 281 291 41 51 61 76 0
261 271 276 281 316 41 51 0
261 271 276 281 341 41 51 0
261 271 276 281 366 41 51 0
263 273 278 288 293 43 58 63 88 0
265 275 280 290 300 45 60 70 95 0
263 273 278 288 303 43 58 0
265 275 280 290 320 45 60 0
263 273 278 288 338 43 58 0
265 275 280 290 340 45 60 0
265 275 280 290 360 45 60 0
263 273 278 288 373 43 58 0
261 271 276 291 306 41 61 0
263 273 278 293 323 43 63 0
261 271 276 291 331 41 61 0
263 273 278 293 333 43 63 0
261 271 276 291 356 41 61 0
263 273 278 293 368 43 63 0
265 275 280 300 310 45 70 0
265 275 280 300 330 45 70 0
265 275 280 300 375 45 70 0
263 273 278 303 323 43 118 0
263 273 278 303 333 43 0
263 273 278 303 368 43 0
261 271 276 306 316 41 126 0
265 275 280 310 320 45 130 0
265 275 280 310 340 45 0
261 271 276 306 341 41 0
265 275 280 310 360 45 0
261 271 276 306 366 41 0
265 275 280 320 330 45 0
261 271 276 316 331 41 0
261 271 276 316 356 41 0
265 275 280 320 375 45 0
263 273 278 323 338 43 0
263 273 278 323 373 43 0
265 275 280 330 340 45 160 0
265 275 280 330 360 45 0
263 273 278 333 338 43 173 0
261 271 276 331 341 41 176 0
261 271 276 331 366 41 0
263 273 278 333 373 43 0
263 273 278 338 368 43 0
265 275 280 340 375 45 0
261 271 276 341 356 41 0
261 271 276 356 366 41 226 0
265 275 280 360 375 45 235 0
263 273 278 368 373 43 248 0
262 272 282 287 297 42 72 82 92 0
262 272 282 287 302 42 72 0
262 272 282 287 332 42 72 0
262 272 282 287 362 42 72 0
264 274 284 294 299 44 79 84 99 0
261 271 281 291 301 41 76 0
264 274 284 294 314 44 79 0
261 271 281 291 326 41 76 0
264 274 284 294 329 44 79 0
261 271 281 291 351 41 76 0
264 274 284 294 369 44 79 0
264 274 284 299 309 44 84 0
262 272 282 297 317 42 82 0
262 272 282 297 347 42 82 0
264 274 284 299 349 44 84 0
262 272 282 297 352 42 82 0
264 274 284 299 364 44 84 0
261 271 281 301 316 41 111 0
262 272 282 302 317 42 112 0
261 271 281 301 341 41 0
262 272 282 302 347 42 0
262 272 282 302 352 42 0
261 271 281 301 366 41 0
264 274 284 309 314 44 124 0
264 274 284 309 329 44 0
264 274 284 309 369 44 0
264 274 284 314 349 44 0
264 274 284 314 364 44 0
261 271 281 316 326 41 0
262 272 282 317 332 42 0
261 271 281 316 351 41 0
262 272 282 317 362 42 0
261 271 281 326 341 41 161 0
264 274 284 329 349 44 169 0
264 274 284 329 364 44 0
261 271 281 326 366 41 0
262 272 282 332 347 42 182 0
262 272 282 332 352 42 0
261 271 281 341 351 41 0
262 272 282 347 362 42 0
264 274 284 349 369 44 0
262 272 282 352 362 42 207 0
261 271 281 351 366 41 211 0
264 274 284 364 369 44 239 0
263 273 288 293 313 43 88 0
263 273 288 293 348 43 88 0
263 273 288 293 358 43 88 0
262 272 287 297 312 42 92 0
265 275 290 300 325 45 95 0
262 272 287 297 342 42 92 0
265 275 290 300 345 45 95 0
265 275 290 300 365 45 95 0
262 272 287 297 372 42 92 0
262 272 287 302 312 42 107 0
263 273 288 303 313 43 108 0
262 272 287 302 342 42 0
263 273 288 303 348 43 0
263 273 288 303 358 43 0
262 272 287 302 372 42 0
262 272 287 312 332 42 0
263 273 288 313 338 43 0
262 272 287 312 362 42 0
263 273 288 313 373 43 0
265 275 290 320 325 45 150 0
265 275 290 320 345 45 0
265 275 290 320 365 45 0
265 275 290 325 340 45 0
265 275 290 325 360 45 0
262 272 287 332 342 42 177 0
262 272 287 332 372 42 0
265 275 290 340 345 45 190 0
263 273 288 338 348 43 193 0
263 273 288 338 358 43 0
265 275 290 340 365 45 0
265 275 290 345 360 45 0
262 272 287 342 362 42 0
263 273 288 348 373 43 0
265 275 290 360 365 45 225 0
263 273 288 358 373 43 233 0
262 272 287 362 372 42 242 0
264 274 294 299 324 44 99 0
264 274 294 299 339 44 99 0
264 274 294 299 354 44 99 0
261 271 291 301 306 41 101 0
261 271 291 301 331 41 0
261 271 291 301 356 41 0
261 271 291 306 326 41 0
261 271 291 306 351 41 0
263 273 293 313 323 43 143 0
264 274 294 314 324 44 144 0
263 273 293 313 333 43 0
264 274 294 314 339 44 0
264 274 294 314 354 44 0
263 273 293 313 368 43 0
264 274 294 324 329 44 0
263 273 293 323 348 43 0
263 273 293 323 358 43 0
264 274 294 324 369 44 0
261 271 291 326 331 41 151 0
264 274 294 329 339 44 159 0
264 274 294 329 354 44 0
261 271 291 326 356 41 0
263 273 293 333 348 43 183 0
261 271 291 331 351 41 0
263 273 293 333 358 43 0
264 274 294 339 369 44 0
263 273 293 348 368 43 0
261 271 291 351 356 41 201 0
264 274 294 354 369 44 214 0
263 273 293 358 368 43 228 0
264 274 299 309 324 44 134 0
265 275 300 310 325 45 135 0
264 274 299 309 339 44 0
265 275 300 310 345 45 0
264 274 299 309 354 44 0
265 275 300 310 365 45 0
262 272 297 312 317 42 137 0
262 272 297 312 347 42 0
262 272 297 312 352 42 0
262 272 297 317 342 42 0
262 272 297 317 372 42 0
265 275 300 325 330 45 0
264 274 299 324 349 44 0
264 274 299 324 364 44 0
265 275 300 325 375 45 0
265 275 300 330 345 45 165 0
265 275 300 330 365 45 0
264 274 299 339 349 44 194 0
264 274 299 339 364 44 0
262 272 297 342 347 42 197 0
262 272 297 342 352 42 0
265 275 300 345 375 45 0
264 274 299 349 354 44 0
262 272 297 347 372 42 0
264 274 299 354 364 44 209 0
262 272 297 352 372 42 217 0
265 275 300 365 375 45 245 0
261 271 301 306 316 41 101 111 126 0
261 271 301 306 341 41 101 0
261 271 301 306 366 41 101 0
262 272 302 312 317 42 107 112 137 0
263 273 303 313 323 43 108 118 143 0
263 273 303 313 333 43 108 0
262 272 302 312 347 42 107 0
262 272 302 312 352 42 107 0
263 273 303 313 368 43 108 0
261 271 301 316 331 41 111 0
262 272 302 317 342 42 112 0
261 271 301 316 356 41 111 0
262 272 302 317 372 42 112 0
263 273 303 323 348 43 118 0
263 273 303 323 358 43 118 0
261 271 301 331 341 41 176 0
263 273 303 333 348 43 183 0
263 273 303 333 358 43 0
261 271 301 331 366 41 0
262 272 302 342 347 42 197 0
262 272 302 342 352 42 0
261 271 301 341 356 41 0
263 273 303 348 368 43 0
262 272 302 347 372 42 0
262 272 302 352 372 42 217 0
261 271 301 356 366 41 226 0
263 273 303 358 368 43 228 0
264 274 309 314 324 44 124 134 144 0
264 274 309 314 339 44 124 0
264 274 309 314 354 44 124 0
265 275 310 320 325 45 130 135 150 0
261 271 306 316 326 41 126 0
265 275 310 320 345 45 130 0
261 271 306 316 351 41 126 0
265 275 310 320 365 45 130 0
264 274 309 324 329 44 134 0
265 275 310 325 340 45 135 0
265 275 310 325 360 45 135 0
264 274 309 324 369 44 134 0
264 274 309 329 339 44 159 0
261 271 306 326 341 41 161 0
264 274 309 329 354 44 0
261 271 306 326 366 41 0
265 275 310 340 345 45 190 0
265 275 310 340 365 45 0
264 274 309 339 369 44 0
261 271 306 341 351 41 0
265 275 310 345 360 45 0
261 271 306 351 366 41 211 0
264 274 309 354 369 44 214 0
265 275 310 360 365 45 225 0
262 272 312 317 332 42 137 0
262 272 312 317 362 42 137 0
263 273 313 323 338 43 143 0
264 274 314 324 349 44 144 0
264 274 314 324 364 44 144 0
263 273 313 323 373 43 143 0
263 273 313 333 338 43 173 0
262 272 312 332 347 42 182 0
262 272 312 332 352 42 0
263 273 313 333 373 43 0
264 274 314 339 349 44 194 0
264 274 314 339 364 44 0
263 273 313 338 368 43 0
264 274 314 349 354 44 0
262 272 312 347 362 42 0
262 272 312 352 362 42 207 0
264 274 314 354 364 44 209 0
263 273 313 368 373 43 248 0
265 275 320 325 330 45 150 0
265 275 320 325 375 45 150 0
261 271 316 326 331 41 151 0
265 275 320 330 345 45 165 0
261 271 316 326 356 41 0
265 275 320 330 365 45 0
262 272 317 332 342 42 177 0
261 271 316 331 351 41 0
262 272 317 332 372 42 0
262 272 317 342 362 42 0
265 275 320 345 375 45 0
261 271 316 351 356 41 201 0
262 272 317 362 372 42 242 0
265 275 320 365 375 45 245 0
265 275 325 330 340 45 160 0
264 274 324 329 349 44 169 0
265 275 325 330 360 45 0
264 274 324 329 364 44 0
263 273 323 338 348 43 193 0
263 273 323 338 358 43 0
265 275 325 340 375 45 0
264 274 324 349 369 44 0
263 273 323 348 373 43 0
263 273 323 358 373 43 233 0
265 275 325 360 375 45 235 0
264 274 324 364 369 44 239 0
261 271 326 331 341 41 151 161 176 0
261 271 326 331 366 41 151 0
265 275 330 340 345 45 160 165 190 0
264 274 329 339 349 44 159 169 194 0
264 274 329 339 364 44 159 0
265 275 330 340 365 45 160 0
261 271 326 341 356 41 161 0
265 275 330 345 360 45 165 0
264 274 329 349 354 44 169 0
264 274 329 354 364 44 209 0
265 275 330 360 365 45 225 0
261 271 326 356 366 41 226 0
263 273 333 338 348 43 173 183 193 0
263 273 333 338 358 43 173 0
262 272 332 342 347 42 177 182 197 0
261 271 331 341 351 41 176 0
262 272 332 342 352 42 177 0
262 272 332 347 372 42 182 0
263 273 333 348 373 43 183 0
261 271 331 351 366 41 211 0
262 272 332 352 372 42 217 0
263 273 333 358 373 43 233 0
265 275 340 345 375 45 190 0
263 273 338 348 368 43 193 0
264 274 339 349 369 44 194 0
263 273 338 358 368 43 228 0
264 274 339 364 369 44 239 0
265 275 340 365 375 45 245 0
262 272 342 347 362 42 197 0
261 271 341 351 356 41 201 0
262 272 342 352 362 42 207 0
265 275 345 360 375 45 235 0
264 274 349 354 369 44 214 0
262 272 347 362 372 42 242 0
263 273 348 368 373 43 248 0
261 271 351 356 366 41 201 211 226 0
264 274 354 364 369 44 209 214 239 0
262 272 352 362 372 42 207 217 242 0
265 275 360 365 375 45 225 235 245 0
263 273 358 368 373 43 228 233 248 0
263 278 283 288 293 53 58 63 73 78 88 0
262 277 282 287 297 52 57 67 72 82 92 0
262 277 282 287 302 52 57 72 0
263 278 283 288 303 53 58 73 0
262 277 282 287 332 52 57 72 0
263 278 283 288 338 53 58 73 0
262 277 282 287 362 52 57 72 0
263 278 283 288 373 53 58 73 0
261 276 281 291 296 51 61 66 76 81 96 0
261 276 281 291 321 51 61 76 0
263 278 283 293 323 53 63 78 0
263 278 283 293 333 53 63 78 0
261 276 281 291 346 51 61 76 0
263 278 283 293 368 53 63 78 0
261 276 281 291 371 51 61 76 0
261 276 281 296 316 51 66 81 0
262 277 282 297 317 52 67 82 0
261 276 281 296 341 51 66 81 0
262 277 282 297 347 52 67 82 0
262 277 282 297 352 52 67 82 0
261 276 281 296 366 51 66 81 0
262 277 282 302 317 52 112 0
263 278 283 303 323 53 118 0
263 278 283 303 333 53 0
262 277 282 302 347 52 0
262 277 282 302 352 52 0
263 278 283 303 368 53 0
261 276 281 316 321 51 146 0
262 277 282 317 332 52 0
261 276 281 316 346 51 0
262 277 282 317 362 52 0
261 276 281 316 371 51 0
263 278 283 323 338 53 0
261 276 281 321 341 51 0
261 276 281 321 366 51 0
263 278 283 323 373 53 0
263 278 283 333 338 53 173 0
262 277 282 332 347 52 182 0
262 277 282 332 352 52 0
263 278 283 333 373 53 0
263 278 283 338 368 53 0
261 276 281 341 346 51 196 0
261 276 281 341 371 51 0
262 277 282 347 362 52 0
261 276 281 346 366 51 0
262 277 282 352 362 52 207 0
261 276 281 366 371 51 246 0
263 278 283 368 373 53 248 0
265 280 290 295 300 60 65 70 90 95 100 0
263 278 288 293 318 58 63 88 0
265 280 290 295 320 60 65 90 0
263 278 288 293 328 58 63 88 0
265 280 290 295 340 60 65 90 0
265 280 290 295 360 60 65 90 0
263 278 288 293 363 58 63 88 0
262 277 287 297 312 57 67 92 0
265 280 290 300 315 60 70 95 0
265 280 290 300 335 60 70 95 0
262 277 287 297 342 57 67 92 0
265 280 290 300 355 60 70 95 0
262 277 287 297 372 57 67 92 0
262 277 287 302 312 57 107 0
263 278 288 303 318 58 113 0
263 278 288 303 328 58 0
262 277 287 302 342 57 0
263 278 288 303 363 58 0
262 277 287 302 372 57 0
265 280 290 315 320 60 140 0
262 277 287 312 332 57 0
265 280 290 315 340 60 0
265 280 290 315 360 60 0
262 277 287 312 362 57 0
265 280 290 320 335 60 0
263 278 288 318 338 58 0
265 280 290 320 355 60 0
263 278 288 318 373 58 0
263 278 288 328 338 58 158 0
263 278 288 328 373 58 0
265 280 290 335 340 60 175 0
262 277 287 332 342 57 177 0
265 280 290 335 360 60 0
262 277 287 332 372 57 0
265 280 290 340 355 60 0
263 278 288 338 363 58 0
262 277 287 342 362 57 0
265 280 290 355 360 60 205 0
262 277 287 362 372 57 242 0
263 278 288 363 373 58 243 0
261 276 291 296 306 61 66 96 0
265 280 295 300 310 65 70 100 0
265 280 295 300 330 65 70 100 0
261 276 291 296 331 61 66 96 0
261 276 291 296 356 61 66 96 0
265 280 295 300 375 65 70 100 0
265 280 295 310 320 65 130 0
261 276 291 306 321 61 131 0
265 280 295 310 340 65 0
261 276 291 306 346 61 0
265 280 295 310 360 65 0
261 276 291 306 371 61 0
263 278 293 318 323 63 148 0
265 280 295 320 330 65 0
263 278 293 318 333 63 0
263 278 293 318 368 63 0
265 280 295 320 375 65 0
263 278 293 323 328 63 0
261 276 291 321 331 61 0
261 276 291 321 356 61 0
263 278 293 323 363 63 0
263 278 293 328 333 63 153 0
265 280 295 330 340 65 160 0
265 280 295 330 360 65 0
263 278 293 328 368 63 0
261 276 291 331 346 61 181 0
263 278 293 333 363 63 0
261 276 291 331 371 61 0
265 280 295 340 375 65 0
261 276 291 346 356 61 0
261 276 291 356 371 61 231 0
265 280 295 360 375 65 235 0
263 278 293 363 368 63 238 0
265 280 300 310 315 70 125 0
261 276 296 306 316 66 126 0
265 280 300 310 335 70 0
261 276 296 306 341 66 0
265 280 300 310 355 70 0
261 276 296 306 366 66 0
262 277 297 312 317 67 137 0
265 280 300 315 330 70 0
262 277 297 312 347 67 0
262 277 297 312 352 67 0
265 280 300 315 375 70 0
261 276 296 316 331 66 0
262 277 297 317 342 67 0
261 276 296 316 356 66 0
262 277 297 317 372 67 0
265 280 300 330 335 70 155 0
265 280 300 330 355 70 0
261 276 296 331 341 66 176 0
261 276 296 331 366 66 0
265 280 300 335 375 70 0
262 277 297 342 347 67 197 0
262 277 297 342 352 67 0
261 276 296 341 356 66 0
262 277 297 347 372 67 0
262 277 297 352 372 67 217 0
265 280 300 355 375 70 220 0
261 276 296 356 366 66 226 0
262 277 302 312 317 107 112 137 0
262 277 302 312 347 107 0
262 277 302 312 352 107 0
263 278 303 318 323 113 118 148 0
263 278 303 318 333 113 0
262 277 302 317 342 112 0
263 278 303 318 368 113 0
262 277 302 317 372 112 0
263 278 303 323 328 118 0
263 278 303 323 363 118 0
263 278 303 328 333 153 0
263 278 303 328 368 0
263 278 303 333 363 0
262 277 302 342 347 197 0
262 277 302 342 352 0
262 277 302 347 372 0
262 277 302 352 372 217 0
263 278 303 363 368 238 0
265 280 310 315 320 125 130 140 0
265 280 310 315 340 125 0
265 280 310 315 360 125 0
261 276 306 316 321 126 131 146 0
265 280 310 320 335 130 0
261 276 306 316 346 126 0
265 280 310 320 355 130 0
261 276 306 316 371 126 0
261 276 306 321 341 131 0
261 276 306 321 366 131 0
265 280 310 335 340 175 0
265 280 310 335 360 0
265 280 310 340 355 0
261 276 306 341 346 196 0
261 276 306 341 371 0
261 276 306 346 366 0
265 280 310 355 360 205 0
261 276 306 366 371 246 0
265 280 315 320 330 140 0
262 277 312 317 332 137 0
262 277 312 317 362 137 0
265 280 315 320 375 140 0
265 280 315 330 340 160 0
265 280 315 330 360 0
262 277 312 332 347 182 0
262 277 312 332 352 0
265 280 315 340 375 0
262 277 312 347 362 0
262 277 312 352 362 207 0
265 280 315 360 375 235 0
261 276 316 321 331 146 0
263 278 318 323 338 148 0
261 276 316 321 356 146 0
263 278 318 323 373 148 0
265 280 320 330 335 155 0
265 280 320 330 355 0
263 278 318 333 338 173 0
262 277 317 332 342 177 0
261 276 316 331 346 181 0
261 276 316 331 371 0
262 277 317 332 372 0
263 278 318 333 373 0
265 280 320 335 375 0
263 278 318 338 368 0
262 277 317 342 362 0
261 276 316 346 356 0
265 280 320 355 375 220 0
261 276 316 356 371 231 0
262 277 317 362 372 242 0
263 278 318 368 373 248 0
263 278 323 328 338 158 0
263 278 323 328 373 0
261 276 321 331 341 176 0
261 276 321 331 366 0
263 278 323 338 363 0
261 276 321 341 356 0
261 276 321 356 366 226 0
263 278 323 363 373 243 0
263 278 328 333 338 153 158 173 0
265 280 330 335 340 155 160 175 0
265 280 330 335 360 155 0
263 278 328 333 373 153 0
265 280 330 340 355 160 0
263 278 328 338 368 158 0
265 280 330 355 360 205 0
263 278 328 368 373 248 0
263 278 333 338 363 173 0
265 280 335 340 375 175 0
261 276 331 341 346 176 181 196 0
262 277 332 342 347 177 182 197 0
262 277 332 342 352 177 0
261 276 331 341 371 176 0
261 276 331 346 366 181 0
262 277 332 347 372 182 0
262 277 332 352 372 217 0
265 280 335 360 375 235 0
263 278 333 363 373 243 0
261 276 331 366 371 246 0
265 280 340 355 375 220 0
263 278 338 363 368 238 0
261 276 341 346 356 196 0
262 277 342 347 362 197 0
262 277 342 352 362 207 0
261 276 341 356 371 231 0
261 276 346 356 366 226 0
262 277 347 362 372 242 0
265 280 355 360 375 205 220 235 0
262 277 352 362 372 207 217 242 0
261 276 356 366 371 226 231 246 0
263 278 363 368 373 238 243 248 0
264 284 289 294 299 74 79 84 89 94 99 0
263 283 288 293 313 73 78 88 0
264 284 289 294 314 74 79 89 0
264 284 289 294 329 74 79 89 0
263 283 288 293 348 73 78 88 0
263 283 288 293 358 73 78 88 0
264 284 289 294 369 74 79 89 0
262 282 287 297 307 72 82 92 0
264 284 289 299 309 74 84 94 0
262 282 287 297 337 72 82 92 0
264 284 289 299 349 74 84 94 0
264 284 289 299 364 74 84 94 0
262 282 287 297 367 72 82 92 0
262 282 287 302 307 72 102 0
263 283 288 303 313 73 108 0
262 282 287 302 337 72 0
263 283 288 303 348 73 0
263 283 288 303 358 73 0
262 282 287 302 367 72 0
264 284 289 309 314 74 124 0
264 284 289 309 329 74 0
262 282 287 307 332 72 0
262 282 287 307 362 72 0
264 284 289 309 369 74 0
263 283 288 313 338 73 0
264 284 289 314 349 74 0
264 284 289 314 364 74 0
263 283 288 313 373 73 0
264 284 289 329 349 74 169 0
264 284 289 329 364 74 0
262 282 287 332 337 72 172 0
262 282 287 332 367 72 0
263 283 288 338 348 73 193 0
263 283 288 338 358 73 0
262 282 287 337 362 72 0
264 284 289 349 369 74 0
263 283 288 348 373 73 0
263 283 288 358 373 73 233 0
262 282 287 362 367 72 237 0
264 284 289 364 369 74 239 0
261 281 291 296 301 76 81 96 0
264 284 294 299 304 79 84 99 0
261 281 291 296 326 76 81 96 0
264 284 294 299 344 79 84 99 0
261 281 291 296 351 76 81 96 0
264 284 294 299 359 79 84 99 0
264 284 294 304 314 79 109 0
261 281 291 301 321 76 116 0
264 284 294 304 329 79 0
261 281 291 301 346 76 0
264 284 294 304 369 79 0
261 281 291 301 371 76 0
263 283 293 313 323 78 143 0
263 283 293 313 333 78 0
264 284 294 314 344 79 0
264 284 294 314 359 79 0
263 283 293 313 368 78 0
261 281 291 321 326 76 0
263 283 293 323 348 78 0
261 281 291 321 351 76 0
263 283 293 323 358 78 0
264 284 294 329 344 79 164 0
261 281 291 326 346 76 166 0
264 284 294 329 359 79 0
261 281 291 326 371 76 0
263 283 293 333 348 78 183 0
263 283 293 333 358 78 0
264 284 294 344 369 79 0
261 281 291 346 351 76 0
263 283 293 348 368 78 0
261 281 291 351 371 76 216 0
263 283 293 358 368 78 228 0
264 284 294 359 369 79 229 0
264 284 299 304 309 84 104 0
261 281 296 301 316 81 111 0
261 281 296 301 341 81 0
264 284 299 304 349 84 0
264 284 299 304 364 84 0
261 281 296 301 366 81 0
262 282 297 307 317 82 127 0
264 284 299 309 344 84 0
262 282 297 307 347 82 0
262 282 297 307 352 82 0
264 284 299 309 359 84 0
261 281 296 316 326 81 0
262 282 297 317 337 82 0
261 281 296 316 351 81 0
262 282 297 317 367 82 0
261 281 296 326 341 81 161 0
261 281 296 326 366 81 0
262 282 297 337 347 82 192 0
262 282 297 337 352 82 0
264 284 299 344 349 84 199 0
261 281 296 341 351 81 0
264 284 299 344 364 84 0
264 284 299 349 359 84 0
262 282 297 347 367 82 0
261 281 296 351 366 81 211 0
262 282 297 352 367 82 212 0
264 284 299 359 364 84 224 0
264 284 304 309 314 104 109 124 0
262 282 302 307 317 102 112 127 0
264 284 304 309 329 104 0
262 282 302 307 347 102 0
262 282 302 307 352 102 0
264 284 304 309 369 104 0
263 283 303 313 323 108 118 143 0
263 283 303 313 333 108 0
264 284 304 314 349 109 0
264 284 304 314 364 109 0
263 283 303 313 368 108 0
261 281 301 316 321 111 116 146 0
262 282 302 317 337 112 0
261 281 301 316 346 111 0
262 282 302 317 367 112 0
261 281 301 316 371 111 0
261 281 301 321 341 116 0
263 283 303 323 348 118 0
263 283 303 323 358 118 0
261 281 301 321 366 116 0
264 284 304 329 349 169 0
264 284 304 329 364 0
263 283 303 333 348 183 0
263 283 303 333 358 0
262 282 302 337 347 192 0
262 282 302 337 352 0
261 281 301 341 346 196 0
261 281 301 341 371 0
261 281 301 346 366 0
262 282 302 347 367 0
263 283 303 348 368 0
264 284 304 349 369 0
262 282 302 352 367 212 0
263 283 303 358 368 228 0
264 284 304 364 369 239 0
261 281 301 366 371 246 0
264 284 309 314 344 124 0
264 284 309 314 359 124 0
262 282 307 317 332 127 0
262 282 307 317 362 127 0
264 284 309 329 344 164 0
264 284 309 329 359 0
262 282 307 332 347 182 0
262 282 307 332 352 0
264 284 309 344 369 0
262 282 307 347 362 0
262 282 307 352 362 207 0
264 284 309 359 369 229 0
263 283 313 323 338 143 0
263 283 313 323 373 143 0
263 283 313 333 338 173 0
263 283 313 333 373 0
263 283 313 338 368 0
264 284 314 344 349 199 0
264 284 314 344 364 0
264 284 314 349 359 0
264 284 314 359 364 224 0
263 283 313 368 373 248 0
261 281 316 321 326 146 0
261 281 316 321 351 146 0
261 281 316 326 346 166 0
261 281 316 326 371 0
262 282 317 332 337 172 0
262 282 317 332 367 0
262 282 317 337 362 0
261 281 316 346 351 0
261 281 316 351 371 216 0
262 282 317 362 367 237 0
261 281 321 326 341 161 0
261 281 321 326 366 0
263 283 323 338 348 193 0
263 283 323 338 358 0
261 281 321 341 351 0
263 283 323 348 373 0
261 281 321 351 366 211 0
263 283 323 358 373 233 0
261 281 326 341 346 161 166 196 0
264 284 329 344 349 164 169 199 0
264 284 329 344 364 164 0
261 281 326 341 371 161 0
264 284 329 349 359 169 0
261 281 326 346 366 166 0
264 284 329 359 364 224 0
261 281 326 366 371 246 0
262 282 332 337 347 172 182 192 0
263 283 333 338 348 173 183 193 0
262 282 332 337 352 172 0
263 283 333 338 358 173 0
262 282 332 347 367 182 0
263 283 333 348 373 183 0
262 282 332 352 367 212 0
263 283 333 358 373 233 0
262 282 337 347 362 192 0
263 283 338 348 368 193 0
262 282 337 352 362 207 0
263 283 338 358 368 228 0
261 281 341 346 351 196 0
264 284 344 349 369 199 0
261 281 341 351 371 216 0
264 284 344 364 369 239 0
261 281 346 351 366 211 0
264 284 349 359 369 229 0
262 282 347 362 367 237 0
263 283 348 368 373 248 0
262 282 352 362 367 207 212 237 0
261 281 351 366 371 211 216 246 0
264 284 359 364 369 224 229 239 0
263 283 358 368 373 228 233 248 0
264 289 294 299 324 89 94 99 0
265 290 295 300 325 90 95 100 0
264 289 294 299 339 89 94 99 0
265 290 295 300 345 90 95 100 0
264 289 294 299 354 89 94 99 0
265 290 295 300 365 90 95 100 0
263 288 293 313 318 88 138 0
264 289 294 314 324 89 144 0
263 288 293 313 328 88 0
264 289 294 314 339 89 0
264 289 294 314 354 89 0
263 288 293 313 363 88 0
265 290 295 320 325 90 150 0
265 290 295 320 345 90 0
263 288 293 318 348 88 0
263 288 293 318 358 88 0
265 290 295 320 365 90 0
264 289 294 324 329 89 0
265 290 295 325 340 90 0
265 290 295 325 360 90 0
264 289 294 324 369 89 0
264 289 294 329 339 89 159 0
263 288 293 328 348 88 168 0
264 289 294 329 354 89 0
263 288 293 328 358 88 0
265 290 295 340 345 90 190 0
265 290 295 340 365 90 0
264 289 294 339 369 89 0
265 290 295 345 360 90 0
263 288 293 348 363 88 0
264 289 294 354 369 89 214 0
263 288 293 358 363 88 223 0
265 290 295 360 365 90 225 0
262 287 297 307 312 92 122 0
264 289 299 309 324 94 134 0
264 289 299 309 339 94 0
262 287 297 307 342 92 0
264 289 299 309 354 94 0
262 287 297 307 372 92 0
265 290 300 315 325 95 145 0
262 287 297 312 337 92 0
265 290 300 315 345 95 0
265 290 300 315 365 95 0
262 287 297 312 367 92 0
265 290 300 325 335 95 0
264 289 299 324 349 94 0
265 290 300 325 355 95 0
264 289 299 324 364 94 0
265 290 300 335 345 95 180 0
265 290 300 335 365 95 0
262 287 297 337 342 92 187 0
264 289 299 339 349 94 194 0
264 289 299 339 364 94 0
262 287 297 337 372 92 0
265 290 300 345 355 95 0
262 287 297 342 367 92 0
264 289 299 349 354 94 0
264 289 299 354 364 94 209 0
265 290 300 355 365 95 210 0
262 287 297 367 372 92 247 0
262 287 302 307 312 102 107 122 0
262 287 302 307 342 102 0
262 287 302 307 372 102 0
263 288 303 313 318 108 113 138 0
263 288 303 313 328 108 0
262 287 302 312 337 107 0
263 288 303 313 363 108 0
262 287 302 312 367 107 0
263 288 303 318 348 113 0
263 288 303 318 358 113 0
263 288 303 328 348 168 0
263 288 303 328 358 0
262 287 302 337 342 187 0
262 287 302 337 372 0
262 287 302 342 367 0
263 288 303 348 363 0
263 288 303 358 363 223 0
262 287 302 367 372 247 0
264 289 309 314 324 124 134 144 0
262 287 307 312 332 122 0
264 289 309 314 339 124 0
264 289 309 314 354 124 0
262 287 307 312 362 122 0
264 289 309 324 329 134 0
264 289 309 324 369 134 0
264 289 309 329 339 159 0
264 289 309 329 354 0
262 287 307 332 342 177 0
262 287 307 332 372 0
264 289 309 339 369 0
262 287 307 342 362 0
264 289 309 354 369 214 0
262 287 307 362 372 242 0
265 290 315 320 325 140 145 150 0
263 288 313 318 338 138 0
265 290 315 320 345 140 0
265 290 315 320 365 140 0
263 288 313 318 373 138 0
265 290 315 325 340 145 0
264 289 314 324 349 144 0
265 290 315 325 360 145 0
264 289 314 324 364 144 0
263 288 313 328 338 158 0
263 288 313 328 373 0
262 287 312 332 337 172 0
262 287 312 332 367 0
265 290 315 340 345 190 0
264 289 314 339 349 194 0
262 287 312 337 362 0
263 288 313 338 363 0
264 289 314 339 364 0
265 290 315 340 365 0
265 290 315 345 360 0
264 289 314 349 354 0
264 289 314 354 364 209 0
265 290 315 360 365 225 0
262 287 312 362 367 237 0
263 288 313 363 373 243 0
265 290 320 325 335 150 0
265 290 320 325 355 150 0
265 290 320 335 345 180 0
265 290 320 335 365 0
263 288 318 338 348 193 0
263 288 318 338 358 0
265 290 320 345 355 0
263 288 318 348 373 0
265 290 320 355 365 210 0
263 288 318 358 373 233 0
264 289 324 329 349 169 0
264 289 324 329 364 0
265 290 325 335 340 175 0
265 290 325 335 360 0
265 290 325 340 355 0
264 289 324 349 369 0
265 290 325 355 360 205 0
264 289 324 364 369 239 0
263 288 328 338 348 158 168 193 0
264 289 329 339 349 159 169 194 0
263 288 328 338 358 158 0
264 289 329 339 364 159 0
264 289 329 349 354 169 0
263 288 328 348 373 168 0
264 289 329 354 364 209 0
263 288 328 358 373 233 0
262 287 332 337 342 172 177 187 0
265 290 335 340 345 175 180 190 0
265 290 335 340 365 175 0
262 287 332 337 372 172 0
265 290 335 345 360 180 0
262 287 332 342 367 177 0
265 290 335 360 365 225 0
262 287 332 367 372 247 0
265 290 340 345 355 190 0
262 287 337 342 362 187 0
263 288 338 348 363 193 0
264 289 339 349 369 194 0
265 290 340 355 365 210 0
263 288 338 358 363 223 0
264 289 339 364 369 239 0
262 287 337 362 372 242 0
265 290 345 355 360 205 0
262 287 342 362 367 237 0
264 289 349 354 369 214 0
263 288 348 363 373 243 0
265 290 355 360 365 205 210 225 0
264 289 354 364 369 209 214 239 0
263 288 358 363 373 223 233 243 0
262 287 362 367 372 237 242 247 0
261 291 296 301 306 96 101 0
264 294 299 304 324 99 119 0
261 291 296 301 331 96 0
264 294 299 304 339 99 0
264 294 299 304 354 99 0
261 291 296 301 356 96 0
265 295 300 310 325 100 135 0
261 291 296 306 326 96 0
265 295 300 310 345 100 0
261 291 296 306 351 96 0
265 295 300 310 365 100 0
265 295 300 325 330 100 0
264 294 299 324 344 99 0
264 294 299 324 359 99 0
265 295 300 325 375 100 0
261 291 296 326 331 96 151 0
265 295 300 330 345 100 165 0
261 291 296 326 356 96 0
265 295 300 330 365 100 0
261 291 296 331 351 96 0
264 294 299 339 344 99 189 0
264 294 299 339 359 99 0
264 294 299 344 354 99 0
265 295 300 345 375 100 0
261 291 296 351 356 96 201 0
264 294 299 354 359 99 204 0
265 295 300 365 375 100 245 0
261 291 301 306 321 101 116 131 0
261 291 301 306 346 101 0
261 291 301 306 371 101 0
264 294 304 314 324 109 119 144 0
264 294 304 314 339 109 0
264 294 304 314 354 109 0
264 294 304 324 329 119 0
261 291 301 321 331 116 0
261 291 301 321 356 116 0
264 294 304 324 369 119 0
264 294 304 329 339 159 0
264 294 304 329 354 0
261 291 301 331 346 181 0
261 291 301 331 371 0
264 294 304 339 369 0
261 291 301 346 356 0
264 294 304 354 369 214 0
261 291 301 356 371 231 0
265 295 310 320 325 130 135 150 0
265 295 310 320 345 130 0
265 295 310 320 365 130 0
261 291 306 321 326 131 0
265 295 310 325 340 135 0
261 291 306 321 351 131 0
265 295 310 325 360 135 0
261 291 306 326 346 166 0
261 291 306 326 371 0
265 295 310 340 345 190 0
265 295 310 340 365 0
265 295 310 345 360 0
261 291 306 346 351 0
261 291 306 351 371 216 0
265 295 310 360 365 225 0
263 293 313 318 323 138 143 148 0
263 293 313 318 333 138 0
263 293 313 318 368 138 0
263 293 313 323 328 143 0
264 294 314 324 344 144 0
264 294 314 324 359 144 0
263 293 313 323 363 143 0
263 293 313 328 333 153 0
263 293 313 328 368 0
263 293 313 333 363 0
264 294 314 339 344 189 0
264 294 314 339 359 0
264 294 314 344 354 0
264 294 314 354 359 204 0
263 293 313 363 368 238 0
265 295 320 325 330 150 0
263 293 318 323 348 148 0
263 293 318 323 358 148 0
265 295 320 325 375 150 0
265 295 320 330 345 165 0
265 295 320 330 365 0
263 293 318 333 348 183 0
263 293 318 333 358 0
265 295 320 345 375 0
263 293 318 348 368 0
263 293 318 358 368 228 0
265 295 320 365 375 245 0
261 291 321 326 331 151 0
265 295 325 330 340 160 0
264 294 324 329 344 164 0
263 293 323 328 348 168 0
261 291 321 326 356 0
263 293 323 328 358 0
264 294 324 329 359 0
265 295 325 330 360 0
261 291 321 331 351 0
265 295 325 340 375 0
264 294 324 344 369 0
263 293 323 348 363 0
261 291 321 351 356 201 0
263 293 323 358 363 223 0
264 294 324 359 369 229 0
265 295 325 360 375 235 0
261 291 326 331 346 151 166 181 0
263 293 328 333 348 153 168 183 0
263 293 328 333 358 153 0
261 291 326 331 371 151 0
264 294 329 339 344 159 164 189 0
265 295 330 340 345 160 165 190 0
264 294 329 339 359 159 0
265 295 330 340 365 160 0
264 294 329 344 354 164 0
265 295 330 345 360 165 0
261 291 326 346 356 166 0
263 293 328 348 368 168 0
264 294 329 354 359 204 0
265 295 330 360 365 225 0
263 293 328 358 368 228 0
261 291 326 356 371 231 0
261 291 331 346 351 181 0
263 293 333 348 363 183 0
261 291 331 351 371 216 0
263 293 333 358 363 223 0
264 294 339 344 369 189 0
265 295 340 345 375 190 0
264 294 339 359 369 229 0
265 295 340 365 375 245 0
264 294 344 354 369 214 0
265 295 345 360 375 235 0
261 291 346 351 356 201 0
263 293 348 363 368 238 0
264 294 354 359 369 204 214 229 0
261 291 351 356 371 201 216 231 0
263 293 358 363 368 223 228 238 0
265 295 360 365 375 225 235 245 0
261 296 301 306 316 101 111 126 0
264 299 304 309 324 104 119 134 0
264 299 304 309 339 104 0
261 296 301 306 341 101 0
264 299 304 309 354 104 0
261 296 301 306 366 101 0
261 296 301 316 331 111 0
261 296 301 316 356 111 0
264 299 304 324 349 119 0
264 299 304 324 364 119 0
261 296 301 331 341 176 0
261 296 301 331 366 0
264 299 304 339 349 194 0
264 299 304 339 364 0
261 296 301 341 356 0
264 299 304 349 354 0
264 299 304 354 364 209 0
261 296 301 356 366 226 0
262 297 307 312 317 122 127 137 0
265 300 310 315 325 125 135 145 0
265 300 310 315 345 125 0
262 297 307 312 347 122 0
262 297 307 312 352 122 0
265 300 310 315 365 125 0
261 296 306 316 326 126 0
262 297 307 317 342 127 0
261 296 306 316 351 126 0
262 297 307 317 372 127 0
265 300 310 325 335 135 0
264 299 309 324 344 134 0
265 300 310 325 355 135 0
264 299 309 324 359 134 0
261 296 306 326 341 161 0
261 296 306 326 366 0
265 300 310 335 345 180 0
265 300 310 335 365 0
264 299 309 339 344 189 0
264 299 309 339 359 0
262 297 307 342 347 197 0
261 296 306 341 351 0
262 297 307 342 352 0
264 299 309 344 354 0
265 300 310 345 355 0
262 297 307 347 372 0
264 299 309 354 359 204 0
265 300 310 355 365 210 0
261 296 306 351 366 211 0
262 297 307 352 372 217 0
262 297 312 317 337 137 0
262 297 312 317 367 137 0
265 300 315 325 330 145 0
265 300 315 325 375 145 0
265 300 315 330 345 165 0
265 300 315 330 365 0
262 297 312 337 347 192 0
262 297 312 337 352 0
265 300 315 345 375 0
262 297 312 347 367 0
262 297 312 352 367 212 0
265 300 315 365 375 245 0
261 296 316 326 331 151 0
261 296 316 326 356 0
261 296 316 331 351 0
262 297 317 337 342 187 0
262 297 317 337 372 0
262 297 317 342 367 0
261 296 316 351 356 201 0
262 297 317 367 372 247 0
265 300 325 330 335 155 0
265 300 325 330 355 0
265 300 325 335 375 0
264 299 324 344 349 199 0
264 299 324 344 364 0
264 299 324 349 359 0
265 300 325 355 375 220 0
264 299 324 359 364 224 0
261 296 326 331 341 151 161 176 0
265 300 330 335 345 155 165 180 0
265 300 330 335 365 155 0
261 296 326 331 366 151 0
265 300 330 345 355 165 0
261 296 326 341 356 161 0
265 300 330 355 365 210 0
261 296 326 356 366 226 0
261 296 331 341 351 176 0
265 300 335 345 375 180 0
261 296 331 351 366 211 0
265 300 335 365 375 245 0
262 297 337 342 347 187 192 197 0
264 299 339 344 349 189 194 199 0
262 297 337 342 352 187 0
264 299 339 344 364 189 0
264 299 339 349 359 194 0
262 297 337 347 372 192 0
262 297 337 352 372 217 0
264 299 339 359 364 224 0
264 299 344 349 354 199 0
262 297 342 347 367 197 0
261 296 341 351 356 201 0
264 299 344 354 364 209 0
262 297 342 352 367 212 0
265 300 345 355 375 220 0
264 299 349 354 359 204 0
262 297 347 367 372 247 0
264 299 354 359 364 204 209 224 0
261 296 351 356 366 201 211 226 0
265 300 355 365 375 210 220 245 0
262 297 352 367 372 212 217 247 0
262 302 307 312 317 102 107 112 122 127 137 0
264 304 309 314 324 104 109 119 124 134 144 0
264 304 309 314 339 104 109 124 0
262 302 307 312 347 102 107 122 0
262 302 307 312 352 102 107 122 0
264 304 309 314 354 104 109 124 0
261 301 306 316 321 101 111 116 126 131 146 0
262 302 307 317 342 102 112 127 0
261 301 306 316 346 101 111 126 0
261 301 306 316 371 101 111 126 0
262 302 307 317 372 102 112 127 0
264 304 309 324 329 104 119 134 0
261 301 306 321 341 101 116 131 0
261 301 306 321 366 101 116 131 0
264 304 309 324 369 104 119 134 0
264 304 309 329 339 104 159 0
264 304 309 329 354 104 0
264 304 309 339 369 104 0
261 301 306 341 346 101 196 0
262 302 307 342 347 102 197 0
262 302 307 342 352 102 0
261 301 306 341 371 101 0
261 301 306 346 366 101 0
262 302 307 347 372 102 0
264 304 309 354 369 104 214 0
262 302 307 352 372 102 217 0
261 301 306 366 371 101 246 0
263 303 313 318 323 108 113 118 138 143 148 0
263 303 313 318 333 108 113 138 0
262 302 312 317 337 107 112 137 0
262 302 312 317 367 107 112 137 0
263 303 313 318 368 108 113 138 0
263 303 313 323 328 108 118 143 0
264 304 314 324 349 109 119 144 0
263 303 313 323 363 108 118 143 0
264 304 314 324 364 109 119 144 0
263 303 313 328 333 108 153 0
263 303 313 328 368 108 0
263 303 313 333 363 108 0
262 302 312 337 347 107 192 0
264 304 314 339 349 109 194 0
262 302 312 337 352 107 0
264 304 314 339 364 109 0
264 304 314 349 354 109 0
262 302 312 347 367 107 0
264 304 314 354 364 109 209 0
262 302 312 352 367 107 212 0
263 303 313 363 368 108 238 0
261 301 316 321 331 111 116 146 0
263 303 318 323 348 113 118 148 0
261 301 316 321 356 111 116 146 0
263 303 318 323 358 113 118 148 0
261 301 316 331 346 111 181 0
263 303 318 333 348 113 183 0
263 303 318 333 358 113 0
261 301 316 331 371 111 0
262 302 317 337 342 112 187 0
262 302 317 337 372 112 0
262 302 317 342 367 112 0
261 301 316 346 356 111 0
263 303 318 348 368 113 0
263 303 318 358 368 113 228 0
261 301 316 356 371 111 231 0
262 302 317 367 372 112 247 0
263 303 323 328 348 118 168 0
264 304 324 329 349 119 169 0
263 303 323 328 358 118 0
264 304 324 329 364 119 0
261 301 321 331 341 116 176 0
261 301 321 331 366 116 0
261 301 321 341 356 116 0
263 303 323 348 363 118 0
264 304 324 349 369 119 0
263 303 323 358 363 118 223 0
261 301 321 356 366 116 226 0
264 304 324 364 369 119 239 0
263 303 328 333 348 153 168 183 0
263 303 328 333 358 153 0
264 304 329 339 349 159 169 194 0
264 304 329 339 364 159 0
264 304 329 349 354 169 0
263 303 328 348 368 168 0
264 304 329 354 364 209 0
263 303 328 358 368 228 0
261 301 331 341 346 176 181 196 0
261 301 331 341 371 176 0
263 303 333 348 363 183 0
261 301 331 346 366 181 0
263 303 333 358 363 223 0
261 301 331 366 371 246 0
262 302 337 342 347 187 192 197 0
262 302 337 342 352 187 0
264 304 339 349 369 194 0
262 302 337 347 372 192 0
262 302 337 352 372 217 0
264 304 339 364 369 239 0
261 301 341 346 356 196 0
262 302 342 347 367 197 0
262 302 342 352 367 212 0
261 301 341 356 371 231 0
264 304 349 354 369 214 0
261 301 346 356 366 226 0
263 303 348 363 368 238 0
262 302 347 367 372 247 0
264 304 354 364 369 209 214 239 0
262 302 352 367 372 212 217 247 0
263 303 358 363 368 223 228 238 0
261 301 356 366 371 226 231 246 0
265 310 315 320 325 125 130 135 140 145 150 0
262 307 312 317 332 122 127 137 0
265 310 315 320 345 125 130 140 0
262 307 312 317 362 122 127 137 0
265 310 315 320 365 125 130 140 0
265 310 315 325 340 125 135 145 0
264 309 314 324 344 124 134 144 0
264 309 314 324 359 124 134 144 0
265 310 315 325 360 125 135 145 0
262 307 312 332 347 122 182 0
262 307 312 332 352 122 0
264 309 314 339 344 124 189 0
265 310 315 340 345 125 190 0
264 309 314 339 359 124 0
265 310 315 340 365 125 0
264 309 314 344 354 124 0
265 310 315 345 360 125 0
262 307 312 347 362 122 0
264 309 314 354 359 124 204 0
262 307 312 352 362 122 207 0
265 310 315 360 365 125 225 0
261 306 316 321 326 126 131 146 0
265 310 320 325 335 130 135 150 0
261 306 316 321 351 126 131 146 0
265 310 320 325 355 130 135 150 0
261 306 316 326 346 126 166 0
261 306 316 326 371 126 0
262 307 317 332 342 127 177 0
265 310 320 335 345 130 180 0
265 310 320 335 365 130 0
262 307 317 332 372 127 0
265 310 320 345 355 130 0
262 307 317 342 362 127 0
261 306 316 346 351 126 0
265 310 320 355 365 130 210 0
261 306 316 351 371 126 216 0
262 307 317 362 372 127 242 0
261 306 321 326 341 131 161 0
264 309 324 329 344 134 164 0
264 309 324 329 359 134 0
261 306 321 326 366 131 0
265 310 325 335 340 135 175 0
265 310 325 335 360 135 0
265 310 325 340 355 135 0
261 306 321 341 351 131 0
264 309 324 344 369 134 0
265 310 325 355 360 135 205 0
261 306 321 351 366 131 211 0
264 309 324 359 369 134 229 0
264 309 329 339 344 159 164 189 0
264 309 329 339 359 159 0
261 306 326 341 346 161 166 196 0
264 309 329 344 354 164 0
261 306 326 341 371 161 0
261 306 326 346 366 166 0
264 309 329 354 359 204 0
261 306 326 366 371 246 0
265 310 335 340 345 175 180 190 0
265 310 335 340 365 175 0
262 307 332 342 347 177 182 197 0
262 307 332 342 352 177 0
265 310 335 345 360 180 0
262 307 332 347 372 182 0
262 307 332 352 372 217 0
265 310 335 360 365 225 0
265 310 340 345 355 190 0
264 309 339 344 369 189 0
265 310 340 355 365 210 0
264 309 339 359 369 229 0
261 306 341 346 351 196 0
262 307 342 347 362 197 0
265 310 345 355 360 205 0
262 307 342 352 362 207 0
264 309 344 354 369 214 0
261 306 341 351 371 216 0
261 306 346 351 366 211 0
262 307 347 362 372 242 0
265 310 355 360 365 205 210 225 0
264 309 354 359 369 204 214 229 0
262 307 352 362 372 207 217 242 0
261 306 351 366 371 211 216 246 0
265 315 320 325 330 140 145 150 0
263 313 318 323 338 138 143 148 0
263 313 318 323 373 138 143 148 0
265 315 320 325 375 140 145 150 0
265 315 320 330 345 140 165 0
265 315 320 330 365 140 0
262 312 317 332 337 137 172 0
263 313 318 333 338 138 173 0
262 312 317 332 367 137 0
263 313 318 333 373 138 0
262 312 317 337 362 137 0
263 313 318 338 368 138 0
265 315 320 345 375 140 0
262 312 317 362 367 137 237 0
265 315 320 365 375 140 245 0
263 313 318 368 373 138 248 0
263 313 323 328 338 143 158 0
265 315 325 330 340 145 160 0
265 315 325 330 360 145 0
263 313 323 328 373 143 0
263 313 323 338 363 143 0
265 315 325 340 375 145 0
264 314 324 344 349 144 199 0
264 314 324 344 364 144 0
264 314 324 349 359 144 0
264 314 324 359 364 144 224 0
265 315 325 360 375 145 235 0
263 313 323 363 373 143 243 0
263 313 328 333 338 153 158 173 0
263 313 328 333 373 153 0
265 315 330 340 345 160 165 190 0
265 315 330 340 365 160 0
263 313 328 338 368 158 0
265 315 330 345 360 165 0
265 315 330 360 365 225 0
263 313 328 368 373 248 0
262 312 332 337 347 172 182 192 0
262 312 332 337 352 172 0
263 313 333 338 363 173 0
262 312 332 347 367 182 0
262 312 332 352 367 212 0
263 313 333 363 373 243 0
264 314 339 344 349 189 194 199 0
264 314 339 344 364 189 0
265 315 340 345 375 190 0
264 314 339 349 359 194 0
262 312 337 347 362 192 0
262 312 337 352 362 207 0
264 314 339 359 364 224 0
263 313 338 363 368 238 0
265 315 340 365 375 245 0
264 314 344 349 354 199 0
264 314 344 354 364 209 0
265 315 345 360 375 235 0
264 314 349 354 359 204 0
262 312 347 362 367 237 0
264 314 354 359 364 204 209 224 0
262 312 352 362 367 207 212 237 0
265 315 360 365 375 225 235 245 0
263 313 363 368 373 238 243 248 0
261 316 321 326 331 146 151 0
265 320 325 330 335 150 155 0
265 320 325 330 355 150 0
261 316 321 326 356 146 0
261 316 321 331 351 146 0
265 320 325 335 375 150 0
263 318 323 338 348 148 193 0
263 318 323 338 358 148 0
263 318 323 348 373 148 0
261 316 321 351 356 146 201 0
265 320 325 355 375 150 220 0
263 318 323 358 373 148 233 0
265 320 330 335 345 155 165 180 0
261 316 326 331 346 151 166 181 0
265 320 330 335 365 155 0
261 316 326 331 371 151 0
265 320 330 345 355 165 0
261 316 326 346 356 166 0
265 320 330 355 365 210 0
261 316 326 356 371 231 0
262 317 332 337 342 172 177 187 0
263 318 333 338 348 173 183 193 0
263 318 333 338 358 173 0
262 317 332 337 372 172 0
262 317 332 342 367 177 0
265 320 335 345 375 180 0
261 316 331 346 351 181 0
263 318 333 348 373 183 0
261 316 331 351 371 216 0
263 318 333 358 373 233 0
265 320 335 365 375 245 0
262 317 332 367 372 247 0
262 317 337 342 362 187 0
263 318 338 348 368 193 0
263 318 338 358 368 228 0
262 317 337 362 372 242 0
265 320 345 355 375 220 0
262 317 342 362 367 237 0
261 316 346 351 356 201 0
263 318 348 368 373 248 0
261 316 351 356 371 201 216 231 0
265 320 355 365 375 210 220 245 0
263 318 358 368 373 228 233 248 0
262 317 362 367 372 237 242 247 0
265 325 330 335 340 155 160 175 0
261 321 326 331 341 151 161 176 0
265 325 330 335 360 155 0
261 321 326 331 366 151 0
263 323 328 338 348 158 168 193 0
265 325 330 340 355 160 0
263 323 328 338 358 158 0
264 324 329 344 349 164 169 199 0
261 321 326 341 356 161 0
264 324 329 344 364 164 0
264 324 329 349 359 169 0
263 323 328 348 373 168 0
265 325 330 355 360 205 0
264 324 329 359 364 224 0
261 321 326 356 366 226 0
263 323 328 358 373 233 0
265 325 335 340 375 175 0
261 321 331 341 351 176 0
261 321 331 351 366 211 0
265 325 335 360 375 235 0
263 323 338 348 363 193 0
265 325 340 355 375 220 0
263 323 338 358 363 223 0
264 324 344 349 369 199 0
261 321 341 351 356 201 0
264 324 344 364 369 239 0
264 324 349 359 369 229 0
263 323 348 363 373 243 0
261 321 351 356 366 201 211 226 0
265 325 355 360 375 205 220 235 0
264 324 359 364 369 224 229 239 0
263 323 358 363 373 223 233 243 0
265 330 335 340 345 155 160 165 175 180 190 0
263 328 333 338 348 153 158 168 173 183 193 0
263 328 333 338 358 153 158 173 0
265 330 335 340 365 155 160 175 0
261 326 331 341 346 151 161 166 176 181 196 0
265 330 335 345 360 155 165 180 0
261 326 331 341 371 151 161 176 0
261 326 331 346 366 151 166 181 0
263 328 333 348 373 153 168 183 0
265 330 335 360 365 155 225 0
263 328 333 358 373 153 233 0
261 326 331 366 371 151 246 0
264 329 339 344 349 159 164 169 189 194 199 0
265 330 340 345 355 160 165 190 0
264 329 339 344 364 159 164 189 0
264 329 339 349 359 159 169 194 0
263 328 338 348 368 158 168 193 0
265 330 340 355 365 160 210 0
264 329 339 359 364 159 224 0
263 328 338 358 368 158 228 0
264 329 344 349 354 164 169 199 0
261 326 341 346 356 161 166 196 0
265 330 345 355 360 165 205 0
264 329 344 354 364 164 209 0
261 326 341 356 371 161 231 0
264 329 349 354 359 169 204 0
261 326 346 356 366 166 226 0
263 328 348 368 373 168 248 0
264 329 354 359 364 204 209 224 0
265 330 355 360 365 205 210 225 0
261 326 356 366 371 226 231 246 0
263 328 358 368 373 228 233 248 0
262 332 337 342 347 172 177 182 187 192 197 0
262 332 337 342 352 172 177 187 0
265 335 340 345 375 175 180 190 0
263 333 338 348 363 173 183 193 0
262 332 337 347 372 172 182 192 0
262 332 337 352 372 172 217 0
263 333 338 358 363 173 223 0
265 335 340 365 375 175 245 0
261 331 341 346 351 176 181 196 0
262 332 342 347 367 177 182 197 0
262 332 342 352 367 177 212 0
261 331 341 351 371 176 216 0
265 335 345 360 375 180 235 0
261 331 346 351 366 181 211 0
263 333 348 363 373 183 243 0
262 332 347 367 372 182 247 0
261 331 351 366 371 211 216 246 0
262 332 352 367 372 212 217 247 0
263 333 358 363 373 223 233 243 0
265 335 360 365 375 225 235 245 0
262 337 342 347 362 187 192 197 0
264 339 344 349 369 189 194 199 0
262 337 342 352 362 187 207 0
265 340 345 355 375 190 220 0
264 339 344 364 369 189 239 0
264 339 349 359 369 194 229 0
263 338 348 363 368 193 238 0
262 337 347 362 372 192 242 0
262 337 352 362 372 207 217 242 0
265 340 355 365 375 210 220 245 0
263 338 358 363 368 223 228 238 0
264 339 359 364 369 224 229 239 0
261 341 346 351 356 196 201 0
264 344 349 354 369 199 214 0
262 342 347 362 367 197 237 0
261 341 351 356 371 201 216 231 0
265 345 355 360 375 205 220 235 0
262 342 352 362 367 207 212 237 0
264 344 354 364 369 209 214 239 0
261 346 351 356 366 201 211 226 0
264 349 354 359 369 204 214 229 0
262 347 362 367 372 237 242 247 0
263 348 363 368 373 238 243 248 0
264 354 359 364 369 204 209 214 224 229 239 0
265 355 360 365 375 205 210 220 225 235 245 0
261 351 356 366 371 201 211 216 226 231 246 0
262 352 362 367 372 207 212 217 237 242 247 0
263 358 363 368 373 223 228 233 238 243 248 0
266 271 276 281 286 46 51 56 71 0
270 275 280 285 300 50 55 70 85 0
266 271 276 281 311 46 51 0
270 275 280 285 320 50 55 0
266 271 276 281 336 46 51 0
270 275 280 285 340 50 55 0
270 275 280 285 360 50 55 0
266 271 276 281 361 46 51 0
266 271 276 286 306 46 56 0
266 271 276 286 331 46 56 0
266 271 276 286 356 46 56 0
269 274 279 294 299 49 64 69 99 0
269 274 279 294 314 49 64 0
269 274 279 294 329 49 64 0
269 274 279 294 369 49 64 0
270 275 280 300 305 50 70 0
269 274 279 299 309 49 69 0
269 274 279 299 349 49 69 0
270 275 280 300 350 50 70 0
269 274 279 299 364 49 69 0
270 275 280 300 370 50 70 0
270 275 280 305 320 50 115 0
270 275 280 305 340 50 0
270 275 280 305 360 50 0
266 271 276 306 311 46 121 0
269 274 279 309 314 49 124 0
269 274 279 309 329 49 0
266 271 276 306 336 46 0
266 271 276 306 361 46 0
269 274 279 309 369 49 0
266 271 276 311 331 46 0
269 274 279 314 349 49 0
266 271 276 311 356 46 0
269 274 279 314 364 49 0
270 275 280 320 350 50 0
270 275 280 320 370 50 0
269 274 279 329 349 49 169 0
269 274 279 329 364 49 0
266 271 276 331 336 46 171 0
266 271 276 331 361 46 0
270 275 280 340 350 50 195 0
266 271 276 336 356 46 0
270 275 280 340 370 50 0
270 275 280 350 360 50 0
269 274 279 349 369 49 0
266 271 276 356 361 46 221 0
270 275 280 360 370 50 230 0
269 274 279 364 369 49 239 0
267 272 282 287 292 47 72 77 87 0
266 271 281 286 301 46 71 0
267 272 282 287 322 47 72 0
266 271 281 286 326 46 71 0
267 272 282 287 327 47 72 0
266 271 281 286 351 46 71 0
267 272 282 287 357 47 72 0
267 272 282 292 317 47 77 0
267 272 282 292 347 47 77 0
267 272 282 292 352 47 77 0
270 275 285 300 325 50 85 0
270 275 285 300 345 50 85 0
270 275 285 300 365 50 85 0
266 271 281 301 311 46 106 0
266 271 281 301 336 46 0
266 271 281 301 361 46 0
266 271 281 311 326 46 0
266 271 281 311 351 46 0
267 272 282 317 322 47 147 0
270 275 285 320 325 50 150 0
267 272 282 317 327 47 0
270 275 285 320 345 50 0
267 272 282 317 357 47 0
270 275 285 320 365 50 0
270 275 285 325 340 50 0
267 272 282 322 347 47 0
267 272 282 322 352 47 0
270 275 285 325 360 50 0
266 271 281 326 336 46 156 0
267 272 282 327 347 47 167 0
267 272 282 327 352 47 0
266 271 281 326 361 46 0
270 275 285 340 345 50 190 0
266 271 281 336 351 46 0
270 275 285 340 365 50 0
270 275 285 345 360 50 0
267 272 282 347 357 47 0
267 272 282 352 357 47 202 0
266 271 281 351 361 46 206 0
270 275 285 360 365 50 225 0
268 273 288 293 298 48 88 93 98 0
268 273 288 293 308 48 88 0
267 272 287 292 312 47 87 0
267 272 287 292 342 47 87 0
268 273 288 293 343 48 88 0
268 273 288 293 353 48 88 0
267 272 287 292 372 47 87 0
268 273 288 298 303 48 93 0
268 273 288 298 338 48 93 0
268 273 288 298 373 48 93 0
266 271 286 301 306 46 101 0
268 273 288 303 308 48 103 0
266 271 286 301 331 46 0
268 273 288 303 343 48 0
268 273 288 303 353 48 0
266 271 286 301 356 46 0
266 271 286 306 326 46 0
268 273 288 308 338 48 0
266 271 286 306 351 46 0
268 273 288 308 373 48 0
267 272 287 312 322 47 142 0
267 272 287 312 327 47 0
267 272 287 312 357 47 0
267 272 287 322 342 47 0
267 272 287 322 372 47 0
266 271 286 326 331 46 151 0
267 272 287 327 342 47 162 0
266 271 286 326 356 46 0
267 272 287 327 372 47 0
266 271 286 331 351 46 0
268 273 288 338 343 48 188 0
268 273 288 338 353 48 0
267 272 287 342 357 47 0
268 273 288 343 373 48 0
266 271 286 351 356 46 201 0
268 273 288 353 373 48 218 0
267 272 287 357 372 47 232 0
269 274 294 299 319 49 99 0
268 273 293 298 323 48 98 0
268 273 293 298 333 48 98 0
269 274 294 299 334 49 99 0
268 273 293 298 368 48 98 0
269 274 294 299 374 49 99 0
268 273 293 308 323 48 133 0
268 273 293 308 333 48 0
268 273 293 308 368 48 0
267 272 292 312 317 47 137 0
269 274 294 314 319 49 139 0
269 274 294 314 334 49 0
267 272 292 312 347 47 0
267 272 292 312 352 47 0
269 274 294 314 374 49 0
269 274 294 319 329 49 0
267 272 292 317 342 47 0
269 274 294 319 369 49 0
267 272 292 317 372 47 0
268 273 293 323 343 48 0
268 273 293 323 353 48 0
269 274 294 329 334 49 154 0
269 274 294 329 374 49 0
268 273 293 333 343 48 178 0
268 273 293 333 353 48 0
269 274 294 334 369 49 0
267 272 292 342 347 47 197 0
267 272 292 342 352 47 0
268 273 293 343 368 48 0
267 272 292 347 372 47 0
268 273 293 353 368 48 213 0
267 272 292 352 372 47 217 0
269 274 294 369 374 49 249 0
268 273 298 303 323 48 118 0
270 275 300 305 325 50 120 0
268 273 298 303 333 48 0
270 275 300 305 345 50 0
270 275 300 305 365 50 0
268 273 298 303 368 48 0
269 274 299 309 319 49 129 0
269 274 299 309 334 49 0
269 274 299 309 374 49 0
269 274 299 319 349 49 0
269 274 299 319 364 49 0
268 273 298 323 338 48 0
270 275 300 325 350 50 0
270 275 300 325 370 50 0
268 273 298 323 373 48 0
268 273 298 333 338 48 173 0
269 274 299 334 349 49 184 0
269 274 299 334 364 49 0
268 273 298 333 373 48 0
268 273 298 338 368 48 0
270 275 300 345 350 50 200 0
270 275 300 345 370 50 0
270 275 300 350 365 50 0
269 274 299 349 374 49 0
270 275 300 365 370 50 240 0
269 274 299 364 374 49 244 0
268 273 298 368 373 48 248 0
266 271 301 306 311 46 101 106 121 0
268 273 303 308 323 48 103 118 133 0
268 273 303 308 333 48 103 0
266 271 301 306 336 46 101 0
266 271 301 306 361 46 101 0
268 273 303 308 368 48 103 0
266 271 301 311 331 46 106 0
266 271 301 311 356 46 106 0
270 275 305 320 325 50 115 120 150 0
270 275 305 320 345 50 115 0
270 275 305 320 365 50 115 0
270 275 305 325 340 50 120 0
268 273 303 323 343 48 118 0
268 273 303 323 353 48 118 0
270 275 305 325 360 50 120 0
266 271 301 331 336 46 171 0
268 273 303 333 343 48 178 0
268 273 303 333 353 48 0
266 271 301 331 361 46 0
270 275 305 340 345 50 190 0
266 271 301 336 356 46 0
270 275 305 340 365 50 0
270 275 305 345 360 50 0
268 273 303 343 368 48 0
268 273 303 353 368 48 213 0
266 271 301 356 361 46 221 0
270 275 305 360 365 50 225 0
269 274 309 314 319 49 124 129 139 0
266 271 306 311 326 46 121 0
269 274 309 314 334 49 124 0
266 271 306 311 351 46 121 0
269 274 309 314 374 49 124 0
269 274 309 319 329 49 129 0
269 274 309 319 369 49 129 0
268 273 308 323 338 48 133 0
268 273 308 323 373 48 133 0
269 274 309 329 334 49 154 0
266 271 306 326 336 46 156 0
266 271 306 326 361 46 0
269 274 309 329 374 49 0
268 273 308 333 338 48 173 0
269 274 309 334 369 49 0
268 273 308 333 373 48 0
266 271 306 336 351 46 0
268 273 308 338 368 48 0
266 271 306 351 361 46 206 0
268 273 308 368 373 48 248 0
269 274 309 369 374 49 249 0
267 272 312 317 322 47 137 142 147 0
267 272 312 317 327 47 137 0
269 274 314 319 349 49 139 0
267 272 312 317 357 47 137 0
269 274 314 319 364 49 139 0
267 272 312 322 347 47 142 0
267 272 312 322 352 47 142 0
266 271 311 326 331 46 151 0
267 272 312 327 347 47 167 0
267 272 312 327 352 47 0
266 271 311 326 356 46 0
269 274 314 334 349 49 184 0
266 271 311 331 351 46 0
269 274 314 334 364 49 0
267 272 312 347 357 47 0
269 274 314 349 374 49 0
266 271 311 351 356 46 201 0
267 272 312 352 357 47 202 0
269 274 314 364 374 49 244 0
267 272 317 322 342 47 147 0
270 275 320 325 350 50 150 0
270 275 320 325 370 50 150 0
267 272 317 322 372 47 147 0
267 272 317 327 342 47 162 0
269 274 319 329 349 49 169 0
269 274 319 329 364 49 0
267 272 317 327 372 47 0
270 275 320 345 350 50 200 0
267 272 317 342 357 47 0
270 275 320 345 370 50 0
270 275 320 350 365 50 0
269 274 319 349 369 49 0
267 272 317 357 372 47 232 0
269 274 319 364 369 49 239 0
270 275 320 365 370 50 240 0
268 273 323 338 343 48 188 0
270 275 325 340 350 50 195 0
268 273 323 338 353 48 0
270 275 325 340 370 50 0
267 272 322 342 347 47 197 0
267 272 322 342 352 47 0
268 273 323 343 373 48 0
270 275 325 350 360 50 0
267 272 322 347 372 47 0
267 272 322 352 372 47 217 0
268 273 323 353 373 48 218 0
270 275 325 360 370 50 230 0
266 271 326 331 336 46 151 156 171 0
269 274 329 334 349 49 154 169 184 0
266 271 326 331 361 46 151 0
269 274 329 334 364 49 154 0
266 271 326 336 356 46 156 0
267 272 327 342 347 47 162 167 197 0
267 272 327 342 352 47 162 0
267 272 327 347 372 47 167 0
269 274 329 349 374 49 169 0
267 272 327 352 372 47 217 0
266 271 326 356 361 46 221 0
269 274 329 364 374 49 244 0
268 273 333 338 343 48 173 178 188 0
266 271 331 336 351 46 171 0
268 273 333 338 353 48 173 0
268 273 333 343 373 48 178 0
269 274 334 349 369 49 184 0
266 271 331 351 361 46 206 0
268 273 333 353 373 48 218 0
269 274 334 364 369 49 239 0
270 275 340 345 350 50 190 195 200 0
268 273 338 343 368 48 188 0
270 275 340 345 370 50 190 0
270 275 340 350 365 50 195 0
266 271 336 351 356 46 201 0
268 273 338 353 368 48 213 0
270 275 340 365 370 50 240 0
267 272 342 347 357 47 197 0
270 275 345 350 360 50 200 0
267 272 342 352 357 47 202 0
270 275 345 360 370 50 230 0
268 273 343 368 373 48 248 0
270 275 350 360 365 50 225 0
267 272 347 357 372 47 232 0
269 274 349 369 374 49 249 0
266 271 351 356 361 46 201 206 221 0
267 272 352 357 372 47 202 217 232 0
268 273 353 368 373 48 213 218 248 0
270 275 360 365 370 50 225 230 240 0
269 274 364 369 374 49 239 244 249 0
267 277 282 287 292 52 57 62 72 77 87 0
266 276 281 286 296 51 56 66 71 81 91 0
266 276 281 286 321 51 56 71 0
267 277 282 287 322 52 57 72 0
267 277 282 287 327 52 57 72 0
266 276 281 286 346 51 56 71 0
267 277 282 287 357 52 57 72 0
266 276 281 286 371 51 56 71 0
270 280 285 295 300 55 65 70 80 85 100 0
267 277 282 292 317 52 62 77 0
270 280 285 295 320 55 65 80 0
270 280 285 295 340 55 65 80 0
267 277 282 292 347 52 62 77 0
267 277 282 292 352 52 62 77 0
270 280 285 295 360 55 65 80 0
266 276 281 296 311 51 66 81 0
270 280 285 300 315 55 70 85 0
270 280 285 300 335 55 70 85 0
266 276 281 296 336 51 66 81 0
270 280 285 300 355 55 70 85 0
266 276 281 296 361 51 66 81 0
270 280 285 315 320 55 140 0
266 276 281 311 321 51 141 0
270 280 285 315 340 55 0
266 276 281 311 346 51 0
270 280 285 315 360 55 0
266 276 281 311 371 51 0
267 277 282 317 322 52 147 0
267 277 282 317 327 52 0
270 280 285 320 335 55 0
270 280 285 320 355 55 0
267 277 282 317 357 52 0
266 276 281 321 336 51 0
267 277 282 322 347 52 0
267 277 282 322 352 52 0
266 276 281 321 361 51 0
267 277 282 327 347 52 167 0
267 277 282 327 352 52 0
270 280 285 335 340 55 175 0
270 280 285 335 360 55 0
266 276 281 336 346 51 191 0
270 280 285 340 355 55 0
266 276 281 336 371 51 0
267 277 282 347 357 52 0
266 276 281 346 361 51 0
267 277 282 352 357 52 202 0
270 280 285 355 360 55 205 0
266 276 281 361 371 51 241 0
269 279 289 294 299 59 64 69 89 94 99 0
267 277 287 292 312 57 62 87 0
269 279 289 294 314 59 64 89 0
269 279 289 294 329 59 64 89 0
267 277 287 292 342 57 62 87 0
269 279 289 294 369 59 64 89 0
267 277 287 292 372 57 62 87 0
266 276 286 296 306 56 66 91 0
269 279 289 299 309 59 69 94 0
266 276 286 296 331 56 66 91 0
269 279 289 299 349 59 69 94 0
266 276 286 296 356 56 66 91 0
269 279 289 299 364 59 69 94 0
269 279 289 309 314 59 124 0
266 276 286 306 321 56 131 0
269 279 289 309 329 59 0
266 276 286 306 346 56 0
269 279 289 309 369 59 0
266 276 286 306 371 56 0
267 277 287 312 322 57 142 0
267 277 287 312 327 57 0
269 279 289 314 349 59 0
267 277 287 312 357 57 0
269 279 289 314 364 59 0
266 276 286 321 331 56 0
267 277 287 322 342 57 0
266 276 286 321 356 56 0
267 277 287 322 372 57 0
267 277 287 327 342 57 162 0
269 279 289 329 349 59 169 0
269 279 289 329 364 59 0
267 277 287 327 372 57 0
266 276 286 331 346 56 181 0
266 276 286 331 371 56 0
267 277 287 342 357 57 0
266 276 286 346 356 56 0
269 279 289 349 369 59 0
266 276 286 356 371 56 231 0
267 277 287 357 372 57 232 0
269 279 289 364 369 59 239 0
269 279 294 299 304 64 69 99 0
270 280 295 300 305 65 70 100 0
269 279 294 299 344 64 69 99 0
270 280 295 300 350 65 70 100 0
269 279 294 299 359 64 69 99 0
270 280 295 300 370 65 70 100 0
269 279 294 304 314 64 109 0
270 280 295 305 320 65 115 0
269 279 294 304 329 64 0
270 280 295 305 340 65 0
270 280 295 305 360 65 0
269 279 294 304 369 64 0
267 277 292 312 317 62 137 0
269 279 294 314 344 64 0
267 277 292 312 347 62 0
267 277 292 312 352 62 0
269 279 294 314 359 64 0
267 277 292 317 342 62 0
270 280 295 320 350 65 0
270 280 295 320 370 65 0
267 277 292 317 372 62 0
269 279 294 329 344 64 164 0
269 279 294 329 359 64 0
270 280 295 340 350 65 195 0
270 280 295 340 370 65 0
267 277 292 342 347 62 197 0
267 277 292 342 352 62 0
269 279 294 344 369 64 0
270 280 295 350 360 65 0
267 277 292 347 372 62 0
267 277 292 352 372 62 217 0
269 279 294 359 369 64 229 0
270 280 295 360 370 65 230 0
269 279 299 304 309 69 104 0
270 280 300 305 315 70 110 0
270 280 300 305 335 70 0
269 279 299 304 349 69 0
270 280 300 305 355 70 0
269 279 299 304 364 69 0
266 276 296 306 311 66 121 0
266 276 296 306 336 66 0
269 279 299 309 344 69 0
269 279 299 309 359 69 0
266 276 296 306 361 66 0
266 276 296 311 331 66 0
270 280 300 315 350 70 0
266 276 296 311 356 66 0
270 280 300 315 370 70 0
266 276 296 331 336 66 171 0
270 280 300 335 350 70 185 0
266 276 296 331 361 66 0
270 280 300 335 370 70 0
266 276 296 336 356 66 0
269 279 299 344 349 69 199 0
269 279 299 344 364 69 0
270 280 300 350 355 70 0
269 279 299 349 359 69 0
270 280 300 355 370 70 215 0
266 276 296 356 361 66 221 0
269 279 299 359 364 69 224 0
269 279 304 309 314 104 109 124 0
269 279 304 309 329 104 0
269 279 304 309 369 104 0
270 280 305 315 320 110 115 140 0
270 280 305 315 340 110 0
269 279 304 314 349 109 0
270 280 305 315 360 110 0
269 279 304 314 364 109 0
270 280 305 320 335 115 0
270 280 305 320 355 115 0
269 279 304 329 349 169 0
269 279 304 329 364 0
270 280 305 335 340 175 0
270 280 305 335 360 0
270 280 305 340 355 0
269 279 304 349 369 0
270 280 305 355 360 205 0
269 279 304 364 369 239 0
266 276 306 311 321 121 131 141 0
269 279 309 314 344 124 0
266 276 306 311 346 121 0
269 279 309 314 359 124 0
266 276 306 311 371 121 0
266 276 306 321 336 131 0
266 276 306 321 361 131 0
269 279 309 329 344 164 0
269 279 309 329 359 0
266 276 306 336 346 191 0
266 276 306 336 371 0
269 279 309 344 369 0
266 276 306 346 361 0
269 279 309 359 369 229 0
266 276 306 361 371 241 0
267 277 312 317 322 137 142 147 0
267 277 312 317 327 137 0
270 280 315 320 350 140 0
267 277 312 317 357 137 0
270 280 315 320 370 140 0
266 276 311 321 331 141 0
267 277 312 322 347 142 0
267 277 312 322 352 142 0
266 276 311 321 356 141 0
267 277 312 327 347 167 0
267 277 312 327 352 0
266 276 311 331 346 181 0
266 276 311 331 371 0
270 280 315 340 350 195 0
270 280 315 340 370 0
269 279 314 344 349 199 0
269 279 314 344 364 0
266 276 311 346 356 0
267 277 312 347 357 0
269 279 314 349 359 0
270 280 315 350 360 0
267 277 312 352 357 202 0
269 279 314 359 364 224 0
270 280 315 360 370 230 0
266 276 311 356 371 231 0
267 277 317 322 342 147 0
267 277 317 322 372 147 0
267 277 317 327 342 162 0
267 277 317 327 372 0
270 280 320 335 350 185 0
270 280 320 335 370 0
267 277 317 342 357 0
270 280 320 350 355 0
270 280 320 355 370 215 0
267 277 317 357 372 232 0
266 276 321 331 336 171 0
266 276 321 331 361 0
266 276 321 336 356 0
267 277 322 342 347 197 0
267 277 322 342 352 0
267 277 322 347 372 0
267 277 322 352 372 217 0
266 276 321 356 361 221 0
267 277 327 342 347 162 167 197 0
269 279 329 344 349 164 169 199 0
267 277 327 342 352 162 0
269 279 329 344 364 164 0
269 279 329 349 359 169 0
267 277 327 347 372 167 0
267 277 327 352 372 217 0
269 279 329 359 364 224 0
266 276 331 336 346 171 181 191 0
270 280 335 340 350 175 185 195 0
270 280 335 340 370 175 0
266 276 331 336 371 171 0
270 280 335 350 360 185 0
266 276 331 346 361 181 0
270 280 335 360 370 230 0
266 276 331 361 371 241 0
270 280 340 350 355 195 0
266 276 336 346 356 191 0
270 280 340 355 370 215 0
266 276 336 356 371 231 0
267 277 342 347 357 197 0
269 279 344 349 369 199 0
267 277 342 352 357 202 0
269 279 344 364 369 239 0
270 280 350 355 360 205 0
266 276 346 356 361 221 0
269 279 349 359 369 229 0
267 277 347 357 372 232 0
270 280 355 360 370 205 215 230 0
267 277 352 357 372 202 217 232 0
269 279 359 364 369 224 229 239 0
266 276 356 361 371 221 231 241 0
268 283 288 293 298 73 78 83 88 93 98 0
267 282 287 292 307 72 77 87 0
268 283 288 293 308 73 78 88 0
267 282 287 292 337 72 77 87 0
268 283 288 293 343 73 78 88 0
268 283 288 293 353 73 78 88 0
267 282 287 292 367 72 77 87 0
266 281 286 296 301 71 81 91 0
268 283 288 298 303 73 83 93 0
266 281 286 296 326 71 81 91 0
268 283 288 298 338 73 83 93 0
266 281 286 296 351 71 81 91 0
268 283 288 298 373 73 83 93 0
268 283 288 303 308 73 103 0
266 281 286 301 321 71 116 0
268 283 288 303 343 73 0
266 281 286 301 346 71 0
268 283 288 303 353 73 0
266 281 286 301 371 71 0
267 282 287 307 322 72 132 0
267 282 287 307 327 72 0
268 283 288 308 338 73 0
267 282 287 307 357 72 0
268 283 288 308 373 73 0
266 281 286 321 326 71 0
267 282 287 322 337 72 0
266 281 286 321 351 71 0
267 282 287 322 367 72 0
267 282 287 327 337 72 157 0
266 281 286 326 346 71 166 0
267 282 287 327 367 72 0
266 281 286 326 371 71 0
268 283 288 338 343 73 188 0
268 283 288 338 353 73 0
267 282 287 337 357 72 0
268 283 288 343 373 73 0
266 281 286 346 351 71 0
266 281 286 351 371 71 216 0
268 283 288 353 373 73 218 0
267 282 287 357 367 72 227 0
268 283 293 298 323 78 83 98 0
270 285 295 300 325 80 85 100 0
268 283 293 298 333 78 83 98 0
270 285 295 300 345 80 85 100 0
270 285 295 300 365 80 85 100 0
268 283 293 298 368 78 83 98 0
267 282 292 307 317 77 127 0
268 283 293 308 323 78 133 0
268 283 293 308 333 78 0
267 282 292 307 347 77 0
267 282 292 307 352 77 0
268 283 293 308 368 78 0
270 285 295 320 325 80 150 0
267 282 292 317 337 77 0
270 285 295 320 345 80 0
270 285 295 320 365 80 0
267 282 292 317 367 77 0
270 285 295 325 340 80 0
268 283 293 323 343 78 0
268 283 293 323 353 78 0
270 285 295 325 360 80 0
268 283 293 333 343 78 178 0
268 283 293 333 353 78 0
270 285 295 340 345 80 190 0
267 282 292 337 347 77 192 0
267 282 292 337 352 77 0
270 285 295 340 365 80 0
270 285 295 345 360 80 0
268 283 293 343 368 78 0
267 282 292 347 367 77 0
267 282 292 352 367 77 212 0
268 283 293 353 368 78 213 0
270 285 295 360 365 80 225 0
266 281 296 301 311 81 106 0
268 283 298 303 323 83 118 0
268 283 298 303 333 83 0
266 281 296 301 336 81 0
266 281 296 301 361 81 0
268 283 298 303 368 83 0
270 285 300 315 325 85 145 0
266 281 296 311 326 81 0
270 285 300 315 345 85 0
266 281 296 311 351 81 0
270 285 300 315 365 85 0
270 285 300 325 335 85 0
268 283 298 323 338 83 0
270 285 300 325 355 85 0
268 283 298 323 373 83 0
266 281 296 326 336 81 156 0
266 281 296 326 361 81 0
268 283 298 333 338 83 173 0
270 285 300 335 345 85 180 0
270 285 300 335 365 85 0
268 283 298 333 373 83 0
266 281 296 336 351 81 0
268 283 298 338 368 83 0
270 285 300 345 355 85 0
266 281 296 351 361 81 206 0
270 285 300 355 365 85 210 0
268 283 298 368 373 83 248 0
268 283 303 308 323 103 118 133 0
268 283 303 308 333 103 0
268 283 303 308 368 103 0
266 281 301 311 321 106 116 141 0
266 281 301 311 346 106 0
266 281 301 311 371 106 0
266 281 301 321 336 116 0
268 283 303 323 343 118 0
268 283 303 323 353 118 0
266 281 301 321 361 116 0
268 283 303 333 343 178 0
268 283 303 333 353 0
266 281 301 336 346 191 0
266 281 301 336 371 0
268 283 303 343 368 0
266 281 301 346 361 0
268 283 303 353 368 213 0
266 281 301 361 371 241 0
267 282 307 317 322 127 132 147 0
267 282 307 317 327 127 0
267 282 307 317 357 127 0
268 283 308 323 338 133 0
267 282 307 322 347 132 0
267 282 307 322 352 132 0
268 283 308 323 373 133 0
267 282 307 327 347 167 0
267 282 307 327 352 0
268 283 308 333 338 173 0
268 283 308 333 373 0
268 283 308 338 368 0
267 282 307 347 357 0
267 282 307 352 357 202 0
268 283 308 368 373 248 0
270 285 315 320 325 140 145 150 0
270 285 315 320 345 140 0
270 285 315 320 365 140 0
266 281 311 321 326 141 0
270 285 315 325 340 145 0
266 281 311 321 351 141 0
270 285 315 325 360 145 0
266 281 311 326 346 166 0
266 281 311 326 371 0
270 285 315 340 345 190 0
270 285 315 340 365 0
270 285 315 345 360 0
266 281 311 346 351 0
266 281 311 351 371 216 0
270 285 315 360 365 225 0
270 285 320 325 335 150 0
267 282 317 322 337 147 0
270 285 320 325 355 150 0
267 282 317 322 367 147 0
267 282 317 327 337 157 0
267 282 317 327 367 0
270 285 320 335 345 180 0
270 285 320 335 365 0
267 282 317 337 357 0
270 285 320 345 355 0
270 285 320 355 365 210 0
267 282 317 357 367 227 0
266 281 321 326 336 156 0
266 281 321 326 361 0
270 285 325 335 340 175 0
270 285 325 335 360 0
268 283 323 338 343 188 0
267 282 322 337 347 192 0
266 281 321 336 351 0
267 282 322 337 352 0
268 283 323 338 353 0
270 285 325 340 355 0
268 283 323 343 373 0
267 282 322 347 367 0
270 285 325 355 360 205 0
266 281 321 351 361 206 0
267 282 322 352 367 212 0
268 283 323 353 373 218 0
266 281 326 336 346 156 166 191 0
267 282 327 337 347 157 167 192 0
267 282 327 337 352 157 0
266 281 326 336 371 156 0
266 281 326 346 361 166 0
267 282 327 347 367 167 0
267 282 327 352 367 212 0
266 281 326 361 371 241 0
268 283 333 338 343 173 178 188 0
270 285 335 340 345 175 180 190 0
268 283 333 338 353 173 0
270 285 335 340 365 175 0
270 285 335 345 360 180 0
268 283 333 343 373 178 0
268 283 333 353 373 218 0
270 285 335 360 365 225 0
270 285 340 345 355 190 0
268 283 338 343 368 188 0
266 281 336 346 351 191 0
267 282 337 347 357 192 0
267 282 337 352 357 202 0
270 285 340 355 365 210 0
268 283 338 353 368 213 0
266 281 336 351 371 216 0
270 285 345 355 360 205 0
268 283 343 368 373 248 0
266 281 346 351 361 206 0
267 282 347 357 367 227 0
270 285 355 360 365 205 210 225 0
267 282 352 357 367 202 212 227 0
266 281 351 361 371 206 216 241 0
268 283 353 368 373 213 218 248 0
268 288 293 298 318 88 93 98 0
269 289 294 299 319 89 94 99 0
268 288 293 298 328 88 93 98 0
269 289 294 299 334 89 94 99 0
268 288 293 298 363 88 93 98 0
269 289 294 299 374 89 94 99 0
267 287 292 307 312 87 122 0
268 288 293 308 318 88 128 0
268 288 293 308 328 88 0
267 287 292 307 342 87 0
268 288 293 308 363 88 0
267 287 292 307 372 87 0
269 289 294 314 319 89 139 0
269 289 294 314 334 89 0
267 287 292 312 337 87 0
267 287 292 312 367 87 0
269 289 294 314 374 89 0
269 289 294 319 329 89 0
268 288 293 318 343 88 0
268 288 293 318 353 88 0
269 289 294 319 369 89 0
269 289 294 329 334 89 154 0
268 288 293 328 343 88 163 0
268 288 293 328 353 88 0
269 289 294 329 374 89 0
269 289 294 334 369 89 0
267 287 292 337 342 87 187 0
267 287 292 337 372 87 0
268 288 293 343 363 88 0
267 287 292 342 367 87 0
268 288 293 353 363 88 208 0
267 287 292 367 372 87 247 0
269 289 294 369 374 89 249 0
266 286 296 301 306 91 101 0
268 288 298 303 318 93 113 0
268 288 298 303 328 93 0
266 286 296 301 331 91 0
266 286 296 301 356 91 0
268 288 298 303 363 93 0
269 289 299 309 319 94 129 0
266 286 296 306 326 91 0
269 289 299 309 334 94 0
266 286 296 306 351 91 0
269 289 299 309 374 94 0
268 288 298 318 338 93 0
269 289 299 319 349 94 0
269 289 299 319 364 94 0
268 288 298 318 373 93 0
266 286 296 326 331 91 151 0
268 288 298 328 338 93 158 0
266 286 296 326 356 91 0
268 288 298 328 373 93 0
269 289 299 334 349 94 184 0
266 286 296 331 351 91 0
269 289 299 334 364 94 0
268 288 298 338 363 93 0
269 289 299 349 374 94 0
266 286 296 351 356 91 201 0
268 288 298 363 373 93 243 0
269 289 299 364 374 94 244 0
268 288 303 308 318 103 113 128 0
266 286 301 306 321 101 116 131 0
268 288 303 308 328 103 0
266 286 301 306 346 101 0
268 288 303 308 363 103 0
266 286 301 306 371 101 0
268 288 303 318 343 113 0
268 288 303 318 353 113 0
266 286 301 321 331 116 0
266 286 301 321 356 116 0
268 288 303 328 343 163 0
268 288 303 328 353 0
266 286 301 331 346 181 0
266 286 301 331 371 0
268 288 303 343 363 0
266 286 301 346 356 0
268 288 303 353 363 208 0
266 286 301 356 371 231 0
269 289 309 314 319 124 129 139 0
267 287 307 312 322 122 132 142 0
267 287 307 312 327 122 0
269 289 309 314 334 124 0
267 287 307 312 357 122 0
269 289 309 314 374 124 0
269 289 309 319 329 129 0
268 288 308 318 338 128 0
269 289 309 319 369 129 0
268 288 308 318 373 128 0
266 286 306 321 326 131 0
267 287 307 322 342 132 0
266 286 306 321 351 131 0
267 287 307 322 372 132 0
269 289 309 329 334 154 0
268 288 308 328 338 158 0
267 287 307 327 342 162 0
266 286 306 326 346 166 0
266 286 306 326 371 0
267 287 307 327 372 0
268 288 308 328 373 0
269 289 309 329 374 0
269 289 309 334 369 0
268 288 308 338 363 0
267 287 307 342 357 0
266 286 306 346 351 0
266 286 306 351 371 216 0
267 287 307 357 372 232 0
268 288 308 363 373 243 0
269 289 309 369 374 249 0
269 289 314 319 349 139 0
269 289 314 319 364 139 0
267 287 312 322 337 142 0
267 287 312 322 367 142 0
267 287 312 327 337 157 0
267 287 312 327 367 0
269 289 314 334 349 184 0
269 289 314 334 364 0
267 287 312 337 357 0
269 289 314 349 374 0
267 287 312 357 367 227 0
269 289 314 364 374 244 0
269 289 319 329 349 169 0
269 289 319 329 364 0
268 288 318 338 343 188 0
268 288 318 338 353 0
268 288 318 343 373 0
269 289 319 349 369 0
268 288 318 353 373 218 0
269 289 319 364 369 239 0
266 286 321 326 331 151 0
266 286 321 326 356 0
266 286 321 331 351 0
267 287 322 337 342 187 0
267 287 322 337 372 0
267 287 322 342 367 0
266 286 321 351 356 201 0
267 287 322 367 372 247 0
266 286 326 331 346 151 166 181 0
269 289 329 334 349 154 169 184 0
269 289 329 334 364 154 0
266 286 326 331 371 151 0
267 287 327 337 342 157 162 187 0
268 288 328 338 343 158 163 188 0
268 288 328 338 353 158 0
267 287 327 337 372 157 0
267 287 327 342 367 162 0
268 288 328 343 373 163 0
266 286 326 346 356 166 0
269 289 329 349 374 169 0
268 288 328 353 373 218 0
266 286 326 356 371 231 0
269 289 329 364 374 244 0
267 287 327 367 372 247 0
266 286 331 346 351 181 0
269 289 334 349 369 184 0
266 286 331 351 371 216 0
269 289 334 364 369 239 0
267 287 337 342 357 187 0
268 288 338 343 363 188 0
268 288 338 353 363 208 0
267 287 337 357 372 232 0
267 287 342 357 367 227 0
268 288 343 363 373 243 0
266 286 346 351 356 201 0
269 289 349 369 374 249 0
266 286 351 356 371 201 216 231 0
268 288 353 363 373 208 218 243 0
267 287 357 367 372 227 232 247 0
269 289 364 369 374 239 244 249 0
269 294 299 304 319 99 114 0
270 295 300 305 325 100 120 0
269 294 299 304 334 99 0
270 295 300 305 345 100 0
270 295 300 305 365 100 0
269 294 299 304 374 99 0
268 293 298 318 323 98 148 0
268 293 298 318 333 98 0
269 294 299 319 344 99 0
269 294 299 319 359 99 0
268 293 298 318 368 98 0
268 293 298 323 328 98 0
270 295 300 325 350 100 0
268 293 298 323 363 98 0
270 295 300 325 370 100 0
268 293 298 328 333 98 153 0
268 293 298 328 368 98 0
269 294 299 334 344 99 179 0
269 294 299 334 359 99 0
268 293 298 333 363 98 0
270 295 300 345 350 100 200 0
270 295 300 345 370 100 0
269 294 299 344 374 99 0
270 295 300 350 365 100 0
269 294 299 359 374 99 234 0
268 293 298 363 368 98 238 0
270 295 300 365 370 100 240 0
269 294 304 314 319 109 114 139 0
269 294 304 314 334 109 0
269 294 304 314 374 109 0
270 295 305 320 325 115 120 150 0
269 294 304 319 329 114 0
270 295 305 320 345 115 0
270 295 305 320 365 115 0
269 294 304 319 369 114 0
270 295 305 325 340 120 0
270 295 305 325 360 120 0
269 294 304 329 334 154 0
269 294 304 329 374 0
269 294 304 334 369 0
270 295 305 340 345 190 0
270 295 305 340 365 0
270 295 305 345 360 0
270 295 305 360 365 225 0
269 294 304 369 374 249 0
267 292 307 312 317 122 127 137 0
267 292 307 312 347 122 0
267 292 307 312 352 122 0
268 293 308 318 323 128 133 148 0
268 293 308 318 333 128 0
267 292 307 317 342 127 0
268 293 308 318 368 128 0
267 292 307 317 372 127 0
268 293 308 323 328 133 0
268 293 308 323 363 133 0
268 293 308 328 333 153 0
268 293 308 328 368 0
268 293 308 333 363 0
267 292 307 342 347 197 0
267 292 307 342 352 0
267 292 307 347 372 0
267 292 307 352 372 217 0
268 293 308 363 368 238 0
267 292 312 317 337 137 0
269 294 314 319 344 139 0
269 294 314 319 359 139 0
267 292 312 317 367 137 0
269 294 314 334 344 179 0
269 294 314 334 359 0
267 292 312 337 347 192 0
267 292 312 337 352 0
269 294 314 344 374 0
267 292 312 347 367 0
267 292 312 352 367 212 0
269 294 314 359 374 234 0
268 293 318 323 343 148 0
270 295 320 325 350 150 0
268 293 318 323 353 148 0
270 295 320 325 370 150 0
269 294 319 329 344 164 0
269 294 319 329 359 0
268 293 318 333 343 178 0
268 293 318 333 353 0
267 292 317 337 342 187 0
267 292 317 337 372 0
270 295 320 345 350 200 0
267 292 317 342 367 0
268 293 318 343 368 0
269 294 319 344 369 0
270 295 320 345 370 0
270 295 320 350 365 0
268 293 318 353 368 213 0
269 294 319 359 369 229 0
270 295 320 365 370 240 0
267 292 317 367 372 247 0
268 293 323 328 343 163 0
268 293 323 328 353 0
270 295 325 340 350 195 0
270 295 325 340 370 0
268 293 323 343 363 0
270 295 325 350 360 0
268 293 323 353 363 208 0
270 295 325 360 370 230 0
268 293 328 333 343 153 163 178 0
269 294 329 334 344 154 164 179 0
268 293 328 333 353 153 0
269 294 329 334 359 154 0
268 293 328 343 368 163 0
269 294 329 344 374 164 0
268 293 328 353 368 213 0
269 294 329 359 374 234 0
268 293 333 343 363 178 0
269 294 334 344 369 179 0
268 293 333 353 363 208 0
269 294 334 359 369 229 0
267 292 337 342 347 187 192 197 0
270 295 340 345 350 190 195 200 0
267 292 337 342 352 187 0
270 295 340 345 370 190 0
270 295 340 350 365 195 0
267 292 337 347 372 192 0
267 292 337 352 372 217 0
270 295 340 365 370 240 0
270 295 345 350 360 200 0
267 292 342 347 367 197 0
267 292 342 352 367 212 0
270 295 345 360 370 230 0
268 293 343 363 368 238 0
269 294 344 369 374 249 0
270 295 350 360 365 225 0
267 292 347 367 372 247 0
268 293 353 363 368 208 213 238 0
267 292 352 367 372 212 217 247 0
270 295 360 365 370 225 230 240 0
269 294 359 369 374 229 234 249 0
266 296 301 306 311 101 106 121 0
269 299 304 309 319 104 114 129 0
269 299 304 309 334 104 0
266 296 301 306 336 101 0
266 296 301 306 361 101 0
269 299 304 309 374 104 0
270 300 305 315 325 110 120 145 0
266 296 301 311 331 106 0
270 300 305 315 345 110 0
266 296 301 311 356 106 0
270 300 305 315 365 110 0
268 298 303 318 323 113 118 148 0
268 298 303 318 333 113 0
269 299 304 319 349 114 0
269 299 304 319 364 114 0
268 298 303 318 368 113 0
268 298 303 323 328 118 0
270 300 305 325 335 120 0
270 300 305 325 355 120 0
268 298 303 323 363 118 0
268 298 303 328 333 153 0
268 298 303 328 368 0
266 296 301 331 336 171 0
270 300 305 335 345 180 0
269 299 304 334 349 184 0
266 296 301 331 361 0
268 298 303 333 363 0
269 299 304 334 364 0
270 300 305 335 365 0
266 296 301 336 356 0
270 300 305 345 355 0
269 299 304 349 374 0
270 300 305 355 365 210 0
266 296 301 356 361 221 0
268 298 303 363 368 238 0
269 299 304 364 374 244 0
266 296 306 311 326 121 0
266 296 306 311 351 121 0
269 299 309 319 344 129 0
269 299 309 319 359 129 0
266 296 306 326 336 156 0
266 296 306 326 361 0
269 299 309 334 344 179 0
269 299 309 334 359 0
266 296 306 336 351 0
269 299 309 344 374 0
266 296 306 351 361 206 0
269 299 309 359 374 234 0
270 300 315 325 350 145 0
270 300 315 325 370 145 0
266 296 311 326 331 151 0
266 296 311 326 356 0
266 296 311 331 351 0
270 300 315 345 350 200 0
270 300 315 345 370 0
270 300 315 350 365 0
266 296 311 351 356 201 0
270 300 315 365 370 240 0
268 298 318 323 338 148 0
268 298 318 323 373 148 0
268 298 318 333 338 173 0
268 298 318 333 373 0
268 298 318 338 368 0
269 299 319 344 349 199 0
269 299 319 344 364 0
269 299 319 349 359 0
269 299 319 359 364 224 0
268 298 318 368 373 248 0
268 298 323 328 338 158 0
268 298 323 328 373 0
270 300 325 335 350 185 0
270 300 325 335 370 0
268 298 323 338 363 0
270 300 325 350 355 0
270 300 325 355 370 215 0
268 298 323 363 373 243 0
266 296 326 331 336 151 156 171 0
268 298 328 333 338 153 158 173 0
266 296 326 331 361 151 0
268 298 328 333 373 153 0
266 296 326 336 356 156 0
268 298 328 338 368 158 0
266 296 326 356 361 221 0
268 298 328 368 373 248 0
266 296 331 336 351 171 0
268 298 333 338 363 173 0
269 299 334 344 349 179 184 199 0
270 300 335 345 350 180 185 200 0
269 299 334 344 364 179 0
270 300 335 345 370 180 0
269 299 334 349 359 184 0
270 300 335 350 365 185 0
266 296 331 351 361 206 0
269 299 334 359 364 224 0
270 300 335 365 370 240 0
268 298 333 363 373 243 0
266 296 336 351 356 201 0
268 298 338 363 368 238 0
270 300 345 350 355 200 0
269 299 344 349 374 199 0
270 300 345 355 370 215 0
269 299 344 364 374 244 0
270 300 350 355 365 210 0
269 299 349 359 374 234 0
266 296 351 356 361 201 206 221 0
270 300 355 365 370 210 215 240 0
269 299 359 364 374 224 234 244 0
268 298 363 368 373 238 243 248 0
269 304 309 314 319 104 109 114 124 129 139 0
266 301 306 311 321 101 106 116 121 131 141 0
269 304 309 314 334 104 109 124 0
266 301 306 311 346 101 106 121 0
266 301 306 311 371 101 106 121 0
269 304 309 314 374 104 109 124 0
268 303 308 318 323 103 113 118 128 133 148 0
269 304 309 319 329 104 114 129 0
268 303 308 318 333 103 113 128 0
268 303 308 318 368 103 113 128 0
269 304 309 319 369 104 114 129 0
268 303 308 323 328 103 118 133 0
266 301 306 321 336 101 116 131 0
266 301 306 321 361 101 116 131 0
268 303 308 323 363 103 118 133 0
268 303 308 328 333 103 153 0
269 304 309 329 334 104 154 0
268 303 308 328 368 103 0
269 304 309 329 374 104 0
268 303 308 333 363 103 0
269 304 309 334 369 104 0
266 301 306 336 346 101 191 0
266 301 306 336 371 101 0
266 301 306 346 361 101 0
268 303 308 363 368 103 238 0
266 301 306 361 371 101 241 0
269 304 309 369 374 104 249 0
270 305 315 320 325 110 115 120 140 145 150 0
270 305 315 320 345 110 115 140 0
269 304 314 319 349 109 114 139 0
269 304 314 319 364 109 114 139 0
270 305 315 320 365 110 115 140 0
266 301 311 321 331 106 116 141 0
270 305 315 325 340 110 120 145 0
266 301 311 321 356 106 116 141 0
270 305 315 325 360 110 120 145 0
266 301 311 331 346 106 181 0
269 304 314 334 349 109 184 0
269 304 314 334 364 109 0
266 301 311 331 371 106 0
270 305 315 340 345 110 190 0
270 305 315 340 365 110 0
270 305 315 345 360 110 0
266 301 311 346 356 106 0
269 304 314 349 374 109 0
270 305 315 360 365 110 225 0
266 301 311 356 371 106 231 0
269 304 314 364 374 109 244 0
270 305 320 325 335 115 120 150 0
268 303 318 323 343 113 118 148 0
268 303 318 323 353 113 118 148 0
270 305 320 325 355 115 120 150 0
269 304 319 329 349 114 169 0
269 304 319 329 364 114 0
268 303 318 333 343 113 178 0
270 305 320 335 345 115 180 0
268 303 318 333 353 113 0
270 305 320 335 365 115 0
270 305 320 345 355 115 0
268 303 318 343 368 113 0
269 304 319 349 369 114 0
270 305 320 355 365 115 210 0
268 303 318 353 368 113 213 0
269 304 319 364 369 114 239 0
268 303 323 328 343 118 163 0
268 303 323 328 353 118 0
266 301 321 331 336 116 171 0
270 305 325 335 340 120 175 0
270 305 325 335 360 120 0
266 301 321 331 361 116 0
270 305 325 340 355 120 0
266 301 321 336 356 116 0
268 303 323 343 363 118 0
270 305 325 355 360 120 205 0
268 303 323 353 363 118 208 0
266 301 321 356 361 116 221 0
268 303 328 333 343 153 163 178 0
269 304 329 334 349 154 169 184 0
268 303 328 333 353 153 0
269 304 329 334 364 154 0
268 303 328 343 368 163 0
269 304 329 349 374 169 0
268 303 328 353 368 213 0
269 304 329 364 374 244 0
270 305 335 340 345 175 180 190 0
266 301 331 336 346 171 181 191 0
270 305 335 340 365 175 0
266 301 331 336 371 171 0
270 305 335 345 360 180 0
268 303 333 343 363 178 0
266 301 331 346 361 181 0
269 304 334 349 369 184 0
268 303 333 353 363 208 0
270 305 335 360 365 225 0
269 304 334 364 369 239 0
266 301 331 361 371 241 0
270 305 340 345 355 190 0
266 301 336 346 356 191 0
270 305 340 355 365 210 0
266 301 336 356 371 231 0
270 305 345 355 360 205 0
268 303 343 363 368 238 0
266 301 346 356 361 221 0
269 304 349 369 374 249 0
270 305 355 360 365 205 210 225 0
268 303 353 363 368 208 213 238 0
266 301 356 361 371 221 231 241 0
269 304 364 369 374 239 244 249 0
267 307 312 317 322 122 127 132 137 142 147 0
267 307 312 317 327 122 127 137 0
269 309 314 319 344 124 129 139 0
267 307 312 317 357 122 127 137 0
269 309 314 319 359 124 129 139 0
266 306 311 321 326 121 131 141 0
267 307 312 322 347 122 132 142 0
266 306 311 321 351 121 131 141 0
267 307 312 322 352 122 132 142 0
266 306 311 326 346 121 166 0
267 307 312 327 347 122 167 0
267 307 312 327 352 122 0
266 306 311 326 371 121 0
269 309 314 334 344 124 179 0
269 309 314 334 359 124 0
269 309 314 344 374 124 0
266 306 311 346 351 121 0
267 307 312 347 357 122 0
267 307 312 352 357 122 202 0
266 306 311 351 371 121 216 0
269 309 314 359 374 124 234 0
268 308 318 323 338 128 133 148 0
267 307 317 322 342 127 132 147 0
267 307 317 322 372 127 132 147 0
268 308 318 323 373 128 133 148 0
267 307 317 327 342 127 162 0
269 309 319 329 344 129 164 0
269 309 319 329 359 129 0
267 307 317 327 372 127 0
268 308 318 333 338 128 173 0
268 308 318 333 373 128 0
268 308 318 338 368 128 0
267 307 317 342 357 127 0
269 309 319 344 369 129 0
269 309 319 359 369 129 229 0
267 307 317 357 372 127 232 0
268 308 318 368 373 128 248 0
266 306 321 326 336 131 156 0
268 308 323 328 338 133 158 0
266 306 321 326 361 131 0
268 308 323 328 373 133 0
266 306 321 336 351 131 0
268 308 323 338 363 133 0
267 307 322 342 347 132 197 0
267 307 322 342 352 132 0
267 307 322 347 372 132 0
266 306 321 351 361 131 206 0
267 307 322 352 372 132 217 0
268 308 323 363 373 133 243 0
268 308 328 333 338 153 158 173 0
269 309 329 334 344 154 164 179 0
269 309 329 334 359 154 0
268 308 328 333 373 153 0
266 306 326 336 346 156 166 191 0
268 308 328 338 368 158 0
266 306 326 336 371 156 0
267 307 327 342 347 162 167 197 0
267 307 327 342 352 162 0
269 309 329 344 374 164 0
266 306 326 346 361 166 0
267 307 327 347 372 167 0
267 307 327 352 372 217 0
269 309 329 359 374 234 0
266 306 326 361 371 241 0
268 308 328 368 373 248 0
268 308 333 338 363 173 0
269 309 334 344 369 179 0
269 309 334 359 369 229 0
268 308 333 363 373 243 0
266 306 336 346 351 191 0
266 306 336 351 371 216 0
268 308 338 363 368 238 0
267 307 342 347 357 197 0
267 307 342 352 357 202 0
269 309 344 369 374 249 0
266 306 346 351 361 206 0
267 307 347 357 372 232 0
267 307 352 357 372 202 217 232 0
266 306 351 361 371 206 216 241 0
269 309 359 369 374 229 234 249 0
268 308 363 368 373 238 243 248 0
267 312 317 322 337 137 142 147 0
270 315 320 325 350 140 145 150 0
267 312 317 322 367 137 142 147 0
270 315 320 325 370 140 145 150 0
267 312 317 327 337 137 157 0
267 312 317 327 367 137 0
267 312 317 337 357 137 0
269 314 319 344 349 139 199 0
270 315 320 345 350 140 200 0
269 314 319 344 364 139 0
270 315 320 345 370 140 0
269 314 319 349 359 139 0
270 315 320 350 365 140 0
269 314 319 359 364 139 224 0
267 312 317 357 367 137 227 0
270 315 320 365 370 140 240 0
266 311 321 326 331 141 151 0
266 311 321 326 356 141 0
266 311 321 331 351 141 0
267 312 322 337 347 142 192 0
270 315 325 340 350 145 195 0
267 312 322 337 352 142 0
270 315 325 340 370 145 0
270 315 325 350 360 145 0
267 312 322 347 367 142 0
266 311 321 351 356 141 201 0
267 312 322 352 367 142 212 0
270 315 325 360 370 145 230 0
266 311 326 331 346 151 166 181 0
266 311 326 331 371 151 0
267 312 327 337 347 157 167 192 0
267 312 327 337 352 157 0
266 311 326 346 356 166 0
267 312 327 347 367 167 0
267 312 327 352 367 212 0
266 311 326 356 371 231 0
269 314 334 344 349 179 184 199 0
269 314 334 344 364 179 0
266 311 331 346 351 181 0
269 314 334 349 359 184 0
266 311 331 351 371 216 0
269 314 334 359 364 224 0
270 315 340 345 350 190 195 200 0
270 315 340 345 370 190 0
267 312 337 347 357 192 0
270 315 340 350 365 195 0
267 312 337 352 357 202 0
270 315 340 365 370 240 0
270 315 345 350 360 200 0
269 314 344 349 374 199 0
270 315 345 360 370 230 0
269 314 344 364 374 244 0
266 311 346 351 356 201 0
270 315 350 360 365 225 0
267 312 347 357 367 227 0
269 314 349 359 374 234 0
267 312 352 357 367 202 212 227 0
266 311 351 356 371 201 216 231 0
270 315 360 365 370 225 230 240 0
269 314 359 364 374 224 234 244 0
270 320 325 335 350 150 185 0
270 320 325 335 370 150 0
267 317 322 337 342 147 187 0
268 318 323 338 343 148 188 0
268 318 323 338 353 148 0
267 317 322 337 372 147 0
267 317 322 342 367 147 0
268 318 323 343 373 148 0
270 320 325 350 355 150 0
270 320 325 355 370 150 215 0
268 318 323 353 373 148 218 0
267 317 322 367 372 147 247 0
267 317 327 337 342 157 162 187 0
267 317 327 337 372 157 0
269 319 329 344 349 164 169 199 0
269 319 329 344 364 164 0
267 317 327 342 367 162 0
269 319 329 349 359 169 0
269 319 329 359 364 224 0
267 317 327 367 372 247 0
268 318 333 338 343 173 178 188 0
268 318 333 338 353 173 0
270 320 335 345 350 180 185 200 0
270 320 335 345 370 180 0
268 318 333 343 373 178 0
270 320 335 350 365 185 0
268 318 333 353 373 218 0
270 320 335 365 370 240 0
267 317 337 342 357 187 0
268 318 338 343 368 188 0
268 318 338 353 368 213 0
267 317 337 357 372 232 0
270 320 345 350 355 200 0
269 319 344 349 369 199 0
270 320 345 355 370 215 0
267 317 342 357 367 227 0
269 319 344 364 369 239 0
268 318 343 368 373 248 0
270 320 350 355 365 210 0
269 319 349 359 369 229 0
270 320 355 365 370 210 215 240 0
268 318 353 368 373 213 218 248 0
269 319 359 364 369 224 229 239 0
267 317 357 367 372 227 232 247 0
266 321 326 331 336 151 156 171 0
266 321 326 331 361 151 0
268 323 328 338 343 158 163 188 0
268 323 328 338 353 158 0
266 321 326 336 356 156 0
268 323 328 343 373 163 0
268 323 328 353 373 218 0
266 321 326 356 361 221 0
270 325 335 340 350 175 185 195 0
266 321 331 336 351 171 0
270 325 335 340 370 175 0
270 325 335 350 360 185 0
266 321 331 351 361 206 0
270 325 335 360 370 230 0
267 322 337 342 347 187 192 197 0
267 322 337 342 352 187 0
268 323 338 343 363 188 0
270 325 340 350 355 195 0
267 322 337 347 372 192 0
266 321 336 351 356 201 0
268 323 338 353 363 208 0
270 325 340 355 370 215 0
267 322 337 352 372 217 0
267 322 342 347 367 197 0
267 322 342 352 367 212 0
268 323 343 363 373 243 0
270 325 350 355 360 205 0
267 322 347 367 372 247 0
266 321 351 356 361 201 206 221 0
270 325 355 360 370 205 215 230 0
268 323 353 363 373 208 218 243 0
267 322 352 367 372 212 217 247 0
268 328 333 338 343 153 158 163 173 178 188 0
266 326 331 336 346 151 156 166 171 181 191 0
268 328 333 338 353 153 158 173 0
266 326 331 336 371 151 156 171 0
269 329 334 344 349 154 164 169 179 184 199 0
269 329 334 344 364 154 164 179 0
268 328 333 343 373 153 163 178 0
269 329 334 349 359 154 169 184 0
266 326 331 346 361 151 166 181 0
268 328 333 353 373 153 218 0
269 329 334 359 364 154 224 0
266 326 331 361 371 151 241 0
267 327 337 342 347 157 162 167 187 192 197 0
267 327 337 342 352 157 162 187 0
268 328 338 343 368 158 163 188 0
266 326 336 346 356 156 166 191 0
267 327 337 347 372 157 167 192 0
268 328 338 353 368 158 213 0
267 327 337 352 372 157 217 0
266 326 336 356 371 156 231 0
267 327 342 347 367 162 167 197 0
269 329 344 349 374 164 169 199 0
267 327 342 352 367 162 212 0
269 329 344 364 374 164 244 0
268 328 343 368 373 163 248 0
266 326 346 356 361 166 221 0
269 329 349 359 374 169 234 0
267 327 347 367 372 167 247 0
267 327 352 367 372 212 217 247 0
268 328 353 368 373 213 218 248 0
266 326 356 361 371 221 231 241 0
269 329 359 364 374 224 234 244 0
270 335 340 345 350 175 180 185 190 195 200 0
268 333 338 343 363 173 178 188 0
270 335 340 345 370 175 180 190 0
266 331 336 346 351 171 181 191 0
270 335 340 350 365 175 185 195 0
268 333 338 353 363 173 208 0
266 331 336 351 371 171 216 0
270 335 340 365 370 175 240 0
270 335 345 350 360 180 185 200 0
269 334 344 349 369 179 184 199 0
270 335 345 360 370 180 230 0
269 334 344 364 369 179 239 0
268 333 343 363 373 178 243 0
266 331 346 351 361 181 206 0
270 335 350 360 365 185 225 0
269 334 349 359 369 184 229 0
266 331 351 361 371 206 216 241 0
268 333 353 363 373 208 218 243 0
269 334 359 364 369 224 229 239 0
270 335 360 365 370 225 230 240 0
270 340 345 350 355 190 195 200 0
267 337 342 347 357 187 192 197 0
267 337 342 352 357 187 202 0
270 340 345 355 370 190 215 0
268 338 343 363 368 188 238 0
266 336 346 351 356 191 201 0
270 340 350 355 365 195 210 0
267 337 347 357 372 192 232 0
266 336 351 356 371 201 216 231 0
267 337 352 357 372 202 217 232 0
268 338 353 363 368 208 213 238 0
270 340 355 365 370 210 215 240 0
270 345 350 355 360 200 205 0
267 342 347 357 367 197 227 0
269 344 349 369 374 199 249 0
267 342 352 357 367 202 212 227 0
270 345 355 360 370 205 215 230 0
268 343 363 368 373 238 243 248 0
269 344 364 369 374 239 244 249 0
266 346 351 356 361 201 206 221 0
270 350 355 360 365 205 210 225 0
267 347 357 367 372 227 232 247 0
269 349 359 369 374 229 234 249 0
270 355 360 365 370 205 210 215 225 230 240 0
266 351 356 361 371 201 206 216 221 231 241 0
267 352 357 367 372 202 212 217 227 232 247 0
268 353 363 368 373 208 213 218 238 243 248 0
269 359 364 369 374 224 229 234 239 244 249 0
271 276 281 286 291 51 56 61 71 76 86 0
275 280 285 290 300 55 60 70 75 85 95 0
271 276 281 286 316 51 56 71 0
275 280 285 290 320 55 60 75 0
275 280 285 290 340 55 60 75 0
271 276 281 286 341 51 56 71 0
275 280 285 290 360 55 60 75 0
271 276 281 286 366 51 56 71 0
274 279 284 294 299 54 64 69 79 84 99 0
271 276 281 291 311 51 61 76 0
274 279 284 294 314 54 64 79 0
274 279 284 294 329 54 64 79 0
271 276 281 291 336 51 61 76 0
271 276 281 291 361 51 61 76 0
274 279 284 294 369 54 64 79 0
274 279 284 299 309 54 69 84 0
275 280 285 300 310 55 70 85 0
275 280 285 300 330 55 70 85 0
274 279 284 299 349 54 69 84 0
274 279 284 299 364 54 69 84 0
275 280 285 300 375 55 70 85 0
274 279 284 309 314 54 124 0
275 280 285 310 320 55 130 0
274 279 284 309 329 54 0
275 280 285 310 340 55 0
275 280 285 310 360 55 0
274 279 284 309 369 54 0
271 276 281 311 316 51 136 0
271 276 281 311 341 51 0
274 279 284 314 349 54 0
274 279 284 314 364 54 0
271 276 281 311 366 51 0
275 280 285 320 330 55 0
271 276 281 316 336 51 0
271 276 281 316 361 51 0
275 280 285 320 375 55 0
275 280 285 330 340 55 160 0
274 279 284 329 349 54 169 0
275 280 285 330 360 55 0
274 279 284 329 364 54 0
271 276 281 336 341 51 186 0
271 276 281 336 366 51 0
275 280 285 340 375 55 0
271 276 281 341 361 51 0
274 279 284 349 369 54 0
275 280 285 360 375 55 235 0
271 276 281 361 366 51 236 0
274 279 284 364 369 54 239 0
273 278 288 293 298 58 63 68 88 93 98 0
271 276 286 291 306 56 61 86 0
273 278 288 293 308 58 63 88 0
271 276 286 291 331 56 61 86 0
273 278 288 293 343 58 63 88 0
273 278 288 293 353 58 63 88 0
271 276 286 291 356 56 61 86 0
273 278 288 298 303 58 68 93 0
275 280 290 300 305 60 70 95 0
273 278 288 298 338 58 68 93 0
275 280 290 300 350 60 70 95 0
275 280 290 300 370 60 70 95 0
273 278 288 298 373 58 68 93 0
273 278 288 303 308 58 103 0
275 280 290 305 320 60 115 0
275 280 290 305 340 60 0
273 278 288 303 343 58 0
273 278 288 303 353 58 0
275 280 290 305 360 60 0
271 276 286 306 316 56 126 0
273 278 288 308 338 58 0
271 276 286 306 341 56 0
271 276 286 306 366 56 0
273 278 288 308 373 58 0
271 276 286 316 331 56 0
275 280 290 320 350 60 0
271 276 286 316 356 56 0
275 280 290 320 370 60 0
271 276 286 331 341 56 176 0
271 276 286 331 366 56 0
273 278 288 338 343 58 188 0
275 280 290 340 350 60 195 0
273 278 288 338 353 58 0
275 280 290 340 370 60 0
271 276 286 341 356 56 0
273 278 288 343 373 58 0
275 280 290 350 360 60 0
273 278 288 353 373 58 218 0
271 276 286 356 366 56 226 0
275 280 290 360 370 60 230 0
273 278 293 298 323 63 68 98 0
274 279 294 299 324 64 69 99 0
273 278 293 298 333 63 68 98 0
274 279 294 299 339 64 69 99 0
274 279 294 299 354 64 69 99 0
273 278 293 298 368 63 68 98 0
271 276 291 306 311 61 121 0
273 278 293 308 323 63 133 0
273 278 293 308 333 63 0
271 276 291 306 336 61 0
271 276 291 306 361 61 0
273 278 293 308 368 63 0
274 279 294 314 324 64 144 0
271 276 291 311 331 61 0
274 279 294 314 339 64 0
274 279 294 314 354 64 0
271 276 291 311 356 61 0
274 279 294 324 329 64 0
273 278 293 323 343 63 0
273 278 293 323 353 63 0
274 279 294 324 369 64 0
274 279 294 329 339 64 159 0
274 279 294 329 354 64 0
271 276 291 331 336 61 171 0
273 278 293 333 343 63 178 0
273 278 293 333 353 63 0
271 276 291 331 361 61 0
271 276 291 336 356 61 0
274 279 294 339 369 64 0
273 278 293 343 368 63 0
273 278 293 353 368 63 213 0
274 279 294 354 369 64 214 0
271 276 291 356 361 61 221 0
275 280 300 305 310 70 105 0
273 278 298 303 323 68 118 0
275 280 300 305 330 70 0
273 278 298 303 333 68 0
273 278 298 303 368 68 0
275 280 300 305 375 70 0
274 279 299 309 324 69 134 0
274 279 299 309 339 69 0
275 280 300 310 350 70 0
274 279 299 309 354 69 0
275 280 300 310 370 70 0
273 278 298 323 338 68 0
274 279 299 324 349 69 0
274 279 299 324 364 69 0
273 278 298 323 373 68 0
275 280 300 330 350 70 170 0
275 280 300 330 370 70 0
273 278 298 333 338 68 173 0
273 278 298 333 373 68 0
274 279 299 339 349 69 194 0
274 279 299 339 364 69 0
273 278 298 338 368 68 0
274 279 299 349 354 69 0
275 280 300 350 375 70 0
274 279 299 354 364 69 209 0
273 278 298 368 373 68 248 0
275 280 300 370 375 70 250 0
275 280 305 310 320 105 115 130 0
273 278 303 308 323 103 118 133 0
273 278 303 308 333 103 0
275 280 305 310 340 105 0
275 280 305 310 360 105 0
273 278 303 308 368 103 0
275 280 305 320 330 115 0
275 280 305 320 375 115 0
273 278 303 323 343 118 0
273 278 303 323 353 118 0
275 280 305 330 340 160 0
275 280 305 330 360 0
273 278 303 333 343 178 0
273 278 303 333 353 0
275 280 305 340 375 0
273 278 303 343 368 0
273 278 303 353 368 213 0
275 280 305 360 375 235 0
271 276 306 311 316 121 126 136 0
274 279 309 314 324 124 134 144 0
274 279 309 314 339 124 0
271 276 306 311 341 121 0
274 279 309 314 354 124 0
271 276 306 311 366 121 0
271 276 306 316 336 126 0
275 280 310 320 350 130 0
271 276 306 316 361 126 0
275 280 310 320 370 130 0
274 279 309 324 329 134 0
273 278 308 323 338 133 0
274 279 309 324 369 134 0
273 278 308 323 373 133 0
274 279 309 329 339 159 0
274 279 309 329 354 0
273 278 308 333 338 173 0
273 278 308 333 373 0
271 276 306 336 341 186 0
275 280 310 340 350 195 0
271 276 306 336 366 0
273 278 308 338 368 0
274 279 309 339 369 0
275 280 310 340 370 0
271 276 306 341 361 0
275 280 310 350 360 0
274 279 309 354 369 214 0
275 280 310 360 370 230 0
271 276 306 361 366 236 0
273 278 308 368 373 248 0
271 276 311 316 331 136 0
271 276 311 316 356 136 0
274 279 314 324 349 144 0
274 279 314 324 364 144 0
271 276 311 331 341 176 0
271 276 311 331 366 0
274 279 314 339 349 194 0
274 279 314 339 364 0
271 276 311 341 356 0
274 279 314 349 354 0
274 279 314 354 364 209 0
271 276 311 356 366 226 0
275 280 320 330 350 170 0
275 280 320 330 370 0
271 276 316 331 336 171 0
271 276 316 331 361 0
271 276 316 336 356 0
275 280 320 350 375 0
271 276 316 356 361 221 0
275 280 320 370 375 250 0
274 279 324 329 349 169 0
274 279 324 329 364 0
273 278 323 338 343 188 0
273 278 323 338 353 0
273 278 323 343 373 0
274 279 324 349 369 0
273 278 323 353 373 218 0
274 279 324 364 369 239 0
274 279 329 339 349 159 169 194 0
275 280 330 340 350 160 170 195 0
274 279 329 339 364 159 0
275 280 330 340 370 160 0
274 279 329 349 354 169 0
275 280 330 350 360 170 0
274 279 329 354 364 209 0
275 280 330 360 370 230 0
271 276 331 336 341 171 176 186 0
273 278 333 338 343 173 178 188 0
273 278 333 338 353 173 0
271 276 331 336 366 171 0
271 276 331 341 361 176 0
273 278 333 343 373 178 0
273 278 333 353 373 218 0
271 276 331 361 366 236 0
271 276 336 341 356 186 0
273 278 338 343 368 188 0
274 279 339 349 369 194 0
275 280 340 350 375 195 0
273 278 338 353 368 213 0
271 276 336 356 366 226 0
274 279 339 364 369 239 0
275 280 340 370 375 250 0
271 276 341 356 361 221 0
273 278 343 368 373 248 0
274 279 349 354 369 214 0
275 280 350 360 375 235 0
274 279 354 364 369 209 214 239 0
273 278 353 368 373 213 218 248 0
271 276 356 361 366 221 226 236 0
275 280 360 370 375 230 235 250 0
272 282 287 292 297 72 77 82 87 92 97 0
271 281 286 291 301 71 76 86 0
272 282 287 292 302 72 77 87 0
271 281 286 291 326 71 76 86 0
272 282 287 292 332 72 77 87 0
271 281 286 291 351 71 76 86 0
272 282 287 292 362 72 77 87 0
272 282 287 297 322 72 82 92 0
275 285 290 300 325 75 85 95 0
272 282 287 297 327 72 82 92 0
275 285 290 300 345 75 85 95 0
272 282 287 297 357 72 82 92 0
275 285 290 300 365 75 85 95 0
271 281 286 301 316 71 111 0
272 282 287 302 322 72 117 0
272 282 287 302 327 72 0
271 281 286 301 341 71 0
272 282 287 302 357 72 0
271 281 286 301 366 71 0
275 285 290 320 325 75 150 0
271 281 286 316 326 71 0
275 285 290 320 345 75 0
271 281 286 316 351 71 0
275 285 290 320 365 75 0
272 282 287 322 332 72 0
275 285 290 325 340 75 0
275 285 290 325 360 75 0
272 282 287 322 362 72 0
272 282 287 327 332 72 152 0
271 281 286 326 341 71 161 0
272 282 287 327 362 72 0
271 281 286 326 366 71 0
272 282 287 332 357 72 0
275 285 290 340 345 75 190 0
275 285 290 340 365 75 0
271 281 286 341 351 71 0
275 285 290 345 360 75 0
271 281 286 351 366 71 211 0
272 282 287 357 362 72 222 0
275 285 290 360 365 75 225 0
272 282 292 297 317 77 82 97 0
274 284 294 299 319 79 84 99 0
274 284 294 299 334 79 84 99 0
272 282 292 297 347 77 82 97 0
272 282 292 297 352 77 82 97 0
274 284 294 299 374 79 84 99 0
271 281 291 301 311 76 106 0
272 282 292 302 317 77 112 0
271 281 291 301 336 76 0
272 282 292 302 347 77 0
272 282 292 302 352 77 0
271 281 291 301 361 76 0
274 284 294 314 319 79 139 0
271 281 291 311 326 76 0
274 284 294 314 334 79 0
271 281 291 311 351 76 0
274 284 294 314 374 79 0
274 284 294 319 329 79 0
272 282 292 317 332 77 0
272 282 292 317 362 77 0
274 284 294 319 369 79 0
274 284 294 329 334 79 154 0
271 281 291 326 336 76 156 0
271 281 291 326 361 76 0
274 284 294 329 374 79 0
272 282 292 332 347 77 182 0
272 282 292 332 352 77 0
274 284 294 334 369 79 0
271 281 291 336 351 76 0
272 282 292 347 362 77 0
271 281 291 351 361 76 206 0
272 282 292 352 362 77 207 0
274 284 294 369 374 79 249 0
274 284 299 309 319 84 129 0
275 285 300 310 325 85 135 0
274 284 299 309 334 84 0
275 285 300 310 345 85 0
275 285 300 310 365 85 0
274 284 299 309 374 84 0
272 282 297 317 322 82 147 0
272 282 297 317 327 82 0
274 284 299 319 349 84 0
272 282 297 317 357 82 0
274 284 299 319 364 84 0
275 285 300 325 330 85 0
272 282 297 322 347 82 0
272 282 297 322 352 82 0
275 285 300 325 375 85 0
275 285 300 330 345 85 165 0
272 282 297 327 347 82 167 0
272 282 297 327 352 82 0
275 285 300 330 365 85 0
274 284 299 334 349 84 184 0
274 284 299 334 364 84 0
275 285 300 345 375 85 0
272 282 297 347 357 82 0
274 284 299 349 374 84 0
272 282 297 352 357 82 202 0
274 284 299 364 374 84 244 0
275 285 300 365 375 85 245 0
271 281 301 311 316 106 111 136 0
271 281 301 311 341 106 0
271 281 301 311 366 106 0
272 282 302 317 322 112 117 147 0
272 282 302 317 327 112 0
271 281 301 316 336 111 0
272 282 302 317 357 112 0
271 281 301 316 361 111 0
272 282 302 322 347 117 0
272 282 302 322 352 117 0
272 282 302 327 347 167 0
272 282 302 327 352 0
271 281 301 336 341 186 0
271 281 301 336 366 0
271 281 301 341 361 0
272 282 302 347 357 0
272 282 302 352 357 202 0
271 281 301 361 366 236 0
274 284 309 314 319 124 129 139 0
274 284 309 314 334 124 0
274 284 309 314 374 124 0
275 285 310 320 325 130 135 150 0
274 284 309 319 329 129 0
275 285 310 320 345 130 0
275 285 310 320 365 130 0
274 284 309 319 369 129 0
275 285 310 325 340 135 0
275 285 310 325 360 135 0
274 284 309 329 334 154 0
274 284 309 329 374 0
274 284 309 334 369 0
275 285 310 340 345 190 0
275 285 310 340 365 0
275 285 310 345 360 0
275 285 310 360 365 225 0
274 284 309 369 374 249 0
271 281 311 316 326 136 0
274 284 314 319 349 139 0
271 281 311 316 351 136 0
274 284 314 319 364 139 0
271 281 311 326 341 161 0
271 281 311 326 366 0
274 284 314 334 349 184 0
274 284 314 334 364 0
271 281 311 341 351 0
274 284 314 349 374 0
271 281 311 351 366 211 0
274 284 314 364 374 244 0
275 285 320 325 330 150 0
272 282 317 322 332 147 0
272 282 317 322 362 147 0
275 285 320 325 375 150 0
272 282 317 327 332 152 0
271 281 316 326 336 156 0
275 285 320 330 345 165 0
274 284 319 329 349 169 0
271 281 316 326 361 0
272 282 317 327 362 0
274 284 319 329 364 0
275 285 320 330 365 0
272 282 317 332 357 0
271 281 316 336 351 0
275 285 320 345 375 0
274 284 319 349 369 0
271 281 316 351 361 206 0
272 282 317 357 362 222 0
274 284 319 364 369 239 0
275 285 320 365 375 245 0
275 285 325 330 340 160 0
275 285 325 330 360 0
272 282 322 332 347 182 0
272 282 322 332 352 0
275 285 325 340 375 0
272 282 322 347 362 0
272 282 322 352 362 207 0
275 285 325 360 375 235 0
272 282 327 332 347 152 167 182 0
274 284 329 334 349 154 169 184 0
272 282 327 332 352 152 0
274 284 329 334 364 154 0
271 281 326 336 341 156 161 186 0
275 285 330 340 345 160 165 190 0
275 285 330 340 365 160 0
271 281 326 336 366 156 0
275 285 330 345 360 165 0
271 281 326 341 361 161 0
272 282 327 347 362 167 0
274 284 329 349 374 169 0
272 282 327 352 362 207 0
275 285 330 360 365 225 0
271 281 326 361 366 236 0
274 284 329 364 374 244 0
272 282 332 347 357 182 0
274 284 334 349 369 184 0
272 282 332 352 357 202 0
274 284 334 364 369 239 0
271 281 336 341 351 186 0
275 285 340 345 375 190 0
271 281 336 351 366 211 0
275 285 340 365 375 245 0
271 281 341 351 361 206 0
275 285 345 360 375 235 0
272 282 347 357 362 222 0
274 284 349 369 374 249 0
272 282 352 357 362 202 207 222 0
271 281 351 361 366 206 211 236 0
275 285 360 365 375 225 235 245 0
274 284 364 369 374 239 244 249 0
272 287 292 297 312 87 92 97 0
273 288 293 298 313 88 93 98 0
272 287 292 297 342 87 92 97 0
273 288 293 298 348 88 93 98 0
273 288 293 298 358 88 93 98 0
272 287 292 297 372 87 92 97 0
271 286 291 301 306 86 101 0
272 287 292 302 312 87 107 0
271 286 291 301 331 86 0
272 287 292 302 342 87 0
271 286 291 301 356 86 0
272 287 292 302 372 87 0
273 288 293 308 313 88 123 0
271 286 291 306 326 86 0
273 288 293 308 348 88 0
271 286 291 306 351 86 0
273 288 293 308 358 88 0
272 287 292 312 332 87 0
273 288 293 313 343 88 0
273 288 293 313 353 88 0
272 287 292 312 362 87 0
271 286 291 326 331 86 151 0
271 286 291 326 356 86 0
272 287 292 332 342 87 177 0
271 286 291 331 351 86 0
272 287 292 332 372 87 0
273 288 293 343 348 88 198 0
273 288 293 343 358 88 0
272 287 292 342 362 87 0
273 288 293 348 353 88 0
271 286 291 351 356 86 201 0
273 288 293 353 358 88 203 0
272 287 292 362 372 87 242 0
273 288 298 303 313 93 108 0
275 290 300 305 325 95 120 0
275 290 300 305 345 95 0
273 288 298 303 348 93 0
273 288 298 303 358 93 0
275 290 300 305 365 95 0
272 287 297 312 322 92 142 0
272 287 297 312 327 92 0
273 288 298 313 338 93 0
272 287 297 312 357 92 0
273 288 298 313 373 93 0
272 287 297 322 342 92 0
275 290 300 325 350 95 0
275 290 300 325 370 95 0
272 287 297 322 372 92 0
272 287 297 327 342 92 162 0
272 287 297 327 372 92 0
273 288 298 338 348 93 193 0
273 288 298 338 358 93 0
275 290 300 345 350 95 200 0
272 287 297 342 357 92 0
275 290 300 345 370 95 0
275 290 300 350 365 95 0
273 288 298 348 373 93 0
272 287 297 357 372 92 232 0
273 288 298 358 373 93 233 0
275 290 300 365 370 95 240 0
273 288 303 308 313 103 108 123 0
271 286 301 306 316 101 111 126 0
271 286 301 306 341 101 0
273 288 303 308 348 103 0
273 288 303 308 358 103 0
271 286 301 306 366 101 0
272 287 302 312 322 107 117 142 0
272 287 302 312 327 107 0
273 288 303 313 343 108 0
273 288 303 313 353 108 0
272 287 302 312 357 107 0
275 290 305 320 325 115 120 150 0
271 286 301 316 331 111 0
275 290 305 320 345 115 0
271 286 301 316 356 111 0
275 290 305 320 365 115 0
275 290 305 325 340 120 0
272 287 302 322 342 117 0
275 290 305 325 360 120 0
272 287 302 322 372 117 0
272 287 302 327 342 162 0
272 287 302 327 372 0
271 286 301 331 341 176 0
271 286 301 331 366 0
275 290 305 340 345 190 0
275 290 305 340 365 0
273 288 303 343 348 198 0
271 286 301 341 356 0
272 287 302 342 357 0
273 288 303 343 358 0
275 290 305 345 360 0
273 288 303 348 353 0
273 288 303 353 358 203 0
275 290 305 360 365 225 0
271 286 301 356 366 226 0
272 287 302 357 372 232 0
273 288 308 313 338 123 0
273 288 308 313 373 123 0
271 286 306 316 326 126 0
271 286 306 316 351 126 0
271 286 306 326 341 161 0
271 286 306 326 366 0
273 288 308 338 348 193 0
273 288 308 338 358 0
271 286 306 341 351 0
273 288 308 348 373 0
271 286 306 351 366 211 0
273 288 308 358 373 233 0
272 287 312 322 332 142 0
272 287 312 322 362 142 0
272 287 312 327 332 152 0
272 287 312 327 362 0
272 287 312 332 357 0
273 288 313 338 343 188 0
273 288 313 338 353 0
273 288 313 343 373 0
273 288 313 353 373 218 0
272 287 312 357 362 222 0
275 290 320 325 350 150 0
275 290 320 325 370 150 0
271 286 316 326 331 151 0
271 286 316 326 356 0
271 286 316 331 351 0
275 290 320 345 350 200 0
275 290 320 345 370 0
275 290 320 350 365 0
271 286 316 351 356 201 0
275 290 320 365 370 240 0
272 287 322 332 342 177 0
272 287 322 332 372 0
275 290 325 340 350 195 0
275 290 325 340 370 0
272 287 322 342 362 0
275 290 325 350 360 0
275 290 325 360 370 230 0
272 287 322 362 372 242 0
271 286 326 331 341 151 161 176 0
272 287 327 332 342 152 162 177 0
271 286 326 331 366 151 0
272 287 327 332 372 152 0
271 286 326 341 356 161 0
272 287 327 342 362 162 0
271 286 326 356 366 226 0
272 287 327 362 372 242 0
271 286 331 341 351 176 0
272 287 332 342 357 177 0
271 286 331 351 366 211 0
272 287 332 357 372 232 0
273 288 338 343 348 188 193 198 0
275 290 340 345 350 190 195 200 0
273 288 338 343 358 188 0
275 290 340 345 370 190 0
273 288 338 348 353 193 0
275 290 340 350 365 195 0
273 288 338 353 358 203 0
275 290 340 365 370 240 0
275 290 345 350 360 200 0
273 288 343 348 373 198 0
271 286 341 351 356 201 0
272 287 342 357 362 222 0
275 290 345 360 370 230 0
273 288 343 358 373 233 0
273 288 348 353 373 218 0
275 290 350 360 365 225 0
271 286 351 356 366 201 211 226 0
273 288 353 358 373 203 218 233 0
275 290 360 365 370 225 230 240 0
272 287 357 362 372 222 232 242 0
272 292 297 312 317 97 137 0
273 293 298 313 323 98 143 0
273 293 298 313 333 98 0
272 292 297 312 347 97 0
272 292 297 312 352 97 0
273 293 298 313 368 98 0
274 294 299 319 324 99 149 0
274 294 299 319 339 99 0
272 292 297 317 342 97 0
274 294 299 319 354 99 0
272 292 297 317 372 97 0
274 294 299 324 334 99 0
273 293 298 323 348 98 0
273 293 298 323 358 98 0
274 294 299 324 374 99 0
274 294 299 334 339 99 174 0
273 293 298 333 348 98 183 0
274 294 299 334 354 99 0
273 293 298 333 358 98 0
274 294 299 339 374 99 0
272 292 297 342 347 97 197 0
272 292 297 342 352 97 0
273 293 298 348 368 98 0
272 292 297 347 372 97 0
272 292 297 352 372 97 217 0
274 294 299 354 374 99 219 0
273 293 298 358 368 98 228 0
271 291 301 306 311 101 106 121 0
271 291 301 306 336 101 0
271 291 301 306 361 101 0
272 292 302 312 317 107 112 137 0
271 291 301 311 331 106 0
272 292 302 312 347 107 0
272 292 302 312 352 107 0
271 291 301 311 356 106 0
272 292 302 317 342 112 0
272 292 302 317 372 112 0
271 291 301 331 336 171 0
271 291 301 331 361 0
271 291 301 336 356 0
272 292 302 342 347 197 0
272 292 302 342 352 0
272 292 302 347 372 0
272 292 302 352 372 217 0
271 291 301 356 361 221 0
273 293 308 313 323 123 133 143 0
271 291 306 311 326 121 0
273 293 308 313 333 123 0
271 291 306 311 351 121 0
273 293 308 313 368 123 0
273 293 308 323 348 133 0
273 293 308 323 358 133 0
271 291 306 326 336 156 0
271 291 306 326 361 0
273 293 308 333 348 183 0
273 293 308 333 358 0
271 291 306 336 351 0
273 293 308 348 368 0
271 291 306 351 361 206 0
273 293 308 358 368 228 0
274 294 314 319 324 139 144 149 0
272 292 312 317 332 137 0
274 294 314 319 339 139 0
274 294 314 319 354 139 0
272 292 312 317 362 137 0
274 294 314 324 334 144 0
273 293 313 323 343 143 0
273 293 313 323 353 143 0
274 294 314 324 374 144 0
271 291 311 326 331 151 0
271 291 311 326 356 0
274 294 314 334 339 174 0
273 293 313 333 343 178 0
272 292 312 332 347 182 0
271 291 311 331 351 0
272 292 312 332 352 0
273 293 313 333 353 0
274 294 314 334 354 0
274 294 314 339 374 0
273 293 313 343 368 0
272 292 312 347 362 0
271 291 311 351 356 201 0
272 292 312 352 362 207 0
273 293 313 353 368 213 0
274 294 314 354 374 219 0
274 294 319 324 329 149 0
274 294 319 324 369 149 0
274 294 319 329 339 159 0
274 294 319 329 354 0
272 292 317 332 342 177 0
272 292 317 332 372 0
274 294 319 339 369 0
272 292 317 342 362 0
274 294 319 354 369 214 0
272 292 317 362 372 242 0
274 294 324 329 334 154 0
274 294 324 329 374 0
274 294 324 334 369 0
273 293 323 343 348 198 0
273 293 323 343 358 0
273 293 323 348 353 0
273 293 323 353 358 203 0
274 294 324 369 374 249 0
271 291 326 331 336 151 156 171 0
274 294 329 334 339 154 159 174 0
274 294 329 334 354 154 0
271 291 326 331 361 151 0
271 291 326 336 356 156 0
274 294 329 339 374 159 0
274 294 329 354 374 219 0
271 291 326 356 361 221 0
271 291 331 336 351 171 0
274 294 334 339 369 174 0
272 292 332 342 347 177 182 197 0
273 293 333 343 348 178 183 198 0
272 292 332 342 352 177 0
273 293 333 343 358 178 0
273 293 333 348 353 183 0
272 292 332 347 372 182 0
273 293 333 353 358 203 0
271 291 331 351 361 206 0
274 294 334 354 369 214 0
272 292 332 352 372 217 0
271 291 336 351 356 201 0
274 294 339 369 374 249 0
272 292 342 347 362 197 0
273 293 343 348 368 198 0
272 292 342 352 362 207 0
273 293 343 358 368 228 0
273 293 348 353 368 213 0
272 292 347 362 372 242 0
271 291 351 356 361 201 206 221 0
273 293 353 358 368 203 213 228 0
272 292 352 362 372 207 217 242 0
274 294 354 369 374 214 219 249 0
275 300 305 310 325 105 120 135 0
275 300 305 310 345 105 0
275 300 305 310 365 105 0
273 298 303 313 323 108 118 143 0
273 298 303 313 333 108 0
273 298 303 313 368 108 0
275 300 305 325 330 120 0
273 298 303 323 348 118 0
273 298 303 323 358 118 0
275 300 305 325 375 120 0
275 300 305 330 345 165 0
275 300 305 330 365 0
273 298 303 333 348 183 0
273 298 303 333 358 0
275 300 305 345 375 0
273 298 303 348 368 0
273 298 303 358 368 228 0
275 300 305 365 375 245 0
274 299 309 319 324 129 134 149 0
274 299 309 319 339 129 0
274 299 309 319 354 129 0
274 299 309 324 334 134 0
275 300 310 325 350 135 0
275 300 310 325 370 135 0
274 299 309 324 374 134 0
274 299 309 334 339 174 0
274 299 309 334 354 0
274 299 309 339 374 0
275 300 310 345 350 200 0
275 300 310 345 370 0
275 300 310 350 365 0
274 299 309 354 374 219 0
275 300 310 365 370 240 0
272 297 312 317 322 137 142 147 0
272 297 312 317 327 137 0
272 297 312 317 357 137 0
273 298 313 323 338 143 0
272 297 312 322 347 142 0
272 297 312 322 352 142 0
273 298 313 323 373 143 0
272 297 312 327 347 167 0
272 297 312 327 352 0
273 298 313 333 338 173 0
273 298 313 333 373 0
273 298 313 338 368 0
272 297 312 347 357 0
272 297 312 352 357 202 0
273 298 313 368 373 248 0
272 297 317 322 342 147 0
274 299 319 324 349 149 0
274 299 319 324 364 149 0
272 297 317 322 372 147 0
272 297 317 327 342 162 0
272 297 317 327 372 0
274 299 319 339 349 194 0
274 299 319 339 364 0
272 297 317 342 357 0
274 299 319 349 354 0
274 299 319 354 364 209 0
272 297 317 357 372 232 0
275 300 325 330 350 170 0
275 300 325 330 370 0
274 299 324 334 349 184 0
274 299 324 334 364 0
273 298 323 338 348 193 0
273 298 323 338 358 0
272 297 322 342 347 197 0
272 297 322 342 352 0
272 297 322 347 372 0
273 298 323 348 373 0
274 299 324 349 374 0
275 300 325 350 375 0
272 297 322 352 372 217 0
273 298 323 358 373 233 0
274 299 324 364 374 244 0
275 300 325 370 375 250 0
272 297 327 342 347 162 167 197 0
275 300 330 345 350 165 170 200 0
272 297 327 342 352 162 0
275 300 330 345 370 165 0
275 300 330 350 365 170 0
272 297 327 347 372 167 0
272 297 327 352 372 217 0
275 300 330 365 370 240 0
273 298 333 338 348 173 183 193 0
274 299 334 339 349 174 184 194 0
273 298 333 338 358 173 0
274 299 334 339 364 174 0
274 299 334 349 354 184 0
273 298 333 348 373 183 0
274 299 334 354 364 209 0
273 298 333 358 373 233 0
273 298 338 348 368 193 0
274 299 339 349 374 194 0
273 298 338 358 368 228 0
274 299 339 364 374 244 0
272 297 342 347 357 197 0
275 300 345 350 375 200 0
272 297 342 352 357 202 0
275 300 345 370 375 250 0
274 299 349 354 374 219 0
272 297 347 357 372 232 0
275 300 350 365 375 245 0
273 298 348 368 373 248 0
272 297 352 357 372 202 217 232 0
274 299 354 364 374 209 219 244 0
273 298 358 368 373 228 233 248 0
275 300 365 370 375 240 245 250 0
271 301 306 311 316 101 106 111 121 126 136 0
273 303 308 313 323 103 108 118 123 133 143 0
273 303 308 313 333 103 108 123 0
271 301 306 311 341 101 106 121 0
271 301 306 311 366 101 106 121 0
273 303 308 313 368 103 108 123 0
275 305 310 320 325 105 115 120 130 135 150 0
271 301 306 316 336 101 111 126 0
275 305 310 320 345 105 115 130 0
271 301 306 316 361 101 111 126 0
275 305 310 320 365 105 115 130 0
275 305 310 325 340 105 120 135 0
273 303 308 323 348 103 118 133 0
273 303 308 323 358 103 118 133 0
275 305 310 325 360 105 120 135 0
273 303 308 333 348 103 183 0
273 303 308 333 358 103 0
271 301 306 336 341 101 186 0
275 305 310 340 345 105 190 0
275 305 310 340 365 105 0
271 301 306 336 366 101 0
275 305 310 345 360 105 0
271 301 306 341 361 101 0
273 303 308 348 368 103 0
275 305 310 360 365 105 225 0
273 303 308 358 368 103 228 0
271 301 306 361 366 101 236 0
272 302 312 317 322 107 112 117 137 142 147 0
272 302 312 317 327 107 112 137 0
271 301 311 316 331 106 111 136 0
271 301 311 316 356 106 111 136 0
272 302 312 317 357 107 112 137 0
273 303 313 323 343 108 118 143 0
272 302 312 322 347 107 117 142 0
272 302 312 322 352 107 117 142 0
273 303 313 323 353 108 118 143 0
272 302 312 327 347 107 167 0
272 302 312 327 352 107 0
271 301 311 331 341 106 176 0
273 303 313 333 343 108 178 0
273 303 313 333 353 108 0
271 301 311 331 366 106 0
271 301 311 341 356 106 0
273 303 313 343 368 108 0
272 302 312 347 357 107 0
272 302 312 352 357 107 202 0
273 303 313 353 368 108 213 0
271 301 311 356 366 106 226 0
275 305 320 325 330 115 120 150 0
272 302 317 322 342 112 117 147 0
272 302 317 322 372 112 117 147 0
275 305 320 325 375 115 120 150 0
272 302 317 327 342 112 162 0
275 305 320 330 345 115 165 0
275 305 320 330 365 115 0
272 302 317 327 372 112 0
271 301 316 331 336 111 171 0
271 301 316 331 361 111 0
271 301 316 336 356 111 0
272 302 317 342 357 112 0
275 305 320 345 375 115 0
271 301 316 356 361 111 221 0
272 302 317 357 372 112 232 0
275 305 320 365 375 115 245 0
275 305 325 330 340 120 160 0
275 305 325 330 360 120 0
275 305 325 340 375 120 0
272 302 322 342 347 117 197 0
273 303 323 343 348 118 198 0
272 302 322 342 352 117 0
273 303 323 343 358 118 0
273 303 323 348 353 118 0
272 302 322 347 372 117 0
273 303 323 353 358 118 203 0
272 302 322 352 372 117 217 0
275 305 325 360 375 120 235 0
275 305 330 340 345 160 165 190 0
275 305 330 340 365 160 0
272 302 327 342 347 162 167 197 0
272 302 327 342 352 162 0
275 305 330 345 360 165 0
272 302 327 347 372 167 0
272 302 327 352 372 217 0
275 305 330 360 365 225 0
271 301 331 336 341 171 176 186 0
271 301 331 336 366 171 0
273 303 333 343 348 178 183 198 0
273 303 333 343 358 178 0
271 301 331 341 361 176 0
273 303 333 348 353 183 0
273 303 333 353 358 203 0
271 301 331 361 366 236 0
271 301 336 341 356 186 0
275 305 340 345 375 190 0
271 301 336 356 366 226 0
275 305 340 365 375 245 0
272 302 342 347 357 197 0
273 303 343 348 368 198 0
272 302 342 352 357 202 0
271 301 341 356 361 221 0
273 303 343 358 368 228 0
275 305 345 360 375 235 0
273 303 348 353 368 213 0
272 302 347 357 372 232 0
273 303 353 358 368 203 213 228 0
272 302 352 357 372 202 217 232 0
271 301 356 361 366 221 226 236 0
275 305 360 365 375 225 235 245 0
274 309 314 319 324 124 129 134 139 144 149 0
271 306 311 316 326 121 126 136 0
274 309 314 319 339 124 129 139 0
271 306 311 316 351 121 126 136 0
274 309 314 319 354 124 129 139 0
274 309 314 324 334 124 134 144 0
273 308 313 323 338 123 133 143 0
273 308 313 323 373 123 133 143 0
274 309 314 324 374 124 134 144 0
271 306 311 326 341 121 161 0
271 306 311 326 366 121 0
273 308 313 333 338 123 173 0
274 309 314 334 339 124 174 0
274 309 314 334 354 124 0
273 308 313 333 373 123 0
273 308 313 338 368 123 0
274 309 314 339 374 124 0
271 306 311 341 351 121 0
271 306 311 351 366 121 211 0
274 309 314 354 374 124 219 0
273 308 313 368 373 123 248 0
274 309 319 324 329 129 134 149 0
275 310 320 325 350 130 135 150 0
274 309 319 324 369 129 134 149 0
275 310 320 325 370 130 135 150 0
271 306 316 326 336 126 156 0
274 309 319 329 339 129 159 0
274 309 319 329 354 129 0
271 306 316 326 361 126 0
271 306 316 336 351 126 0
274 309 319 339 369 129 0
275 310 320 345 350 130 200 0
275 310 320 345 370 130 0
275 310 320 350 365 130 0
271 306 316 351 361 126 206 0
274 309 319 354 369 129 214 0
275 310 320 365 370 130 240 0
274 309 324 329 334 134 154 0
274 309 324 329 374 134 0
274 309 324 334 369 134 0
273 308 323 338 348 133 193 0
275 310 325 340 350 135 195 0
273 308 323 338 358 133 0
275 310 325 340 370 135 0
275 310 325 350 360 135 0
273 308 323 348 373 133 0
275 310 325 360 370 135 230 0
273 308 323 358 373 133 233 0
274 309 324 369 374 134 249 0
274 309 329 334 339 154 159 174 0
274 309 329 334 354 154 0
271 306 326 336 341 156 161 186 0
271 306 326 336 366 156 0
274 309 329 339 374 159 0
271 306 326 341 361 161 0
274 309 329 354 374 219 0
271 306 326 361 366 236 0
273 308 333 338 348 173 183 193 0
273 308 333 338 358 173 0
274 309 334 339 369 174 0
273 308 333 348 373 183 0
274 309 334 354 369 214 0
273 308 333 358 373 233 0
275 310 340 345 350 190 195 200 0
271 306 336 341 351 186 0
275 310 340 345 370 190 0
275 310 340 350 365 195 0
273 308 338 348 368 193 0
271 306 336 351 366 211 0
273 308 338 358 368 228 0
275 310 340 365 370 240 0
274 309 339 369 374 249 0
275 310 345 350 360 200 0
271 306 341 351 361 206 0
275 310 345 360 370 230 0
275 310 350 360 365 225 0
273 308 348 368 373 248 0
271 306 351 361 366 206 211 236 0
274 309 354 369 374 214 219 249 0
275 310 360 365 370 225 230 240 0
273 308 358 368 373 228 233 248 0
272 312 317 322 332 137 142 147 0
274 314 319 324 349 139 144 149 0
272 312 317 322 362 137 142 147 0
274 314 319 324 364 139 144 149 0
271 311 316 326 331 136 151 0
272 312 317 327 332 137 152 0
271 311 316 326 356 136 0
272 312 317 327 362 137 0
271 311 316 331 351 136 0
272 312 317 332 357 137 0
274 314 319 339 349 139 194 0
274 314 319 339 364 139 0
274 314 319 349 354 139 0
271 311 316 351 356 136 201 0
274 314 319 354 364 139 209 0
272 312 317 357 362 137 222 0
272 312 322 332 347 142 182 0
274 314 324 334 349 144 184 0
272 312 322 332 352 142 0
274 314 324 334 364 144 0
273 313 323 338 343 143 188 0
273 313 323 338 353 143 0
273 313 323 343 373 143 0
272 312 322 347 362 142 0
274 314 324 349 374 144 0
272 312 322 352 362 142 207 0
273 313 323 353 373 143 218 0
274 314 324 364 374 144 244 0
271 311 326 331 341 151 161 176 0
272 312 327 332 347 152 167 182 0
272 312 327 332 352 152 0
271 311 326 331 366 151 0
271 311 326 341 356 161 0
272 312 327 347 362 167 0
272 312 327 352 362 207 0
271 311 326 356 366 226 0
273 313 333 338 343 173 178 188 0
274 314 334 339 349 174 184 194 0
273 313 333 338 353 173 0
274 314 334 339 364 174 0
271 311 331 341 351 176 0
273 313 333 343 373 178 0
274 314 334 349 354 184 0
272 312 332 347 357 182 0
272 312 332 352 357 202 0
274 314 334 354 364 209 0
271 311 331 351 366 211 0
273 313 333 353 373 218 0
273 313 338 343 368 188 0
274 314 339 349 374 194 0
273 313 338 353 368 213 0
274 314 339 364 374 244 0
271 311 341 351 356 201 0
273 313 343 368 373 248 0
274 314 349 354 374 219 0
272 312 347 357 362 222 0
272 312 352 357 362 202 207 222 0
271 311 351 356 366 201 211 226 0
274 314 354 364 374 209 219 244 0
273 313 353 368 373 213 218 248 0
274 319 324 329 349 149 169 0
275 320 325 330 350 150 170 0
274 319 324 329 364 149 0
275 320 325 330 370 150 0
272 317 322 332 342 147 177 0
272 317 322 332 372 147 0
272 317 322 342 362 147 0
274 319 324 349 369 149 0
275 320 325 350 375 150 0
274 319 324 364 369 149 239 0
272 317 322 362 372 147 242 0
275 320 325 370 375 150 250 0
271 316 326 331 336 151 156 171 0
272 317 327 332 342 152 162 177 0
271 316 326 331 361 151 0
272 317 327 332 372 152 0
274 319 329 339 349 159 169 194 0
271 316 326 336 356 156 0
274 319 329 339 364 159 0
275 320 330 345 350 165 170 200 0
272 317 327 342 362 162 0
275 320 330 345 370 165 0
274 319 329 349 354 169 0
275 320 330 350 365 170 0
274 319 329 354 364 209 0
271 316 326 356 361 221 0
275 320 330 365 370 240 0
272 317 327 362 372 242 0
271 316 331 336 351 171 0
272 317 332 342 357 177 0
271 316 331 351 361 206 0
272 317 332 357 372 232 0
274 319 339 349 369 194 0
271 316 336 351 356 201 0
274 319 339 364 369 239 0
275 320 345 350 375 200 0
272 317 342 357 362 222 0
275 320 345 370 375 250 0
274 319 349 354 369 214 0
275 320 350 365 375 245 0
271 316 351 356 361 201 206 221 0
274 319 354 364 369 209 214 239 0
272 317 357 362 372 222 232 242 0
275 320 365 370 375 240 245 250 0
274 324 329 334 349 154 169 184 0
274 324 329 334 364 154 0
275 325 330 340 350 160 170 195 0
275 325 330 340 370 160 0
275 325 330 350 360 170 0
274 324 329 349 374 169 0
275 325 330 360 370 230 0
274 324 329 364 374 244 0
272 322 332 342 347 177 182 197 0
272 322 332 342 352 177 0
274 324 334 349 369 184 0
272 322 332 347 372 182 0
272 322 332 352 372 217 0
274 324 334 364 369 239 0
273 323 338 343 348 188 193 198 0
273 323 338 343 358 188 0
273 323 338 348 353 193 0
275 325 340 350 375 195 0
273 323 338 353 358 203 0
275 325 340 370 375 250 0
272 322 342 347 362 197 0
273 323 343 348 373 198 0
272 322 342 352 362 207 0
273 323 343 358 373 233 0
273 323 348 353 373 218 0
275 325 350 360 375 235 0
272 322 347 362 372 242 0
274 324 349 369 374 249 0
273 323 353 358 373 203 218 233 0
272 322 352 362 372 207 217 242 0
275 325 360 370 375 230 235 250 0
274 324 364 369 374 239 244 249 0
271 326 331 336 341 151 156 161 171 176 186 0
274 329 334 339 349 154 159 169 174 184 194 0
274 329 334 339 364 154 159 174 0
271 326 331 336 366 151 156 171 0
272 327 332 342 347 152 162 167 177 182 197 0
272 327 332 342 352 152 162 177 0
271 326 331 341 361 151 161 176 0
274 329 334 349 354 154 169 184 0
272 327 332 347 372 152 167 182 0
274 329 334 354 364 154 209 0
272 327 332 352 372 152 217 0
271 326 331 361 366 151 236 0
275 330 340 345 350 160 165 170 190 195 200 0
271 326 336 341 356 156 161 186 0
275 330 340 345 370 160 165 190 0
275 330 340 350 365 160 170 195 0
274 329 339 349 374 159 169 194 0
271 326 336 356 366 156 226 0
275 330 340 365 370 160 240 0
274 329 339 364 374 159 244 0
275 330 345 350 360 165 170 200 0
272 327 342 347 362 162 167 197 0
272 327 342 352 362 162 207 0
271 326 341 356 361 161 221 0
275 330 345 360 370 165 230 0
274 329 349 354 374 169 219 0
275 330 350 360 365 170 225 0
272 327 347 362 372 167 242 0
272 327 352 362 372 207 217 242 0
274 329 354 364 374 209 219 244 0
271 326 356 361 366 221 226 236 0
275 330 360 365 370 225 230 240 0
273 333 338 343 348 173 178 183 188 193 198 0
271 331 336 341 351 171 176 186 0
273 333 338 343 358 173 178 188 0
273 333 338 348 353 173 183 193 0
274 334 339 349 369 174 184 194 0
273 333 338 353 358 173 203 0
271 331 336 351 366 171 211 0
274 334 339 364 369 174 239 0
272 332 342 347 357 177 182 197 0
273 333 343 348 373 178 183 198 0
272 332 342 352 357 177 202 0
271 331 341 351 361 176 206 0
273 333 343 358 373 178 233 0
274 334 349 354 369 184 214 0
273 333 348 353 373 183 218 0
272 332 347 357 372 182 232 0
272 332 352 357 372 202 217 232 0
273 333 353 358 373 203 218 233 0
271 331 351 361 366 206 211 236 0
274 334 354 364 369 209 214 239 0
273 338 343 348 368 188 193 198 0
275 340 345 350 375 190 195 200 0
271 336 341 351 356 186 201 0
273 338 343 358 368 188 228 0
275 340 345 370 375 190 250 0
273 338 348 353 368 193 213 0
275 340 350 365 375 195 245 0
274 339 349 369 374 194 249 0
271 336 351 356 366 201 211 226 0
273 338 353 358 368 203 213 228 0
274 339 364 369 374 239 244 249 0
275 340 365 370 375 240 245 250 0
272 342 347 357 362 197 222 0
275 345 350 360 375 200 235 0
273 343 348 368 373 198 248 0
271 341 351 356 361 201 206 221 0
272 342 352 357 362 202 207 222 0
273 343 358 368 373 228 233 248 0
275 345 360 370 375 230 235 250 0
273 348 353 368 373 213 218 248 0
274 349 354 369 374 214 219 249 0
272 347 357 362 372 222 232 242 0
275 350 360 365 375 225 235 245 0
271 351 356 361 366 201 206 211 221 226 236 0
272 352 357 362 372 202 207 217 222 232 242 0
273 353 358 368 373 203 213 218 228 233 248 0
274 354 364 369 374 209 214 219 239 244 249 0
275 360 365 370 375 225 230 235 240 245 250 0
276 281 286 291 296 51 56 61 66 71 76 81 86 91 96 0
277 282 287 292 297 52 57 62 67 72 77 82 87 92 97 0
278 283 288 293 298 53 58 63 68 73 78 83 88 93 98 0
279 284 289 294 299 54 59 64 69 74 79 84 89 94 99 0
280 285 290 295 300 55 60 65 70 75 80 85 90 95 100 0
277 282 287 292 302 52 57 62 72 77 87 0
278 283 288 293 308 53 58 63 73 78 88 0
279 284 289 294 314 54 59 64 74 79 89 0
280 285 290 295 320 55 60 65 75 80 90 0
276 281 286 291 321 51 56 61 71 76 86 0
279 284 289 294 329 54 59 64 74 79 89 0
277 282 287 292 332 52 57 62 72 77 87 0
280 285 290 295 340 55 60 65 75 80 90 0
278 283 288 293 343 53 58 63 73 78 88 0
276 281 286 291 346 51 56 61 71 76 86 0
278 283 288 293 353 53 58 63 73 78 88 0
280 285 290 295 360 55 60 65 75 80 90 0
277 282 287 292 362 52 57 62 72 77 87 0
279 284 289 294 369 54 59 64 74 79 89 0
276 281 286 291 371 51 56 61 71 76 86 0
278 283 288 298 303 53 58 68 73 83 93 0
279 284 289 299 309 54 59 69 74 84 94 0
280 285 290 300 315 55 60 70 75 85 95 0
276 281 286 296 316 51 56 66 71 81 91 0
277 282 287 297 322 52 57 67 72 82 92 0
277 282 287 297 327 52 57 67 72 82 92 0
280 285 290 300 335 55 60 70 75 85 95 0
278 283 288 298 338 53 58 68 73 83 93 0
276 281 286 296 341 51 56 66 71 81 91 0
279 284 289 299 349 54 59 69 74 84 94 0
280 285 290 300 355 55 60 70 75 85 95 0
277 282 287 297 357 52 57 67 72 82 92 0
279 284 289 299 364 54 59 69 74 84 94 0
276 281 286 296 366 51 56 66 71 81 91 0
278 283 288 298 373 53 58 68 73 83 93 0
278 283 288 303 308 53 58 73 103 0
277 282 287 302 322 52 57 72 117 0
277 282 287 302 327 52 57 72 0
278 283 288 303 343 53 58 73 0
278 283 288 303 353 53 58 73 0
277 282 287 302 357 52 57 72 0
279 284 289 309 314 54 59 74 124 0
279 284 289 309 329 54 59 74 0
278 283 288 308 338 53 58 73 0
279 284 289 309 369 54 59 74 0
278 283 288 308 373 53 58 73 0
280 285 290 315 320 55 60 75 140 0
280 285 290 315 340 55 60 75 0
279 284 289 314 349 54 59 74 0
280 285 290 315 360 55 60 75 0
279 284 289 314 364 54 59 74 0
276 281 286 316 321 51 56 71 146 0
280 285 290 320 335 55 60 75 0
276 281 286 316 346 51 56 71 0
280 285 290 320 355 55 60 75 0
276 281 286 316 371 51 56 71 0
277 282 287 322 332 52 57 72 0
276 281 286 321 341 51 56 71 0
277 282 287 322 362 52 57 72 0
276 281 286 321 366 51 56 71 0
277 282 287 327 332 52 57 72 152 0
279 284 289 329 349 54 59 74 169 0
277 282 287 327 362 52 57 72 0
279 284 289 329 364 54 59 74 0
280 285 290 335 340 55 60 75 175 0
277 282 287 332 357 52 57 72 0
280 285 290 335 360 55 60 75 0
278 283 288 338 343 53 58 73 188 0
278 283 288 338 353 53 58 73 0
280 285 290 340 355 55 60 75 0
276 281 286 341 346 51 56 71 196 0
276 281 286 341 371 51 56 71 0
278 283 288 343 373 53 58 73 0
276 281 286 346 366 51 56 71 0
279 284 289 349 369 54 59 74 0
280 285 290 355 360 55 60 75 205 0
278 283 288 353 373 53 58 73 218 0
277 282 287 357 362 52 57 72 222 0
279 284 289 364 369 54 59 74 239 0
276 281 286 366 371 51 56 71 246 0
279 284 294 299 304 54 64 69 79 84 99 0
280 285 295 300 310 55 65 70 80 85 100 0
276 281 291 296 311 51 61 66 76 81 96 0
277 282 292 297 317 52 62 67 77 82 97 0
278 283 293 298 323 53 63 68 78 83 98 0
280 285 295 300 330 55 65 70 80 85 100 0
278 283 293 298 333 53 63 68 78 83 98 0
276 281 291 296 336 51 61 66 76 81 96 0
279 284 294 299 344 54 64 69 79 84 99 0
277 282 292 297 347 52 62 67 77 82 97 0
277 282 292 297 352 52 62 67 77 82 97 0
279 284 294 299 359 54 64 69 79 84 99 0
276 281 291 296 361 51 61 66 76 81 96 0
278 283 293 298 368 53 63 68 78 83 98 0
280 285 295 300 375 55 65 70 80 85 100 0
279 284 294 304 314 54 64 79 109 0
277 282 292 302 317 52 62 77 112 0
279 284 294 304 329 54 64 79 0
277 282 292 302 347 52 62 77 0
277 282 292 302 352 52 62 77 0
279 284 294 304 369 54 64 79 0
280 285 295 310 320 55 65 80 130 0
278 283 293 308 323 53 63 78 133 0
278 283 293 308 333 53 63 78 0
280 285 295 310 340 55 65 80 0
280 285 295 310 360 55 65 80 0
278 283 293 308 368 53 63 78 0
276 281 291 311 321 51 61 76 141 0
279 284 294 314 344 54 64 79 0
276 281 291 311 346 51 61 76 0
279 284 294 314 359 54 64 79 0
276 281 291 311 371 51 61 76 0
280 285 295 320 330 55 65 80 0
277 282 292 317 332 52 62 77 0
277 282 292 317 362 52 62 77 0
280 285 295 320 375 55 65 80 0
276 281 291 321 336 51 61 76 0
278 283 293 323 343 53 63 78 0
278 283 293 323 353 53 63 78 0
276 281 291 321 361 51 61 76 0
280 285 295 330 340 55 65 80 160 0
279 284 294 329 344 54 64 79 164 0
279 284 294 329 359 54 64 79 0
280 285 295 330 360 55 65 80 0
278 283 293 333 343 53 63 78 178 0
277 282 292 332 347 52 62 77 182 0
277 282 292 332 352 52 62 77 0
278 283 293 333 353 53 63 78 0
276 281 291 336 346 51 61 76 191 0
276 281 291 336 371 51 61 76 0
280 285 295 340 375 55 65 80 0
278 283 293 343 368 53 63 78 0
279 284 294 344 369 54 64 79 0
276 281 291 346 361 51 61 76 0
277 282 292 347 362 52 62 77 0
277 282 292 352 362 52 62 77 207 0
278 283 293 353 368 53 63 78 213 0
279 284 294 359 369 54 64 79 229 0
280 285 295 360 375 55 65 80 235 0
276 281 291 361 371 51 61 76 241 0
279 284 299 304 309 54 69 84 104 0
278 283 298 303 323 53 68 83 118 0
278 283 298 303 333 53 68 83 0
279 284 299 304 349 54 69 84 0
279 284 299 304 364 54 69 84 0
278 283 298 303 368 53 68 83 0
280 285 300 310 315 55 70 85 125 0
280 285 300 310 335 55 70 85 0
279 284 299 309 344 54 69 84 0
280 285 300 310 355 55 70 85 0
279 284 299 309 359 54 69 84 0
276 281 296 311 316 51 66 81 136 0
280 285 300 315 330 55 70 85 0
276 281 296 311 341 51 66 81 0
276 281 296 311 366 51 66 81 0
280 285 300 315 375 55 70 85 0
277 282 297 317 322 52 67 82 147 0
277 282 297 317 327 52 67 82 0
276 281 296 316 336 51 66 81 0
277 282 297 317 357 52 67 82 0
276 281 296 316 361 51 66 81 0
278 283 298 323 338 53 68 83 0
277 282 297 322 347 52 67 82 0
277 282 297 322 352 52 67 82 0
278 283 298 323 373 53 68 83 0
280 285 300 330 335 55 70 85 155 0
277 282 297 327 347 52 67 82 167 0
277 282 297 327 352 52 67 82 0
280 285 300 330 355 55 70 85 0
278 283 298 333 338 53 68 83 173 0
278 283 298 333 373 53 68 83 0
280 285 300 335 375 55 70 85 0
276 281 296 336 341 51 66 81 186 0
276 281 296 336 366 51 66 81 0
278 283 298 338 368 53 68 83 0
279 284 299 344 349 54 69 84 199 0
276 281 296 341 361 51 66 81 0
279 284 299 344 364 54 69 84 0
277 282 297 347 357 52 67 82 0
279 284 299 349 359 54 69 84 0
277 282 297 352 357 52 67 82 202 0
280 285 300 355 375 55 70 85 220 0
279 284 299 359 364 54 69 84 224 0
276 281 296 361 366 51 66 81 236 0
278 283 298 368 373 53 68 83 248 0
279 284 304 309 314 54 104 109 124 0
278 283 303 308 323 53 103 118 133 0
279 284 304 309 329 54 104 0
278 283 303 308 333 53 103 0
278 283 303 308 368 53 103 0
279 284 304 309 369 54 104 0
279 284 304 314 349 54 109 0
279 284 304 314 364 54 109 0
277 282 302 317 322 52 112 117 147 0
277 282 302 317 327 52 112 0
277 282 302 317 357 52 112 0
278 283 303 323 343 53 118 0
277 282 302 322 347 52 117 0
277 282 302 322 352 52 117 0
278 283 303 323 353 53 118 0
277 282 302 327 347 52 167 0
279 284 304 329 349 54 169 0
277 282 302 327 352 52 0
279 284 304 329 364 54 0
278 283 303 333 343 53 178 0
278 283 303 333 353 53 0
278 283 303 343 368 53 0
277 282 302 347 357 52 0
279 284 304 349 369 54 0
277 282 302 352 357 52 202 0
278 283 303 353 368 53 213 0
279 284 304 364 369 54 239 0
280 285 310 315 320 55 125 130 140 0
280 285 310 315 340 55 125 0
279 284 309 314 344 54 124 0
279 284 309 314 359 54 124 0
280 285 310 315 360 55 125 0
280 285 310 320 335 55 130 0
280 285 310 320 355 55 130 0
278 283 308 323 338 53 133 0
278 283 308 323 373 53 133 0
279 284 309 329 344 54 164 0
279 284 309 329 359 54 0
278 283 308 333 338 53 173 0
280 285 310 335 340 55 175 0
280 285 310 335 360 55 0
278 283 308 333 373 53 0
280 285 310 340 355 55 0
278 283 308 338 368 53 0
279 284 309 344 369 54 0
280 285 310 355 360 55 205 0
279 284 309 359 369 54 229 0
278 283 308 368 373 53 248 0
276 281 311 316 321 51 136 141 146 0
280 285 315 320 330 55 140 0
276 281 311 316 346 51 136 0
276 281 311 316 371 51 136 0
280 285 315 320 375 55 140 0
276 281 311 321 341 51 141 0
276 281 311 321 366 51 141 0
280 285 315 330 340 55 160 0
280 285 315 330 360 55 0
280 285 315 340 375 55 0
276 281 311 341 346 51 196 0
279 284 314 344 349 54 199 0
279 284 314 344 364 54 0
276 281 311 341 371 51 0
279 284 314 349 359 54 0
276 281 311 346 366 51 0
279 284 314 359 364 54 224 0
280 285 315 360 375 55 235 0
276 281 311 366 371 51 246 0
277 282 317 322 332 52 147 0
276 281 316 321 336 51 146 0
276 281 316 321 361 51 146 0
277 282 317 322 362 52 147 0
277 282 317 327 332 52 152 0
280 285 320 330 335 55 155 0
280 285 320 330 355 55 0
277 282 317 327 362 52 0
277 282 317 332 357 52 0
280 285 320 335 375 55 0
276 281 316 336 346 51 191 0
276 281 316 336 371 51 0
276 281 316 346 361 51 0
280 285 320 355 375 55 220 0
277 282 317 357 362 52 222 0
276 281 316 361 371 51 241 0
277 282 322 332 347 52 182 0
277 282 322 332 352 52 0
276 281 321 336 341 51 186 0
278 283 323 338 343 53 188 0
278 283 323 338 353 53 0
276 281 321 336 366 51 0
276 281 321 341 361 51 0
278 283 323 343 373 53 0
277 282 322 347 362 52 0
277 282 322 352 362 52 207 0
278 283 323 353 373 53 218 0
276 281 321 361 366 51 236 0
280 285 330 335 340 55 155 160 175 0
277 282 327 332 347 52 152 167 182 0
277 282 327 332 352 52 152 0
280 285 330 335 360 55 155 0
280 285 330 340 355 55 160 0
279 284 329 344 349 54 164 169 199 0
279 284 329 344 364 54 164 0
279 284 329 349 359 54 169 0
277 282 327 347 362 52 167 0
280 285 330 355 360 55 205 0
277 282 327 352 362 52 207 0
279 284 329 359 364 54 224 0
278 283 333 338 343 53 173 178 188 0
278 283 333 338 353 53 173 0
280 285 335 340 375 55 175 0
278 283 333 343 373 53 178 0
277 282 332 347 357 52 182 0
277 282 332 352 357 52 202 0
278 283 333 353 373 53 218 0
280 285 335 360 375 55 235 0
276 281 336 341 346 51 186 191 196 0
278 283 338 343 368 53 188 0
276 281 336 341 371 51 186 0
276 281 336 346 366 51 191 0
278 283 338 353 368 53 213 0
280 285 340 355 375 55 220 0
276 281 336 366 371 51 246 0
276 281 341 346 361 51 196 0
279 284 344 349 369 54 199 0
279 284 344 364 369 54 239 0
276 281 341 361 371 51 241 0
278 283 343 368 373 53 248 0
277 282 347 357 362 52 222 0
279 284 349 359 369 54 229 0
276 281 346 361 366 51 236 0
277 282 352 357 362 52 202 207 222 0
280 285 355 360 375 55 205 220 235 0
278 283 353 368 373 53 213 218 248 0
279 284 359 364 369 54 224 229 239 0
276 281 361 366 371 51 236 241 246 0
280 290 295 300 305 60 65 70 90 95 100 0
276 286 291 296 306 56 61 66 86 91 96 0
277 287 292 297 312 57 62 67 87 92 97 0
278 288 293 298 318 58 63 68 88 93 98 0
279 289 294 299 324 59 64 69 89 94 99 0
278 288 293 298 328 58 63 68 88 93 98 0
276 286 291 296 331 56 61 66 86 91 96 0
279 289 294 299 339 59 64 69 89 94 99 0
277 287 292 297 342 57 62 67 87 92 97 0
280 290 295 300 350 60 65 70 90 95 100 0
279 289 294 299 354 59 64 69 89 94 99 0
276 286 291 296 356 56 61 66 86 91 96 0
278 288 293 298 363 58 63 68 88 93 98 0
280 290 295 300 370 60 65 70 90 95 100 0
277 287 292 297 372 57 62 67 87 92 97 0
277 287 292 302 312 57 62 87 107 0
280 290 295 305 320 60 65 90 115 0
280 290 295 305 340 60 65 90 0
277 287 292 302 342 57 62 87 0
280 290 295 305 360 60 65 90 0
277 287 292 302 372 57 62 87 0
278 288 293 308 318 58 63 88 128 0
276 286 291 306 321 56 61 86 131 0
278 288 293 308 328 58 63 88 0
276 286 291 306 346 56 61 86 0
278 288 293 308 363 58 63 88 0
276 286 291 306 371 56 61 86 0
279 289 294 314 324 59 64 89 144 0
277 287 292 312 332 57 62 87 0
279 289 294 314 339 59 64 89 0
279 289 294 314 354 59 64 89 0
277 287 292 312 362 57 62 87 0
278 288 293 318 343 58 63 88 0
280 290 295 320 350 60 65 90 0
278 288 293 318 353 58 63 88 0
280 290 295 320 370 60 65 90 0
279 289 294 324 329 59 64 89 0
276 286 291 321 331 56 61 86 0
276 286 291 321 356 56 61 86 0
279 289 294 324 369 59 64 89 0
279 289 294 329 339 59 64 89 159 0
278 288 293 328 343 58 63 88 163 0
278 288 293 328 353 58 63 88 0
279 289 294 329 354 59 64 89 0
277 287 292 332 342 57 62 87 177 0
276 286 291 331 346 56 61 86 181 0
276 286 291 331 371 56 61 86 0
277 287 292 332 372 57 62 87 0
280 290 295 340 350 60 65 90 195 0
279 289 294 339 369 59 64 89 0
280 290 295 340 370 60 65 90 0
277 287 292 342 362 57 62 87 0
278 288 293 343 363 58 63 88 0
276 286 291 346 356 56 61 86 0
280 290 295 350 360 60 65 90 0
278 288 293 353 363 58 63 88 208 0
279 289 294 354 369 59 64 89 214 0
280 290 295 360 370 60 65 90 230 0
276 286 291 356 371 56 61 86 231 0
277 287 292 362 372 57 62 87 242 0
280 290 300 305 315 60 70 95 110 0
278 288 298 303 318 58 68 93 113 0
278 288 298 303 328 58 68 93 0
280 290 300 305 335 60 70 95 0
280 290 300 305 355 60 70 95 0
278 288 298 303 363 58 68 93 0
276 286 296 306 316 56 66 91 126 0
279 289 299 309 324 59 69 94 134 0
279 289 299 309 339 59 69 94 0
276 286 296 306 341 56 66 91 0
279 289 299 309 354 59 69 94 0
276 286 296 306 366 56 66 91 0
277 287 297 312 322 57 67 92 142 0
277 287 297 312 327 57 67 92 0
280 290 300 315 350 60 70 95 0
277 287 297 312 357 57 67 92 0
280 290 300 315 370 60 70 95 0
276 286 296 316 331 56 66 91 0
278 288 298 318 338 58 68 93 0
276 286 296 316 356 56 66 91 0
278 288 298 318 373 58 68 93 0
277 287 297 322 342 57 67 92 0
279 289 299 324 349 59 69 94 0
279 289 299 324 364 59 69 94 0
277 287 297 322 372 57 67 92 0
278 288 298 328 338 58 68 93 158 0
277 287 297 327 342 57 67 92 162 0
277 287 297 327 372 57 67 92 0
278 288 298 328 373 58 68 93 0
276 286 296 331 341 56 66 91 176 0
280 290 300 335 350 60 70 95 185 0
276 286 296 331 366 56 66 91 0
280 290 300 335 370 60 70 95 0
279 289 299 339 349 59 69 94 194 0
278 288 298 338 363 58 68 93 0
279 289 299 339 364 59 69 94 0
276 286 296 341 356 56 66 91 0
277 287 297 342 357 57 67 92 0
279 289 299 349 354 59 69 94 0
280 290 300 350 355 60 70 95 0
279 289 299 354 364 59 69 94 209 0
280 290 300 355 370 60 70 95 215 0
276 286 296 356 366 56 66 91 226 0
277 287 297 357 372 57 67 92 232 0
278 288 298 363 373 58 68 93 243 0
278 288 303 308 318 58 103 113 128 0
278 288 303 308 328 58 103 0
278 288 303 308 363 58 103 0
280 290 305 315 320 60 110 115 140 0
277 287 302 312 322 57 107 117 142 0
277 287 302 312 327 57 107 0
280 290 305 315 340 60 110 0
277 287 302 312 357 57 107 0
280 290 305 315 360 60 110 0
280 290 305 320 335 60 115 0
278 288 303 318 343 58 113 0
278 288 303 318 353 58 113 0
280 290 305 320 355 60 115 0
277 287 302 322 342 57 117 0
277 287 302 322 372 57 117 0
277 287 302 327 342 57 162 0
278 288 303 328 343 58 163 0
278 288 303 328 353 58 0
277 287 302 327 372 57 0
280 290 305 335 340 60 175 0
280 290 305 335 360 60 0
280 290 305 340 355 60 0
277 287 302 342 357 57 0
278 288 303 343 363 58 0
280 290 305 355 360 60 205 0
278 288 303 353 363 58 208 0
277 287 302 357 372 57 232 0
279 289 309 314 324 59 124 134 144 0
279 289 309 314 339 59 124 0
279 289 309 314 354 59 124 0
276 286 306 316 321 56 126 131 146 0
278 288 308 318 338 58 128 0
276 286 306 316 346 56 126 0
276 286 306 316 371 56 126 0
278 288 308 318 373 58 128 0
279 289 309 324 329 59 134 0
276 286 306 321 341 56 131 0
276 286 306 321 366 56 131 0
279 289 309 324 369 59 134 0
278 288 308 328 338 58 158 0
279 289 309 329 339 59 159 0
279 289 309 329 354 59 0
278 288 308 328 373 58 0
278 288 308 338 363 58 0
279 289 309 339 369 59 0
276 286 306 341 346 56 196 0
276 286 306 341 371 56 0
276 286 306 346 366 56 0
279 289 309 354 369 59 214 0
278 288 308 363 373 58 243 0
276 286 306 366 371 56 246 0
280 290 315 320 350 60 140 0
280 290 315 320 370 60 140 0
277 287 312 322 332 57 142 0
279 289 314 324 349 59 144 0
277 287 312 322 362 57 142 0
279 289 314 324 364 59 144 0
277 287 312 327 332 57 152 0
277 287 312 327 362 57 0
277 287 312 332 357 57 0
279 289 314 339 349 59 194 0
280 290 315 340 350 60 195 0
279 289 314 339 364 59 0
280 290 315 340 370 60 0
279 289 314 349 354 59 0
280 290 315 350 360 60 0
279 289 314 354 364 59 209 0
277 287 312 357 362 57 222 0
280 290 315 360 370 60 230 0
276 286 316 321 331 56 146 0
276 286 316 321 356 56 146 0
276 286 316 331 346 56 181 0
280 290 320 335 350 60 185 0
280 290 320 335 370 60 0
276 286 316 331 371 56 0
278 288 318 338 343 58 188 0
278 288 318 338 353 58 0
278 288 318 343 373 58 0
280 290 320 350 355 60 0
276 286 316 346 356 56 0
280 290 320 355 370 60 215 0
278 288 318 353 373 58 218 0
276 286 316 356 371 56 231 0
279 289 324 329 349 59 169 0
279 289 324 329 364 59 0
276 286 321 331 341 56 176 0
277 287 322 332 342 57 177 0
276 286 321 331 366 56 0
277 287 322 332 372 57 0
276 286 321 341 356 56 0
277 287 322 342 362 57 0
279 289 324 349 369 59 0
276 286 321 356 366 56 226 0
279 289 324 364 369 59 239 0
277 287 322 362 372 57 242 0
277 287 327 332 342 57 152 162 177 0
277 287 327 332 372 57 152 0
278 288 328 338 343 58 158 163 188 0
279 289 329 339 349 59 159 169 194 0
278 288 328 338 353 58 158 0
279 289 329 339 364 59 159 0
277 287 327 342 362 57 162 0
278 288 328 343 373 58 163 0
279 289 329 349 354 59 169 0
279 289 329 354 364 59 209 0
278 288 328 353 373 58 218 0
277 287 327 362 372 57 242 0
280 290 335 340 350 60 175 185 195 0
280 290 335 340 370 60 175 0
276 286 331 341 346 56 176 181 196 0
277 287 332 342 357 57 177 0
276 286 331 341 371 56 176 0
280 290 335 350 360 60 185 0
276 286 331 346 366 56 181 0
280 290 335 360 370 60 230 0
277 287 332 357 372 57 232 0
276 286 331 366 371 56 246 0
278 288 338 343 363 58 188 0
280 290 340 350 355 60 195 0
279 289 339 349 369 59 194 0
278 288 338 353 363 58 208 0
280 290 340 355 370 60 215 0
279 289 339 364 369 59 239 0
276 286 341 346 356 56 196 0
277 287 342 357 362 57 222 0
276 286 341 356 371 56 231 0
278 288 343 363 373 58 243 0
280 290 350 355 360 60 205 0
279 289 349 354 369 59 214 0
276 286 346 356 366 56 226 0
280 290 355 360 370 60 205 215 230 0
279 289 354 364 369 59 209 214 239 0
278 288 353 363 373 58 208 218 243 0
277 287 357 362 372 57 222 232 242 0
276 286 356 366 371 56 226 231 246 0
280 295 300 305 310 65 70 100 105 0
279 294 299 304 324 64 69 99 119 0
280 295 300 305 330 65 70 100 0
279 294 299 304 339 64 69 99 0
279 294 299 304 354 64 69 99 0
280 295 300 305 375 65 70 100 0
276 291 296 306 311 61 66 96 121 0
276 291 296 306 336 61 66 96 0
280 295 300 310 350 65 70 100 0
276 291 296 306 361 61 66 96 0
280 295 300 310 370 65 70 100 0
277 292 297 312 317 62 67 97 137 0
276 291 296 311 331 61 66 96 0
277 292 297 312 347 62 67 97 0
277 292 297 312 352 62 67 97 0
276 291 296 311 356 61 66 96 0
278 293 298 318 323 63 68 98 148 0
278 293 298 318 333 63 68 98 0
277 292 297 317 342 62 67 97 0
278 293 298 318 368 63 68 98 0
277 292 297 317 372 62 67 97 0
278 293 298 323 328 63 68 98 0
279 294 299 324 344 64 69 99 0
279 294 299 324 359 64 69 99 0
278 293 298 323 363 63 68 98 0
278 293 298 328 333 63 68 98 153 0
280 295 300 330 350 65 70 100 170 0
278 293 298 328 368 63 68 98 0
280 295 300 330 370 65 70 100 0
276 291 296 331 336 61 66 96 171 0
276 291 296 331 361 61 66 96 0
278 293 298 333 363 63 68 98 0
279 294 299 339 344 64 69 99 189 0
276 291 296 336 356 61 66 96 0
279 294 299 339 359 64 69 99 0
277 292 297 342 347 62 67 97 197 0
277 292 297 342 352 62 67 97 0
279 294 299 344 354 64 69 99 0
277 292 297 347 372 62 67 97 0
280 295 300 350 375 65 70 100 0
279 294 299 354 359 64 69 99 204 0
277 292 297 352 372 62 67 97 217 0
276 291 296 356 361 61 66 96 221 0
278 293 298 363 368 63 68 98 238 0
280 295 300 370 375 65 70 100 250 0
280 295 305 310 320 65 105 115 130 0
280 295 305 310 340 65 105 0
280 295 305 310 360 65 105 0
277 292 302 312 317 62 107 112 137 0
279 294 304 314 324 64 109 119 144 0
279 294 304 314 339 64 109 0
277 292 302 312 347 62 107 0
277 292 302 312 352 62 107 0
279 294 304 314 354 64 109 0
280 295 305 320 330 65 115 0
277 292 302 317 342 62 112 0
277 292 302 317 372 62 112 0
280 295 305 320 375 65 115 0
279 294 304 324 329 64 119 0
279 294 304 324 369 64 119 0
279 294 304 329 339 64 159 0
280 295 305 330 340 65 160 0
279 294 304 329 354 64 0
280 295 305 330 360 65 0
279 294 304 339 369 64 0
280 295 305 340 375 65 0
277 292 302 342 347 62 197 0
277 292 302 342 352 62 0
277 292 302 347 372 62 0
279 294 304 354 369 64 214 0
277 292 302 352 372 62 217 0
280 295 305 360 375 65 235 0
276 291 306 311 321 61 121 131 141 0
276 291 306 311 346 61 121 0
276 291 306 311 371 61 121 0
278 293 308 318 323 63 128 133 148 0
278 293 308 318 333 63 128 0
280 295 310 320 350 65 130 0
278 293 308 318 368 63 128 0
280 295 310 320 370 65 130 0
278 293 308 323 328 63 133 0
276 291 306 321 336 61 131 0
276 291 306 321 361 61 131 0
278 293 308 323 363 63 133 0
278 293 308 328 333 63 153 0
278 293 308 328 368 63 0
278 293 308 333 363 63 0
276 291 306 336 346 61 191 0
280 295 310 340 350 65 195 0
280 295 310 340 370 65 0
276 291 306 336 371 61 0
280 295 310 350 360 65 0
276 291 306 346 361 61 0
280 295 310 360 370 65 230 0
278 293 308 363 368 63 238 0
276 291 306 361 371 61 241 0
277 292 312 317 332 62 137 0
277 292 312 317 362 62 137 0
276 291 311 321 331 61 141 0
279 294 314 324 344 64 144 0
276 291 311 321 356 61 141 0
279 294 314 324 359 64 144 0
276 291 311 331 346 61 181 0
277 292 312 332 347 62 182 0
277 292 312 332 352 62 0
276 291 311 331 371 61 0
279 294 314 339 344 64 189 0
279 294 314 339 359 64 0
279 294 314 344 354 64 0
276 291 311 346 356 61 0
277 292 312 347 362 62 0
279 294 314 354 359 64 204 0
277 292 312 352 362 62 207 0
276 291 311 356 371 61 231 0
278 293 318 323 343 63 148 0
278 293 318 323 353 63 148 0
280 295 320 330 350 65 170 0
280 295 320 330 370 65 0
277 292 317 332 342 62 177 0
278 293 318 333 343 63 178 0
278 293 318 333 353 63 0
277 292 317 332 372 62 0
277 292 317 342 362 62 0
278 293 318 343 368 63 0
280 295 320 350 375 65 0
278 293 318 353 368 63 213 0
277 292 317 362 372 62 242 0
280 295 320 370 375 65 250 0
278 293 323 328 343 63 163 0
279 294 324 329 344 64 164 0
278 293 323 328 353 63 0
279 294 324 329 359 64 0
276 291 321 331 336 61 171 0
276 291 321 331 361 61 0
276 291 321 336 356 61 0
278 293 323 343 363 63 0
279 294 324 344 369 64 0
278 293 323 353 363 63 208 0
276 291 321 356 361 61 221 0
279 294 324 359 369 64 229 0
278 293 328 333 343 63 153 163 178 0
278 293 328 333 353 63 153 0
279 294 329 339 344 64 159 164 189 0
280 295 330 340 350 65 160 170 195 0
279 294 329 339 359 64 159 0
280 295 330 340 370 65 160 0
279 294 329 344 354 64 164 0
278 293 328 343 368 63 163 0
280 295 330 350 360 65 170 0
279 294 329 354 359 64 204 0
278 293 328 353 368 63 213 0
280 295 330 360 370 65 230 0
276 291 331 336 346 61 171 181 191 0
276 291 331 336 371 61 171 0
277 292 332 342 347 62 177 182 197 0
277 292 332 342 352 62 177 0
278 293 333 343 363 63 178 0
276 291 331 346 361 61 181 0
277 292 332 347 372 62 182 0
278 293 333 353 363 63 208 0
277 292 332 352 372 62 217 0
276 291 331 361 371 61 241 0
279 294 339 344 369 64 189 0
276 291 336 346 356 61 191 0
280 295 340 350 375 65 195 0
279 294 339 359 369 64 229 0
276 291 336 356 371 61 231 0
280 295 340 370 375 65 250 0
277 292 342 347 362 62 197 0
277 292 342 352 362 62 207 0
279 294 344 354 369 64 214 0
278 293 343 363 368 63 238 0
276 291 346 356 361 61 221 0
280 295 350 360 375 65 235 0
277 292 347 362 372 62 242 0
279 294 354 359 369 64 204 214 229 0
278 293 353 363 368 63 208 213 238 0
277 292 352 362 372 62 207 217 242 0
276 291 356 361 371 61 221 231 241 0
280 295 360 370 375 65 230 235 250 0
280 300 305 310 315 70 105 110 125 0
279 299 304 309 324 69 104 119 134 0
280 300 305 310 335 70 105 0
279 299 304 309 339 69 104 0
279 299 304 309 354 69 104 0
280 300 305 310 355 70 105 0
280 300 305 315 330 70 110 0
280 300 305 315 375 70 110 0
278 298 303 318 323 68 113 118 148 0
278 298 303 318 333 68 113 0
278 298 303 318 368 68 113 0
278 298 303 323 328 68 118 0
279 299 304 324 349 69 119 0
278 298 303 323 363 68 118 0
279 299 304 324 364 69 119 0
278 298 303 328 333 68 153 0
280 300 305 330 335 70 155 0
280 300 305 330 355 70 0
278 298 303 328 368 68 0
278 298 303 333 363 68 0
280 300 305 335 375 70 0
279 299 304 339 349 69 194 0
279 299 304 339 364 69 0
279 299 304 349 354 69 0
279 299 304 354 364 69 209 0
280 300 305 355 375 70 220 0
278 298 303 363 368 68 238 0
276 296 306 311 316 66 121 126 136 0
276 296 306 311 341 66 121 0
280 300 310 315 350 70 125 0
276 296 306 311 366 66 121 0
280 300 310 315 370 70 125 0
276 296 306 316 336 66 126 0
276 296 306 316 361 66 126 0
279 299 309 324 344 69 134 0
279 299 309 324 359 69 134 0
280 300 310 335 350 70 185 0
280 300 310 335 370 70 0
276 296 306 336 341 66 186 0
279 299 309 339 344 69 189 0
279 299 309 339 359 69 0
276 296 306 336 366 66 0
279 299 309 344 354 69 0
276 296 306 341 361 66 0
280 300 310 350 355 70 0
279 299 309 354 359 69 204 0
280 300 310 355 370 70 215 0
276 296 306 361 366 66 236 0
277 297 312 317 322 67 137 142 147 0
277 297 312 317 327 67 137 0
276 296 311 316 331 66 136 0
276 296 311 316 356 66 136 0
277 297 312 317 357 67 137 0
277 297 312 322 347 67 142 0
277 297 312 322 352 67 142 0
277 297 312 327 347 67 167 0
280 300 315 330 350 70 170 0
277 297 312 327 352 67 0
280 300 315 330 370 70 0
276 296 311 331 341 66 176 0
276 296 311 331 366 66 0
276 296 311 341 356 66 0
277 297 312 347 357 67 0
280 300 315 350 375 70 0
277 297 312 352 357 67 202 0
276 296 311 356 366 66 226 0
280 300 315 370 375 70 250 0
278 298 318 323 338 68 148 0
277 297 317 322 342 67 147 0
277 297 317 322 372 67 147 0
278 298 318 323 373 68 148 0
277 297 317 327 342 67 162 0
277 297 317 327 372 67 0
276 296 316 331 336 66 171 0
278 298 318 333 338 68 173 0
276 296 316 331 361 66 0
278 298 318 333 373 68 0
276 296 316 336 356 66 0
278 298 318 338 368 68 0
277 297 317 342 357 67 0
276 296 316 356 361 66 221 0
277 297 317 357 372 67 232 0
278 298 318 368 373 68 248 0
278 298 323 328 338 68 158 0
278 298 323 328 373 68 0
278 298 323 338 363 68 0
277 297 322 342 347 67 197 0
279 299 324 344 349 69 199 0
277 297 322 342 352 67 0
279 299 324 344 364 69 0
279 299 324 349 359 69 0
277 297 322 347 372 67 0
277 297 322 352 372 67 217 0
279 299 324 359 364 69 224 0
278 298 323 363 373 68 243 0
278 298 328 333 338 68 153 158 173 0
280 300 330 335 350 70 155 170 185 0
280 300 330 335 370 70 155 0
278 298 328 333 373 68 153 0
278 298 328 338 368 68 158 0
277 297 327 342 347 67 162 167 197 0
277 297 327 342 352 67 162 0
280 300 330 350 355 70 170 0
277 297 327 347 372 67 167 0
280 300 330 355 370 70 215 0
277 297 327 352 372 67 217 0
278 298 328 368 373 68 248 0
276 296 331 336 341 66 171 176 186 0
278 298 333 338 363 68 173 0
276 296 331 336 366 66 171 0
276 296 331 341 361 66 176 0
280 300 335 350 375 70 185 0
276 296 331 361 366 66 236 0
278 298 333 363 373 68 243 0
280 300 335 370 375 70 250 0
279 299 339 344 349 69 189 194 199 0
276 296 336 341 356 66 186 0
279 299 339 344 364 69 189 0
279 299 339 349 359 69 194 0
279 299 339 359 364 69 224 0
276 296 336 356 366 66 226 0
278 298 338 363 368 68 238 0
279 299 344 349 354 69 199 0
277 297 342 347 357 67 197 0
277 297 342 352 357 67 202 0
279 299 344 354 364 69 209 0
276 296 341 356 361 66 221 0
279 299 349 354 359 69 204 0
280 300 350 355 375 70 220 0
277 297 347 357 372 67 232 0
279 299 354 359 364 69 204 209 224 0
277 297 352 357 372 67 202 217 232 0
280 300 355 370 375 70 215 220 250 0
276 296 356 361 366 66 221 226 236 0
278 298 363 368 373 68 238 243 248 0
280 305 310 315 320 105 110 115 125 130 140 0
279 304 309 314 324 104 109 119 124 134 144 0
279 304 309 314 339 104 109 124 0
280 305 310 315 340 105 110 125 0
279 304 309 314 354 104 109 124 0
280 305 310 315 360 105 110 125 0
278 303 308 318 323 103 113 118 128 133 148 0
278 303 308 318 333 103 113 128 0
280 305 310 320 335 105 115 130 0
280 305 310 320 355 105 115 130 0
278 303 308 318 368 103 113 128 0
278 303 308 323 328 103 118 133 0
279 304 309 324 329 104 119 134 0
278 303 308 323 363 103 118 133 0
279 304 309 324 369 104 119 134 0
278 303 308 328 333 103 153 0
279 304 309 329 339 104 159 0
279 304 309 329 354 104 0
278 303 308 328 368 103 0
280 305 310 335 340 105 175 0
280 305 310 335 360 105 0
278 303 308 333 363 103 0
280 305 310 340 355 105 0
279 304 309 339 369 104 0
280 305 310 355 360 105 205 0
279 304 309 354 369 104 214 0
278 303 308 363 368 103 238 0
277 302 312 317 322 107 112 117 137 142 147 0
277 302 312 317 327 107 112 137 0
280 305 315 320 330 110 115 140 0
277 302 312 317 357 107 112 137 0
280 305 315 320 375 110 115 140 0
277 302 312 322 347 107 117 142 0
279 304 314 324 349 109 119 144 0
277 302 312 322 352 107 117 142 0
279 304 314 324 364 109 119 144 0
280 305 315 330 340 110 160 0
277 302 312 327 347 107 167 0
277 302 312 327 352 107 0
280 305 315 330 360 110 0
279 304 314 339 349 109 194 0
279 304 314 339 364 109 0
280 305 315 340 375 110 0
279 304 314 349 354 109 0
277 302 312 347 357 107 0
277 302 312 352 357 107 202 0
279 304 314 354 364 109 209 0
280 305 315 360 375 110 235 0
277 302 317 322 342 112 117 147 0
278 303 318 323 343 113 118 148 0
278 303 318 323 353 113 118 148 0
277 302 317 322 372 112 117 147 0
280 305 320 330 335 115 155 0
277 302 317 327 342 112 162 0
280 305 320 330 355 115 0
277 302 317 327 372 112 0
278 303 318 333 343 113 178 0
278 303 318 333 353 113 0
280 305 320 335 375 115 0
277 302 317 342 357 112 0
278 303 318 343 368 113 0
278 303 318 353 368 113 213 0
280 305 320 355 375 115 220 0
277 302 317 357 372 112 232 0
278 303 323 328 343 118 163 0
279 304 324 329 349 119 169 0
278 303 323 328 353 118 0
279 304 324 329 364 119 0
277 302 322 342 347 117 197 0
277 302 322 342 352 117 0
278 303 323 343 363 118 0
279 304 324 349 369 119 0
277 302 322 347 372 117 0
278 303 323 353 363 118 208 0
277 302 322 352 372 117 217 0
279 304 324 364 369 119 239 0
280 305 330 335 340 155 160 175 0
278 303 328 333 343 153 163 178 0
278 303 328 333 353 153 0
280 305 330 335 360 155 0
279 304 329 339 349 159 169 194 0
280 305 330 340 355 160 0
279 304 329 339 364 159 0
277 302 327 342 347 162 167 197 0
277 302 327 342 352 162 0
278 303 328 343 368 163 0
279 304 329 349 354 169 0
277 302 327 347 372 167 0
280 305 330 355 360 205 0
279 304 329 354 364 209 0
278 303 328 353 368 213 0
277 302 327 352 372 217 0
280 305 335 340 375 175 0
278 303 333 343 363 178 0
278 303 333 353 363 208 0
280 305 335 360 375 235 0
279 304 339 349 369 194 0
280 305 340 355 375 220 0
279 304 339 364 369 239 0
277 302 342 347 357 197 0
277 302 342 352 357 202 0
278 303 343 363 368 238 0
279 304 349 354 369 214 0
277 302 347 357 372 232 0
277 302 352 357 372 202 217 232 0
280 305 355 360 375 205 220 235 0
278 303 353 363 368 208 213 238 0
279 304 354 364 369 209 214 239 0
276 306 311 316 321 121 126 131 136 141 146 0
276 306 311 316 346 121 126 136 0
280 310 315 320 350 125 130 140 0
280 310 315 320 370 125 130 140 0
276 306 311 316 371 121 126 136 0
276 306 311 321 341 121 131 141 0
279 309 314 324 344 124 134 144 0
279 309 314 324 359 124 134 144 0
276 306 311 321 366 121 131 141 0
279 309 314 339 344 124 189 0
280 310 315 340 350 125 195 0
279 309 314 339 359 124 0
280 310 315 340 370 125 0
276 306 311 341 346 121 196 0
279 309 314 344 354 124 0
276 306 311 341 371 121 0
280 310 315 350 360 125 0
276 306 311 346 366 121 0
279 309 314 354 359 124 204 0
280 310 315 360 370 125 230 0
276 306 311 366 371 121 246 0
276 306 316 321 336 126 131 146 0
278 308 318 323 338 128 133 148 0
276 306 316 321 361 126 131 146 0
278 308 318 323 373 128 133 148 0
278 308 318 333 338 128 173 0
280 310 320 335 350 130 185 0
280 310 320 335 370 130 0
278 308 318 333 373 128 0
276 306 316 336 346 126 191 0
278 308 318 338 368 128 0
276 306 316 336 371 126 0
280 310 320 350 355 130 0
276 306 316 346 361 126 0
280 310 320 355 370 130 215 0
276 306 316 361 371 126 241 0
278 308 318 368 373 128 248 0
278 308 323 328 338 133 158 0
279 309 324 329 344 134 164 0
279 309 324 329 359 134 0
278 308 323 328 373 133 0
276 306 321 336 341 131 186 0
278 308 323 338 363 133 0
276 306 321 336 366 131 0
276 306 321 341 361 131 0
279 309 324 344 369 134 0
279 309 324 359 369 134 229 0
276 306 321 361 366 131 236 0
278 308 323 363 373 133 243 0
278 308 328 333 338 153 158 173 0
278 308 328 333 373 153 0
279 309 329 339 344 159 164 189 0
279 309 329 339 359 159 0
278 308 328 338 368 158 0
279 309 329 344 354 164 0
279 309 329 354 359 204 0
278 308 328 368 373 248 0
280 310 335 340 350 175 185 195 0
278 308 333 338 363 173 0
280 310 335 340 370 175 0
280 310 335 350 360 185 0
280 310 335 360 370 230 0
278 308 333 363 373 243 0
276 306 336 341 346 186 191 196 0
279 309 339 344 369 189 0
276 306 336 341 371 186 0
280 310 340 350 355 195 0
276 306 336 346 366 191 0
280 310 340 355 370 215 0
279 309 339 359 369 229 0
278 308 338 363 368 238 0
276 306 336 366 371 246 0
276 306 341 346 361 196 0
279 309 344 354 369 214 0
276 306 341 361 371 241 0
280 310 350 355 360 205 0
276 306 346 361 366 236 0
279 309 354 359 369 204 214 229 0
280 310 355 360 370 205 215 230 0
276 306 361 366 371 236 241 246 0
278 308 363 368 373 238 243 248 0
276 311 316 321 331 136 141 146 0
277 312 317 322 332 137 142 147 0
276 311 316 321 356 136 141 146 0
277 312 317 322 362 137 142 147 0
277 312 317 327 332 137 152 0
280 315 320 330 350 140 170 0
277 312 317 327 362 137 0
280 315 320 330 370 140 0
276 311 316 331 346 136 181 0
277 312 317 332 357 137 0
276 311 316 331 371 136 0
276 311 316 346 356 136 0
280 315 320 350 375 140 0
277 312 317 357 362 137 222 0
276 311 316 356 371 136 231 0
280 315 320 370 375 140 250 0
276 311 321 331 341 141 176 0
277 312 322 332 347 142 182 0
277 312 322 332 352 142 0
276 311 321 331 366 141 0
279 314 324 344 349 144 199 0
276 311 321 341 356 141 0
279 314 324 344 364 144 0
279 314 324 349 359 144 0
277 312 322 347 362 142 0
277 312 322 352 362 142 207 0
279 314 324 359 364 144 224 0
276 311 321 356 366 141 226 0
277 312 327 332 347 152 167 182 0
277 312 327 332 352 152 0
280 315 330 340 350 160 170 195 0
280 315 330 340 370 160 0
280 315 330 350 360 170 0
277 312 327 347 362 167 0
277 312 327 352 362 207 0
280 315 330 360 370 230 0
276 311 331 341 346 176 181 196 0
276 311 331 341 371 176 0
277 312 332 347 357 182 0
276 311 331 346 366 181 0
277 312 332 352 357 202 0
276 311 331 366 371 246 0
279 314 339 344 349 189 194 199 0
279 314 339 344 364 189 0
279 314 339 349 359 194 0
280 315 340 350 375 195 0
279 314 339 359 364 224 0
280 315 340 370 375 250 0
279 314 344 349 354 199 0
276 311 341 346 356 196 0
279 314 344 354 364 209 0
276 311 341 356 371 231 0
279 314 349 354 359 204 0
277 312 347 357 362 222 0
276 311 346 356 366 226 0
280 315 350 360 375 235 0
277 312 352 357 362 202 207 222 0
279 314 354 359 364 204 209 224 0
276 311 356 366 371 226 231 246 0
280 315 360 370 375 230 235 250 0
276 316 321 331 336 146 171 0
277 317 322 332 342 147 177 0
276 316 321 331 361 146 0
277 317 322 332 372 147 0
278 318 323 338 343 148 188 0
278 318 323 338 353 148 0
276 316 321 336 356 146 0
277 317 322 342 362 147 0
278 318 323 343 373 148 0
278 318 323 353 373 148 218 0
276 316 321 356 361 146 221 0
277 317 322 362 372 147 242 0
277 317 327 332 342 152 162 177 0
280 320 330 335 350 155 170 185 0
280 320 330 335 370 155 0
277 317 327 332 372 152 0
277 317 327 342 362 162 0
280 320 330 350 355 170 0
280 320 330 355 370 215 0
277 317 327 362 372 242 0
278 318 333 338 343 173 178 188 0
276 316 331 336 346 171 181 191 0
278 318 333 338 353 173 0
276 316 331 336 371 171 0
277 317 332 342 357 177 0
278 318 333 343 373 178 0
276 316 331 346 361 181 0
280 320 335 350 375 185 0
278 318 333 353 373 218 0
277 317 332 357 372 232 0
276 316 331 361 371 241 0
280 320 335 370 375 250 0
278 318 338 343 368 188 0
276 316 336 346 356 191 0
278 318 338 353 368 213 0
276 316 336 356 371 231 0
277 317 342 357 362 222 0
278 318 343 368 373 248 0
280 320 350 355 375 220 0
276 316 346 356 361 221 0
278 318 353 368 373 213 218 248 0
280 320 355 370 375 215 220 250 0
276 316 356 361 371 221 231 241 0
277 317 357 362 372 222 232 242 0
278 323 328 338 343 158 163 188 0
278 323 328 338 353 158 0
279 324 329 344 349 164 169 199 0
279 324 329 344 364 164 0
278 323 328 343 373 163 0
279 324 329 349 359 169 0
278 323 328 353 373 218 0
279 324 329 359 364 224 0
276 321 331 336 341 171 176 186 0
276 321 331 336 366 171 0
277 322 332 342 347 177 182 197 0
277 322 332 342 352 177 0
276 321 331 341 361 176 0
277 322 332 347 372 182 0
277 322 332 352 372 217 0
276 321 331 361 366 236 0
276 321 336 341 356 186 0
278 323 338 343 363 188 0
278 323 338 353 363 208 0
276 321 336 356 366 226 0
277 322 342 347 362 197 0
279 324 344 349 369 199 0
277 322 342 352 362 207 0
276 321 341 356 361 221 0
279 324 344 364 369 239 0
278 323 343 363 373 243 0
279 324 349 359 369 229 0
277 322 347 362 372 242 0
277 322 352 362 372 207 217 242 0
278 323 353 363 373 208 218 243 0
276 321 356 361 366 221 226 236 0
279 324 359 364 369 224 229 239 0
278 328 333 338 343 153 158 163 173 178 188 0
280 330 335 340 350 155 160 170 175 185 195 0
278 328 333 338 353 153 158 173 0
280 330 335 340 370 155 160 175 0
277 327 332 342 347 152 162 167 177 182 197 0
277 327 332 342 352 152 162 177 0
278 328 333 343 373 153 163 178 0
280 330 335 350 360 155 170 185 0
277 327 332 347 372 152 167 182 0
277 327 332 352 372 152 217 0
278 328 333 353 373 153 218 0
280 330 335 360 370 155 230 0
279 329 339 344 349 159 164 169 189 194 199 0
279 329 339 344 364 159 164 189 0
278 328 338 343 368 158 163 188 0
280 330 340 350 355 160 170 195 0
279 329 339 349 359 159 169 194 0
278 328 338 353 368 158 213 0
280 330 340 355 370 160 215 0
279 329 339 359 364 159 224 0
279 329 344 349 354 164 169 199 0
277 327 342 347 362 162 167 197 0
277 327 342 352 362 162 207 0
279 329 344 354 364 164 209 0
278 328 343 368 373 163 248 0
279 329 349 354 359 169 204 0
280 330 350 355 360 170 205 0
277 327 347 362 372 167 242 0
279 329 354 359 364 204 209 224 0
280 330 355 360 370 205 215 230 0
277 327 352 362 372 207 217 242 0
278 328 353 368 373 213 218 248 0
276 331 336 341 346 171 176 181 186 191 196 0
278 333 338 343 363 173 178 188 0
276 331 336 341 371 171 176 186 0
276 331 336 346 366 171 181 191 0
280 335 340 350 375 175 185 195 0
278 333 338 353 363 173 208 0
276 331 336 366 371 171 246 0
280 335 340 370 375 175 250 0
277 332 342 347 357 177 182 197 0
276 331 341 346 361 176 181 196 0
277 332 342 352 357 177 202 0
276 331 341 361 371 176 241 0
278 333 343 363 373 178 243 0
277 332 347 357 372 182 232 0
280 335 350 360 375 185 235 0
276 331 346 361 366 181 236 0
277 332 352 357 372 202 217 232 0
278 333 353 363 373 208 218 243 0
280 335 360 370 375 230 235 250 0
276 331 361 366 371 236 241 246 0
276 336 341 346 356 186 191 196 0
279 339 344 349 369 189 194 199 0
276 336 341 356 371 186 231 0
278 338 343 363 368 188 238 0
279 339 344 364 369 189 239 0
280 340 350 355 375 195 220 0
276 336 346 356 366 191 226 0
279 339 349 359 369 194 229 0
278 338 353 363 368 208 213 238 0
280 340 355 370 375 215 220 250 0
279 339 359 364 369 224 229 239 0
276 336 356 366 371 226 231 246 0
279 344 349 354 369 199 214 0
276 341 346 356 361 196 221 0
277 342 347 357 362 197 222 0
277 342 352 357 362 202 207 222 0
279 344 354 364 369 209 214 239 0
276 341 356 361 371 221 231 241 0
278 343 363 368 373 238 243 248 0
279 349 354 359 369 204 214 229 0
280 350 355 360 375 205 220 235 0
276 346 356 361 366 221 226 236 0
277 347 357 362 372 222 232 242 0
279 354 359 364 369 204 209 214 224 229 239 0
277 352 357 362 372 202 207 217 222 232 242 0
280 355 360 370 375 205 215 220 230 235 250 0
278 353 363 368 373 208 213 218 238 243 248 0
276 356 361 366 371 221 226 231 236 241 246 0
281 286 291 296 301 71 76 81 86 91 96 0
282 287 292 297 307 72 77 82 87 92 97 0
283 288 293 298 313 73 78 83 88 93 98 0
284 289 294 299 319 74 79 84 89 94 99 0
285 290 295 300 325 75 80 85 90 95 100 0
281 286 291 296 326 71 76 81 86 91 96 0
284 289 294 299 334 74 79 84 89 94 99 0
282 287 292 297 337 72 77 82 87 92 97 0
285 290 295 300 345 75 80 85 90 95 100 0
283 288 293 298 348 73 78 83 88 93 98 0
281 286 291 296 351 71 76 81 86 91 96 0
283 288 293 298 358 73 78 83 88 93 98 0
285 290 295 300 365 75 80 85 90 95 100 0
282 287 292 297 367 72 77 82 87 92 97 0
284 289 294 299 374 74 79 84 89 94 99 0
282 287 292 302 307 72 77 87 102 0
281 286 291 301 321 71 76 86 116 0
282 287 292 302 337 72 77 87 0
281 286 291 301 346 71 76 86 0
282 287 292 302 367 72 77 87 0
281 286 291 301 371 71 76 86 0
283 288 293 308 313 73 78 88 123 0
282 287 292 307 332 72 77 87 0
283 288 293 308 348 73 78 88 0
283 288 293 308 358 73 78 88 0
282 287 292 307 362 72 77 87 0
284 289 294 314 319 74 79 89 139 0
284 289 294 314 334 74 79 89 0
283 288 293 313 343 73 78 88 0
283 288 293 313 353 73 78 88 0
284 289 294 314 374 74 79 89 0
285 290 295 320 325 75 80 90 150 0
284 289 294 319 329 74 79 89 0
285 290 295 320 345 75 80 90 0
285 290 295 320 365 75 80 90 0
284 289 294 319 369 74 79 89 0
281 286 291 321 326 71 76 86 0
285 290 295 325 340 75 80 90 0
281 286 291 321 351 71 76 86 0
285 290 295 325 360 75 80 90 0
284 289 294 329 334 74 79 89 154 0
281 286 291 326 346 71 76 86 166 0
281 286 291 326 371 71 76 86 0
284 289 294 329 374 74 79 89 0
282 287 292 332 337 72 77 87 172 0
282 287 292 332 367 72 77 87 0
284 289 294 334 369 74 79 89 0
285 290 295 340 345 75 80 90 190 0
282 287 292 337 362 72 77 87 0
285 290 295 340 365 75 80 90 0
283 288 293 343 348 73 78 88 198 0
283 288 293 343 358 73 78 88 0
285 290 295 345 360 75 80 90 0
281 286 291 346 351 71 76 86 0
283 288 293 348 353 73 78 88 0
283 288 293 353 358 73 78 88 203 0
281 286 291 351 371 71 76 86 216 0
285 290 295 360 365 75 80 90 225 0
282 287 292 362 367 72 77 87 237 0
284 289 294 369 374 74 79 89 249 0
283 288 298 303 313 73 83 93 108 0
281 286 296 301 316 71 81 91 111 0
281 286 296 301 341 71 81 91 0
283 288 298 303 348 73 83 93 0
283 288 298 303 358 73 83 93 0
281 286 296 301 366 71 81 91 0
284 289 299 309 319 74 84 94 129 0
282 287 297 307 322 72 82 92 132 0
282 287 297 307 327 72 82 92 0
284 289 299 309 334 74 84 94 0
282 287 297 307 357 72 82 92 0
284 289 299 309 374 74 84 94 0
285 290 300 315 325 75 85 95 145 0
283 288 298 313 338 73 83 93 0
285 290 300 315 345 75 85 95 0
285 290 300 315 365 75 85 95 0
283 288 298 313 373 73 83 93 0
281 286 296 316 326 71 81 91 0
284 289 299 319 349 74 84 94 0
281 286 296 316 351 71 81 91 0
284 289 299 319 364 74 84 94 0
285 290 300 325 335 75 85 95 0
282 287 297 322 337 72 82 92 0
285 290 300 325 355 75 85 95 0
282 287 297 322 367 72 82 92 0
282 287 297 327 337 72 82 92 157 0
281 286 296 326 341 71 81 91 161 0
281 286 296 326 366 71 81 91 0
282 287 297 327 367 72 82 92 0
285 290 300 335 345 75 85 95 180 0
284 289 299 334 349 74 84 94 184 0
284 289 299 334 364 74 84 94 0
285 290 300 335 365 75 85 95 0
283 288 298 338 348 73 83 93 193 0
282 287 297 337 357 72 82 92 0
283 288 298 338 358 73 83 93 0
281 286 296 341 351 71 81 91 0
285 290 300 345 355 75 85 95 0
283 288 298 348 373 73 83 93 0
284 289 299 349 374 74 84 94 0
285 290 300 355 365 75 85 95 210 0
281 286 296 351 366 71 81 91 211 0
282 287 297 357 367 72 82 92 227 0
283 288 298 358 373 73 83 93 233 0
284 289 299 364 374 74 84 94 244 0
283 288 303 308 313 73 103 108 123 0
282 287 302 307 322 72 102 117 132 0
282 287 302 307 327 72 102 0
283 288 303 308 348 73 103 0
282 287 302 307 357 72 102 0
283 288 303 308 358 73 103 0
283 288 303 313 343 73 108 0
283 288 303 313 353 73 108 0
281 286 301 316 321 71 111 116 146 0
281 286 301 316 346 71 111 0
281 286 301 316 371 71 111 0
282 287 302 322 337 72 117 0
281 286 301 321 341 71 116 0
281 286 301 321 366 71 116 0
282 287 302 322 367 72 117 0
282 287 302 327 337 72 157 0
282 287 302 327 367 72 0
282 287 302 337 357 72 0
281 286 301 341 346 71 196 0
283 288 303 343 348 73 198 0
283 288 303 343 358 73 0
281 286 301 341 371 71 0
283 288 303 348 353 73 0
281 286 301 346 366 71 0
283 288 303 353 358 73 203 0
282 287 302 357 367 72 227 0
281 286 301 366 371 71 246 0
284 289 309 314 319 74 124 129 139 0
284 289 309 314 334 74 124 0
283 288 308 313 338 73 123 0
283 288 308 313 373 73 123 0
284 289 309 314 374 74 124 0
284 289 309 319 329 74 129 0
284 289 309 319 369 74 129 0
282 287 307 322 332 72 132 0
282 287 307 322 362 72 132 0
282 287 307 327 332 72 152 0
284 289 309 329 334 74 154 0
282 287 307 327 362 72 0
284 289 309 329 374 74 0
282 287 307 332 357 72 0
284 289 309 334 369 74 0
283 288 308 338 348 73 193 0
283 288 308 338 358 73 0
283 288 308 348 373 73 0
282 287 307 357 362 72 222 0
283 288 308 358 373 73 233 0
284 289 309 369 374 74 249 0
285 290 315 320 325 75 140 145 150 0
285 290 315 320 345 75 140 0
284 289 314 319 349 74 139 0
284 289 314 319 364 74 139 0
285 290 315 320 365 75 140 0
285 290 315 325 340 75 145 0
285 290 315 325 360 75 145 0
284 289 314 334 349 74 184 0
284 289 314 334 364 74 0
283 288 313 338 343 73 188 0
285 290 315 340 345 75 190 0
283 288 313 338 353 73 0
285 290 315 340 365 75 0
285 290 315 345 360 75 0
283 288 313 343 373 73 0
284 289 314 349 374 74 0
283 288 313 353 373 73 218 0
285 290 315 360 365 75 225 0
284 289 314 364 374 74 244 0
281 286 316 321 326 71 146 0
285 290 320 325 335 75 150 0
281 286 316 321 351 71 146 0
285 290 320 325 355 75 150 0
281 286 316 326 346 71 166 0
284 289 319 329 349 74 169 0
284 289 319 329 364 74 0
281 286 316 326 371 71 0
285 290 320 335 345 75 180 0
285 290 320 335 365 75 0
285 290 320 345 355 75 0
281 286 316 346 351 71 0
284 289 319 349 369 74 0
285 290 320 355 365 75 210 0
281 286 316 351 371 71 216 0
284 289 319 364 369 74 239 0
281 286 321 326 341 71 161 0
281 286 321 326 366 71 0
282 287 322 332 337 72 172 0
285 290 325 335 340 75 175 0
285 290 325 335 360 75 0
282 287 322 332 367 72 0
285 290 325 340 355 75 0
282 287 322 337 362 72 0
281 286 321 341 351 71 0
285 290 325 355 360 75 205 0
281 286 321 351 366 71 211 0
282 287 322 362 367 72 237 0
282 287 327 332 337 72 152 157 172 0
284 289 329 334 349 74 154 169 184 0
284 289 329 334 364 74 154 0
282 287 327 332 367 72 152 0
282 287 327 337 362 72 157 0
281 286 326 341 346 71 161 166 196 0
281 286 326 341 371 71 161 0
281 286 326 346 366 71 166 0
284 289 329 349 374 74 169 0
282 287 327 362 367 72 237 0
284 289 329 364 374 74 244 0
281 286 326 366 371 71 246 0
285 290 335 340 345 75 175 180 190 0
282 287 332 337 357 72 172 0
285 290 335 340 365 75 175 0
285 290 335 345 360 75 180 0
284 289 334 349 369 74 184 0
285 290 335 360 365 75 225 0
282 287 332 357 367 72 227 0
284 289 334 364 369 74 239 0
283 288 338 343 348 73 188 193 198 0
285 290 340 345 355 75 190 0
283 288 338 343 358 73 188 0
283 288 338 348 353 73 193 0
283 288 338 353 358 73 203 0
285 290 340 355 365 75 210 0
282 287 337 357 362 72 222 0
281 286 341 346 351 71 196 0
283 288 343 348 373 73 198 0
285 290 345 355 360 75 205 0
281 286 341 351 371 71 216 0
283 288 343 358 373 73 233 0
281 286 346 351 366 71 211 0
283 288 348 353 373 73 218 0
284 289 349 369 374 74 249 0
285 290 355 360 365 75 205 210 225 0
283 288 353 358 373 73 203 218 233 0
281 286 351 366 371 71 211 216 246 0
282 287 357 362 367 72 222 227 237 0
284 289 364 369 374 74 239 244 249 0
281 291 296 301 311 76 81 96 106 0
284 294 299 304 319 79 84 99 114 0
284 294 299 304 334 79 84 99 0
281 291 296 301 336 76 81 96 0
281 291 296 301 361 76 81 96 0
284 294 299 304 374 79 84 99 0
282 292 297 307 317 77 82 97 127 0
285 295 300 310 325 80 85 100 135 0
285 295 300 310 345 80 85 100 0
282 292 297 307 347 77 82 97 0
282 292 297 307 352 77 82 97 0
285 295 300 310 365 80 85 100 0
283 293 298 313 323 78 83 98 143 0
281 291 296 311 326 76 81 96 0
283 293 298 313 333 78 83 98 0
281 291 296 311 351 76 81 96 0
283 293 298 313 368 78 83 98 0
282 292 297 317 337 77 82 97 0
284 294 299 319 344 79 84 99 0
284 294 299 319 359 79 84 99 0
282 292 297 317 367 77 82 97 0
285 295 300 325 330 80 85 100 0
283 293 298 323 348 78 83 98 0
283 293 298 323 358 78 83 98 0
285 295 300 325 375 80 85 100 0
281 291 296 326 336 76 81 96 156 0
285 295 300 330 345 80 85 100 165 0
281 291 296 326 361 76 81 96 0
285 295 300 330 365 80 85 100 0
284 294 299 334 344 79 84 99 179 0
283 293 298 333 348 78 83 98 183 0
283 293 298 333 358 78 83 98 0
284 294 299 334 359 79 84 99 0
282 292 297 337 347 77 82 97 192 0
281 291 296 336 351 76 81 96 0
282 292 297 337 352 77 82 97 0
284 294 299 344 374 79 84 99 0
285 295 300 345 375 80 85 100 0
282 292 297 347 367 77 82 97 0
283 293 298 348 368 78 83 98 0
281 291 296 351 361 76 81 96 206 0
282 292 297 352 367 77 82 97 212 0
283 293 298 358 368 78 83 98 228 0
284 294 299 359 374 79 84 99 234 0
285 295 300 365 375 80 85 100 245 0
282 292 302 307 317 77 102 112 127 0
282 292 302 307 347 77 102 0
282 292 302 307 352 77 102 0
284 294 304 314 319 79 109 114 139 0
281 291 301 311 321 76 106 116 141 0
284 294 304 314 334 79 109 0
281 291 301 311 346 76 106 0
281 291 301 311 371 76 106 0
284 294 304 314 374 79 109 0
284 294 304 319 329 79 114 0
282 292 302 317 337 77 112 0
282 292 302 317 367 77 112 0
284 294 304 319 369 79 114 0
281 291 301 321 336 76 116 0
281 291 301 321 361 76 116 0
284 294 304 329 334 79 154 0
284 294 304 329 374 79 0
284 294 304 334 369 79 0
281 291 301 336 346 76 191 0
282 292 302 337 347 77 192 0
282 292 302 337 352 77 0
281 291 301 336 371 76 0
281 291 301 346 361 76 0
282 292 302 347 367 77 0
282 292 302 352 367 77 212 0
281 291 301 361 371 76 241 0
284 294 304 369 374 79 249 0
283 293 308 313 323 78 123 133 143 0
283 293 308 313 333 78 123 0
283 293 308 313 368 78 123 0
285 295 310 320 325 80 130 135 150 0
282 292 307 317 332 77 127 0
285 295 310 320 345 80 130 0
282 292 307 317 362 77 127 0
285 295 310 320 365 80 130 0
285 295 310 325 340 80 135 0
283 293 308 323 348 78 133 0
283 293 308 323 358 78 133 0
285 295 310 325 360 80 135 0
282 292 307 332 347 77 182 0
283 293 308 333 348 78 183 0
282 292 307 332 352 77 0
283 293 308 333 358 78 0
285 295 310 340 345 80 190 0
285 295 310 340 365 80 0
285 295 310 345 360 80 0
282 292 307 347 362 77 0
283 293 308 348 368 78 0
282 292 307 352 362 77 207 0
285 295 310 360 365 80 225 0
283 293 308 358 368 78 228 0
284 294 314 319 344 79 139 0
284 294 314 319 359 79 139 0
281 291 311 321 326 76 141 0
283 293 313 323 343 78 143 0
281 291 311 321 351 76 141 0
283 293 313 323 353 78 143 0
281 291 311 326 346 76 166 0
281 291 311 326 371 76 0
283 293 313 333 343 78 178 0
284 294 314 334 344 79 179 0
283 293 313 333 353 78 0
284 294 314 334 359 79 0
283 293 313 343 368 78 0
284 294 314 344 374 79 0
281 291 311 346 351 76 0
283 293 313 353 368 78 213 0
281 291 311 351 371 76 216 0
284 294 314 359 374 79 234 0
285 295 320 325 330 80 150 0
285 295 320 325 375 80 150 0
284 294 319 329 344 79 164 0
285 295 320 330 345 80 165 0
284 294 319 329 359 79 0
285 295 320 330 365 80 0
282 292 317 332 337 77 172 0
282 292 317 332 367 77 0
282 292 317 337 362 77 0
284 294 319 344 369 79 0
285 295 320 345 375 80 0
284 294 319 359 369 79 229 0
282 292 317 362 367 77 237 0
285 295 320 365 375 80 245 0
281 291 321 326 336 76 156 0
285 295 325 330 340 80 160 0
285 295 325 330 360 80 0
281 291 321 326 361 76 0
281 291 321 336 351 76 0
285 295 325 340 375 80 0
283 293 323 343 348 78 198 0
283 293 323 343 358 78 0
283 293 323 348 353 78 0
283 293 323 353 358 78 203 0
281 291 321 351 361 76 206 0
285 295 325 360 375 80 235 0
284 294 329 334 344 79 154 164 179 0
284 294 329 334 359 79 154 0
285 295 330 340 345 80 160 165 190 0
281 291 326 336 346 76 156 166 191 0
285 295 330 340 365 80 160 0
281 291 326 336 371 76 156 0
285 295 330 345 360 80 165 0
284 294 329 344 374 79 164 0
281 291 326 346 361 76 166 0
285 295 330 360 365 80 225 0
284 294 329 359 374 79 234 0
281 291 326 361 371 76 241 0
282 292 332 337 347 77 172 182 192 0
282 292 332 337 352 77 172 0
283 293 333 343 348 78 178 183 198 0
283 293 333 343 358 78 178 0
284 294 334 344 369 79 179 0
283 293 333 348 353 78 183 0
282 292 332 347 367 77 182 0
283 293 333 353 358 78 203 0
282 292 332 352 367 77 212 0
284 294 334 359 369 79 229 0
285 295 340 345 375 80 190 0
281 291 336 346 351 76 191 0
282 292 337 347 362 77 192 0
282 292 337 352 362 77 207 0
281 291 336 351 371 76 216 0
285 295 340 365 375 80 245 0
283 293 343 348 368 78 198 0
283 293 343 358 368 78 228 0
285 295 345 360 375 80 235 0
284 294 344 369 374 79 249 0
281 291 346 351 361 76 206 0
283 293 348 353 368 78 213 0
282 292 347 362 367 77 237 0
283 293 353 358 368 78 203 213 228 0
282 292 352 362 367 77 207 212 237 0
281 291 351 361 371 76 206 216 241 0
285 295 360 365 375 80 225 235 245 0
284 294 359 369 374 79 229 234 249 0
284 299 304 309 319 84 104 114 129 0
284 299 304 309 334 84 104 0
284 299 304 309 374 84 104 0
281 296 301 311 316 81 106 111 136 0
283 298 303 313 323 83 108 118 143 0
283 298 303 313 333 83 108 0
281 296 301 311 341 81 106 0
281 296 301 311 366 81 106 0
283 298 303 313 368 83 108 0
281 296 301 316 336 81 111 0
284 299 304 319 349 84 114 0
281 296 301 316 361 81 111 0
284 299 304 319 364 84 114 0
283 298 303 323 348 83 118 0
283 298 303 323 358 83 118 0
283 298 303 333 348 83 183 0
284 299 304 334 349 84 184 0
283 298 303 333 358 83 0
284 299 304 334 364 84 0
281 296 301 336 341 81 186 0
281 296 301 336 366 81 0
281 296 301 341 361 81 0
283 298 303 348 368 83 0
284 299 304 349 374 84 0
283 298 303 358 368 83 228 0
281 296 301 361 366 81 236 0
284 299 304 364 374 84 244 0
285 300 310 315 325 85 125 135 145 0
285 300 310 315 345 85 125 0
285 300 310 315 365 85 125 0
282 297 307 317 322 82 127 132 147 0
282 297 307 317 327 82 127 0
284 299 309 319 344 84 129 0
282 297 307 317 357 82 127 0
284 299 309 319 359 84 129 0
285 300 310 325 335 85 135 0
282 297 307 322 347 82 132 0
282 297 307 322 352 82 132 0
285 300 310 325 355 85 135 0
282 297 307 327 347 82 167 0
282 297 307 327 352 82 0
284 299 309 334 344 84 179 0
285 300 310 335 345 85 180 0
284 299 309 334 359 84 0
285 300 310 335 365 85 0
285 300 310 345 355 85 0
284 299 309 344 374 84 0
282 297 307 347 357 82 0
282 297 307 352 357 82 202 0
285 300 310 355 365 85 210 0
284 299 309 359 374 84 234 0
281 296 311 316 326 81 136 0
281 296 311 316 351 81 136 0
285 300 315 325 330 85 145 0
283 298 313 323 338 83 143 0
283 298 313 323 373 83 143 0
285 300 315 325 375 85 145 0
281 296 311 326 341 81 161 0
285 300 315 330 345 85 165 0
285 300 315 330 365 85 0
281 296 311 326 366 81 0
283 298 313 333 338 83 173 0
283 298 313 333 373 83 0
283 298 313 338 368 83 0
281 296 311 341 351 81 0
285 300 315 345 375 85 0
281 296 311 351 366 81 211 0
285 300 315 365 375 85 245 0
283 298 313 368 373 83 248 0
282 297 317 322 337 82 147 0
282 297 317 322 367 82 147 0
281 296 316 326 336 81 156 0
282 297 317 327 337 82 157 0
281 296 316 326 361 81 0
282 297 317 327 367 82 0
281 296 316 336 351 81 0
282 297 317 337 357 82 0
284 299 319 344 349 84 199 0
284 299 319 344 364 84 0
284 299 319 349 359 84 0
281 296 316 351 361 81 206 0
284 299 319 359 364 84 224 0
282 297 317 357 367 82 227 0
285 300 325 330 335 85 155 0
285 300 325 330 355 85 0
285 300 325 335 375 85 0
282 297 322 337 347 82 192 0
283 298 323 338 348 83 193 0
282 297 322 337 352 82 0
283 298 323 338 358 83 0
282 297 322 347 367 82 0
283 298 323 348 373 83 0
282 297 322 352 367 82 212 0
285 300 325 355 375 85 220 0
283 298 323 358 373 83 233 0
285 300 330 335 345 85 155 165 180 0
285 300 330 335 365 85 155 0
281 296 326 336 341 81 156 161 186 0
282 297 327 337 347 82 157 167 192 0
282 297 327 337 352 82 157 0
281 296 326 336 366 81 156 0
285 300 330 345 355 85 165 0
281 296 326 341 361 81 161 0
282 297 327 347 367 82 167 0
285 300 330 355 365 85 210 0
282 297 327 352 367 82 212 0
281 296 326 361 366 81 236 0
283 298 333 338 348 83 173 183 193 0
283 298 333 338 358 83 173 0
284 299 334 344 349 84 179 184 199 0
284 299 334 344 364 84 179 0
285 300 335 345 375 85 180 0
284 299 334 349 359 84 184 0
283 298 333 348 373 83 183 0
284 299 334 359 364 84 224 0
283 298 333 358 373 83 233 0
285 300 335 365 375 85 245 0
281 296 336 341 351 81 186 0
282 297 337 347 357 82 192 0
283 298 338 348 368 83 193 0
282 297 337 352 357 82 202 0
281 296 336 351 366 81 211 0
283 298 338 358 368 83 228 0
284 299 344 349 374 84 199 0
281 296 341 351 361 81 206 0
285 300 345 355 375 85 220 0
284 299 344 364 374 84 244 0
282 297 347 357 367 82 227 0
284 299 349 359 374 84 234 0
283 298 348 368 373 83 248 0
282 297 352 357 367 82 202 212 227 0
281 296 351 361 366 81 206 211 236 0
285 300 355 365 375 85 210 220 245 0
284 299 359 364 374 84 224 234 244 0
283 298 358 368 373 83 228 233 248 0
284 304 309 314 319 104 109 114 124 129 139 0
283 303 308 313 323 103 108 118 123 133 143 0
283 303 308 313 333 103 108 123 0
284 304 309 314 334 104 109 124 0
283 303 308 313 368 103 108 123 0
284 304 309 314 374 104 109 124 0
282 302 307 317 322 102 112 117 127 132 147 0
282 302 307 317 327 102 112 127 0
284 304 309 319 329 104 114 129 0
282 302 307 317 357 102 112 127 0
284 304 309 319 369 104 114 129 0
282 302 307 322 347 102 117 132 0
283 303 308 323 348 103 118 133 0
282 302 307 322 352 102 117 132 0
283 303 308 323 358 103 118 133 0
284 304 309 329 334 104 154 0
282 302 307 327 347 102 167 0
282 302 307 327 352 102 0
284 304 309 329 374 104 0
283 303 308 333 348 103 183 0
283 303 308 333 358 103 0
284 304 309 334 369 104 0
282 302 307 347 357 102 0
283 303 308 348 368 103 0
282 302 307 352 357 102 202 0
283 303 308 358 368 103 228 0
284 304 309 369 374 104 249 0
281 301 311 316 321 106 111 116 136 141 146 0
281 301 311 316 346 106 111 136 0
284 304 314 319 349 109 114 139 0
284 304 314 319 364 109 114 139 0
281 301 311 316 371 106 111 136 0
281 301 311 321 341 106 116 141 0
283 303 313 323 343 108 118 143 0
283 303 313 323 353 108 118 143 0
281 301 311 321 366 106 116 141 0
283 303 313 333 343 108 178 0
284 304 314 334 349 109 184 0
283 303 313 333 353 108 0
284 304 314 334 364 109 0
281 301 311 341 346 106 196 0
283 303 313 343 368 108 0
281 301 311 341 371 106 0
281 301 311 346 366 106 0
284 304 314 349 374 109 0
283 303 313 353 368 108 213 0
284 304 314 364 374 109 244 0
281 301 311 366 371 106 246 0
281 301 316 321 336 111 116 146 0
282 302 317 322 337 112 117 147 0
281 301 316 321 361 111 116 146 0
282 302 317 322 367 112 117 147 0
282 302 317 327 337 112 157 0
284 304 319 329 349 114 169 0
284 304 319 329 364 114 0
282 302 317 327 367 112 0
281 301 316 336 346 111 191 0
282 302 317 337 357 112 0
281 301 316 336 371 111 0
281 301 316 346 361 111 0
284 304 319 349 369 114 0
282 302 317 357 367 112 227 0
284 304 319 364 369 114 239 0
281 301 316 361 371 111 241 0
281 301 321 336 341 116 186 0
282 302 322 337 347 117 192 0
282 302 322 337 352 117 0
281 301 321 336 366 116 0
283 303 323 343 348 118 198 0
283 303 323 343 358 118 0
281 301 321 341 361 116 0
283 303 323 348 353 118 0
282 302 322 347 367 117 0
283 303 323 353 358 118 203 0
282 302 322 352 367 117 212 0
281 301 321 361 366 116 236 0
284 304 329 334 349 154 169 184 0
284 304 329 334 364 154 0
282 302 327 337 347 157 167 192 0
282 302 327 337 352 157 0
282 302 327 347 367 167 0
284 304 329 349 374 169 0
282 302 327 352 367 212 0
284 304 329 364 374 244 0
283 303 333 343 348 178 183 198 0
283 303 333 343 358 178 0
283 303 333 348 353 183 0
284 304 334 349 369 184 0
283 303 333 353 358 203 0
284 304 334 364 369 239 0
281 301 336 341 346 186 191 196 0
281 301 336 341 371 186 0
282 302 337 347 357 192 0
281 301 336 346 366 191 0
282 302 337 352 357 202 0
281 301 336 366 371 246 0
281 301 341 346 361 196 0
283 303 343 348 368 198 0
283 303 343 358 368 228 0
281 301 341 361 371 241 0
283 303 348 353 368 213 0
282 302 347 357 367 227 0
281 301 346 361 366 236 0
284 304 349 369 374 249 0
282 302 352 357 367 202 212 227 0
283 303 353 358 368 203 213 228 0
281 301 361 366 371 236 241 246 0
284 304 364 369 374 239 244 249 0
285 310 315 320 325 125 130 135 140 145 150 0
284 309 314 319 344 124 129 139 0
285 310 315 320 345 125 130 140 0
284 309 314 319 359 124 129 139 0
285 310 315 320 365 125 130 140 0
283 308 313 323 338 123 133 143 0
285 310 315 325 340 125 135 145 0
285 310 315 325 360 125 135 145 0
283 308 313 323 373 123 133 143 0
283 308 313 333 338 123 173 0
284 309 314 334 344 124 179 0
284 309 314 334 359 124 0
283 308 313 333 373 123 0
285 310 315 340 345 125 190 0
285 310 315 340 365 125 0
283 308 313 338 368 123 0
285 310 315 345 360 125 0
284 309 314 344 374 124 0
285 310 315 360 365 125 225 0
284 309 314 359 374 124 234 0
283 308 313 368 373 123 248 0
282 307 317 322 332 127 132 147 0
285 310 320 325 335 130 135 150 0
285 310 320 325 355 130 135 150 0
282 307 317 322 362 127 132 147 0
282 307 317 327 332 127 152 0
284 309 319 329 344 129 164 0
284 309 319 329 359 129 0
282 307 317 327 362 127 0
285 310 320 335 345 130 180 0
282 307 317 332 357 127 0
285 310 320 335 365 130 0
285 310 320 345 355 130 0
284 309 319 344 369 129 0
285 310 320 355 365 130 210 0
282 307 317 357 362 127 222 0
284 309 319 359 369 129 229 0
285 310 325 335 340 135 175 0
282 307 322 332 347 132 182 0
282 307 322 332 352 132 0
285 310 325 335 360 135 0
283 308 323 338 348 133 193 0
285 310 325 340 355 135 0
283 308 323 338 358 133 0
282 307 322 347 362 132 0
283 308 323 348 373 133 0
285 310 325 355 360 135 205 0
282 307 322 352 362 132 207 0
283 308 323 358 373 133 233 0
284 309 329 334 344 154 164 179 0
282 307 327 332 347 152 167 182 0
282 307 327 332 352 152 0
284 309 329 334 359 154 0
284 309 329 344 374 164 0
282 307 327 347 362 167 0
282 307 327 352 362 207 0
284 309 329 359 374 234 0
285 310 335 340 345 175 180 190 0
283 308 333 338 348 173 183 193 0
283 308 333 338 358 173 0
285 310 335 340 365 175 0
285 310 335 345 360 180 0
284 309 334 344 369 179 0
282 307 332 347 357 182 0
283 308 333 348 373 183 0
282 307 332 352 357 202 0
285 310 335 360 365 225 0
284 309 334 359 369 229 0
283 308 333 358 373 233 0
285 310 340 345 355 190 0
283 308 338 348 368 193 0
285 310 340 355 365 210 0
283 308 338 358 368 228 0
285 310 345 355 360 205 0
284 309 344 369 374 249 0
282 307 347 357 362 222 0
283 308 348 368 373 248 0
282 307 352 357 362 202 207 222 0
285 310 355 360 365 205 210 225 0
283 308 358 368 373 228 233 248 0
284 309 359 369 374 229 234 249 0
281 311 316 321 326 136 141 146 0
285 315 320 325 330 140 145 150 0
281 311 316 321 351 136 141 146 0
285 315 320 325 375 140 145 150 0
285 315 320 330 345 140 165 0
281 311 316 326 346 136 166 0
285 315 320 330 365 140 0
281 311 316 326 371 136 0
284 314 319 344 349 139 199 0
284 314 319 344 364 139 0
285 315 320 345 375 140 0
281 311 316 346 351 136 0
284 314 319 349 359 139 0
281 311 316 351 371 136 216 0
284 314 319 359 364 139 224 0
285 315 320 365 375 140 245 0
285 315 325 330 340 145 160 0
281 311 321 326 341 141 161 0
285 315 325 330 360 145 0
281 311 321 326 366 141 0
283 313 323 338 343 143 188 0
283 313 323 338 353 143 0
285 315 325 340 375 145 0
281 311 321 341 351 141 0
283 313 323 343 373 143 0
281 311 321 351 366 141 211 0
283 313 323 353 373 143 218 0
285 315 325 360 375 145 235 0
285 315 330 340 345 160 165 190 0
285 315 330 340 365 160 0
281 311 326 341 346 161 166 196 0
285 315 330 345 360 165 0
281 311 326 341 371 161 0
281 311 326 346 366 166 0
285 315 330 360 365 225 0
281 311 326 366 371 246 0
283 313 333 338 343 173 178 188 0
283 313 333 338 353 173 0
284 314 334 344 349 179 184 199 0
284 314 334 344 364 179 0
283 313 333 343 373 178 0
284 314 334 349 359 184 0
283 313 333 353 373 218 0
284 314 334 359 364 224 0
283 313 338 343 368 188 0
285 315 340 345 375 190 0
283 313 338 353 368 213 0
285 315 340 365 375 245 0
281 311 341 346 351 196 0
284 314 344 349 374 199 0
281 311 341 351 371 216 0
285 315 345 360 375 235 0
284 314 344 364 374 244 0
283 313 343 368 373 248 0
281 311 346 351 366 211 0
284 314 349 359 374 234 0
281 311 351 366 371 211 216 246 0
283 313 353 368 373 213 218 248 0
284 314 359 364 374 224 234 244 0
285 315 360 365 375 225 235 245 0
285 320 325 330 335 150 155 0
281 316 321 326 336 146 156 0
285 320 325 330 355 150 0
281 316 321 326 361 146 0
282 317 322 332 337 147 172 0
282 317 322 332 367 147 0
285 320 325 335 375 150 0
281 316 321 336 351 146 0
282 317 322 337 362 147 0
281 316 321 351 361 146 206 0
285 320 325 355 375 150 220 0
282 317 322 362 367 147 237 0
282 317 327 332 337 152 157 172 0
285 320 330 335 345 155 165 180 0
285 320 330 335 365 155 0
282 317 327 332 367 152 0
281 316 326 336 346 156 166 191 0
282 317 327 337 362 157 0
281 316 326 336 371 156 0
284 319 329 344 349 164 169 199 0
285 320 330 345 355 165 0
284 319 329 344 364 164 0
284 319 329 349 359 169 0
281 316 326 346 361 166 0
285 320 330 355 365 210 0
284 319 329 359 364 224 0
282 317 327 362 367 237 0
281 316 326 361 371 241 0
282 317 332 337 357 172 0
285 320 335 345 375 180 0
282 317 332 357 367 227 0
285 320 335 365 375 245 0
281 316 336 346 351 191 0
281 316 336 351 371 216 0
282 317 337 357 362 222 0
284 319 344 349 369 199 0
285 320 345 355 375 220 0
284 319 344 364 369 239 0
281 316 346 351 361 206 0
284 319 349 359 369 229 0
281 316 351 361 371 206 216 241 0
285 320 355 365 375 210 220 245 0
282 317 357 362 367 222 227 237 0
284 319 359 364 369 224 229 239 0
285 325 330 335 340 155 160 175 0
285 325 330 335 360 155 0
281 321 326 336 341 156 161 186 0
285 325 330 340 355 160 0
281 321 326 336 366 156 0
281 321 326 341 361 161 0
285 325 330 355 360 205 0
281 321 326 361 366 236 0
282 322 332 337 347 172 182 192 0
282 322 332 337 352 172 0
285 325 335 340 375 175 0
282 322 332 347 367 182 0
282 322 332 352 367 212 0
285 325 335 360 375 235 0
283 323 338 343 348 188 193 198 0
281 321 336 341 351 186 0
283 323 338 343 358 188 0
283 323 338 348 353 193 0
282 322 337 347 362 192 0
283 323 338 353 358 203 0
282 322 337 352 362 207 0
281 321 336 351 366 211 0
285 325 340 355 375 220 0
283 323 343 348 373 198 0
281 321 341 351 361 206 0
283 323 343 358 373 233 0
283 323 348 353 373 218 0
282 322 347 362 367 237 0
283 323 353 358 373 203 218 233 0
285 325 355 360 375 205 220 235 0
281 321 351 361 366 206 211 236 0
282 322 352 362 367 207 212 237 0
285 330 335 340 345 155 160 165 175 180 190 0
282 327 332 337 347 152 157 167 172 182 192 0
282 327 332 337 352 152 157 172 0
285 330 335 340 365 155 160 175 0
284 329 334 344 349 154 164 169 179 184 199 0
285 330 335 345 360 155 165 180 0
284 329 334 344 364 154 164 179 0
284 329 334 349 359 154 169 184 0
282 327 332 347 367 152 167 182 0
282 327 332 352 367 152 212 0
284 329 334 359 364 154 224 0
285 330 335 360 365 155 225 0
281 326 336 341 346 156 161 166 186 191 196 0
285 330 340 345 355 160 165 190 0
281 326 336 341 371 156 161 186 0
282 327 337 347 362 157 167 192 0
281 326 336 346 366 156 166 191 0
282 327 337 352 362 157 207 0
285 330 340 355 365 160 210 0
281 326 336 366 371 156 246 0
281 326 341 346 361 161 166 196 0
284 329 344 349 374 164 169 199 0
285 330 345 355 360 165 205 0
281 326 341 361 371 161 241 0
284 329 344 364 374 164 244 0
284 329 349 359 374 169 234 0
281 326 346 361 366 166 236 0
282 327 347 362 367 167 237 0
285 330 355 360 365 205 210 225 0
282 327 352 362 367 207 212 237 0
284 329 359 364 374 224 234 244 0
281 326 361 366 371 236 241 246 0
283 333 338 343 348 173 178 183 188 193 198 0
283 333 338 343 358 173 178 188 0
285 335 340 345 375 175 180 190 0
283 333 338 348 353 173 183 193 0
282 332 337 347 357 172 182 192 0
282 332 337 352 357 172 202 0
283 333 338 353 358 173 203 0
285 335 340 365 375 175 245 0
284 334 344 349 369 179 184 199 0
283 333 343 348 373 178 183 198 0
283 333 343 358 373 178 233 0
285 335 345 360 375 180 235 0
284 334 344 364 369 179 239 0
283 333 348 353 373 183 218 0
282 332 347 357 367 182 227 0
284 334 349 359 369 184 229 0
282 332 352 357 367 202 212 227 0
283 333 353 358 373 203 218 233 0
284 334 359 364 369 224 229 239 0
285 335 360 365 375 225 235 245 0
281 336 341 346 351 186 191 196 0
283 338 343 348 368 188 193 198 0
281 336 341 351 371 186 216 0
285 340 345 355 375 190 220 0
283 338 343 358 368 188 228 0
281 336 346 351 366 191 211 0
283 338 348 353 368 193 213 0
282 337 347 357 362 192 222 0
282 337 352 357 362 202 207 222 0
283 338 353 358 368 203 213 228 0
285 340 355 365 375 210 220 245 0
281 336 351 366 371 211 216 246 0
281 341 346 351 361 196 206 0
283 343 348 368 373 198 248 0
284 344 349 369 374 199 249 0
285 345 355 360 375 205 220 235 0
281 341 351 361 371 206 216 241 0
283 343 358 368 373 228 233 248 0
284 344 364 369 374 239 244 249 0
281 346 351 361 366 206 211 236 0
283 348 353 368 373 213 218 248 0
282 347 357 362 367 222 227 237 0
284 349 359 369 374 229 234 249 0
282 352 357 362 367 202 207 212 222 227 237 0
285 355 360 365 375 205 210 220 225 235 245 0
283 353 358 368 373 203 213 218 228 233 248 0
281 351 361 366 371 206 211 216 236 241 246 0
284 359 364 369 374 224 229 234 239 244 249 0
286 291 296 301 306 86 91 96 101 0
290 295 300 305 325 90 95 100 120 0
286 291 296 301 331 86 91 96 0
290 295 300 305 345 90 95 100 0
286 291 296 301 356 86 91 96 0
290 295 300 305 365 90 95 100 0
287 292 297 307 312 87 92 97 122 0
286 291 296 306 326 86 91 96 0
287 292 297 307 342 87 92 97 0
286 291 296 306 351 86 91 96 0
287 292 297 307 372 87 92 97 0
288 293 298 313 318 88 93 98 138 0
288 293 298 313 328 88 93 98 0
287 292 297 312 337 87 92 97 0
288 293 298 313 363 88 93 98 0
287 292 297 312 367 87 92 97 0
289 294 299 319 324 89 94 99 149 0
289 294 299 319 339 89 94 99 0
288 293 298 318 348 88 93 98 0
289 294 299 319 354 89 94 99 0
288 293 298 318 358 88 93 98 0
289 294 299 324 334 89 94 99 0
290 295 300 325 350 90 95 100 0
290 295 300 325 370 90 95 100 0
289 294 299 324 374 89 94 99 0
286 291 296 326 331 86 91 96 151 0
288 293 298 328 348 88 93 98 168 0
286 291 296 326 356 86 91 96 0
288 293 298 328 358 88 93 98 0
289 294 299 334 339 89 94 99 174 0
286 291 296 331 351 86 91 96 0
289 294 299 334 354 89 94 99 0
287 292 297 337 342 87 92 97 187 0
287 292 297 337 372 87 92 97 0
289 294 299 339 374 89 94 99 0
290 295 300 345 350 90 95 100 200 0
287 292 297 342 367 87 92 97 0
290 295 300 345 370 90 95 100 0
288 293 298 348 363 88 93 98 0
290 295 300 350 365 90 95 100 0
286 291 296 351 356 86 91 96 201 0
289 294 299 354 374 89 94 99 219 0
288 293 298 358 363 88 93 98 223 0
290 295 300 365 370 90 95 100 240 0
287 292 297 367 372 87 92 97 247 0
287 292 302 307 312 87 102 107 122 0
286 291 301 306 321 86 101 116 131 0
287 292 302 307 342 87 102 0
286 291 301 306 346 86 101 0
286 291 301 306 371 86 101 0
287 292 302 307 372 87 102 0
287 292 302 312 337 87 107 0
287 292 302 312 367 87 107 0
290 295 305 320 325 90 115 120 150 0
290 295 305 320 345 90 115 0
290 295 305 320 365 90 115 0
286 291 301 321 331 86 116 0
290 295 305 325 340 90 120 0
286 291 301 321 356 86 116 0
290 295 305 325 360 90 120 0
286 291 301 331 346 86 181 0
286 291 301 331 371 86 0
287 292 302 337 342 87 187 0
290 295 305 340 345 90 190 0
290 295 305 340 365 90 0
287 292 302 337 372 87 0
290 295 305 345 360 90 0
287 292 302 342 367 87 0
286 291 301 346 356 86 0
290 295 305 360 365 90 225 0
286 291 301 356 371 86 231 0
287 292 302 367 372 87 247 0
288 293 308 313 318 88 123 128 138 0
288 293 308 313 328 88 123 0
287 292 307 312 332 87 122 0
287 292 307 312 362 87 122 0
288 293 308 313 363 88 123 0
288 293 308 318 348 88 128 0
288 293 308 318 358 88 128 0
286 291 306 321 326 86 131 0
286 291 306 321 351 86 131 0
286 291 306 326 346 86 166 0
288 293 308 328 348 88 168 0
288 293 308 328 358 88 0
286 291 306 326 371 86 0
287 292 307 332 342 87 177 0
287 292 307 332 372 87 0
287 292 307 342 362 87 0
286 291 306 346 351 86 0
288 293 308 348 363 88 0
286 291 306 351 371 86 216 0
288 293 308 358 363 88 223 0
287 292 307 362 372 87 242 0
289 294 314 319 324 89 139 144 149 0
289 294 314 319 339 89 139 0
288 293 313 318 343 88 138 0
288 293 313 318 353 88 138 0
289 294 314 319 354 89 139 0
289 294 314 324 334 89 144 0
289 294 314 324 374 89 144 0
288 293 313 328 343 88 163 0
288 293 313 328 353 88 0
287 292 312 332 337 87 172 0
289 294 314 334 339 89 174 0
289 294 314 334 354 89 0
287 292 312 332 367 87 0
287 292 312 337 362 87 0
289 294 314 339 374 89 0
288 293 313 343 363 88 0
288 293 313 353 363 88 208 0
289 294 314 354 374 89 219 0
287 292 312 362 367 87 237 0
289 294 319 324 329 89 149 0
290 295 320 325 350 90 150 0
289 294 319 324 369 89 149 0
290 295 320 325 370 90 150 0
289 294 319 329 339 89 159 0
289 294 319 329 354 89 0
289 294 319 339 369 89 0
288 293 318 343 348 88 198 0
290 295 320 345 350 90 200 0
288 293 318 343 358 88 0
290 295 320 345 370 90 0
288 293 318 348 353 88 0
290 295 320 350 365 90 0
288 293 318 353 358 88 203 0
289 294 319 354 369 89 214 0
290 295 320 365 370 90 240 0
286 291 321 326 331 86 151 0
289 294 324 329 334 89 154 0
286 291 321 326 356 86 0
289 294 324 329 374 89 0
286 291 321 331 351 86 0
289 294 324 334 369 89 0
290 295 325 340 350 90 195 0
290 295 325 340 370 90 0
290 295 325 350 360 90 0
286 291 321 351 356 86 201 0
290 295 325 360 370 90 230 0
289 294 324 369 374 89 249 0
289 294 329 334 339 89 154 159 174 0
286 291 326 331 346 86 151 166 181 0
289 294 329 334 354 89 154 0
286 291 326 331 371 86 151 0
289 294 329 339 374 89 159 0
288 293 328 343 348 88 163 168 198 0
288 293 328 343 358 88 163 0
288 293 328 348 353 88 168 0
286 291 326 346 356 86 166 0
288 293 328 353 358 88 203 0
289 294 329 354 374 89 219 0
286 291 326 356 371 86 231 0
287 292 332 337 342 87 172 177 187 0
289 294 334 339 369 89 174 0
287 292 332 337 372 87 172 0
287 292 332 342 367 87 177 0
286 291 331 346 351 86 181 0
289 294 334 354 369 89 214 0
286 291 331 351 371 86 216 0
287 292 332 367 372 87 247 0
290 295 340 345 350 90 190 195 200 0
287 292 337 342 362 87 187 0
290 295 340 345 370 90 190 0
290 295 340 350 365 90 195 0
290 295 340 365 370 90 240 0
287 292 337 362 372 87 242 0
289 294 339 369 374 89 249 0
290 295 345 350 360 90 200 0
288 293 343 348 363 88 198 0
288 293 343 358 363 88 223 0
290 295 345 360 370 90 230 0
287 292 342 362 367 87 237 0
286 291 346 351 356 86 201 0
288 293 348 353 363 88 208 0
290 295 350 360 365 90 225 0
288 293 353 358 363 88 203 208 223 0
286 291 351 356 371 86 201 216 231 0
289 294 354 369 374 89 214 219 249 0
290 295 360 365 370 90 225 230 240 0
287 292 362 367 372 87 237 242 247 0
286 296 301 306 316 91 101 111 126 0
286 296 301 306 341 91 101 0
286 296 301 306 366 91 101 0
288 298 303 313 318 93 108 113 138 0
290 300 305 315 325 95 110 120 145 0
288 298 303 313 328 93 108 0
290 300 305 315 345 95 110 0
288 298 303 313 363 93 108 0
290 300 305 315 365 95 110 0
286 296 301 316 331 91 111 0
288 298 303 318 348 93 113 0
286 296 301 316 356 91 111 0
288 298 303 318 358 93 113 0
290 300 305 325 335 95 120 0
290 300 305 325 355 95 120 0
288 298 303 328 348 93 168 0
288 298 303 328 358 93 0
286 296 301 331 341 91 176 0
290 300 305 335 345 95 180 0
290 300 305 335 365 95 0
286 296 301 331 366 91 0
290 300 305 345 355 95 0
286 296 301 341 356 91 0
288 298 303 348 363 93 0
290 300 305 355 365 95 210 0
288 298 303 358 363 93 223 0
286 296 301 356 366 91 226 0
287 297 307 312 322 92 122 132 142 0
287 297 307 312 327 92 122 0
287 297 307 312 357 92 122 0
289 299 309 319 324 94 129 134 149 0
286 296 306 316 326 91 126 0
289 299 309 319 339 94 129 0
286 296 306 316 351 91 126 0
289 299 309 319 354 94 129 0
289 299 309 324 334 94 134 0
287 297 307 322 342 92 132 0
287 297 307 322 372 92 132 0
289 299 309 324 374 94 134 0
286 296 306 326 341 91 161 0
287 297 307 327 342 92 162 0
286 296 306 326 366 91 0
287 297 307 327 372 92 0
289 299 309 334 339 94 174 0
289 299 309 334 354 94 0
289 299 309 339 374 94 0
286 296 306 341 351 91 0
287 297 307 342 357 92 0
286 296 306 351 366 91 211 0
289 299 309 354 374 94 219 0
287 297 307 357 372 92 232 0
288 298 313 318 338 93 138 0
288 298 313 318 373 93 138 0
287 297 312 322 337 92 142 0
290 300 315 325 350 95 145 0
287 297 312 322 367 92 142 0
290 300 315 325 370 95 145 0
287 297 312 327 337 92 157 0
288 298 313 328 338 93 158 0
287 297 312 327 367 92 0
288 298 313 328 373 93 0
287 297 312 337 357 92 0
288 298 313 338 363 93 0
290 300 315 345 350 95 200 0
290 300 315 345 370 95 0
290 300 315 350 365 95 0
287 297 312 357 367 92 227 0
290 300 315 365 370 95 240 0
288 298 313 363 373 93 243 0
289 299 319 324 349 94 149 0
289 299 319 324 364 94 149 0
286 296 316 326 331 91 151 0
286 296 316 326 356 91 0
286 296 316 331 351 91 0
288 298 318 338 348 93 193 0
289 299 319 339 349 94 194 0
288 298 318 338 358 93 0
289 299 319 339 364 94 0
289 299 319 349 354 94 0
288 298 318 348 373 93 0
286 296 316 351 356 91 201 0
289 299 319 354 364 94 209 0
288 298 318 358 373 93 233 0
289 299 324 334 349 94 184 0
290 300 325 335 350 95 185 0
289 299 324 334 364 94 0
290 300 325 335 370 95 0
287 297 322 337 342 92 187 0
287 297 322 337 372 92 0
287 297 322 342 367 92 0
290 300 325 350 355 95 0
289 299 324 349 374 94 0
290 300 325 355 370 95 215 0
289 299 324 364 374 94 244 0
287 297 322 367 372 92 247 0
286 296 326 331 341 91 151 161 176 0
286 296 326 331 366 91 151 0
287 297 327 337 342 92 157 162 187 0
288 298 328 338 348 93 158 168 193 0
288 298 328 338 358 93 158 0
287 297 327 337 372 92 157 0
286 296 326 341 356 91 161 0
287 297 327 342 367 92 162 0
288 298 328 348 373 93 168 0
286 296 326 356 366 91 226 0
288 298 328 358 373 93 233 0
287 297 327 367 372 92 247 0
289 299 334 339 349 94 174 184 194 0
289 299 334 339 364 94 174 0
290 300 335 345 350 95 180 185 200 0
286 296 331 341 351 91 176 0
290 300 335 345 370 95 180 0
289 299 334 349 354 94 184 0
290 300 335 350 365 95 185 0
289 299 334 354 364 94 209 0
286 296 331 351 366 91 211 0
290 300 335 365 370 95 240 0
287 297 337 342 357 92 187 0
288 298 338 348 363 93 193 0
289 299 339 349 374 94 194 0
288 298 338 358 363 93 223 0
287 297 337 357 372 92 232 0
289 299 339 364 374 94 244 0
290 300 345 350 355 95 200 0
286 296 341 351 356 91 201 0
290 300 345 355 370 95 215 0
287 297 342 357 367 92 227 0
290 300 350 355 365 95 210 0
289 299 349 354 374 94 219 0
288 298 348 363 373 93 243 0
286 296 351 356 366 91 201 211 226 0
290 300 355 365 370 95 210 215 240 0
289 299 354 364 374 94 209 219 244 0
288 298 358 363 373 93 223 233 243 0
287 297 357 367 372 92 227 232 247 0
288 303 308 313 318 103 108 113 123 128 138 0
287 302 307 312 322 102 107 117 122 132 142 0
287 302 307 312 327 102 107 122 0
288 303 308 313 328 103 108 123 0
287 302 307 312 357 102 107 122 0
288 303 308 313 363 103 108 123 0
286 301 306 316 321 101 111 116 126 131 146 0
286 301 306 316 346 101 111 126 0
288 303 308 318 348 103 113 128 0
288 303 308 318 358 103 113 128 0
286 301 306 316 371 101 111 126 0
286 301 306 321 341 101 116 131 0
287 302 307 322 342 102 117 132 0
286 301 306 321 366 101 116 131 0
287 302 307 322 372 102 117 132 0
287 302 307 327 342 102 162 0
288 303 308 328 348 103 168 0
288 303 308 328 358 103 0
287 302 307 327 372 102 0
286 301 306 341 346 101 196 0
287 302 307 342 357 102 0
286 301 306 341 371 101 0
288 303 308 348 363 103 0
286 301 306 346 366 101 0
288 303 308 358 363 103 223 0
287 302 307 357 372 102 232 0
286 301 306 366 371 101 246 0
290 305 315 320 325 110 115 120 140 145 150 0
288 303 313 318 343 108 113 138 0
290 305 315 320 345 110 115 140 0
288 303 313 318 353 108 113 138 0
290 305 315 320 365 110 115 140 0
287 302 312 322 337 107 117 142 0
290 305 315 325 340 110 120 145 0
290 305 315 325 360 110 120 145 0
287 302 312 322 367 107 117 142 0
287 302 312 327 337 107 157 0
288 303 313 328 343 108 163 0
288 303 313 328 353 108 0
287 302 312 327 367 107 0
290 305 315 340 345 110 190 0
287 302 312 337 357 107 0
290 305 315 340 365 110 0
290 305 315 345 360 110 0
288 303 313 343 363 108 0
288 303 313 353 363 108 208 0
290 305 315 360 365 110 225 0
287 302 312 357 367 107 227 0
286 301 316 321 331 111 116 146 0
290 305 320 325 335 115 120 150 0
290 305 320 325 355 115 120 150 0
286 301 316 321 356 111 116 146 0
290 305 320 335 345 115 180 0
286 301 316 331 346 111 181 0
290 305 320 335 365 115 0
286 301 316 331 371 111 0
288 303 318 343 348 113 198 0
290 305 320 345 355 115 0
288 303 318 343 358 113 0
288 303 318 348 353 113 0
286 301 316 346 356 111 0
288 303 318 353 358 113 203 0
290 305 320 355 365 115 210 0
286 301 316 356 371 111 231 0
290 305 325 335 340 120 175 0
286 301 321 331 341 116 176 0
290 305 325 335 360 120 0
286 301 321 331 366 116 0
287 302 322 337 342 117 187 0
290 305 325 340 355 120 0
287 302 322 337 372 117 0
286 301 321 341 356 116 0
287 302 322 342 367 117 0
290 305 325 355 360 120 205 0
286 301 321 356 366 116 226 0
287 302 322 367 372 117 247 0
287 302 327 337 342 157 162 187 0
287 302 327 337 372 157 0
288 303 328 343 348 163 168 198 0
288 303 328 343 358 163 0
287 302 327 342 367 162 0
288 303 328 348 353 168 0
288 303 328 353 358 203 0
287 302 327 367 372 247 0
290 305 335 340 345 175 180 190 0
290 305 335 340 365 175 0
286 301 331 341 346 176 181 196 0
290 305 335 345 360 180 0
286 301 331 341 371 176 0
286 301 331 346 366 181 0
290 305 335 360 365 225 0
286 301 331 366 371 246 0
290 305 340 345 355 190 0
287 302 337 342 357 187 0
290 305 340 355 365 210 0
287 302 337 357 372 232 0
286 301 341 346 356 196 0
288 303 343 348 363 198 0
290 305 345 355 360 205 0
288 303 343 358 363 223 0
287 302 342 357 367 227 0
286 301 341 356 371 231 0
288 303 348 353 363 208 0
286 301 346 356 366 226 0
288 303 353 358 363 203 208 223 0
290 305 355 360 365 205 210 225 0
286 301 356 366 371 226 231 246 0
287 302 357 367 372 227 232 247 0
289 309 314 319 324 124 129 134 139 144 149 0
288 308 313 318 338 123 128 138 0
289 309 314 319 339 124 129 139 0
289 309 314 319 354 124 129 139 0
288 308 313 318 373 123 128 138 0
287 307 312 322 332 122 132 142 0
289 309 314 324 334 124 134 144 0
287 307 312 322 362 122 132 142 0
289 309 314 324 374 124 134 144 0
287 307 312 327 332 122 152 0
288 308 313 328 338 123 158 0
287 307 312 327 362 122 0
288 308 313 328 373 123 0
289 309 314 334 339 124 174 0
289 309 314 334 354 124 0
287 307 312 332 357 122 0
288 308 313 338 363 123 0
289 309 314 339 374 124 0
289 309 314 354 374 124 219 0
287 307 312 357 362 122 222 0
288 308 313 363 373 123 243 0
286 306 316 321 326 126 131 146 0
289 309 319 324 329 129 134 149 0
286 306 316 321 351 126 131 146 0
289 309 319 324 369 129 134 149 0
289 309 319 329 339 129 159 0
286 306 316 326 346 126 166 0
289 309 319 329 354 129 0
286 306 316 326 371 126 0
288 308 318 338 348 128 193 0
288 308 318 338 358 128 0
289 309 319 339 369 129 0
286 306 316 346 351 126 0
288 308 318 348 373 128 0
289 309 319 354 369 129 214 0
286 306 316 351 371 126 216 0
288 308 318 358 373 128 233 0
289 309 324 329 334 134 154 0
286 306 321 326 341 131 161 0
286 306 321 326 366 131 0
289 309 324 329 374 134 0
287 307 322 332 342 132 177 0
289 309 324 334 369 134 0
287 307 322 332 372 132 0
286 306 321 341 351 131 0
287 307 322 342 362 132 0
286 306 321 351 366 131 211 0
287 307 322 362 372 132 242 0
289 309 324 369 374 134 249 0
289 309 329 334 339 154 159 174 0
287 307 327 332 342 152 162 177 0
289 309 329 334 354 154 0
287 307 327 332 372 152 0
288 308 328 338 348 158 168 193 0
288 308 328 338 358 158 0
289 309 329 339 374 159 0
286 306 326 341 346 161 166 196 0
287 307 327 342 362 162 0
286 306 326 341 371 161 0
286 306 326 346 366 166 0
288 308 328 348 373 168 0
289 309 329 354 374 219 0
288 308 328 358 373 233 0
287 307 327 362 372 242 0
286 306 326 366 371 246 0
289 309 334 339 369 174 0
287 307 332 342 357 177 0
289 309 334 354 369 214 0
287 307 332 357 372 232 0
288 308 338 348 363 193 0
288 308 338 358 363 223 0
289 309 339 369 374 249 0
286 306 341 346 351 196 0
286 306 341 351 371 216 0
287 307 342 357 362 222 0
286 306 346 351 366 211 0
288 308 348 363 373 243 0
286 306 351 366 371 211 216 246 0
289 309 354 369 374 214 219 249 0
287 307 357 362 372 222 232 242 0
288 308 358 363 373 223 233 243 0
289 314 319 324 349 139 144 149 0
290 315 320 325 350 140 145 150 0
289 314 319 324 364 139 144 149 0
290 315 320 325 370 140 145 150 0
288 313 318 338 343 138 188 0
289 314 319 339 349 139 194 0
288 313 318 338 353 138 0
289 314 319 339 364 139 0
290 315 320 345 350 140 200 0
290 315 320 345 370 140 0
288 313 318 343 373 138 0
289 314 319 349 354 139 0
290 315 320 350 365 140 0
289 314 319 354 364 139 209 0
288 313 318 353 373 138 218 0
290 315 320 365 370 140 240 0
287 312 322 332 337 142 172 0
289 314 324 334 349 144 184 0
289 314 324 334 364 144 0
287 312 322 332 367 142 0
290 315 325 340 350 145 195 0
287 312 322 337 362 142 0
290 315 325 340 370 145 0
290 315 325 350 360 145 0
289 314 324 349 374 144 0
290 315 325 360 370 145 230 0
287 312 322 362 367 142 237 0
289 314 324 364 374 144 244 0
287 312 327 332 337 152 157 172 0
287 312 327 332 367 152 0
288 313 328 338 343 158 163 188 0
288 313 328 338 353 158 0
287 312 327 337 362 157 0
288 313 328 343 373 163 0
288 313 328 353 373 218 0
287 312 327 362 367 237 0
289 314 334 339 349 174 184 194 0
287 312 332 337 357 172 0
289 314 334 339 364 174 0
289 314 334 349 354 184 0
289 314 334 354 364 209 0
287 312 332 357 367 227 0
290 315 340 345 350 190 195 200 0
288 313 338 343 363 188 0
290 315 340 345 370 190 0
290 315 340 350 365 195 0
289 314 339 349 374 194 0
288 313 338 353 363 208 0
287 312 337 357 362 222 0
290 315 340 365 370 240 0
289 314 339 364 374 244 0
290 315 345 350 360 200 0
290 315 345 360 370 230 0
288 313 343 363 373 243 0
289 314 349 354 374 219 0
290 315 350 360 365 225 0
288 313 353 363 373 208 218 243 0
289 314 354 364 374 209 219 244 0
287 312 357 362 367 222 227 237 0
290 315 360 365 370 225 230 240 0
286 316 321 326 331 146 151 0
289 319 324 329 349 149 169 0
286 316 321 326 356 146 0
289 319 324 329 364 149 0
290 320 325 335 350 150 185 0
286 316 321 331 351 146 0
290 320 325 335 370 150 0
290 320 325 350 355 150 0
289 319 324 349 369 149 0
286 316 321 351 356 146 201 0
290 320 325 355 370 150 215 0
289 319 324 364 369 149 239 0
286 316 326 331 346 151 166 181 0
286 316 326 331 371 151 0
289 319 329 339 349 159 169 194 0
289 319 329 339 364 159 0
289 319 329 349 354 169 0
286 316 326 346 356 166 0
289 319 329 354 364 209 0
286 316 326 356 371 231 0
290 320 335 345 350 180 185 200 0
290 320 335 345 370 180 0
286 316 331 346 351 181 0
290 320 335 350 365 185 0
286 316 331 351 371 216 0
290 320 335 365 370 240 0
288 318 338 343 348 188 193 198 0
288 318 338 343 358 188 0
288 318 338 348 353 193 0
289 319 339 349 369 194 0
288 318 338 353 358 203 0
289 319 339 364 369 239 0
290 320 345 350 355 200 0
288 318 343 348 373 198 0
290 320 345 355 370 215 0
288 318 343 358 373 233 0
286 316 346 351 356 201 0
290 320 350 355 365 210 0
289 319 349 354 369 214 0
288 318 348 353 373 218 0
286 316 351 356 371 201 216 231 0
288 318 353 358 373 203 218 233 0
289 319 354 364 369 209 214 239 0
290 320 355 365 370 210 215 240 0
286 321 326 331 341 151 161 176 0
289 324 329 334 349 154 169 184 0
289 324 329 334 364 154 0
286 321 326 331 366 151 0
286 321 326 341 356 161 0
289 324 329 349 374 169 0
286 321 326 356 366 226 0
289 324 329 364 374 244 0
287 322 332 337 342 172 177 187 0
290 325 335 340 350 175 185 195 0
290 325 335 340 370 175 0
287 322 332 337 372 172 0
286 321 331 341 351 176 0
287 322 332 342 367 177 0
290 325 335 350 360 185 0
289 324 334 349 369 184 0
286 321 331 351 366 211 0
290 325 335 360 370 230 0
289 324 334 364 369 239 0
287 322 332 367 372 247 0
287 322 337 342 362 187 0
290 325 340 350 355 195 0
290 325 340 355 370 215 0
287 322 337 362 372 242 0
286 321 341 351 356 201 0
287 322 342 362 367 237 0
290 325 350 355 360 205 0
289 324 349 369 374 249 0
286 321 351 356 366 201 211 226 0
290 325 355 360 370 205 215 230 0
287 322 362 367 372 237 242 247 0
289 324 364 369 374 239 244 249 0
287 327 332 337 342 152 157 162 172 177 187 0
289 329 334 339 349 154 159 169 174 184 194 0
289 329 334 339 364 154 159 174 0
287 327 332 337 372 152 157 172 0
286 326 331 341 346 151 161 166 176 181 196 0
287 327 332 342 367 152 162 177 0
286 326 331 341 371 151 161 176 0
289 329 334 349 354 154 169 184 0
286 326 331 346 366 151 166 181 0
289 329 334 354 364 154 209 0
286 326 331 366 371 151 246 0
287 327 332 367 372 152 247 0
288 328 338 343 348 158 163 168 188 193 198 0
288 328 338 343 358 158 163 188 0
287 327 337 342 362 157 162 187 0
288 328 338 348 353 158 168 193 0
289 329 339 349 374 159 169 194 0
288 328 338 353 358 158 203 0
287 327 337 362 372 157 242 0
289 329 339 364 374 159 244 0
286 326 341 346 356 161 166 196 0
288 328 343 348 373 163 168 198 0
286 326 341 356 371 161 231 0
288 328 343 358 373 163 233 0
287 327 342 362 367 162 237 0
288 328 348 353 373 168 218 0
289 329 349 354 374 169 219 0
286 326 346 356 366 166 226 0
288 328 353 358 373 203 218 233 0
289 329 354 364 374 209 219 244 0
286 326 356 366 371 226 231 246 0
287 327 362 367 372 237 242 247 0
290 335 340 345 350 175 180 185 190 195 200 0
287 332 337 342 357 172 177 187 0
290 335 340 345 370 175 180 190 0
290 335 340 350 365 175 185 195 0
289 334 339 349 369 174 184 194 0
287 332 337 357 372 172 232 0
289 334 339 364 369 174 239 0
290 335 340 365 370 175 240 0
286 331 341 346 351 176 181 196 0
290 335 345 350 360 180 185 200 0
286 331 341 351 371 176 216 0
287 332 342 357 367 177 227 0
290 335 345 360 370 180 230 0
286 331 346 351 366 181 211 0
289 334 349 354 369 184 214 0
290 335 350 360 365 185 225 0
289 334 354 364 369 209 214 239 0
286 331 351 366 371 211 216 246 0
290 335 360 365 370 225 230 240 0
287 332 357 367 372 227 232 247 0
290 340 345 350 355 190 195 200 0
288 338 343 348 363 188 193 198 0
290 340 345 355 370 190 215 0
287 337 342 357 362 187 222 0
288 338 343 358 363 188 223 0
288 338 348 353 363 193 208 0
290 340 350 355 365 195 210 0
289 339 349 369 374 194 249 0
288 338 353 358 363 203 208 223 0
290 340 355 365 370 210 215 240 0
287 337 357 362 372 222 232 242 0
289 339 364 369 374 239 244 249 0
286 341 346 351 356 196 201 0
290 345 350 355 360 200 205 0
288 343 348 363 373 198 243 0
290 345 355 360 370 205 215 230 0
286 341 351 356 371 201 216 231 0
287 342 357 362 367 222 227 237 0
288 343 358 363 373 223 233 243 0
290 350 355 360 365 205 210 225 0
286 346 351 356 366 201 211 226 0
288 348 353 363 373 208 218 243 0
289 349 354 369 374 214 219 249 0
290 355 360 365 370 205 210 215 225 230 240 0
288 353 358 363 373 203 208 218 223 233 243 0
286 351 356 366 371 201 211 216 226 231 246 0
289 354 364 369 374 209 214 219 239 244 249 0
287 357 362 367 372 222 227 232 237 242 247 0
291 296 301 306 311 96 101 106 121 0
295 300 305 310 325 100 105 120 135 0
291 296 301 306 336 96 101 0
295 300 305 310 345 100 105 0
291 296 301 306 361 96 101 0
295 300 305 310 365 100 105 0
291 296 301 311 331 96 106 0
291 296 301 311 356 96 106 0
294 299 304 319 324 99 114 119 149 0
294 299 304 319 339 99 114 0
294 299 304 319 354 99 114 0
295 300 305 325 330 100 120 0
294 299 304 324 334 99 119 0
294 299 304 324 374 99 119 0
295 300 305 325 375 100 120 0
295 300 305 330 345 100 165 0
295 300 305 330 365 100 0
291 296 301 331 336 96 171 0
294 299 304 334 339 99 174 0
294 299 304 334 354 99 0
291 296 301 331 361 96 0
291 296 301 336 356 96 0
294 299 304 339 374 99 0
295 300 305 345 375 100 0
294 299 304 354 374 99 219 0
291 296 301 356 361 96 221 0
295 300 305 365 375 100 245 0
292 297 307 312 317 97 122 127 137 0
291 296 306 311 326 96 121 0
292 297 307 312 347 97 122 0
291 296 306 311 351 96 121 0
292 297 307 312 352 97 122 0
292 297 307 317 342 97 127 0
292 297 307 317 372 97 127 0
295 300 310 325 350 100 135 0
295 300 310 325 370 100 135 0
291 296 306 326 336 96 156 0
291 296 306 326 361 96 0
291 296 306 336 351 96 0
292 297 307 342 347 97 197 0
295 300 310 345 350 100 200 0
292 297 307 342 352 97 0
295 300 310 345 370 100 0
295 300 310 350 365 100 0
292 297 307 347 372 97 0
291 296 306 351 361 96 206 0
292 297 307 352 372 97 217 0
295 300 310 365 370 100 240 0
293 298 313 318 323 98 138 143 148 0
293 298 313 318 333 98 138 0
292 297 312 317 337 97 137 0
292 297 312 317 367 97 137 0
293 298 313 318 368 98 138 0
293 298 313 323 328 98 143 0
293 298 313 323 363 98 143 0
291 296 311 326 331 96 151 0
293 298 313 328 333 98 153 0
291 296 311 326 356 96 0
293 298 313 328 368 98 0
291 296 311 331 351 96 0
293 298 313 333 363 98 0
292 297 312 337 347 97 192 0
292 297 312 337 352 97 0
292 297 312 347 367 97 0
291 296 311 351 356 96 201 0
292 297 312 352 367 97 212 0
293 298 313 363 368 98 238 0
294 299 319 324 344 99 149 0
293 298 318 323 348 98 148 0
293 298 318 323 358 98 148 0
294 299 319 324 359 99 149 0
293 298 318 333 348 98 183 0
293 298 318 333 358 98 0
292 297 317 337 342 97 187 0
294 299 319 339 344 99 189 0
294 299 319 339 359 99 0
292 297 317 337 372 97 0
294 299 319 344 354 99 0
292 297 317 342 367 97 0
293 298 318 348 368 98 0
294 299 319 354 359 99 204 0
293 298 318 358 368 98 228 0
292 297 317 367 372 97 247 0
293 298 323 328 348 98 168 0
295 300 325 330 350 100 170 0
293 298 323 328 358 98 0
295 300 325 330 370 100 0
294 299 324 334 344 99 179 0
294 299 324 334 359 99 0
294 299 324 344 374 99 0
293 298 323 348 363 98 0
295 300 325 350 375 100 0
293 298 323 358 363 98 223 0
294 299 324 359 374 99 234 0
295 300 325 370 375 100 250 0
291 296 326 331 336 96 151 156 171 0
293 298 328 333 348 98 153 168 183 0
293 298 328 333 358 98 153 0
291 296 326 331 361 96 151 0
291 296 326 336 356 96 156 0
295 300 330 345 350 100 165 170 200 0
295 300 330 345 370 100 165 0
295 300 330 350 365 100 170 0
293 298 328 348 368 98 168 0
291 296 326 356 361 96 221 0
293 298 328 358 368 98 228 0
295 300 330 365 370 100 240 0
294 299 334 339 344 99 174 179 189 0
291 296 331 336 351 96 171 0
294 299 334 339 359 99 174 0
294 299 334 344 354 99 179 0
293 298 333 348 363 98 183 0
294 299 334 354 359 99 204 0
291 296 331 351 361 96 206 0
293 298 333 358 363 98 223 0
292 297 337 342 347 97 187 192 197 0
292 297 337 342 352 97 187 0
294 299 339 344 374 99 189 0
292 297 337 347 372 97 192 0
291 296 336 351 356 96 201 0
292 297 337 352 372 97 217 0
294 299 339 359 374 99 234 0
292 297 342 347 367 97 197 0
295 300 345 350 375 100 200 0
292 297 342 352 367 97 212 0
294 299 344 354 374 99 219 0
295 300 345 370 375 100 250 0
293 298 348 363 368 98 238 0
295 300 350 365 375 100 245 0
292 297 347 367 372 97 247 0
291 296 351 356 361 96 201 206 221 0
294 299 354 359 374 99 204 219 234 0
292 297 352 367 372 97 212 217 247 0
293 298 358 363 368 98 223 228 238 0
295 300 365 370 375 100 240 245 250 0
292 302 307 312 317 102 107 112 122 127 137 0
291 301 306 311 321 101 106 116 121 131 141 0
291 301 306 311 346 101 106 121 0
292 302 307 312 347 102 107 122 0
292 302 307 312 352 102 107 122 0
291 301 306 311 371 101 106 121 0
295 305 310 320 325 105 115 120 130 135 150 0
292 302 307 317 342 102 112 127 0
295 305 310 320 345 105 115 130 0
295 305 310 320 365 105 115 130 0
292 302 307 317 372 102 112 127 0
291 301 306 321 336 101 116 131 0
295 305 310 325 340 105 120 135 0
295 305 310 325 360 105 120 135 0
291 301 306 321 361 101 116 131 0
295 305 310 340 345 105 190 0
291 301 306 336 346 101 191 0
295 305 310 340 365 105 0
291 301 306 336 371 101 0
292 302 307 342 347 102 197 0
292 302 307 342 352 102 0
295 305 310 345 360 105 0
291 301 306 346 361 101 0
292 302 307 347 372 102 0
292 302 307 352 372 102 217 0
295 305 310 360 365 105 225 0
291 301 306 361 371 101 241 0
294 304 314 319 324 109 114 119 139 144 149 0
292 302 312 317 337 107 112 137 0
294 304 314 319 339 109 114 139 0
294 304 314 319 354 109 114 139 0
292 302 312 317 367 107 112 137 0
291 301 311 321 331 106 116 141 0
294 304 314 324 334 109 119 144 0
291 301 311 321 356 106 116 141 0
294 304 314 324 374 109 119 144 0
294 304 314 334 339 109 174 0
291 301 311 331 346 106 181 0
294 304 314 334 354 109 0
291 301 311 331 371 106 0
292 302 312 337 347 107 192 0
292 302 312 337 352 107 0
294 304 314 339 374 109 0
291 301 311 346 356 106 0
292 302 312 347 367 107 0
292 302 312 352 367 107 212 0
294 304 314 354 374 109 219 0
291 301 311 356 371 106 231 0
294 304 319 324 329 114 119 149 0
295 305 320 325 330 115 120 150 0
294 304 319 324 369 114 119 149 0
295 305 320 325 375 115 120 150 0
294 304 319 329 339 114 159 0
295 305 320 330 345 115 165 0
294 304 319 329 354 114 0
295 305 320 330 365 115 0
292 302 317 337 342 112 187 0
294 304 319 339 369 114 0
292 302 317 337 372 112 0
292 302 317 342 367 112 0
295 305 320 345 375 115 0
294 304 319 354 369 114 214 0
295 305 320 365 375 115 245 0
292 302 317 367 372 112 247 0
294 304 324 329 334 119 154 0
295 305 325 330 340 120 160 0
295 305 325 330 360 120 0
294 304 324 329 374 119 0
291 301 321 331 336 116 171 0
291 301 321 331 361 116 0
294 304 324 334 369 119 0
291 301 321 336 356 116 0
295 305 325 340 375 120 0
291 301 321 356 361 116 221 0
295 305 325 360 375 120 235 0
294 304 324 369 374 119 249 0
294 304 329 334 339 154 159 174 0
294 304 329 334 354 154 0
295 305 330 340 345 160 165 190 0
295 305 330 340 365 160 0
294 304 329 339 374 159 0
295 305 330 345 360 165 0
294 304 329 354 374 219 0
295 305 330 360 365 225 0
291 301 331 336 346 171 181 191 0
294 304 334 339 369 174 0
291 301 331 336 371 171 0
291 301 331 346 361 181 0
294 304 334 354 369 214 0
291 301 331 361 371 241 0
292 302 337 342 347 187 192 197 0
292 302 337 342 352 187 0
295 305 340 345 375 190 0
291 301 336 346 356 191 0
292 302 337 347 372 192 0
292 302 337 352 372 217 0
291 301 336 356 371 231 0
295 305 340 365 375 245 0
294 304 339 369 374 249 0
292 302 342 347 367 197 0
292 302 342 352 367 212 0
295 305 345 360 375 235 0
291 301 346 356 361 221 0
292 302 347 367 372 247 0
292 302 352 367 372 212 217 247 0
294 304 354 369 374 214 219 249 0
291 301 356 361 371 221 231 241 0
295 305 360 365 375 225 235 245 0
293 308 313 318 323 123 128 133 138 143 148 0
292 307 312 317 332 122 127 137 0
293 308 313 318 333 123 128 138 0
292 307 312 317 362 122 127 137 0
293 308 313 318 368 123 128 138 0
291 306 311 321 326 121 131 141 0
293 308 313 323 328 123 133 143 0
291 306 311 321 351 121 131 141 0
293 308 313 323 363 123 133 143 0
293 308 313 328 333 123 153 0
291 306 311 326 346 121 166 0
293 308 313 328 368 123 0
291 306 311 326 371 121 0
292 307 312 332 347 122 182 0
292 307 312 332 352 122 0
293 308 313 333 363 123 0
291 306 311 346 351 121 0
292 307 312 347 362 122 0
292 307 312 352 362 122 207 0
291 306 311 351 371 121 216 0
293 308 313 363 368 123 238 0
293 308 318 323 348 128 133 148 0
295 310 320 325 350 130 135 150 0
293 308 318 323 358 128 133 148 0
295 310 320 325 370 130 135 150 0
292 307 317 332 342 127 177 0
293 308 318 333 348 128 183 0
293 308 318 333 358 128 0
292 307 317 332 372 127 0
295 310 320 345 350 130 200 0
292 307 317 342 362 127 0
295 310 320 345 370 130 0
295 310 320 350 365 130 0
293 308 318 348 368 128 0
293 308 318 358 368 128 228 0
295 310 320 365 370 130 240 0
292 307 317 362 372 127 242 0
291 306 321 326 336 131 156 0
293 308 323 328 348 133 168 0
293 308 323 328 358 133 0
291 306 321 326 361 131 0
295 310 325 340 350 135 195 0
291 306 321 336 351 131 0
295 310 325 340 370 135 0
295 310 325 350 360 135 0
293 308 323 348 363 133 0
291 306 321 351 361 131 206 0
293 308 323 358 363 133 223 0
295 310 325 360 370 135 230 0
293 308 328 333 348 153 168 183 0
293 308 328 333 358 153 0
291 306 326 336 346 156 166 191 0
291 306 326 336 371 156 0
291 306 326 346 361 166 0
293 308 328 348 368 168 0
293 308 328 358 368 228 0
291 306 326 361 371 241 0
292 307 332 342 347 177 182 197 0
292 307 332 342 352 177 0
293 308 333 348 363 183 0
292 307 332 347 372 182 0
292 307 332 352 372 217 0
293 308 333 358 363 223 0
295 310 340 345 350 190 195 200 0
295 310 340 345 370 190 0
291 306 336 346 351 191 0
295 310 340 350 365 195 0
291 306 336 351 371 216 0
295 310 340 365 370 240 0
295 310 345 350 360 200 0
292 307 342 347 362 197 0
292 307 342 352 362 207 0
295 310 345 360 370 230 0
291 306 346 351 361 206 0
295 310 350 360 365 225 0
293 308 348 363 368 238 0
292 307 347 362 372 242 0
291 306 351 361 371 206 216 241 0
292 307 352 362 372 207 217 242 0
293 308 358 363 368 223 228 238 0
295 310 360 365 370 225 230 240 0
293 313 318 323 343 138 143 148 0
294 314 319 324 344 139 144 149 0
293 313 318 323 353 138 143 148 0
294 314 319 324 359 139 144 149 0
292 312 317 332 337 137 172 0
293 313 318 333 343 138 178 0
293 313 318 333 353 138 0
292 312 317 332 367 137 0
294 314 319 339 344 139 189 0
294 314 319 339 359 139 0
292 312 317 337 362 137 0
294 314 319 344 354 139 0
293 313 318 343 368 138 0
294 314 319 354 359 139 204 0
293 313 318 353 368 138 213 0
292 312 317 362 367 137 237 0
291 311 321 326 331 141 151 0
293 313 323 328 343 143 163 0
293 313 323 328 353 143 0
291 311 321 326 356 141 0
294 314 324 334 344 144 179 0
291 311 321 331 351 141 0
294 314 324 334 359 144 0
293 313 323 343 363 143 0
294 314 324 344 374 144 0
291 311 321 351 356 141 201 0
293 313 323 353 363 143 208 0
294 314 324 359 374 144 234 0
293 313 328 333 343 153 163 178 0
291 311 326 331 346 151 166 181 0
293 313 328 333 353 153 0
291 311 326 331 371 151 0
293 313 328 343 368 163 0
291 311 326 346 356 166 0
293 313 328 353 368 213 0
291 311 326 356 371 231 0
294 314 334 339 344 174 179 189 0
292 312 332 337 347 172 182 192 0
292 312 332 337 352 172 0
294 314 334 339 359 174 0
294 314 334 344 354 179 0
293 313 333 343 363 178 0
291 311 331 346 351 181 0
292 312 332 347 367 182 0
294 314 334 354 359 204 0
293 313 333 353 363 208 0
292 312 332 352 367 212 0
291 311 331 351 371 216 0
294 314 339 344 374 189 0
292 312 337 347 362 192 0
292 312 337 352 362 207 0
294 314 339 359 374 234 0
294 314 344 354 374 219 0
293 313 343 363 368 238 0
291 311 346 351 356 201 0
292 312 347 362 367 237 0
291 311 351 356 371 201 216 231 0
294 314 354 359 374 204 219 234 0
292 312 352 362 367 207 212 237 0
293 313 353 363 368 208 213 238 0
294 319 324 329 344 149 164 0
295 320 325 330 350 150 170 0
294 319 324 329 359 149 0
295 320 325 330 370 150 0
293 318 323 343 348 148 198 0
293 318 323 343 358 148 0
294 319 324 344 369 149 0
293 318 323 348 353 148 0
295 320 325 350 375 150 0
293 318 323 353 358 148 203 0
294 319 324 359 369 149 229 0
295 320 325 370 375 150 250 0
294 319 329 339 344 159 164 189 0
294 319 329 339 359 159 0
295 320 330 345 350 165 170 200 0
294 319 329 344 354 164 0
295 320 330 345 370 165 0
295 320 330 350 365 170 0
294 319 329 354 359 204 0
295 320 330 365 370 240 0
292 317 332 337 342 172 177 187 0
292 317 332 337 372 172 0
293 318 333 343 348 178 183 198 0
293 318 333 343 358 178 0
292 317 332 342 367 177 0
293 318 333 348 353 183 0
293 318 333 353 358 203 0
292 317 332 367 372 247 0
292 317 337 342 362 187 0
294 319 339 344 369 189 0
294 319 339 359 369 229 0
292 317 337 362 372 242 0
293 318 343 348 368 198 0
295 320 345 350 375 200 0
294 319 344 354 369 214 0
293 318 343 358 368 228 0
292 317 342 362 367 237 0
295 320 345 370 375 250 0
293 318 348 353 368 213 0
295 320 350 365 375 245 0
293 318 353 358 368 203 213 228 0
294 319 354 359 369 204 214 229 0
292 317 362 367 372 237 242 247 0
295 320 365 370 375 240 245 250 0
291 321 326 331 336 151 156 171 0
294 324 329 334 344 154 164 179 0
294 324 329 334 359 154 0
291 321 326 331 361 151 0
295 325 330 340 350 160 170 195 0
291 321 326 336 356 156 0
295 325 330 340 370 160 0
293 323 328 343 348 163 168 198 0
293 323 328 343 358 163 0
294 324 329 344 374 164 0
293 323 328 348 353 168 0
295 325 330 350 360 170 0
293 323 328 353 358 203 0
291 321 326 356 361 221 0
295 325 330 360 370 230 0
294 324 329 359 374 234 0
291 321 331 336 351 171 0
294 324 334 344 369 179 0
291 321 331 351 361 206 0
294 324 334 359 369 229 0
295 325 340 350 375 195 0
291 321 336 351 356 201 0
295 325 340 370 375 250 0
293 323 343 348 363 198 0
293 323 343 358 363 223 0
294 324 344 369 374 249 0
293 323 348 353 363 208 0
295 325 350 360 375 235 0
291 321 351 356 361 201 206 221 0
293 323 353 358 363 203 208 223 0
294 324 359 369 374 229 234 249 0
295 325 360 370 375 230 235 250 0
294 329 334 339 344 154 159 164 174 179 189 0
291 326 331 336 346 151 156 166 171 181 191 0
294 329 334 339 359 154 159 174 0
291 326 331 336 371 151 156 171 0
293 328 333 343 348 153 163 168 178 183 198 0
294 329 334 344 354 154 164 179 0
293 328 333 343 358 153 163 178 0
293 328 333 348 353 153 168 183 0
291 326 331 346 361 151 166 181 0
293 328 333 353 358 153 203 0
294 329 334 354 359 154 204 0
291 326 331 361 371 151 241 0
295 330 340 345 350 160 165 170 190 195 200 0
295 330 340 345 370 160 165 190 0
294 329 339 344 374 159 164 189 0
291 326 336 346 356 156 166 191 0
295 330 340 350 365 160 170 195 0
291 326 336 356 371 156 231 0
294 329 339 359 374 159 234 0
295 330 340 365 370 160 240 0
295 330 345 350 360 165 170 200 0
293 328 343 348 368 163 168 198 0
294 329 344 354 374 164 219 0
293 328 343 358 368 163 228 0
295 330 345 360 370 165 230 0
293 328 348 353 368 168 213 0
291 326 346 356 361 166 221 0
295 330 350 360 365 170 225 0
293 328 353 358 368 203 213 228 0
294 329 354 359 374 204 219 234 0
295 330 360 365 370 225 230 240 0
291 326 356 361 371 221 231 241 0
292 332 337 342 347 172 177 182 187 192 197 0
292 332 337 342 352 172 177 187 0
294 334 339 344 369 174 179 189 0
291 331 336 346 351 171 181 191 0
292 332 337 347 372 172 182 192 0
291 331 336 351 371 171 216 0
292 332 337 352 372 172 217 0
294 334 339 359 369 174 229 0
293 333 343 348 363 178 183 198 0
292 332 342 347 367 177 182 197 0
292 332 342 352 367 177 212 0
294 334 344 354 369 179 214 0
293 333 343 358 363 178 223 0
291 331 346 351 361 181 206 0
293 333 348 353 363 183 208 0
292 332 347 367 372 182 247 0
293 333 353 358 363 203 208 223 0
294 334 354 359 369 204 214 229 0
291 331 351 361 371 206 216 241 0
292 332 352 367 372 212 217 247 0
292 337 342 347 362 187 192 197 0
295 340 345 350 375 190 195 200 0
292 337 342 352 362 187 207 0
294 339 344 369 374 189 249 0
295 340 345 370 375 190 250 0
291 336 346 351 356 191 201 0
292 337 347 362 372 192 242 0
295 340 350 365 375 195 245 0
291 336 351 356 371 201 216 231 0
292 337 352 362 372 207 217 242 0
294 339 359 369 374 229 234 249 0
295 340 365 370 375 240 245 250 0
295 345 350 360 375 200 235 0
292 342 347 362 367 197 237 0
293 343 348 363 368 198 238 0
292 342 352 362 367 207 212 237 0
294 344 354 369 374 214 219 249 0
293 343 358 363 368 223 228 238 0
295 345 360 370 375 230 235 250 0
291 346 351 356 361 201 206 221 0
293 348 353 363 368 208 213 238 0
295 350 360 365 375 225 235 245 0
292 347 362 367 372 237 242 247 0
293 353 358 363 368 203 208 213 223 228 238 0
291 351 356 361 371 201 206 216 221 231 241 0
294 354 359 369 374 204 214 219 229 234 249 0
292 352 362 367 372 207 212 217 237 242 247 0
295 360 365 370 375 225 230 235 240 245 250 0
296 301 306 311 316 101 106 111 121 126 136 0
300 305 310 315 325 105 110 120 125 135 145 0
296 301 306 311 341 101 106 121 0
300 305 310 315 345 105 110 125 0
300 305 310 315 365 105 110 125 0
296 301 306 311 366 101 106 121 0
299 304 309 319 324 104 114 119 129 134 149 0
296 301 306 316 336 101 111 126 0
299 304 309 319 339 104 114 129 0
299 304 309 319 354 104 114 129 0
296 301 306 316 361 101 111 126 0
299 304 309 324 334 104 119 134 0
300 305 310 325 335 105 120 135 0
300 305 310 325 355 105 120 135 0
299 304 309 324 374 104 119 134 0
299 304 309 334 339 104 174 0
300 305 310 335 345 105 180 0
299 304 309 334 354 104 0
300 305 310 335 365 105 0
296 301 306 336 341 101 186 0
296 301 306 336 366 101 0
299 304 309 339 374 104 0
300 305 310 345 355 105 0
296 301 306 341 361 101 0
300 305 310 355 365 105 210 0
299 304 309 354 374 104 219 0
296 301 306 361 366 101 236 0
298 303 313 318 323 108 113 118 138 143 148 0
296 301 311 316 331 106 111 136 0
298 303 313 318 333 108 113 138 0
296 301 311 316 356 106 111 136 0
298 303 313 318 368 108 113 138 0
298 303 313 323 328 108 118 143 0
300 305 315 325 330 110 120 145 0
298 303 313 323 363 108 118 143 0
300 305 315 325 375 110 120 145 0
298 303 313 328 333 108 153 0
300 305 315 330 345 110 165 0
300 305 315 330 365 110 0
298 303 313 328 368 108 0
296 301 311 331 341 106 176 0
298 303 313 333 363 108 0
296 301 311 331 366 106 0
296 301 311 341 356 106 0
300 305 315 345 375 110 0
296 301 311 356 366 106 226 0
298 303 313 363 368 108 238 0
300 305 315 365 375 110 245 0
298 303 318 323 348 113 118 148 0
299 304 319 324 349 114 119 149 0
298 303 318 323 358 113 118 148 0
299 304 319 324 364 114 119 149 0
296 301 316 331 336 111 171 0
298 303 318 333 348 113 183 0
298 303 318 333 358 113 0
296 301 316 331 361 111 0
299 304 319 339 349 114 194 0
296 301 316 336 356 111 0
299 304 319 339 364 114 0
299 304 319 349 354 114 0
298 303 318 348 368 113 0
299 304 319 354 364 114 209 0
296 301 316 356 361 111 221 0
298 303 318 358 368 113 228 0
300 305 325 330 335 120 155 0
298 303 323 328 348 118 168 0
300 305 325 330 355 120 0
298 303 323 328 358 118 0
299 304 324 334 349 119 184 0
299 304 324 334 364 119 0
300 305 325 335 375 120 0
298 303 323 348 363 118 0
299 304 324 349 374 119 0
300 305 325 355 375 120 220 0
298 303 323 358 363 118 223 0
299 304 324 364 374 119 244 0
300 305 330 335 345 155 165 180 0
298 303 328 333 348 153 168 183 0
298 303 328 333 358 153 0
300 305 330 335 365 155 0
300 305 330 345 355 165 0
298 303 328 348 368 168 0
300 305 330 355 365 210 0
298 303 328 358 368 228 0
296 301 331 336 341 171 176 186 0
299 304 334 339 349 174 184 194 0
299 304 334 339 364 174 0
296 301 331 336 366 171 0
296 301 331 341 361 176 0
300 305 335 345 375 180 0
299 304 334 349 354 184 0
298 303 333 348 363 183 0
299 304 334 354 364 209 0
298 303 333 358 363 223 0
296 301 331 361 366 236 0
300 305 335 365 375 245 0
296 301 336 341 356 186 0
299 304 339 349 374 194 0
296 301 336 356 366 226 0
299 304 339 364 374 244 0
300 305 345 355 375 220 0
296 301 341 356 361 221 0
299 304 349 354 374 219 0
298 303 348 363 368 238 0
299 304 354 364 374 209 219 244 0
300 305 355 365 375 210 220 245 0
296 301 356 361 366 221 226 236 0
298 303 358 363 368 223 228 238 0
297 307 312 317 322 122 127 132 137 142 147 0
296 306 311 316 326 121 126 136 0
297 307 312 317 327 122 127 137 0
296 306 311 316 351 121 126 136 0
297 307 312 317 357 122 127 137 0
297 307 312 322 347 122 132 142 0
300 310 315 325 350 125 135 145 0
297 307 312 322 352 122 132 142 0
300 310 315 325 370 125 135 145 0
296 306 311 326 341 121 161 0
297 307 312 327 347 122 167 0
297 307 312 327 352 122 0
296 306 311 326 366 121 0
300 310 315 345 350 125 200 0
296 306 311 341 351 121 0
300 310 315 345 370 125 0
297 307 312 347 357 122 0
300 310 315 350 365 125 0
297 307 312 352 357 122 202 0
296 306 311 351 366 121 211 0
300 310 315 365 370 125 240 0
297 307 317 322 342 127 132 147 0
299 309 319 324 344 129 134 149 0
299 309 319 324 359 129 134 149 0
297 307 317 322 372 127 132 147 0
296 306 316 326 336 126 156 0
297 307 317 327 342 127 162 0
296 306 316 326 361 126 0
297 307 317 327 372 127 0
299 309 319 339 344 129 189 0
296 306 316 336 351 126 0
299 309 319 339 359 129 0
299 309 319 344 354 129 0
297 307 317 342 357 127 0
299 309 319 354 359 129 204 0
296 306 316 351 361 126 206 0
297 307 317 357 372 127 232 0
299 309 324 334 344 134 179 0
300 310 325 335 350 135 185 0
299 309 324 334 359 134 0
300 310 325 335 370 135 0
297 307 322 342 347 132 197 0
297 307 322 342 352 132 0
299 309 324 344 374 134 0
300 310 325 350 355 135 0
297 307 322 347 372 132 0
300 310 325 355 370 135 215 0
297 307 322 352 372 132 217 0
299 309 324 359 374 134 234 0
296 306 326 336 341 156 161 186 0
296 306 326 336 366 156 0
297 307 327 342 347 162 167 197 0
297 307 327 342 352 162 0
296 306 326 341 361 161 0
297 307 327 347 372 167 0
297 307 327 352 372 217 0
296 306 326 361 366 236 0
299 309 334 339 344 174 179 189 0
299 309 334 339 359 174 0
300 310 335 345 350 180 185 200 0
299 309 334 344 354 179 0
300 310 335 345 370 180 0
300 310 335 350 365 185 0
299 309 334 354 359 204 0
300 310 335 365 370 240 0
296 306 336 341 351 186 0
299 309 339 344 374 189 0
296 306 336 351 366 211 0
299 309 339 359 374 234 0
300 310 345 350 355 200 0
297 307 342 347 357 197 0
297 307 342 352 357 202 0
296 306 341 351 361 206 0
300 310 345 355 370 215 0
299 309 344 354 374 219 0
300 310 350 355 365 210 0
297 307 347 357 372 232 0
297 307 352 357 372 202 217 232 0
299 309 354 359 374 204 219 234 0
296 306 351 361 366 206 211 236 0
300 310 355 365 370 210 215 240 0
297 312 317 322 337 137 142 147 0
298 313 318 323 338 138 143 148 0
297 312 317 322 367 137 142 147 0
298 313 318 323 373 138 143 148 0
296 311 316 326 331 136 151 0
297 312 317 327 337 137 157 0
296 311 316 326 356 136 0
297 312 317 327 367 137 0
298 313 318 333 338 138 173 0
296 311 316 331 351 136 0
298 313 318 333 373 138 0
297 312 317 337 357 137 0
298 313 318 338 368 138 0
296 311 316 351 356 136 201 0
297 312 317 357 367 137 227 0
298 313 318 368 373 138 248 0
298 313 323 328 338 143 158 0
300 315 325 330 350 145 170 0
300 315 325 330 370 145 0
298 313 323 328 373 143 0
297 312 322 337 347 142 192 0
297 312 322 337 352 142 0
298 313 323 338 363 143 0
297 312 322 347 367 142 0
300 315 325 350 375 145 0
297 312 322 352 367 142 212 0
298 313 323 363 373 143 243 0
300 315 325 370 375 145 250 0
298 313 328 333 338 153 158 173 0
296 311 326 331 341 151 161 176 0
296 311 326 331 366 151 0
298 313 328 333 373 153 0
297 312 327 337 347 157 167 192 0
297 312 327 337 352 157 0
298 313 328 338 368 158 0
300 315 330 345 350 165 170 200 0
296 311 326 341 356 161 0
300 315 330 345 370 165 0
300 315 330 350 365 170 0
297 312 327 347 367 167 0
297 312 327 352 367 212 0
296 311 326 356 366 226 0
300 315 330 365 370 240 0
298 313 328 368 373 248 0
298 313 333 338 363 173 0
296 311 331 341 351 176 0
296 311 331 351 366 211 0
298 313 333 363 373 243 0
297 312 337 347 357 192 0
297 312 337 352 357 202 0
298 313 338 363 368 238 0
300 315 345 350 375 200 0
296 311 341 351 356 201 0
300 315 345 370 375 250 0
297 312 347 357 367 227 0
300 315 350 365 375 245 0
296 311 351 356 366 201 211 226 0
297 312 352 357 367 202 212 227 0
298 313 363 368 373 238 243 248 0
300 315 365 370 375 240 245 250 0
297 317 322 337 342 147 187 0
298 318 323 338 348 148 193 0
298 318 323 338 358 148 0
297 317 322 337 372 147 0
299 319 324 344 349 149 199 0
299 319 324 344 364 149 0
297 317 322 342 367 147 0
299 319 324 349 359 149 0
298 318 323 348 373 148 0
299 319 324 359 364 149 224 0
298 318 323 358 373 148 233 0
297 317 322 367 372 147 247 0
296 316 326 331 336 151 156 171 0
296 316 326 331 361 151 0
297 317 327 337 342 157 162 187 0
296 316 326 336 356 156 0
297 317 327 337 372 157 0
297 317 327 342 367 162 0
296 316 326 356 361 221 0
297 317 327 367 372 247 0
298 318 333 338 348 173 183 193 0
296 316 331 336 351 171 0
298 318 333 338 358 173 0
298 318 333 348 373 183 0
296 316 331 351 361 206 0
298 318 333 358 373 233 0
299 319 339 344 349 189 194 199 0
297 317 337 342 357 187 0
299 319 339 344 364 189 0
299 319 339 349 359 194 0
298 318 338 348 368 193 0
296 316 336 351 356 201 0
299 319 339 359 364 224 0
298 318 338 358 368 228 0
297 317 337 357 372 232 0
299 319 344 349 354 199 0
299 319 344 354 364 209 0
297 317 342 357 367 227 0
299 319 349 354 359 204 0
298 318 348 368 373 248 0
296 316 351 356 361 201 206 221 0
299 319 354 359 364 204 209 224 0
297 317 357 367 372 227 232 247 0
298 318 358 368 373 228 233 248 0
300 325 330 335 350 155 170 185 0
300 325 330 335 370 155 0
298 323 328 338 348 158 168 193 0
298 323 328 338 358 158 0
300 325 330 350 355 170 0
298 323 328 348 373 168 0
300 325 330 355 370 215 0
298 323 328 358 373 233 0
299 324 334 344 349 179 184 199 0
299 324 334 344 364 179 0
299 324 334 349 359 184 0
300 325 335 350 375 185 0
299 324 334 359 364 224 0
300 325 335 370 375 250 0
297 322 337 342 347 187 192 197 0
297 322 337 342 352 187 0
298 323 338 348 363 193 0
297 322 337 347 372 192 0
297 322 337 352 372 217 0
298 323 338 358 363 223 0
297 322 342 347 367 197 0
299 324 344 349 374 199 0
297 322 342 352 367 212 0
299 324 344 364 374 244 0
300 325 350 355 375 220 0
299 324 349 359 374 234 0
298 323 348 363 373 243 0
297 322 347 367 372 247 0
297 322 352 367 372 212 217 247 0
300 325 355 370 375 215 220 250 0
298 323 358 363 373 223 233 243 0
299 324 359 364 374 224 234 244 0
296 326 331 336 341 151 156 161 171 176 186 0
298 328 333 338 348 153 158 168 173 183 193 0
298 328 333 338 358 153 158 173 0
296 326 331 336 366 151 156 171 0
300 330 335 345 350 155 165 170 180 185 200 0
296 326 331 341 361 151 161 176 0
300 330 335 345 370 155 165 180 0
300 330 335 350 365 155 170 185 0
298 328 333 348 373 153 168 183 0
298 328 333 358 373 153 233 0
296 326 331 361 366 151 236 0
300 330 335 365 370 155 240 0
297 327 337 342 347 157 162 167 187 192 197 0
297 327 337 342 352 157 162 187 0
296 326 336 341 356 156 161 186 0
298 328 338 348 368 158 168 193 0
297 327 337 347 372 157 167 192 0
297 327 337 352 372 157 217 0
296 326 336 356 366 156 226 0
298 328 338 358 368 158 228 0
300 330 345 350 355 165 170 200 0
297 327 342 347 367 162 167 197 0
297 327 342 352 367 162 212 0
300 330 345 355 370 165 215 0
296 326 341 356 361 161 221 0
300 330 350 355 365 170 210 0
297 327 347 367 372 167 247 0
298 328 348 368 373 168 248 0
300 330 355 365 370 210 215 240 0
297 327 352 367 372 212 217 247 0
296 326 356 361 366 221 226 236 0
298 328 358 368 373 228 233 248 0
299 334 339 344 349 174 179 184 189 194 199 0
296 331 336 341 351 171 176 186 0
299 334 339 344 364 174 179 189 0
299 334 339 349 359 174 184 194 0
298 333 338 348 363 173 183 193 0
296 331 336 351 366 171 211 0
298 333 338 358 363 173 223 0
299 334 339 359 364 174 224 0
299 334 344 349 354 179 184 199 0
300 335 345 350 375 180 185 200 0
296 331 341 351 361 176 206 0
299 334 344 354 364 179 209 0
300 335 345 370 375 180 250 0
299 334 349 354 359 184 204 0
298 333 348 363 373 183 243 0
300 335 350 365 375 185 245 0
299 334 354 359 364 204 209 224 0
296 331 351 361 366 206 211 236 0
298 333 358 363 373 223 233 243 0
300 335 365 370 375 240 245 250 0
297 337 342 347 357 187 192 197 0
299 339 344 349 374 189 194 199 0
296 336 341 351 356 186 201 0
297 337 342 352 357 187 202 0
299 339 344 364 374 189 244 0
297 337 347 357 372 192 232 0
299 339 349 359 374 194 234 0
298 338 348 363 368 193 238 0
296 336 351 356 366 201 211 226 0
297 337 352 357 372 202 217 232 0
298 338 358 363 368 223 228 238 0
299 339 359 364 374 224 234 244 0
299 344 349 354 374 199 219 0
300 345 350 355 375 200 220 0
297 342 347 357 367 197 227 0
296 341 351 356 361 201 206 221 0
297 342 352 357 367 202 212 227 0
299 344 354 364 374 209 219 244 0
300 345 355 370 375 215 220 250 0
299 349 354 359 374 204 219 234 0
300 350 355 365 375 210 220 245 0
297 347 357 367 372 227 232 247 0
298 348 363 368 373 238 243 248 0
296 351 356 361 366 201 206 211 221 226 236 0
299 354 359 364 374 204 209 219 224 234 244 0
297 352 357 367 372 202 212 217 227 232 247 0
300 355 365 370 375 210 215 220 240 245 250 0
298 358 363 368 373 223 228 233 238 243 248 0
301 306 311 316 321 101 106 111 116 121 126 131 136 141 146 0
302 307 312 317 322 102 107 112 117 122 127 132 137 142 147 0
303 308 313 318 323 103 108 113 118 123 128 133 138 143 148 0
304 309 314 319 324 104 109 114 119 124 129 134 139 144 149 0
305 310 315 320 325 105 110 115 120 125 130 135 140 145 150 0
302 307 312 317 327 102 107 112 122 127 137 0
303 308 313 318 333 103 108 113 123 128 138 0
304 309 314 319 339 104 109 114 124 129 139 0
305 310 315 320 345 105 110 115 125 130 140 0
301 306 311 316 346 101 106 111 121 126 136 0
304 309 314 319 354 104 109 114 124 129 139 0
302 307 312 317 357 102 107 112 122 127 137 0
305 310 315 320 365 105 110 115 125 130 140 0
303 308 313 318 368 103 108 113 123 128 138 0
301 306 311 316 371 101 106 111 121 126 136 0
303 308 313 323 328 103 108 118 123 133 143 0
304 309 314 324 334 104 109 119 124 134 144 0
305 310 315 325 340 105 110 120 125 135 145 0
301 306 311 321 341 101 106 116 121 131 141 0
302 307 312 322 347 102 107 117 122 132 142 0
302 307 312 322 352 102 107 117 122 132 142 0
305 310 315 325 360 105 110 120 125 135 145 0
303 308 313 323 363 103 108 118 123 133 143 0
301 306 311 321 366 101 106 116 121 131 141 0
304 309 314 324 374 104 109 119 124 134 144 0
303 308 313 328 333 103 108 123 153 0
302 307 312 327 347 102 107 122 167 0
302 307 312 327 352 102 107 122 0
303 308 313 328 368 103 108 123 0
304 309 314 334 339 104 109 124 174 0
304 309 314 334 354 104 109 124 0
303 308 313 333 363 103 108 123 0
305 310 315 340 345 105 110 125 190 0
305 310 315 340 365 105 110 125 0
304 309 314 339 374 104 109 124 0
301 306 311 341 346 101 106 121 196 0
305 310 315 345 360 105 110 125 0
301 306 311 341 371 101 106 121 0
302 307 312 347 357 102 107 122 0
301 306 311 346 366 101 106 121 0
302 307 312 352 357 102 107 122 202 0
304 309 314 354 374 104 109 124 219 0
305 310 315 360 365 105 110 125 225 0
303 308 313 363 368 103 108 123 238 0
301 306 311 366 371 101 106 121 246 0
304 309 319 324 329 104 114 119 129 134 149 0
305 310 320 325 335 105 115 120 130 135 150 0
301 306 316 321 336 101 111 116 126 131 146 0
302 307 317 322 342 102 112 117 127 132 147 0
303 308 318 323 348 103 113 118 128 133 148 0
305 310 320 325 355 105 115 120 130 135 150 0
303 308 318 323 358 103 113 118 128 133 148 0
301 306 316 321 361 101 111 116 126 131 146 0
304 309 319 324 369 104 114 119 129 134 149 0
302 307 317 322 372 102 112 117 127 132 147 0
304 309 319 329 339 104 114 129 159 0
302 307 317 327 342 102 112 127 162 0
304 309 319 329 354 104 114 129 0
302 307 317 327 372 102 112 127 0
305 310 320 335 345 105 115 130 180 0
303 308 318 333 348 103 113 128 183 0
303 308 318 333 358 103 113 128 0
305 310 320 335 365 105 115 130 0
301 306 316 336 346 101 111 126 191 0
304 309 319 339 369 104 114 129 0
301 306 316 336 371 101 111 126 0
305 310 320 345 355 105 115 130 0
302 307 317 342 357 102 112 127 0
301 306 316 346 361 101 111 126 0
303 308 318 348 368 103 113 128 0
305 310 320 355 365 105 115 130 210 0
304 309 319 354 369 104 114 129 214 0
303 308 318 358 368 103 113 128 228 0
302 307 317 357 372 102 112 127 232 0
301 306 316 361 371 101 111 126 241 0
304 309 324 329 334 104 119 134 154 0
303 308 323 328 348 103 118 133 168 0
303 308 323 328 358 103 118 133 0
304 309 324 329 374 104 119 134 0
305 310 325 335 340 105 120 135 175 0
305 310 325 335 360 105 120 135 0
304 309 324 334 369 104 119 134 0
301 306 321 336 341 101 116 131 186 0
305 310 325 340 355 105 120 135 0
301 306 321 336 366 101 116 131 0
302 307 322 342 347 102 117 132 197 0
302 307 322 342 352 102 117 132 0
301 306 321 341 361 101 116 131 0
303 308 323 348 363 103 118 133 0
302 307 322 347 372 102 117 132 0
305 310 325 355 360 105 120 135 205 0
302 307 322 352 372 102 117 132 217 0
303 308 323 358 363 103 118 133 223 0
301 306 321 361 366 101 116 131 236 0
304 309 324 369 374 104 119 134 249 0
304 309 329 334 339 104 154 159 174 0
303 308 328 333 348 103 153 168 183 0
304 309 329 334 354 104 154 0
303 308 328 333 358 103 153 0
304 309 329 339 374 104 159 0
302 307 327 342 347 102 162 167 197 0
302 307 327 342 352 102 162 0
303 308 328 348 368 103 168 0
302 307 327 347 372 102 167 0
302 307 327 352 372 102 217 0
304 309 329 354 374 104 219 0
303 308 328 358 368 103 228 0
305 310 335 340 345 105 175 180 190 0
305 310 335 340 365 105 175 0
304 309 334 339 369 104 174 0
305 310 335 345 360 105 180 0
303 308 333 348 363 103 183 0
304 309 334 354 369 104 214 0
303 308 333 358 363 103 223 0
305 310 335 360 365 105 225 0
301 306 336 341 346 101 186 191 196 0
305 310 340 345 355 105 190 0
301 306 336 341 371 101 186 0
301 306 336 346 366 101 191 0
305 310 340 355 365 105 210 0
301 306 336 366 371 101 246 0
304 309 339 369 374 104 249 0
302 307 342 347 357 102 197 0
301 306 341 346 361 101 196 0
302 307 342 352 357 102 202 0
305 310 345 355 360 105 205 0
301 306 341 361 371 101 241 0
302 307 347 357 372 102 232 0
301 306 346 361 366 101 236 0
303 308 348 363 368 103 238 0
305 310 355 360 365 105 205 210 225 0
302 307 352 357 372 102 202 217 232 0
304 309 354 369 374 104 214 219 249 0
303 308 358 363 368 103 223 228 238 0
301 306 361 366 371 101 236 241 246 0
305 315 320 325 330 110 115 120 140 145 150 0
301 311 316 321 331 106 111 116 136 141 146 0
302 312 317 322 337 107 112 117 137 142 147 0
303 313 318 323 343 108 113 118 138 143 148 0
304 314 319 324 349 109 114 119 139 144 149 0
303 313 318 323 353 108 113 118 138 143 148 0
301 311 316 321 356 106 111 116 136 141 146 0
304 314 319 324 364 109 114 119 139 144 149 0
302 312 317 322 367 107 112 117 137 142 147 0
305 315 320 325 375 110 115 120 140 145 150 0
302 312 317 327 337 107 112 137 157 0
305 315 320 330 345 110 115 140 165 0
305 315 320 330 365 110 115 140 0
302 312 317 327 367 107 112 137 0
303 313 318 333 343 108 113 138 178 0
301 311 316 331 346 106 111 136 181 0
303 313 318 333 353 108 113 138 0
301 311 316 331 371 106 111 136 0
304 314 319 339 349 109 114 139 194 0
302 312 317 337 357 107 112 137 0
304 314 319 339 364 109 114 139 0
303 313 318 343 368 108 113 138 0
305 315 320 345 375 110 115 140 0
304 314 319 349 354 109 114 139 0
301 311 316 346 356 106 111 136 0
304 314 319 354 364 109 114 139 209 0
303 313 318 353 368 108 113 138 213 0
302 312 317 357 367 107 112 137 227 0
301 311 316 356 371 106 111 136 231 0
305 315 320 365 375 110 115 140 245 0
305 315 325 330 340 110 120 145 160 0
303 313 323 328 343 108 118 143 163 0
303 313 323 328 353 108 118 143 0
305 315 325 330 360 110 120 145 0
301 311 321 331 341 106 116 141 176 0
304 314 324 334 349 109 119 144 184 0
304 314 324 334 364 109 119 144 0
301 311 321 331 366 106 116 141 0
302 312 322 337 347 107 117 142 192 0
302 312 322 337 352 107 117 142 0
305 315 325 340 375 110 120 145 0
301 311 321 341 356 106 116 141 0
303 313 323 343 363 108 118 143 0
302 312 322 347 367 107 117 142 0
304 314 324 349 374 109 119 144 0
303 313 323 353 363 108 118 143 208 0
302 312 322 352 367 107 117 142 212 0
301 311 321 356 366 106 116 141 226 0
305 315 325 360 375 110 120 145 235 0
304 314 324 364 374 109 119 144 244 0
303 313 328 333 343 108 153 163 178 0
303 313 328 333 353 108 153 0
305 315 330 340 345 110 160 165 190 0
302 312 327 337 347 107 157 167 192 0
302 312 327 337 352 107 157 0
305 315 330 340 365 110 160 0
305 315 330 345 360 110 165 0
303 313 328 343 368 108 163 0
302 312 327 347 367 107 167 0
302 312 327 352 367 107 212 0
303 313 328 353 368 108 213 0
305 315 330 360 365 110 225 0
304 314 334 339 349 109 174 184 194 0
304 314 334 339 364 109 174 0
301 311 331 341 346 106 176 181 196 0
303 313 333 343 363 108 178 0
301 311 331 341 371 106 176 0
304 314 334 349 354 109 184 0
301 311 331 346 366 106 181 0
303 313 333 353 363 108 208 0
304 314 334 354 364 109 209 0
301 311 331 366 371 106 246 0
305 315 340 345 375 110 190 0
302 312 337 347 357 107 192 0
304 314 339 349 374 109 194 0
302 312 337 352 357 107 202 0
304 314 339 364 374 109 244 0
305 315 340 365 375 110 245 0
301 311 341 346 356 106 196 0
301 311 341 356 371 106 231 0
305 315 345 360 375 110 235 0
303 313 343 363 368 108 238 0
304 314 349 354 374 109 219 0
301 311 346 356 366 106 226 0
302 312 347 357 367 107 227 0
302 312 352 357 367 107 202 212 227 0
303 313 353 363 368 108 208 213 238 0
304 314 354 364 374 109 209 219 244 0
305 315 360 365 375 110 225 235 245 0
301 311 356 366 371 106 226 231 246 0
305 320 325 330 335 115 120 150 155 0
304 319 324 329 349 114 119 149 169 0
305 320 325 330 355 115 120 150 0
304 319 324 329 364 114 119 149 0
301 316 321 331 336 111 116 146 171 0
301 316 321 331 361 111 116 146 0
305 320 325 335 375 115 120 150 0
302 317 322 337 342 112 117 147 187 0
301 316 321 336 356 111 116 146 0
302 317 322 337 372 112 117 147 0
303 318 323 343 348 113 118 148 198 0
303 318 323 343 358 113 118 148 0
302 317 322 342 367 112 117 147 0
303 318 323 348 353 113 118 148 0
304 319 324 349 369 114 119 149 0
303 318 323 353 358 113 118 148 203 0
305 320 325 355 375 115 120 150 220 0
301 316 321 356 361 111 116 146 221 0
304 319 324 364 369 114 119 149 239 0
302 317 322 367 372 112 117 147 247 0
305 320 330 335 345 115 155 165 180 0
305 320 330 335 365 115 155 0
302 317 327 337 342 112 157 162 187 0
304 319 329 339 349 114 159 169 194 0
304 319 329 339 364 114 159 0
302 317 327 337 372 112 157 0
305 320 330 345 355 115 165 0
302 317 327 342 367 112 162 0
304 319 329 349 354 114 169 0
304 319 329 354 364 114 209 0
305 320 330 355 365 115 210 0
302 317 327 367 372 112 247 0
301 316 331 336 346 111 171 181 191 0
301 316 331 336 371 111 171 0
303 318 333 343 348 113 178 183 198 0
303 318 333 343 358 113 178 0
305 320 335 345 375 115 180 0
303 318 333 348 353 113 183 0
301 316 331 346 361 111 181 0
303 318 333 353 358 113 203 0
301 316 331 361 371 111 241 0
305 320 335 365 375 115 245 0
302 317 337 342 357 112 187 0
301 316 336 346 356 111 191 0
304 319 339 349 369 114 194 0
301 316 336 356 371 111 231 0
302 317 337 357 372 112 232 0
304 319 339 364 369 114 239 0
303 318 343 348 368 113 198 0
305 320 345 355 375 115 220 0
302 317 342 357 367 112 227 0
303 318 343 358 368 113 228 0
303 318 348 353 368 113 213 0
304 319 349 354 369 114 214 0
301 316 346 356 361 111 221 0
303 318 353 358 368 113 203 213 228 0
304 319 354 364 369 114 209 214 239 0
305 320 355 365 375 115 210 220 245 0
301 316 356 361 371 111 221 231 241 0
302 317 357 367 372 112 227 232 247 0
305 325 330 335 340 120 155 160 175 0
304 324 329 334 349 119 154 169 184 0
305 325 330 335 360 120 155 0
304 324 329 334 364 119 154 0
305 325 330 340 355 120 160 0
303 323 328 343 348 118 163 168 198 0
303 323 328 343 358 118 163 0
303 323 328 348 353 118 168 0
304 324 329 349 374 119 169 0
303 323 328 353 358 118 203 0
305 325 330 355 360 120 205 0
304 324 329 364 374 119 244 0
301 321 331 336 341 116 171 176 186 0
301 321 331 336 366 116 171 0
305 325 335 340 375 120 175 0
301 321 331 341 361 116 176 0
304 324 334 349 369 119 184 0
305 325 335 360 375 120 235 0
301 321 331 361 366 116 236 0
304 324 334 364 369 119 239 0
302 322 337 342 347 117 187 192 197 0
302 322 337 342 352 117 187 0
301 321 336 341 356 116 186 0
302 322 337 347 372 117 192 0
302 322 337 352 372 117 217 0
305 325 340 355 375 120 220 0
301 321 336 356 366 116 226 0
303 323 343 348 363 118 198 0
302 322 342 347 367 117 197 0
302 322 342 352 367 117 212 0
301 321 341 356 361 116 221 0
303 323 343 358 363 118 223 0
303 323 348 353 363 118 208 0
302 322 347 367 372 117 247 0
304 324 349 369 374 119 249 0
303 323 353 358 363 118 203 208 223 0
305 325 355 360 375 120 205 220 235 0
302 322 352 367 372 117 212 217 247 0
301 321 356 361 366 116 221 226 236 0
304 324 364 369 374 119 239 244 249 0
305 330 335 340 345 155 160 165 175 180 190 0
304 329 334 339 349 154 159 169 174 184 194 0
304 329 334 339 364 154 159 174 0
305 330 335 340 365 155 160 175 0
303 328 333 343 348 153 163 168 178 183 198 0
303 328 333 343 358 153 163 178 0
305 330 335 345 360 155 165 180 0
303 328 333 348 353 153 168 183 0
304 329 334 349 354 154 169 184 0
303 328 333 353 358 153 203 0
304 329 334 354 364 154 209 0
305 330 335 360 365 155 225 0
302 327 337 342 347 157 162 167 187 192 197 0
302 327 337 342 352 157 162 187 0
305 330 340 345 355 160 165 190 0
302 327 337 347 372 157 167 192 0
304 329 339 349 374 159 169 194 0
305 330 340 355 365 160 210 0
302 327 337 352 372 157 217 0
304 329 339 364 374 159 244 0
302 327 342 347 367 162 167 197 0
303 328 343 348 368 163 168 198 0
305 330 345 355 360 165 205 0
302 327 342 352 367 162 212 0
303 328 343 358 368 163 228 0
303 328 348 353 368 168 213 0
304 329 349 354 374 169 219 0
302 327 347 367 372 167 247 0
305 330 355 360 365 205 210 225 0
303 328 353 358 368 203 213 228 0
304 329 354 364 374 209 219 244 0
302 327 352 367 372 212 217 247 0
301 331 336 341 346 171 176 181 186 191 196 0
301 331 336 341 371 171 176 186 0
305 335 340 345 375 175 180 190 0
301 331 336 346 366 171 181 191 0
304 334 339 349 369 174 184 194 0
304 334 339 364 369 174 239 0
305 335 340 365 375 175 245 0
301 331 336 366 371 171 246 0
301 331 341 346 361 176 181 196 0
303 333 343 348 363 178 183 198 0
303 333 343 358 363 178 223 0
305 335 345 360 375 180 235 0
301 331 341 361 371 176 241 0
303 333 348 353 363 183 208 0
304 334 349 354 369 184 214 0
301 331 346 361 366 181 236 0
303 333 353 358 363 203 208 223 0
304 334 354 364 369 209 214 239 0
305 335 360 365 375 225 235 245 0
301 331 361 366 371 236 241 246 0
301 336 341 346 356 186 191 196 0
302 337 342 347 357 187 192 197 0
302 337 342 352 357 187 202 0
305 340 345 355 375 190 220 0
301 336 341 356 371 186 231 0
301 336 346 356 366 191 226 0
302 337 347 357 372 192 232 0
304 339 349 369 374 194 249 0
302 337 352 357 372 202 217 232 0
305 340 355 365 375 210 220 245 0
301 336 356 366 371 226 231 246 0
304 339 364 369 374 239 244 249 0
301 341 346 356 361 196 221 0
302 342 347 357 367 197 227 0
303 343 348 363 368 198 238 0
302 342 352 357 367 202 212 227 0
305 345 355 360 375 205 220 235 0
303 343 358 363 368 223 228 238 0
301 341 356 361 371 221 231 241 0
303 348 353 363 368 208 213 238 0
304 349 354 369 374 214 219 249 0
301 346 356 361 366 221 226 236 0
302 347 357 367 372 227 232 247 0
303 353 358 363 368 203 208 213 223 228 238 0
305 355 360 365 375 205 210 220 225 235 245 0
302 352 357 367 372 202 212 217 227 232 247 0
304 354 364 369 374 209 214 219 239 244 249 0
301 356 361 366 371 221 226 231 236 241 246 0
306 311 316 321 326 121 126 131 136 141 146 0
307 312 317 322 332 122 127 132 137 142 147 0
308 313 318 323 338 123 128 133 138 143 148 0
309 314 319 324 344 124 129 134 139 144 149 0
310 315 320 325 350 125 130 135 140 145 150 0
306 311 316 321 351 121 126 131 136 141 146 0
309 314 319 324 359 124 129 134 139 144 149 0
307 312 317 322 362 122 127 132 137 142 147 0
310 315 320 325 370 125 130 135 140 145 150 0
308 313 318 323 373 123 128 133 138 143 148 0
307 312 317 327 332 122 127 137 152 0
306 311 316 326 346 121 126 136 166 0
307 312 317 327 362 122 127 137 0
306 311 316 326 371 121 126 136 0
308 313 318 333 338 123 128 138 173 0
307 312 317 332 357 122 127 137 0
308 313 318 333 373 123 128 138 0
309 314 319 339 344 124 129 139 189 0
309 314 319 339 359 124 129 139 0
308 313 318 338 368 123 128 138 0
310 315 320 345 350 125 130 140 200 0
309 314 319 344 354 124 129 139 0
310 315 320 345 370 125 130 140 0
306 311 316 346 351 121 126 136 0
310 315 320 350 365 125 130 140 0
309 314 319 354 359 124 129 139 204 0
306 311 316 351 371 121 126 136 216 0
307 312 317 357 362 122 127 137 222 0
310 315 320 365 370 125 130 140 240 0
308 313 318 368 373 123 128 138 248 0
308 313 323 328 338 123 133 143 158 0
306 311 321 326 341 121 131 141 161 0
306 311 321 326 366 121 131 141 0
308 313 323 328 373 123 133 143 0
309 314 324 334 344 124 134 144 179 0
307 312 322 332 347 122 132 142 182 0
307 312 322 332 352 122 132 142 0
309 314 324 334 359 124 134 144 0
310 315 325 340 350 125 135 145 195 0
308 313 323 338 363 123 133 143 0
310 315 325 340 370 125 135 145 0
306 311 321 341 351 121 131 141 0
309 314 324 344 374 124 134 144 0
310 315 325 350 360 125 135 145 0
307 312 322 347 362 122 132 142 0
307 312 322 352 362 122 132 142 207 0
306 311 321 351 366 121 131 141 211 0
310 315 325 360 370 125 135 145 230 0
309 314 324 359 374 124 134 144 234 0
308 313 323 363 373 123 133 143 243 0
308 313 328 333 338 123 153 158 173 0
307 312 327 332 347 122 152 167 182 0
307 312 327 332 352 122 152 0
308 313 328 333 373 123 153 0
308 313 328 338 368 123 158 0
306 311 326 341 346 121 161 166 196 0
306 311 326 341 371 121 161 0
307 312 327 347 362 122 167 0
306 311 326 346 366 121 166 0
307 312 327 352 362 122 207 0
306 311 326 366 371 121 246 0
308 313 328 368 373 123 248 0
309 314 334 339 344 124 174 179 189 0
309 314 334 339 359 124 174 0
308 313 333 338 363 123 173 0
309 314 334 344 354 124 179 0
307 312 332 347 357 122 182 0
307 312 332 352 357 122 202 0
309 314 334 354 359 124 204 0
308 313 333 363 373 123 243 0
310 315 340 345 350 125 190 195 200 0
310 315 340 345 370 125 190 0
309 314 339 344 374 124 189 0
310 315 340 350 365 125 195 0
309 314 339 359 374 124 234 0
308 313 338 363 368 123 238 0
310 315 340 365 370 125 240 0
306 311 341 346 351 121 196 0
310 315 345 350 360 125 200 0
306 311 341 351 371 121 216 0
309 314 344 354 374 124 219 0
310 315 345 360 370 125 230 0
306 311 346 351 366 121 211 0
307 312 347 357 362 122 222 0
310 315 350 360 365 125 225 0
307 312 352 357 362 122 202 207 222 0
309 314 354 359 374 124 204 219 234 0
306 311 351 366 371 121 211 216 246 0
310 315 360 365 370 125 225 230 240 0
308 313 363 368 373 123 238 243 248 0
306 316 321 326 336 126 131 146 156 0
309 319 324 329 344 129 134 149 164 0
309 319 324 329 359 129 134 149 0
306 316 321 326 361 126 131 146 0
307 317 322 332 342 127 132 147 177 0
310 320 325 335 350 130 135 150 185 0
310 320 325 335 370 130 135 150 0
307 317 322 332 372 127 132 147 0
308 318 323 338 348 128 133 148 193 0
306 316 321 336 351 126 131 146 0
308 318 323 338 358 128 133 148 0
307 317 322 342 362 127 132 147 0
309 319 324 344 369 129 134 149 0
310 320 325 350 355 130 135 150 0
308 318 323 348 373 128 133 148 0
306 316 321 351 361 126 131 146 206 0
310 320 325 355 370 130 135 150 215 0
309 319 324 359 369 129 134 149 229 0
308 318 323 358 373 128 133 148 233 0
307 317 322 362 372 127 132 147 242 0
307 317 327 332 342 127 152 162 177 0
307 317 327 332 372 127 152 0
309 319 329 339 344 129 159 164 189 0
306 316 326 336 346 126 156 166 191 0
309 319 329 339 359 129 159 0
306 316 326 336 371 126 156 0
309 319 329 344 354 129 164 0
307 317 327 342 362 127 162 0
306 316 326 346 361 126 166 0
309 319 329 354 359 129 204 0
306 316 326 361 371 126 241 0
307 317 327 362 372 127 242 0
308 318 333 338 348 128 173 183 193 0
308 318 333 338 358 128 173 0
310 320 335 345 350 130 180 185 200 0
307 317 332 342 357 127 177 0
310 320 335 345 370 130 180 0
310 320 335 350 365 130 185 0
308 318 333 348 373 128 183 0
307 317 332 357 372 127 232 0
308 318 333 358 373 128 233 0
310 320 335 365 370 130 240 0
309 319 339 344 369 129 189 0
306 316 336 346 351 126 191 0
308 318 338 348 368 128 193 0
306 316 336 351 371 126 216 0
308 318 338 358 368 128 228 0
309 319 339 359 369 129 229 0
310 320 345 350 355 130 200 0
309 319 344 354 369 129 214 0
310 320 345 355 370 130 215 0
307 317 342 357 362 127 222 0
306 316 346 351 361 126 206 0
310 320 350 355 365 130 210 0
308 318 348 368 373 128 248 0
309 319 354 359 369 129 204 214 229 0
310 320 355 365 370 130 210 215 240 0
306 316 351 361 371 126 206 216 241 0
307 317 357 362 372 127 222 232 242 0
308 318 358 368 373 128 228 233 248 0
309 324 329 334 344 134 154 164 179 0
309 324 329 334 359 134 154 0
306 321 326 336 341 131 156 161 186 0
308 323 328 338 348 133 158 168 193 0
308 323 328 338 358 133 158 0
306 321 326 336 366 131 156 0
306 321 326 341 361 131 161 0
309 324 329 344 374 134 164 0
308 323 328 348 373 133 168 0
308 323 328 358 373 133 233 0
309 324 329 359 374 134 234 0
306 321 326 361 366 131 236 0
310 325 335 340 350 135 175 185 195 0
310 325 335 340 370 135 175 0
307 322 332 342 347 132 177 182 197 0
307 322 332 342 352 132 177 0
309 324 334 344 369 134 179 0
310 325 335 350 360 135 185 0
307 322 332 347 372 132 182 0
307 322 332 352 372 132 217 0
309 324 334 359 369 134 229 0
310 325 335 360 370 135 230 0
306 321 336 341 351 131 186 0
310 325 340 350 355 135 195 0
308 323 338 348 363 133 193 0
306 321 336 351 366 131 211 0
310 325 340 355 370 135 215 0
308 323 338 358 363 133 223 0
307 322 342 347 362 132 197 0
306 321 341 351 361 131 206 0
307 322 342 352 362 132 207 0
309 324 344 369 374 134 249 0
310 325 350 355 360 135 205 0
307 322 347 362 372 132 242 0
308 323 348 363 373 133 243 0
310 325 355 360 370 135 205 215 230 0
306 321 351 361 366 131 206 211 236 0
307 322 352 362 372 132 207 217 242 0
308 323 358 363 373 133 223 233 243 0
309 324 359 369 374 134 229 234 249 0
309 329 334 339 344 154 159 164 174 179 189 0
308 328 333 338 348 153 158 168 173 183 193 0
308 328 333 338 358 153 158 173 0
309 329 334 339 359 154 159 174 0
307 327 332 342 347 152 162 167 177 182 197 0
307 327 332 342 352 152 162 177 0
309 329 334 344 354 154 164 179 0
307 327 332 347 372 152 167 182 0
308 328 333 348 373 153 168 183 0
309 329 334 354 359 154 204 0
307 327 332 352 372 152 217 0
308 328 333 358 373 153 233 0
306 326 336 341 346 156 161 166 186 191 196 0
306 326 336 341 371 156 161 186 0
309 329 339 344 374 159 164 189 0
306 326 336 346 366 156 166 191 0
308 328 338 348 368 158 168 193 0
308 328 338 358 368 158 228 0
309 329 339 359 374 159 234 0
306 326 336 366 371 156 246 0
306 326 341 346 361 161 166 196 0
307 327 342 347 362 162 167 197 0
307 327 342 352 362 162 207 0
309 329 344 354 374 164 219 0
306 326 341 361 371 161 241 0
306 326 346 361 366 166 236 0
307 327 347 362 372 167 242 0
308 328 348 368 373 168 248 0
309 329 354 359 374 204 219 234 0
307 327 352 362 372 207 217 242 0
308 328 358 368 373 228 233 248 0
306 326 361 366 371 236 241 246 0
310 335 340 345 350 175 180 185 190 195 200 0
309 334 339 344 369 174 179 189 0
310 335 340 345 370 175 180 190 0
308 333 338 348 363 173 183 193 0
310 335 340 350 365 175 185 195 0
308 333 338 358 363 173 223 0
309 334 339 359 369 174 229 0
310 335 340 365 370 175 240 0
307 332 342 347 357 177 182 197 0
310 335 345 350 360 180 185 200 0
307 332 342 352 357 177 202 0
309 334 344 354 369 179 214 0
310 335 345 360 370 180 230 0
310 335 350 360 365 185 225 0
307 332 347 357 372 182 232 0
308 333 348 363 373 183 243 0
309 334 354 359 369 204 214 229 0
307 332 352 357 372 202 217 232 0
310 335 360 365 370 225 230 240 0
308 333 358 363 373 223 233 243 0
306 336 341 346 351 186 191 196 0
310 340 345 350 355 190 195 200 0
310 340 345 355 370 190 215 0
306 336 341 351 371 186 216 0
309 339 344 369 374 189 249 0
310 340 350 355 365 195 210 0
306 336 346 351 366 191 211 0
308 338 348 363 368 193 238 0
310 340 355 365 370 210 215 240 0
306 336 351 366 371 211 216 246 0
308 338 358 363 368 223 228 238 0
309 339 359 369 374 229 234 249 0
310 345 350 355 360 200 205 0
306 341 346 351 361 196 206 0
307 342 347 357 362 197 222 0
307 342 352 357 362 202 207 222 0
310 345 355 360 370 205 215 230 0
306 341 351 361 371 206 216 241 0
309 344 354 369 374 214 219 249 0
310 350 355 360 365 205 210 225 0
306 346 351 361 366 206 211 236 0
307 347 357 362 372 222 232 242 0
308 348 363 368 373 238 243 248 0
310 355 360 365 370 205 210 215 225 230 240 0
307 352 357 362 372 202 207 217 222 232 242 0
309 354 359 369 374 204 214 219 229 234 249 0
306 351 361 366 371 206 211 216 236 241 246 0
308 358 363 368 373 223 228 233 238 243 248 0
311 316 321 326 331 136 141 146 151 0
315 320 325 330 350 140 145 150 170 0
311 316 321 326 356 136 141 146 0
315 320 325 330 370 140 145 150 0
312 317 322 332 337 137 142 147 172 0
311 316 321 331 351 136 141 146 0
312 317 322 332 367 137 142 147 0
313 318 323 338 343 138 143 148 188 0
313 318 323 338 353 138 143 148 0
312 317 322 337 362 137 142 147 0
314 319 324 344 349 139 144 149 199 0
314 319 324 344 364 139 144 149 0
313 318 323 343 373 138 143 148 0
314 319 324 349 359 139 144 149 0
315 320 325 350 375 140 145 150 0
311 316 321 351 356 136 141 146 201 0
313 318 323 353 373 138 143 148 218 0
314 319 324 359 364 139 144 149 224 0
312 317 322 362 367 137 142 147 237 0
315 320 325 370 375 140 145 150 250 0
312 317 327 332 337 137 152 157 172 0
311 316 326 331 346 136 151 166 181 0
312 317 327 332 367 137 152 0
311 316 326 331 371 136 151 0
312 317 327 337 362 137 157 0
315 320 330 345 350 140 165 170 200 0
315 320 330 345 370 140 165 0
311 316 326 346 356 136 166 0
315 320 330 350 365 140 170 0
311 316 326 356 371 136 231 0
312 317 327 362 367 137 237 0
315 320 330 365 370 140 240 0
313 318 333 338 343 138 173 178 188 0
313 318 333 338 353 138 173 0
312 317 332 337 357 137 172 0
313 318 333 343 373 138 178 0
311 316 331 346 351 136 181 0
311 316 331 351 371 136 216 0
313 318 333 353 373 138 218 0
312 317 332 357 367 137 227 0
314 319 339 344 349 139 189 194 199 0
314 319 339 344 364 139 189 0
313 318 338 343 368 138 188 0
314 319 339 349 359 139 194 0
313 318 338 353 368 138 213 0
312 317 337 357 362 137 222 0
314 319 339 359 364 139 224 0
314 319 344 349 354 139 199 0
315 320 345 350 375 140 200 0
314 319 344 354 364 139 209 0
313 318 343 368 373 138 248 0
315 320 345 370 375 140 250 0
311 316 346 351 356 136 201 0
314 319 349 354 359 139 204 0
315 320 350 365 375 140 245 0
314 319 354 359 364 139 204 209 224 0
311 316 351 356 371 136 201 216 231 0
313 318 353 368 373 138 213 218 248 0
312 317 357 362 367 137 222 227 237 0
315 320 365 370 375 140 240 245 250 0
311 321 326 331 341 141 151 161 176 0
311 321 326 331 366 141 151 0
313 323 328 338 343 143 158 163 188 0
315 325 330 340 350 145 160 170 195 0
313 323 328 338 353 143 158 0
315 325 330 340 370 145 160 0
311 321 326 341 356 141 161 0
313 323 328 343 373 143 163 0
315 325 330 350 360 145 170 0
313 323 328 353 373 143 218 0
311 321 326 356 366 141 226 0
315 325 330 360 370 145 230 0
312 322 332 337 347 142 172 182 192 0
312 322 332 337 352 142 172 0
314 324 334 344 349 144 179 184 199 0
311 321 331 341 351 141 176 0
314 324 334 344 364 144 179 0
314 324 334 349 359 144 184 0
312 322 332 347 367 142 182 0
311 321 331 351 366 141 211 0
312 322 332 352 367 142 212 0
314 324 334 359 364 144 224 0
313 323 338 343 363 143 188 0
312 322 337 347 362 142 192 0
315 325 340 350 375 145 195 0
312 322 337 352 362 142 207 0
313 323 338 353 363 143 208 0
315 325 340 370 375 145 250 0
314 324 344 349 374 144 199 0
311 321 341 351 356 141 201 0
313 323 343 363 373 143 243 0
314 324 344 364 374 144 244 0
314 324 349 359 374 144 234 0
315 325 350 360 375 145 235 0
312 322 347 362 367 142 237 0
311 321 351 356 366 141 201 211 226 0
312 322 352 362 367 142 207 212 237 0
313 323 353 363 373 143 208 218 243 0
314 324 359 364 374 144 224 234 244 0
315 325 360 370 375 145 230 235 250 0
313 328 333 338 343 153 158 163 173 178 188 0
312 327 332 337 347 152 157 167 172 182 192 0
312 327 332 337 352 152 157 172 0
313 328 333 338 353 153 158 173 0
311 326 331 341 346 151 161 166 176 181 196 0
311 326 331 341 371 151 161 176 0
313 328 333 343 373 153 163 178 0
311 326 331 346 366 151 166 181 0
312 327 332 347 367 152 167 182 0
312 327 332 352 367 152 212 0
313 328 333 353 373 153 218 0
311 326 331 366 371 151 246 0
315 330 340 345 350 160 165 170 190 195 200 0
313 328 338 343 368 158 163 188 0
315 330 340 345 370 160 165 190 0
312 327 337 347 362 157 167 192 0
315 330 340 350 365 160 170 195 0
312 327 337 352 362 157 207 0
313 328 338 353 368 158 213 0
315 330 340 365 370 160 240 0
311 326 341 346 356 161 166 196 0
315 330 345 350 360 165 170 200 0
315 330 345 360 370 165 230 0
311 326 341 356 371 161 231 0
313 328 343 368 373 163 248 0
315 330 350 360 365 170 225 0
311 326 346 356 366 166 226 0
312 327 347 362 367 167 237 0
312 327 352 362 367 207 212 237 0
313 328 353 368 373 213 218 248 0
315 330 360 365 370 225 230 240 0
311 326 356 366 371 226 231 246 0
314 334 339 344 349 174 179 184 189 194 199 0
313 333 338 343 363 173 178 188 0
314 334 339 344 364 174 179 189 0
312 332 337 347 357 172 182 192 0
314 334 339 349 359 174 184 194 0
312 332 337 352 357 172 202 0
313 333 338 353 363 173 208 0
314 334 339 359 364 174 224 0
311 331 341 346 351 176 181 196 0
314 334 344 349 354 179 184 199 0
314 334 344 354 364 179 209 0
311 331 341 351 371 176 216 0
313 333 343 363 373 178 243 0
314 334 349 354 359 184 204 0
311 331 346 351 366 181 211 0
312 332 347 357 367 182 227 0
314 334 354 359 364 204 209 224 0
312 332 352 357 367 202 212 227 0
313 333 353 363 373 208 218 243 0
311 331 351 366 371 211 216 246 0
314 339 344 349 374 189 194 199 0
315 340 345 350 375 190 195 200 0
313 338 343 363 368 188 238 0
314 339 344 364 374 189 244 0
315 340 345 370 375 190 250 0
312 337 347 357 362 192 222 0
314 339 349 359 374 194 234 0
315 340 350 365 375 195 245 0
312 337 352 357 362 202 207 222 0
313 338 353 363 368 208 213 238 0
314 339 359 364 374 224 234 244 0
315 340 365 370 375 240 245 250 0
311 341 346 351 356 196 201 0
314 344 349 354 374 199 219 0
315 345 350 360 375 200 235 0
311 341 351 356 371 201 216 231 0
314 344 354 364 374 209 219 244 0
315 345 360 370 375 230 235 250 0
313 343 363 368 373 238 243 248 0
311 346 351 356 366 201 211 226 0
314 349 354 359 374 204 219 234 0
312 347 357 362 367 222 227 237 0
315 350 360 365 375 225 235 245 0
312 352 357 362 367 202 207 212 222 227 237 0
314 354 359 364 374 204 209 219 224 234 244 0
311 351 356 366 371 201 211 216 226 231 246 0
313 353 363 368 373 208 213 218 238 243 248 0
315 360 365 370 375 225 230 235 240 245 250 0
316 321 326 331 336 146 151 156 171 0
320 325 330 335 350 150 155 170 185 0
316 321 326 331 361 146 151 0
320 325 330 335 370 150 155 0
316 321 326 336 356 146 156 0
319 324 329 344 349 149 164 169 199 0
319 324 329 344 364 149 164 0
320 325 330 350 355 150 170 0
319 324 329 349 359 149 169 0
320 325 330 355 370 150 215 0
316 321 326 356 361 146 221 0
319 324 329 359 364 149 224 0
317 322 332 337 342 147 172 177 187 0
316 321 331 336 351 146 171 0
317 322 332 337 372 147 172 0
317 322 332 342 367 147 177 0
320 325 335 350 375 150 185 0
316 321 331 351 361 146 206 0
317 322 332 367 372 147 247 0
320 325 335 370 375 150 250 0
318 323 338 343 348 148 188 193 198 0
318 323 338 343 358 148 188 0
317 322 337 342 362 147 187 0
318 323 338 348 353 148 193 0
316 321 336 351 356 146 201 0
318 323 338 353 358 148 203 0
317 322 337 362 372 147 242 0
319 324 344 349 369 149 199 0
318 323 343 348 373 148 198 0
318 323 343 358 373 148 233 0
317 322 342 362 367 147 237 0
319 324 344 364 369 149 239 0
318 323 348 353 373 148 218 0
320 325 350 355 375 150 220 0
319 324 349 359 369 149 229 0
316 321 351 356 361 146 201 206 221 0
318 323 353 358 373 148 203 218 233 0
320 325 355 370 375 150 215 220 250 0
319 324 359 364 369 149 224 229 239 0
317 322 362 367 372 147 237 242 247 0
317 327 332 337 342 152 157 162 172 177 187 0
316 326 331 336 346 151 156 166 171 181 191 0
316 326 331 336 371 151 156 171 0
317 327 332 337 372 152 157 172 0
320 330 335 345 350 155 165 170 180 185 200 0
317 327 332 342 367 152 162 177 0
320 330 335 345 370 155 165 180 0
316 326 331 346 361 151 166 181 0
320 330 335 350 365 155 170 185 0
320 330 335 365 370 155 240 0
316 326 331 361 371 151 241 0
317 327 332 367 372 152 247 0
319 329 339 344 349 159 164 169 189 194 199 0
317 327 337 342 362 157 162 187 0
319 329 339 344 364 159 164 189 0
316 326 336 346 356 156 166 191 0
319 329 339 349 359 159 169 194 0
319 329 339 359 364 159 224 0
316 326 336 356 371 156 231 0
317 327 337 362 372 157 242 0
319 329 344 349 354 164 169 199 0
320 330 345 350 355 165 170 200 0
319 329 344 354 364 164 209 0
320 330 345 355 370 165 215 0
317 327 342 362 367 162 237 0
319 329 349 354 359 169 204 0
320 330 350 355 365 170 210 0
316 326 346 356 361 166 221 0
319 329 354 359 364 204 209 224 0
320 330 355 365 370 210 215 240 0
316 326 356 361 371 221 231 241 0
317 327 362 367 372 237 242 247 0
318 333 338 343 348 173 178 183 188 193 198 0
317 332 337 342 357 172 177 187 0
318 333 338 343 358 173 178 188 0
316 331 336 346 351 171 181 191 0
318 333 338 348 353 173 183 193 0
318 333 338 353 358 173 203 0
316 331 336 351 371 171 216 0
317 332 337 357 372 172 232 0
318 333 343 348 373 178 183 198 0
320 335 345 350 375 180 185 200 0
317 332 342 357 367 177 227 0
318 333 343 358 373 178 233 0
320 335 345 370 375 180 250 0
316 331 346 351 361 181 206 0
318 333 348 353 373 183 218 0
320 335 350 365 375 185 245 0
318 333 353 358 373 203 218 233 0
316 331 351 361 371 206 216 241 0
317 332 357 367 372 227 232 247 0
320 335 365 370 375 240 245 250 0
318 338 343 348 368 188 193 198 0
319 339 344 349 369 189 194 199 0
317 337 342 357 362 187 222 0
318 338 343 358 368 188 228 0
319 339 344 364 369 189 239 0
316 336 346 351 356 191 201 0
318 338 348 353 368 193 213 0
319 339 349 359 369 194 229 0
318 338 353 358 368 203 213 228 0
316 336 351 356 371 201 216 231 0
319 339 359 364 369 224 229 239 0
317 337 357 362 372 222 232 242 0
319 344 349 354 369 199 214 0
320 345 350 355 375 200 220 0
318 343 348 368 373 198 248 0
319 344 354 364 369 209 214 239 0
320 345 355 370 375 215 220 250 0
317 342 357 362 367 222 227 237 0
318 343 358 368 373 228 233 248 0
316 346 351 356 361 201 206 221 0
319 349 354 359 369 204 214 229 0
320 350 355 365 375 210 220 245 0
318 348 353 368 373 213 218 248 0
319 354 359 364 369 204 209 214 224 229 239 0
316 351 356 361 371 201 206 216 221 231 241 0
318 353 358 368 373 203 213 218 228 233 248 0
320 355 365 370 375 210 215 220 240 245 250 0
317 357 362 367 372 222 227 232 237 242 247 0
321 326 331 336 341 151 156 161 171 176 186 0
325 330 335 340 350 155 160 170 175 185 195 0
321 326 331 336 366 151 156 171 0
325 330 335 340 370 155 160 175 0
324 329 334 344 349 154 164 169 179 184 199 0
321 326 331 341 361 151 161 176 0
324 329 334 344 364 154 164 179 0
324 329 334 349 359 154 169 184 0
325 330 335 350 360 155 170 185 0
324 329 334 359 364 154 224 0
325 330 335 360 370 155 230 0
321 326 331 361 366 151 236 0
323 328 338 343 348 158 163 168 188 193 198 0
321 326 336 341 356 156 161 186 0
323 328 338 343 358 158 163 188 0
323 328 338 348 353 158 168 193 0
325 330 340 350 355 160 170 195 0
323 328 338 353 358 158 203 0
325 330 340 355 370 160 215 0
321 326 336 356 366 156 226 0
323 328 343 348 373 163 168 198 0
324 329 344 349 374 164 169 199 0
321 326 341 356 361 161 221 0
323 328 343 358 373 163 233 0
324 329 344 364 374 164 244 0
325 330 350 355 360 170 205 0
323 328 348 353 373 168 218 0
324 329 349 359 374 169 234 0
325 330 355 360 370 205 215 230 0
323 328 353 358 373 203 218 233 0
321 326 356 361 366 221 226 236 0
324 329 359 364 374 224 234 244 0
322 332 337 342 347 172 177 182 187 192 197 0
321 331 336 341 351 171 176 186 0
322 332 337 342 352 172 177 187 0
322 332 337 347 372 172 182 192 0
325 335 340 350 375 175 185 195 0
321 331 336 351 366 171 211 0
322 332 337 352 372 172 217 0
325 335 340 370 375 175 250 0
322 332 342 347 367 177 182 197 0
324 334 344 349 369 179 184 199 0
321 331 341 351 361 176 206 0
322 332 342 352 367 177 212 0
324 334 344 364 369 179 239 0
324 334 349 359 369 184 229 0
325 335 350 360 375 185 235 0
322 332 347 367 372 182 247 0
321 331 351 361 366 206 211 236 0
322 332 352 367 372 212 217 247 0
324 334 359 364 369 224 229 239 0
325 335 360 370 375 230 235 250 0
322 337 342 347 362 187 192 197 0
323 338 343 348 363 188 193 198 0
321 336 341 351 356 186 201 0
322 337 342 352 362 187 207 0
323 338 343 358 363 188 223 0
323 338 348 353 363 193 208 0
325 340 350 355 375 195 220 0
322 337 347 362 372 192 242 0
323 338 353 358 363 203 208 223 0
321 336 351 356 366 201 211 226 0
322 337 352 362 372 207 217 242 0
325 340 355 370 375 215 220 250 0
322 342 347 362 367 197 237 0
323 343 348 363 373 198 243 0
324 344 349 369 374 199 249 0
321 341 351 356 361 201 206 221 0
322 342 352 362 367 207 212 237 0
323 343 358 363 373 223 233 243 0
324 344 364 369 374 239 244 249 0
325 350 355 360 375 205 220 235 0
323 348 353 363 373 208 218 243 0
324 349 359 369 374 229 234 249 0
322 347 362 367 372 237 242 247 0
321 351 356 361 366 201 206 211 221 226 236 0
323 353 358 363 373 203 208 218 223 233 243 0
325 355 360 370 375 205 215 220 230 235 250 0
322 352 362 367 372 207 212 217 237 242 247 0
324 359 364 369 374 224 229 234 239 244 249 0
326 331 336 341 346 151 156 161 166 171 176 181 186 191 196 0
327 332 337 342 347 152 157 162 167 172 177 182 187 192 197 0
328 333 338 343 348 153 158 163 168 173 178 183 188 193 198 0
329 334 339 344 349 154 159 164 169 174 179 184 189 194 199 0
330 335 340 345 350 155 160 165 170 175 180 185 190 195 200 0
327 332 337 342 352 152 157 162 172 177 187 0
328 333 338 343 358 153 158 163 173 178 188 0
329 334 339 344 364 154 159 164 174 179 189 0
330 335 340 345 370 155 160 165 175 180 190 0
326 331 336 341 371 151 156 161 171 176 186 0
328 333 338 348 353 153 158 168 173 183 193 0
329 334 339 349 359 154 159 169 174 184 194 0
330 335 340 350 365 155 160 170 175 185 195 0
326 331 336 346 366 151 156 166 171 181 191 0
327 332 337 347 372 152 157 167 172 182 192 0
328 333 338 353 358 153 158 173 203 0
327 332 337 352 372 152 157 172 217 0
329 334 339 359 364 154 159 174 224 0
330 335 340 365 370 155 160 175 240 0
326 331 336 366 371 151 156 171 246 0
329 334 344 349 354 154 164 169 179 184 199 0
330 335 345 350 360 155 165 170 180 185 200 0
326 331 341 346 361 151 161 166 176 181 196 0
327 332 342 347 367 152 162 167 177 182 197 0
328 333 343 348 373 153 163 168 178 183 198 0
329 334 344 354 364 154 164 179 209 0
327 332 342 352 367 152 162 177 212 0
330 335 345 360 370 155 165 180 230 0
328 333 343 358 373 153 163 178 233 0
326 331 341 361 371 151 161 176 241 0
329 334 349 354 359 154 169 184 204 0
328 333 348 353 373 153 168 183 218 0
330 335 350 360 365 155 170 185 225 0
326 331 346 361 366 151 166 181 236 0
327 332 347 367 372 152 167 182 247 0
329 334 354 359 364 154 204 209 224 0
328 333 353 358 373 153 203 218 233 0
327 332 352 367 372 152 212 217 247 0
330 335 360 365 370 155 225 230 240 0
326 331 361 366 371 151 236 241 246 0
330 340 345 350 355 160 165 170 190 195 200 0
326 336 341 346 356 156 161 166 186 191 196 0
327 337 342 347 362 157 162 167 187 192 197 0
328 338 343 348 368 158 163 168 188 193 198 0
329 339 344 349 374 159 164 169 189 194 199 0
327 337 342 352 362 157 162 187 207 0
330 340 345 355 370 160 165 190 215 0
328 338 343 358 368 158 163 188 228 0
326 336 341 356 371 156 161 186 231 0
329 339 344 364 374 159 164 189 244 0
330 340 350 355 365 160 170 195 210 0
328 338 348 353 368 158 168 193 213 0
326 336 346 356 366 156 166 191 226 0
329 339 349 359 374 159 169 194 234 0
327 337 347 362 372 157 167 192 242 0
328 338 353 358 368 158 203 213 228 0
330 340 355 365 370 160 210 215 240 0
327 337 352 362 372 157 207 217 242 0
329 339 359 364 374 159 224 234 244 0
326 336 356 366 371 156 226 231 246 0
330 345 350 355 360 165 170 200 205 0
329 344 349 354 374 164 169 199 219 0
326 341 346 356 361 161 166 196 221 0
327 342 347 362 367 162 167 197 237 0
328 343 348 368 373 163 168 198 248 0
330 345 355 360 370 165 205 215 230 0
327 342 352 362 367 162 207 212 237 0
329 344 354 364 374 164 209 219 244 0
326 341 356 361 371 161 221 231 241 0
328 343 358 368 373 163 228 233 248 0
330 350 355 360 365 170 205 210 225 0
329 349 354 359 374 169 204 219 234 0
328 348 353 368 373 168 213 218 248 0
326 346 356 361 366 166 221 226 236 0
327 347 362 367 372 167 237 242 247 0
330 355 360 365 370 205 210 215 225 230 240 0
329 354 359 364 374 204 209 219 224 234 244 0
328 353 358 368 373 203 213 218 228 233 248 0
327 352 362 367 372 207 212 217 237 242 247 0
326 356 361 366 371 221 226 231 236 241 246 0
331 336 341 346 351 171 176 181 186 191 196 0
332 337 342 347 357 172 177 182 187 192 197 0
333 338 343 348 363 173 178 183 188 193 198 0
334 339 344 349 369 174 179 184 189 194 199 0
335 340 345 350 375 175 180 185 190 195 200 0
332 337 342 352 357 172 177 187 202 0
331 336 341 351 371 171 176 186 216 0
333 338 343 358 363 173 178 188 223 0
334 339 344 364 369 174 179 189 239 0
335 340 345 370 375 175 180 190 250 0
333 338 348 353 363 173 183 193 208 0
331 336 346 351 366 171 181 191 211 0
334 339 349 359 369 174 184 194 229 0
332 337 347 357 372 172 182 192 232 0
335 340 350 365 375 175 185 195 245 0
333 338 353 358 363 173 203 208 223 0
332 337 352 357 372 172 202 217 232 0
331 336 351 366 371 171 211 216 246 0
334 339 359 364 369 174 224 229 239 0
335 340 365 370 375 175 240 245 250 0
331 341 346 351 361 176 181 196 206 0
334 344 349 354 369 179 184 199 214 0
332 342 347 357 367 177 182 197 227 0
335 345 350 360 375 180 185 200 235 0
333 343 348 363 373 178 183 198 243 0
332 342 352 357 367 177 202 212 227 0
334 344 354 364 369 179 209 214 239 0
331 341 351 361 371 176 206 216 241 0
333 343 358 363 373 178 223 233 243 0
335 345 360 370 375 180 230 235 250 0
334 349 354 359 369 184 204 214 229 0
331 346 351 361 366 181 206 211 236 0
333 348 353 363 373 183 208 218 243 0
335 350 360 365 375 185 225 235 245 0
332 347 357 367 372 182 227 232 247 0
334 354 359 364 369 204 209 214 224 229 239 0
333 353 358 363 373 203 208 218 223 233 243 0
332 352 357 367 372 202 212 217 227 232 247 0
331 351 361 366 371 206 211 216 236 241 246 0
335 360 365 370 375 225 230 235 240 245 250 0
336 341 346 351 356 186 191 196 201 0
340 345 350 355 375 190 195 200 220 0
337 342 347 357 362 187 192 197 222 0
338 343 348 363 368 188 193 198 238 0
339 344 349 369 374 189 194 199 249 0
337 342 352 357 362 187 202 207 222 0
336 341 351 356 371 186 201 216 231 0
340 345 355 370 375 190 215 220 250 0
338 343 358 363 368 188 223 228 238 0
339 344 364 369 374 189 239 244 249 0
336 346 351 356 366 191 201 211 226 0
338 348 353 363 368 193 208 213 238 0
340 350 355 365 375 195 210 220 245 0
337 347 357 362 372 192 222 232 242 0
339 349 359 369 374 194 229 234 249 0
338 353 358 363 368 203 208 213 223 228 238 0
337 352 357 362 372 202 207 217 222 232 242 0
336 351 356 366 371 201 211 216 226 231 246 0
340 355 365 370 375 210 215 220 240 245 250 0
339 359 364 369 374 224 229 234 239 244 249 0
341 346 351 356 361 196 201 206 221 0
345 350 355 360 375 200 205 220 235 0
344 349 354 369 374 199 214 219 249 0
342 347 357 362 367 197 222 227 237 0
343 348 363 368 373 198 238 243 248 0
342 352 357 362 367 202 207 212 222 227 237 0
341 351 356 361 371 201 206 216 221 231 241 0
345 355 360 370 375 205 215 220 230 235 250 0
344 354 364 369 374 209 214 219 239 244 249 0
343 358 363 368 373 223 228 233 238 243 248 0
346 351 356 361 366 201 206 211 221 226 236 0
350 355 360 365 375 205 210 220 225 235 245 0
349 354 359 369 374 204 214 219 229 234 249 0
348 353 363 368 373 208 213 218 238 243 248 0
347 357 362 367 372 222 227 232 237 242 247 0
351 356 361 366 371 201 206 211 216 221 226 231 236 241 246 0
352 357 362 367 372 202 207 212 217 222 227 232 237 242 247 0
353 358 363 368 373 203 208 213 218 223 228 233 238 243 248 0
354 359 364 369 374 204 209 214 219 224 229 234 239 244 249 0
355 360 365 370 375 205 210 215 220 225 230 235 240 245 250 0
