p cnf 300 8426
1 2 0
3 4 0
5 6 0
7 8 0
9 10 0
11 12 0
13 14 0
15 16 0
17 18 0
19 20 0
21 22 0
23 24 0
25 26 0
27 28 0
29 30 0
31 32 0
33 34 0
35 36 0
37 38 0
39 40 0
41 42 0
43 44 0
45 46 0
47 48 0
49 50 0
51 52 0
53 54 0
55 56 0
57 58 0
59 60 0
61 62 0
63 64 0
65 66 0
67 68 0
69 70 0
71 72 0
73 74 0
75 76 0
77 78 0
79 80 0
81 82 0
83 84 0
85 86 0
87 88 0
89 90 0
91 92 0
93 94 0
95 96 0
97 98 0
99 100 0
101 102 0
103 104 0
105 106 0
107 108 0
109 110 0
111 112 0
113 114 0
115 116 0
117 118 0
119 120 0
121 122 0
123 124 0
125 126 0
127 128 0
129 130 0
131 132 0
133 134 0
135 136 0
137 138 0
139 140 0
141 142 0
143 144 0
145 146 0
147 148 0
149 150 0
151 152 0
153 154 0
155 156 0
157 158 0
159 160 0
161 162 0
163 164 0
165 166 0
167 168 0
169 170 0
171 172 0
173 174 0
175 176 0
177 178 0
179 180 0
181 182 0
183 184 0
185 186 0
187 188 0
189 190 0
191 192 0
193 194 0
195 196 0
197 198 0
199 200 0
201 202 0
203 204 0
205 206 0
207 208 0
209 210 0
211 212 0
213 214 0
215 216 0
217 218 0
219 220 0
221 222 0
223 224 0
225 226 0
227 228 0
229 230 0
231 232 0
233 234 0
235 236 0
237 238 0
239 240 0
241 242 0
243 244 0
245 246 0
247 248 0
249 250 0
251 252 0
253 254 0
255 256 0
257 258 0
259 260 0
261 262 0
263 264 0
265 266 0
267 268 0
269 270 0
271 272 0
273 274 0
275 276 0
277 278 0
279 280 0
281 282 0
283 284 0
285 286 0
287 288 0
289 290 0
291 292 0
293 294 0
295 296 0
297 298 0
299 300 0
-1 -13 0
-2 -14 0
-3 -27 0
-4 -28 0
-5 -41 0
-6 -42 0
-7 -55 0
-8 -56 0
-69 -9 0
-70 -10 0
-83 -11 0
-84 -12 0
-97 -13 0
-98 -14 0
-15 -111 0
-16 -112 0
-17 -125 0
-18 -126 0
-19 -139 0
-20 -140 0
-21 -153 0
-22 -154 0
-23 -167 0
-24 -168 0
-181 -25 0
-182 -26 0
-195 -27 0
-196 -28 0
-209 -29 0
-210 -30 0
-31 -223 0
-32 -224 0
-33 -237 0
-34 -238 0
-35 -251 0
-36 -252 0
-37 -265 0
-38 -266 0
-279 -39 0
-280 -40 0
-293 -41 0
-294 -42 0
-3 -51 -25 0
-4 -52 -26 0
-37 -113 -5 0
-38 -114 -6 0
-5 -39 -59 0
-6 -40 -60 0
-199 -49 -7 0
-200 -50 -8 0
-51 -7 -103 0
-52 -8 -104 0
-53 -7 -71 0
-54 -8 -72 0
-63 -159 -9 0
-64 -160 -10 0
-65 -9 -109 0
-66 -10 -110 0
-75 -227 -11 0
-76 -228 -12 0
-155 -11 -77 0
-156 -12 -78 0
-79 -119 -11 0
-80 -120 -12 0
-209 -89 -13 0
-210 -90 -14 0
-95 -111 -13 0
-96 -112 -14 0
-15 -101 -271 0
-16 -102 -272 0
-15 -103 -207 0
-16 -104 -208 0
-15 -143 -107 0
-16 -144 -108 0
-17 -179 -119 0
-18 -180 -120 0
-129 -19 -259 0
-130 -20 -260 0
-19 -131 -219 0
-20 -132 -220 0
-19 -135 -169 0
-20 -136 -170 0
-143 -21 -263 0
-144 -22 -264 0
-159 -23 -239 0
-160 -24 -240 0
-215 -161 -23 0
-216 -162 -24 0
-191 -223 -27 0
-192 -224 -28 0
-199 -299 -29 0
-200 -300 -30 0
-31 -215 -287 0
-32 -216 -288 0
-1 -3 -23 0
-2 -4 -24 0
-1 -5 -17 0
-2 -6 -18 0
-15 -1 -7 0
-16 -2 -8 0
-3 -5 -71 0
-4 -6 -72 0
-47 -3 -7 0
-48 -4 -8 0
-3 -39 -9 0
-4 -40 -10 0
-3 -35 -11 0
-4 -36 -12 0
-15 -31 -3 0
-16 -32 -4 0
-3 -19 -29 0
-4 -20 -30 0
-143 -5 -7 0
-144 -6 -8 0
-89 -5 -9 0
-90 -6 -10 0
-5 -71 -11 0
-6 -72 -12 0
-53 -17 -5 0
-54 -18 -6 0
-47 -5 -23 0
-48 -6 -24 0
-239 -7 -9 0
-240 -8 -10 0
-143 -7 -11 0
-144 -8 -12 0
-111 -7 -13 0
-112 -8 -14 0
-15 -95 -7 0
-16 -96 -8 0
-79 -19 -7 0
-80 -20 -8 0
-7 -23 -71 0
-8 -24 -72 0
-31 -63 -7 0
-32 -64 -8 0
-7 -39 -59 0
-8 -40 -60 0
-209 -9 -13 0
-210 -10 -14 0
-15 -159 -9 0
-16 -160 -10 0
-19 -119 -9 0
-20 -120 -10 0
-21 -9 -109 0
-22 -10 -110 0
-89 -9 -29 0
-90 -10 -30 0
-79 -39 -9 0
-80 -40 -10 0
-71 -9 -59 0
-72 -10 -60 0
-15 -287 -11 0
-16 -288 -12 0
-17 -215 -11 0
-18 -216 -12 0
-19 -179 -11 0
-20 -180 -12 0
-143 -23 -11 0
-144 -24 -12 0
-125 -11 -27 0
-126 -12 -28 0
-119 -11 -29 0
-120 -12 -30 0
-107 -35 -11 0
-108 -36 -12 0
-47 -95 -11 0
-48 -96 -12 0
-89 -11 -59 0
-90 -12 -60 0
-65 -87 -11 0
-66 -88 -12 0
-19 -279 -13 0
-20 -280 -14 0
-181 -25 -13 0
-182 -26 -14 0
-167 -27 -13 0
-168 -28 -14 0
-125 -41 -13 0
-126 -42 -14 0
-111 -55 -13 0
-112 -56 -14 0
-15 -23 -287 0
-16 -24 -288 0
-15 -223 -27 0
-16 -224 -28 0
-15 -31 -191 0
-16 -32 -192 0
-15 -159 -39 0
-16 -160 -40 0
-15 -47 -143 0
-16 -48 -144 0
-15 -63 -127 0
-16 -64 -128 0
-15 -79 -119 0
-16 -80 -120 0
-269 -17 -29 0
-270 -18 -30 0
-17 -35 -215 0
-18 -36 -216 0
-161 -17 -53 0
-162 -18 -54 0
-143 -17 -71 0
-144 -18 -72 0
-19 -35 -269 0
-20 -36 -270 0
-239 -19 -39 0
-240 -20 -40 0
-19 -219 -43 0
-20 -220 -44 0
-49 -19 -199 0
-50 -20 -200 0
-19 -179 -59 0
-20 -180 -60 0
-19 -67 -169 0
-20 -68 -170 0
-19 -69 -167 0
-20 -70 -168 0
-79 -19 -159 0
-80 -20 -160 0
-19 -149 -99 0
-20 -150 -100 0
-143 -19 -119 0
-144 -20 -120 0
-21 -263 -43 0
-22 -264 -44 0
-197 -65 -21 0
-198 -66 -22 0
-175 -21 -87 0
-176 -22 -88 0
-47 -23 -287 0
-48 -24 -288 0
-23 -55 -251 0
-24 -56 -252 0
-239 -23 -59 0
-240 -24 -60 0
-215 -23 -71 0
-216 -24 -72 0
-207 -23 -77 0
-208 -24 -78 0
-197 -23 -87 0
-198 -24 -88 0
-95 -23 -191 0
-96 -24 -192 0
-179 -23 -119 0
-180 -24 -120 0
-175 -131 -23 0
-176 -132 -24 0
-233 -25 -77 0
-234 -26 -78 0
-207 -103 -25 0
-208 -104 -26 0
-69 -279 -27 0
-70 -280 -28 0
-75 -265 -27 0
-76 -266 -28 0
-83 -251 -27 0
-84 -252 -28 0
-111 -223 -27 0
-112 -224 -28 0
-215 -27 -125 0
-216 -28 -126 0
-139 -27 -209 0
-140 -28 -210 0
-79 -287 -29 0
-80 -288 -30 0
-83 -279 -29 0
-84 -280 -30 0
-269 -89 -29 0
-270 -90 -30 0
-239 -119 -29 0
-240 -120 -30 0
-129 -233 -29 0
-130 -234 -30 0
-229 -137 -29 0
-230 -138 -30 0
-179 -215 -29 0
-180 -216 -30 0
-31 -95 -287 0
-32 -96 -288 0
-31 -127 -255 0
-32 -128 -256 0
-31 -159 -239 0
-32 -160 -240 0
-271 -33 -135 0
-272 -34 -136 0
-143 -35 -287 0
-144 -36 -288 0
-35 -179 -269 0
-36 -180 -270 0
-35 -197 -263 0
-36 -198 -264 0
-199 -39 -299 0
-200 -40 -300 0
-231 -289 -39 0
-232 -290 -40 0
-239 -39 -287 0
-240 -40 -288 0
-1 -23 -11 0
-2 -24 -12 0
-3 -21 -87 0
-4 -22 -88 0
-47 -3 -23 0
-48 -4 -24 0
-31 -5 -191 0
-32 -6 -192 0
-33 -5 -101 0
-34 -6 -102 0
-35 -5 -71 0
-36 -6 -72 0
-47 -5 -39 0
-48 -6 -40 0
-175 -7 -43 0
-176 -8 -44 0
-47 -95 -7 0
-48 -96 -8 0
-79 -49 -7 0
-80 -50 -8 0
-53 -9 -269 0
-54 -10 -270 0
-119 -9 -59 0
-120 -10 -60 0
-65 -263 -11 0
-66 -264 -12 0
-67 -203 -11 0
-68 -204 -12 0
-69 -167 -11 0
-70 -168 -12 0
-143 -71 -11 0
-144 -72 -12 0
-75 -113 -11 0
-76 -114 -12 0
-103 -11 -77 0
-104 -12 -78 0
-79 -95 -11 0
-80 -96 -12 0
-79 -223 -13 0
-80 -224 -14 0
-83 -167 -13 0
-84 -168 -14 0
-125 -89 -13 0
-126 -90 -14 0
-15 -287 -89 0
-16 -288 -90 0
-15 -95 -191 0
-16 -96 -192 0
-15 -99 -159 0
-16 -100 -160 0
-17 -215 -107 0
-18 -216 -108 0
-17 -197 -109 0
-18 -198 -110 0
-143 -17 -119 0
-144 -18 -120 0
-289 -19 -115 0
-290 -20 -116 0
-239 -19 -119 0
-240 -20 -120 0
-129 -21 -285 0
-130 -22 -286 0
-131 -21 -263 0
-132 -22 -264 0
-143 -23 -287 0
-144 -24 -288 0
-239 -149 -23 0
-240 -150 -24 0
-227 -23 -151 0
-228 -24 -152 0
-207 -23 -155 0
-208 -24 -156 0
-159 -23 -191 0
-160 -24 -192 0
-179 -251 -27 0
-180 -252 -28 0
-239 -199 -29 0
-240 -200 -30 0
-239 -35 -287 0
-240 -36 -288 0
-1 -5 -29 0
-2 -6 -30 0
-1 -19 -7 0
-2 -20 -8 0
-3 -99 -9 0
-4 -100 -10 0
-3 -11 -59 0
-4 -12 -60 0
-15 -3 -39 0
-16 -4 -40 0
-17 -3 -35 0
-18 -4 -36 0
-3 -23 -29 0
-4 -24 -30 0
-209 -5 -13 0
-210 -6 -14 0
-15 -5 -119 0
-16 -6 -120 0
-17 -5 -89 0
-18 -6 -90 0
-21 -65 -5 0
-22 -66 -6 0
-5 -23 -59 0
-6 -24 -60 0
-49 -5 -29 0
-50 -6 -30 0
-31 -47 -5 0
-32 -48 -6 0
-199 -19 -7 0
-200 -20 -8 0
-7 -23 -119 0
-8 -24 -120 0
-7 -25 -103 0
-8 -26 -104 0
-31 -79 -7 0
-32 -80 -8 0
-35 -7 -71 0
-36 -8 -72 0
-47 -7 -59 0
-48 -8 -60 0
-23 -9 -299 0
-24 -10 -300 0
-149 -9 -29 0
-150 -10 -30 0
-99 -39 -9 0
-100 -40 -10 0
-299 -11 -29 0
-300 -12 -30 0
-31 -239 -11 0
-32 -240 -12 0
-33 -203 -11 0
-34 -204 -12 0
-35 -179 -11 0
-36 -180 -12 0
-149 -39 -11 0
-150 -40 -12 0
-139 -41 -11 0
-140 -42 -12 0
-131 -11 -43 0
-132 -12 -44 0
-47 -119 -11 0
-48 -120 -12 0
-107 -53 -11 0
-108 -54 -12 0
-99 -11 -59 0
-100 -12 -60 0
-63 -95 -11 0
-64 -96 -12 0
-71 -89 -11 0
-72 -90 -12 0
-37 -265 -13 0
-38 -266 -14 0
-209 -41 -13 0
-210 -42 -14 0
-47 -167 -13 0
-48 -168 -14 0
-55 -139 -13 0
-56 -140 -14 0
-15 -47 -239 0
-16 -48 -240 0
-15 -51 -207 0
-16 -52 -208 0
-15 -63 -159 0
-16 -64 -160 0
-15 -143 -71 0
-16 -144 -72 0
-15 -95 -119 0
-16 -96 -120 0
-17 -53 -269 0
-18 -54 -270 0
-17 -55 -251 0
-18 -56 -252 0
-17 -197 -65 0
-18 -198 -66 0
-17 -179 -71 0
-18 -180 -72 0
-17 -149 -89 0
-18 -150 -90 0
-95 -17 -143 0
-96 -18 -144 0
-19 -299 -59 0
-20 -300 -60 0
-79 -19 -199 0
-80 -20 -200 0
-19 -179 -89 0
-20 -180 -90 0
-19 -149 -119 0
-20 -150 -120 0
-21 -87 -219 0
-22 -88 -220 0
-79 -23 -299 0
-80 -24 -300 0
-279 -83 -23 0
-280 -84 -24 0
-263 -23 -87 0
-264 -24 -88 0
-95 -23 -239 0
-96 -24 -240 0
-215 -23 -107 0
-216 -24 -108 0
-111 -209 -23 0
-112 -210 -24 0
-199 -23 -119 0
-200 -24 -120 0
-127 -23 -191 0
-128 -24 -192 0
-23 -137 -183 0
-24 -138 -184 0
-143 -179 -23 0
-144 -180 -24 0
-259 -103 -25 0
-260 -104 -26 0
-111 -279 -27 0
-112 -280 -28 0
-251 -27 -125 0
-252 -28 -126 0
-135 -27 -237 0
-136 -28 -238 0
-219 -153 -27 0
-220 -154 -28 0
-209 -167 -27 0
-210 -168 -28 0
-119 -299 -29 0
-120 -300 -30 0
-149 -249 -29 0
-150 -250 -30 0
-159 -239 -29 0
-160 -240 -30 0
-31 -143 -287 0
-32 -144 -288 0
-31 -191 -239 0
-32 -192 -240 0
-35 -179 -299 0
-36 -180 -300 0
-191 -35 -287 0
-192 -36 -288 0
-35 -215 -269 0
-36 -216 -270 0
-35 -233 -259 0
-36 -234 -260 0
-239 -39 -299 0
-240 -40 -300 0
-279 -41 -299 0
-280 -42 -300 0
-1 -83 -11 -13 0
-2 -84 -12 -14 0
-15 -1 -11 -47 0
-16 -2 -12 -48 0
-1 -35 -11 -17 0
-2 -36 -12 -18 0
-1 -19 -11 -29 0
-2 -20 -12 -30 0
-51 -3 -21 -285 0
-52 -4 -22 -286 0
-65 -3 -21 -131 0
-66 -4 -22 -132 0
-3 -23 -27 -167 0
-4 -24 -28 -168 0
-3 -23 -119 -29 0
-4 -24 -120 -30 0
-31 -3 -95 -23 0
-32 -4 -96 -24 0
-3 -35 -23 -71 0
-4 -36 -24 -72 0
-3 -23 -39 -59 0
-4 -24 -40 -60 0
-3 -55 -23 -41 0
-4 -56 -24 -42 0
-31 -143 -5 -287 0
-32 -144 -6 -288 0
-31 -159 -5 -239 0
-32 -160 -6 -240 0
-31 -5 -167 -223 0
-32 -6 -168 -224 0
-33 -67 -5 -203 0
-34 -68 -6 -204 0
-35 -5 -41 -251 0
-36 -6 -42 -252 0
-197 -35 -5 -43 0
-198 -36 -6 -44 0
-47 -143 -35 -5 0
-48 -144 -36 -6 0
-53 -35 -5 -107 0
-54 -36 -6 -108 0
-35 -5 -89 -59 0
-36 -6 -90 -60 0
-55 -5 -39 -41 0
-56 -6 -40 -42 0
-263 -131 -7 -43 0
-264 -132 -8 -44 0
-7 -183 -91 -45 0
-8 -184 -92 -46 0
-47 -7 -239 -59 0
-48 -8 -240 -60 0
-47 -63 -7 -191 0
-48 -64 -8 -192 0
-47 -65 -175 -7 0
-48 -66 -176 -8 0
-47 -143 -7 -71 0
-48 -144 -8 -72 0
-47 -79 -7 -119 0
-48 -80 -8 -120 0
-47 -83 -111 -7 0
-48 -84 -112 -8 0
-49 -7 -55 -139 0
-50 -8 -56 -140 0
-49 -7 -59 -119 0
-50 -8 -60 -120 0
-49 -7 -89 -71 0
-50 -8 -90 -72 0
-279 -55 -9 -139 0
-280 -56 -10 -140 0
-159 -223 -55 -9 0
-160 -224 -56 -10 0
-209 -55 -9 -167 0
-210 -56 -10 -168 0
-259 -9 -59 -77 0
-260 -10 -60 -78 0
-79 -239 -9 -59 0
-80 -240 -10 -60 0
-209 -83 -9 -59 0
-210 -84 -10 -60 0
-179 -89 -9 -59 0
-180 -90 -10 -60 0
-95 -159 -9 -59 0
-96 -160 -10 -60 0
-99 -149 -9 -59 0
-100 -150 -10 -60 0
-131 -9 -59 -109 0
-132 -10 -60 -110 0
-279 -69 -119 -11 0
-280 -70 -120 -12 0
-251 -69 -11 -125 0
-252 -70 -12 -126 0
-139 -69 -11 -209 0
-140 -70 -12 -210 0
-155 -181 -69 -11 0
-156 -182 -70 -12 0
-95 -71 -287 -11 0
-96 -72 -288 -12 0
-71 -233 -11 -103 0
-72 -234 -12 -104 0
-107 -215 -71 -11 0
-108 -216 -72 -12 0
-179 -71 -11 -119 0
-180 -72 -12 -120 0
-71 -167 -11 -125 0
-72 -168 -12 -126 0
-79 -83 -111 -11 0
-80 -84 -112 -12 0
-79 -209 -239 -13 0
-80 -210 -240 -14 0
-279 -83 -119 -13 0
-280 -84 -120 -14 0
-83 -125 -251 -13 0
-84 -126 -252 -14 0
-209 -83 -139 -13 0
-210 -84 -140 -14 0
-83 -181 -155 -13 0
-84 -182 -156 -14 0
-111 -175 -87 -13 0
-112 -176 -88 -14 0
-111 -143 -89 -13 0
-112 -144 -90 -14 0
-15 -95 -143 -287 0
-16 -96 -144 -288 0
-15 -95 -159 -239 0
-16 -96 -160 -240 0
-15 -95 -167 -223 0
-16 -96 -168 -224 0
-15 -99 -111 -279 0
-16 -100 -112 -280 0
-15 -99 -119 -239 0
-16 -100 -120 -240 0
-15 -129 -99 -207 0
-16 -130 -100 -208 0
-15 -99 -143 -179 0
-16 -100 -144 -180 0
-15 -111 -181 -103 0
-16 -112 -182 -104 0
-17 -179 -107 -269 0
-18 -180 -108 -270 0
-17 -179 -219 -109 0
-18 -180 -220 -110 0
-111 -17 -143 -251 0
-112 -18 -144 -252 0
-17 -125 -265 -113 0
-18 -126 -266 -114 0
-17 -119 -167 -125 0
-18 -120 -168 -126 0
-199 -19 -119 -299 0
-200 -20 -120 -300 0
-209 -19 -119 -279 0
-210 -20 -120 -280 0
-215 -19 -119 -269 0
-216 -20 -120 -270 0
-263 -19 -119 -219 0
-264 -20 -120 -220 0
-209 -19 -179 -125 0
-210 -20 -180 -126 0
-263 -21 -135 -203 0
-264 -22 -136 -204 0
-263 -21 -183 -137 0
-264 -22 -184 -138 0
-263 -21 -167 -139 0
-264 -22 -168 -140 0
-143 -175 -21 -197 0
-144 -176 -22 -198 0
-295 -147 -23 -221 0
-296 -148 -24 -222 0
-199 -149 -23 -299 0
-200 -150 -24 -300 0
-209 -149 -23 -279 0
-210 -150 -24 -280 0
-215 -149 -23 -269 0
-216 -150 -24 -270 0
-263 -149 -23 -219 0
-264 -150 -24 -220 0
-159 -23 -223 -167 0
-160 -24 -224 -168 0
-223 -179 -287 -27 0
-224 -180 -288 -28 0
-251 -181 -233 -27 0
-252 -182 -234 -28 0
-209 -199 -279 -29 0
-210 -200 -280 -30 0
-215 -269 -199 -29 0
-216 -270 -200 -30 0
-263 -199 -219 -29 0
-264 -200 -220 -30 0
-31 -209 -287 -251 0
-32 -210 -288 -252 0
-1 -3 -21 -43 0
-2 -4 -22 -44 0
-15 -1 -5 -47 0
-16 -2 -6 -48 0
-1 -7 -55 -13 0
-2 -8 -56 -14 0
-63 -3 -5 -191 0
-64 -4 -6 -192 0
-65 -3 -5 -131 0
-66 -4 -6 -132 0
-101 -3 -5 -67 0
-102 -4 -6 -68 0
-69 -3 -5 -83 0
-70 -4 -6 -84 0
-3 -7 -41 -167 0
-4 -8 -42 -168 0
-3 -7 -43 -87 0
-4 -8 -44 -88 0
-89 -3 -35 -9 0
-90 -4 -36 -10 0
-31 -3 -95 -11 0
-32 -4 -96 -12 0
-3 -29 -83 -13 0
-4 -30 -84 -14 0
-15 -3 -111 -27 0
-16 -4 -112 -28 0
-15 -47 -3 -29 0
-16 -48 -4 -30 0
-17 -3 -35 -29 0
-18 -4 -36 -30 0
-129 -3 -19 -25 0
-130 -4 -20 -26 0
-263 -131 -5 -7 0
-264 -132 -6 -8 0
-5 -7 -203 -135 0
-6 -8 -204 -136 0
-5 -7 -137 -183 0
-6 -8 -138 -184 0
-5 -7 -139 -167 0
-6 -8 -140 -168 0
-79 -5 -239 -9 0
-80 -6 -240 -10 0
-83 -5 -9 -139 0
-84 -6 -10 -140 0
-63 -5 -191 -11 0
-64 -6 -192 -12 0
-65 -131 -5 -11 0
-66 -132 -6 -12 0
-101 -67 -5 -11 0
-102 -68 -6 -12 0
-69 -83 -5 -11 0
-70 -84 -6 -12 0
-5 -55 -167 -13 0
-6 -56 -168 -14 0
-83 -5 -59 -13 0
-84 -6 -60 -14 0
-15 -49 -5 -239 0
-16 -50 -6 -240 0
-47 -17 -5 -143 0
-48 -18 -6 -144 0
-17 -5 -89 -49 0
-18 -6 -90 -50 0
-47 -79 -19 -5 0
-48 -80 -20 -6 0
-49 -19 -5 -59 0
-50 -20 -6 -60 0
-21 -131 -5 -43 0
-22 -132 -6 -44 0
-5 -23 -41 -167 0
-6 -24 -42 -168 0
-5 -23 -43 -87 0
-6 -24 -44 -88 0
-5 -39 -27 -167 0
-6 -40 -28 -168 0
-83 -5 -41 -27 0
-84 -6 -42 -28 0
-5 -39 -119 -29 0
-6 -40 -120 -30 0
-69 -5 -41 -29 0
-70 -6 -42 -30 0
-31 -95 -5 -39 0
-32 -96 -6 -40 0
-35 -5 -39 -71 0
-36 -6 -40 -72 0
-231 -289 -7 -9 0
-232 -290 -8 -10 0
-263 -131 -7 -11 0
-264 -132 -8 -12 0
-203 -7 -11 -135 0
-204 -8 -12 -136 0
-7 -137 -11 -183 0
-8 -138 -12 -184 0
-139 -7 -11 -167 0
-140 -8 -12 -168 0
-279 -99 -7 -13 0
-280 -100 -8 -14 0
-181 -7 -103 -13 0
-182 -8 -104 -14 0
-15 -175 -7 -87 0
-16 -176 -8 -88 0
-15 -143 -7 -89 0
-16 -144 -8 -90 0
-79 -17 -143 -7 0
-80 -18 -144 -8 0
-279 -19 -69 -7 0
-280 -20 -70 -8 0
-19 -7 -179 -71 0
-20 -8 -180 -72 0
-65 -21 -7 -263 0
-66 -22 -8 -264 0
-63 -191 -7 -23 0
-64 -192 -8 -24 0
-65 -131 -7 -23 0
-66 -132 -8 -24 0
-67 -101 -7 -23 0
-68 -102 -8 -24 0
-83 -69 -7 -23 0
-84 -70 -8 -24 0
-7 -167 -27 -59 0
-8 -168 -28 -60 0
-7 -119 -59 -29 0
-8 -120 -60 -30 0
-31 -223 -7 -55 0
-32 -224 -8 -56 0
-31 -95 -7 -59 0
-32 -96 -8 -60 0
-215 -35 -53 -7 0
-216 -36 -54 -8 0
-35 -7 -55 -125 0
-36 -8 -56 -126 0
-35 -7 -59 -71 0
-36 -8 -60 -72 0
-51 -7 -39 -259 0
-52 -8 -40 -260 0
-55 -83 -7 -41 0
-56 -84 -8 -42 0
-47 -49 -7 -239 0
-48 -50 -8 -240 0
-279 -199 -9 -13 0
-280 -200 -10 -14 0
-15 -149 -239 -9 0
-16 -150 -240 -10 0
-17 -9 -209 -125 0
-18 -10 -210 -126 0
-19 -9 -107 -269 0
-20 -10 -108 -270 0
-19 -9 -219 -109 0
-20 -10 -220 -110 0
-99 -21 -9 -219 0
-100 -22 -10 -220 0
-95 -159 -23 -9 0
-96 -160 -24 -10 0
-99 -23 -9 -119 0
-100 -24 -10 -120 0
-209 -83 -9 -27 0
-210 -84 -10 -28 0
-79 -239 -9 -29 0
-80 -240 -10 -30 0
-83 -9 -139 -29 0
-84 -10 -140 -30 0
-31 -79 -159 -9 0
-32 -80 -160 -10 0
-279 -69 -39 -9 0
-280 -70 -40 -10 0
-179 -39 -9 -71 0
-180 -40 -10 -72 0
-209 -41 -69 -9 0
-210 -42 -70 -10 0
-63 -191 -9 -59 0
-64 -192 -10 -60 0
-65 -131 -9 -59 0
-66 -132 -10 -60 0
-67 -101 -9 -59 0
-68 -102 -10 -60 0
-83 -69 -9 -59 0
-84 -70 -10 -60 0
-17 -251 -11 -209 0
-18 -252 -12 -210 0
-279 -19 -167 -11 0
-280 -20 -168 -12 0
-219 -149 -21 -11 0
-220 -150 -22 -12 0
-263 -131 -23 -11 0
-264 -132 -24 -12 0
-203 -23 -11 -135 0
-204 -24 -12 -136 0
-23 -137 -11 -183 0
-24 -138 -12 -184 0
-139 -23 -11 -167 0
-140 -24 -12 -168 0
-129 -25 -11 -155 0
-130 -26 -12 -156 0
-113 -265 -11 -27 0
-114 -266 -12 -28 0
-119 -167 -11 -27 0
-120 -168 -12 -28 0
-107 -269 -11 -29 0
-108 -270 -12 -30 0
-219 -109 -11 -29 0
-220 -110 -12 -30 0
-33 -203 -101 -11 0
-34 -204 -102 -12 0
-95 -35 -287 -11 0
-96 -36 -288 -12 0
-35 -99 -179 -11 0
-36 -100 -180 -12 0
-95 -159 -39 -11 0
-96 -160 -40 -12 0
-99 -39 -11 -119 0
-100 -40 -12 -120 0
-251 -89 -41 -11 0
-252 -90 -42 -12 0
-263 -87 -11 -43 0
-264 -88 -12 -44 0
-197 -89 -11 -43 0
-198 -90 -12 -44 0
-91 -137 -11 -45 0
-92 -138 -12 -46 0
-47 -175 -87 -11 0
-48 -176 -88 -12 0
-47 -143 -89 -11 0
-48 -144 -90 -12 0
-107 -53 -89 -11 0
-108 -54 -90 -12 0
-83 -55 -11 -167 0
-84 -56 -12 -168 0
-79 -239 -11 -59 0
-80 -240 -12 -60 0
-139 -83 -11 -59 0
-140 -84 -12 -60 0
-63 -79 -191 -11 0
-64 -80 -192 -12 0
-79 -65 -175 -11 0
-80 -66 -176 -12 0
-79 -143 -71 -11 0
-80 -144 -72 -12 0
-199 -209 -23 -13 0
-200 -210 -24 -14 0
-159 -223 -27 -13 0
-160 -224 -28 -14 0
-209 -149 -29 -13 0
-210 -150 -30 -14 0
-31 -223 -139 -13 0
-32 -224 -140 -14 0
-35 -125 -251 -13 0
-36 -126 -252 -14 0
-209 -39 -119 -13 0
-210 -40 -120 -14 0
-113 -41 -265 -13 0
-114 -42 -266 -14 0
-167 -119 -41 -13 0
-168 -120 -42 -14 0
-47 -111 -167 -13 0
-48 -112 -168 -14 0
-279 -99 -55 -13 0
-280 -100 -56 -14 0
-181 -55 -103 -13 0
-182 -56 -104 -14 0
-209 -99 -59 -13 0
-210 -100 -60 -14 0
-99 -69 -139 -13 0
-100 -70 -140 -14 0
-79 -99 -111 -13 0
-80 -100 -112 -14 0
-83 -89 -251 -13 0
-84 -90 -252 -14 0
-15 -199 -239 -29 0
-16 -200 -240 -30 0
-15 -31 -179 -287 0
-16 -32 -180 -288 0
-15 -33 -271 -169 0
-16 -34 -272 -170 0
-15 -35 -159 -287 0
-16 -36 -160 -288 0
-15 -149 -39 -239 0
-16 -150 -40 -240 0
-15 -143 -41 -251 0
-16 -144 -42 -252 0
-15 -197 -143 -43 0
-16 -198 -144 -44 0
-15 -47 -131 -263 0
-16 -48 -132 -264 0
-15 -47 -135 -203 0
-16 -48 -136 -204 0
-15 -47 -183 -137 0
-16 -48 -184 -138 0
-15 -47 -167 -139 0
-16 -48 -168 -140 0
-15 -129 -51 -207 0
-16 -130 -52 -208 0
-15 -119 -239 -59 0
-16 -120 -240 -60 0
-15 -63 -119 -191 0
-16 -64 -120 -192 0
-15 -65 -175 -119 0
-16 -66 -176 -120 0
-15 -111 -69 -279 0
-16 -112 -70 -280 0
-15 -111 -71 -251 0
-16 -112 -72 -252 0
-15 -143 -71 -119 0
-16 -144 -72 -120 0
-15 -79 -107 -269 0
-16 -80 -108 -270 0
-15 -79 -219 -109 0
-16 -80 -220 -110 0
-15 -83 -111 -167 0
-16 -84 -112 -168 0
-15 -175 -87 -109 0
-16 -176 -88 -110 0
-15 -111 -87 -153 0
-16 -112 -88 -154 0
-31 -17 -239 -287 0
-32 -18 -240 -288 0
-17 -35 -251 -209 0
-18 -36 -252 -210 0
-17 -179 -41 -251 0
-18 -180 -42 -252 0
-17 -233 -181 -41 0
-18 -234 -182 -42 0
-17 -179 -197 -43 0
-18 -180 -198 -44 0
-47 -17 -159 -287 0
-48 -18 -160 -288 0
-17 -51 -233 -155 0
-18 -52 -234 -156 0
-17 -149 -53 -269 0
-18 -150 -54 -270 0
-143 -17 -239 -59 0
-144 -18 -240 -60 0
-17 -179 -149 -59 0
-18 -180 -150 -60 0
-63 -17 -143 -191 0
-64 -18 -144 -192 0
-143 -17 -175 -65 0
-144 -18 -176 -66 0
-17 -179 -69 -139 0
-18 -180 -70 -140 0
-17 -131 -71 -263 0
-18 -132 -72 -264 0
-17 -71 -203 -135 0
-18 -72 -204 -136 0
-17 -71 -137 -183 0
-18 -72 -138 -184 0
-17 -71 -139 -167 0
-18 -72 -140 -168 0
-129 -17 -233 -77 0
-130 -18 -234 -78 0
-17 -83 -251 -125 0
-18 -84 -252 -126 0
-17 -89 -209 -125 0
-18 -90 -210 -126 0
-95 -17 -119 -287 0
-96 -18 -120 -288 0
-17 -103 -233 -119 0
-18 -104 -234 -120 0
-215 -17 -119 -107 0
-216 -18 -120 -108 0
-111 -17 -143 -125 0
-112 -18 -144 -126 0
-231 -289 -19 -39 0
-232 -290 -20 -40 0
-47 -19 -199 -239 0
-48 -20 -200 -240 0
-19 -53 -179 -269 0
-20 -54 -180 -270 0
-279 -19 -167 -59 0
-280 -20 -168 -60 0
-159 -19 -69 -223 0
-160 -20 -70 -224 0
-19 -149 -259 -77 0
-20 -150 -260 -78 0
-79 -19 -149 -239 0
-80 -20 -150 -240 0
-209 -19 -149 -83 0
-210 -20 -150 -84 0
-143 -19 -239 -89 0
-144 -20 -240 -90 0
-179 -19 -149 -89 0
-180 -20 -150 -90 0
-95 -159 -19 -149 0
-96 -160 -20 -150 0
-263 -19 -119 -131 0
-264 -20 -120 -132 0
-19 -119 -203 -135 0
-20 -120 -204 -136 0
-19 -119 -137 -183 0
-20 -120 -138 -184 0
-19 -119 -139 -167 0
-20 -120 -140 -168 0
-259 -21 -43 -285 0
-260 -22 -44 -286 0
-47 -263 -21 -239 0
-48 -264 -22 -240 0
-51 -21 -219 -285 0
-52 -22 -220 -286 0
-53 -263 -21 -215 0
-54 -264 -22 -216 0
-209 -21 -55 -263 0
-210 -22 -56 -264 0
-263 -21 -199 -59 0
-264 -22 -200 -60 0
-63 -263 -21 -191 0
-64 -264 -22 -192 0
-263 -179 -21 -71 0
-264 -180 -22 -72 0
-79 -175 -21 -219 0
-80 -176 -22 -220 0
-263 -83 -21 -167 0
-264 -84 -22 -168 0
-95 -159 -21 -263 0
-96 -160 -22 -264 0
-263 -21 -103 -155 0
-264 -22 -104 -156 0
-113 -21 -151 -263 0
-114 -22 -152 -264 0
-263 -149 -21 -119 0
-264 -150 -22 -120 0
-197 -21 -153 -125 0
-198 -22 -154 -126 0
-149 -131 -21 -219 0
-150 -132 -22 -220 0
-263 -51 -23 -285 0
-264 -52 -24 -286 0
-231 -289 -23 -59 0
-232 -290 -24 -60 0
-65 -23 -219 -263 0
-66 -24 -220 -264 0
-209 -69 -23 -279 0
-210 -70 -24 -280 0
-209 -251 -23 -71 0
-210 -252 -24 -72 0
-199 -259 -23 -77 0
-200 -260 -24 -78 0
-79 -199 -23 -239 0
-80 -200 -24 -240 0
-199 -209 -83 -23 0
-200 -210 -84 -24 0
-275 -23 -91 -183 0
-276 -24 -92 -184 0
-95 -179 -23 -287 0
-96 -180 -24 -288 0
-179 -23 -233 -103 0
-180 -24 -234 -104 0
-215 -179 -23 -107 0
-216 -180 -24 -108 0
-175 -23 -239 -109 0
-176 -24 -240 -110 0
-231 -115 -23 -173 0
-232 -116 -24 -174 0
-279 -23 -119 -167 0
-280 -24 -120 -168 0
-23 -167 -251 -125 0
-24 -168 -252 -126 0
-23 -169 -203 -135 0
-24 -170 -204 -136 0
-209 -23 -139 -167 0
-210 -24 -140 -168 0
-143 -159 -23 -287 0
-144 -160 -24 -288 0
-181 -23 -155 -167 0
-182 -24 -156 -168 0
-199 -259 -103 -25 0
-200 -260 -104 -26 0
-259 -181 -25 -139 0
-260 -182 -26 -140 0
-179 -233 -25 -155 0
-180 -234 -26 -156 0
-209 -119 -27 -279 0
-210 -120 -28 -280 0
-209 -251 -27 -125 0
-210 -252 -28 -126 0
-139 -199 -27 -279 0
-140 -200 -28 -280 0
-251 -197 -153 -27 0
-252 -198 -154 -28 0
-159 -199 -223 -27 0
-160 -200 -224 -28 0
-199 -209 -167 -27 0
-200 -210 -168 -28 0
-99 -249 -299 -29 0
-100 -250 -300 -30 0
-111 -279 -239 -29 0
-112 -280 -240 -30 0
-231 -289 -119 -29 0
-232 -290 -120 -30 0
-209 -167 -279 -29 0
-210 -168 -280 -30 0
-209 -179 -251 -29 0
-210 -180 -252 -30 0
-31 -287 -107 -269 0
-32 -288 -108 -270 0
-31 -287 -251 -125 0
-32 -288 -252 -126 0
-31 -143 -239 -287 0
-32 -144 -240 -288 0
-31 -287 -233 -155 0
-32 -288 -234 -156 0
-31 -289 -159 -231 0
-32 -290 -160 -232 0
-31 -197 -287 -219 0
-32 -198 -288 -220 0
-31 -209 -223 -239 0
-32 -210 -224 -240 0
-239 -33 -271 -203 0
-240 -34 -272 -204 0
-285 -35 -197 -259 0
-286 -36 -198 -260 0
-223 -35 -287 -251 0
-224 -36 -288 -252 0
-1 -3 -5 -59 0
-2 -4 -6 -60 0
-1 -3 -7 -39 0
-2 -4 -8 -40 0
-1 -3 -11 -29 0
-2 -4 -12 -30 0
-1 -3 -27 -13 0
-2 -4 -28 -14 0
-1 -5 -7 -23 0
-2 -6 -8 -24 0
-1 -19 -5 -11 0
-2 -20 -6 -12 0
-15 -3 -5 -239 0
-16 -4 -6 -240 0
-17 -3 -5 -179 0
-18 -4 -6 -180 0
-19 -149 -3 -5 0
-20 -150 -4 -6 0
-21 -3 -5 -131 0
-22 -4 -6 -132 0
-3 -5 -23 -119 0
-4 -6 -24 -120 0
-3 -5 -99 -29 0
-4 -6 -100 -30 0
-31 -95 -3 -5 0
-32 -96 -4 -6 0
-35 -3 -5 -89 0
-36 -4 -6 -90 0
-3 -5 -83 -41 0
-4 -6 -84 -42 0
-47 -79 -3 -5 0
-48 -80 -4 -6 0
-51 -3 -5 -77 0
-52 -4 -6 -78 0
-199 -3 -7 -9 0
-200 -4 -8 -10 0
-3 -7 -11 -119 0
-4 -8 -12 -120 0
-15 -3 -79 -7 0
-16 -4 -80 -8 0
-17 -3 -7 -71 0
-18 -4 -8 -72 0
-3 -7 -23 -59 0
-4 -8 -24 -60 0
-3 -7 -55 -27 0
-4 -8 -56 -28 0
-49 -3 -7 -39 0
-50 -4 -8 -40 0
-49 -3 -19 -9 0
-50 -4 -20 -10 0
-15 -47 -3 -11 0
-16 -48 -4 -12 0
-3 -23 -39 -11 0
-4 -24 -40 -12 0
-5 -7 -39 -299 0
-6 -8 -40 -300 0
-279 -5 -7 -41 0
-280 -6 -8 -42 0
-263 -5 -7 -43 0
-264 -6 -8 -44 0
-47 -5 -7 -239 0
-48 -6 -8 -240 0
-53 -215 -5 -7 0
-54 -216 -6 -8 0
-209 -5 -7 -55 0
-210 -6 -8 -56 0
-199 -5 -7 -59 0
-200 -6 -8 -60 0
-63 -5 -7 -191 0
-64 -6 -8 -192 0
-179 -5 -7 -71 0
-180 -6 -8 -72 0
-83 -5 -7 -167 0
-84 -6 -8 -168 0
-95 -159 -5 -7 0
-96 -160 -6 -8 0
-155 -5 -7 -103 0
-156 -6 -8 -104 0
-113 -5 -7 -151 0
-114 -6 -8 -152 0
-149 -5 -7 -119 0
-150 -6 -8 -120 0
-19 -5 -9 -299 0
-20 -6 -10 -300 0
-199 -5 -23 -9 0
-200 -6 -24 -10 0
-149 -5 -9 -29 0
-150 -6 -10 -30 0
-5 -39 -9 -119 0
-6 -40 -10 -120 0
-99 -5 -9 -59 0
-100 -6 -10 -60 0
-15 -5 -239 -11 0
-16 -6 -240 -12 0
-17 -179 -5 -11 0
-18 -180 -6 -12 0
-149 -19 -5 -11 0
-150 -20 -6 -12 0
-21 -131 -5 -11 0
-22 -132 -6 -12 0
-5 -23 -11 -119 0
-6 -24 -12 -120 0
-99 -5 -11 -29 0
-100 -6 -12 -30 0
-31 -95 -5 -11 0
-32 -96 -6 -12 0
-35 -5 -89 -11 0
-36 -6 -90 -12 0
-83 -5 -41 -11 0
-84 -6 -42 -12 0
-47 -79 -5 -11 0
-48 -80 -6 -12 0
-51 -5 -11 -77 0
-52 -6 -12 -78 0
-17 -5 -125 -13 0
-18 -6 -126 -14 0
-83 -5 -27 -13 0
-84 -6 -28 -14 0
-69 -5 -41 -13 0
-70 -6 -42 -14 0
-15 -79 -5 -23 0
-16 -80 -6 -24 0
-15 -47 -5 -59 0
-16 -48 -6 -60 0
-17 -5 -23 -71 0
-18 -6 -24 -72 0
-17 -35 -5 -59 0
-18 -36 -6 -60 0
-19 -5 -59 -29 0
-20 -6 -60 -30 0
-5 -23 -55 -27 0
-6 -24 -56 -28 0
-49 -5 -23 -39 0
-50 -6 -24 -40 0
-299 -7 -9 -119 0
-300 -8 -10 -120 0
-279 -7 -9 -139 0
-280 -8 -10 -140 0
-199 -249 -7 -9 0
-200 -250 -8 -10 0
-299 -7 -39 -11 0
-300 -8 -40 -12 0
-279 -7 -41 -11 0
-280 -8 -42 -12 0
-263 -7 -11 -43 0
-264 -8 -12 -44 0
-47 -7 -239 -11 0
-48 -8 -240 -12 0
-215 -53 -7 -11 0
-216 -54 -8 -12 0
-209 -7 -55 -11 0
-210 -8 -56 -12 0
-199 -7 -11 -59 0
-200 -8 -12 -60 0
-63 -7 -191 -11 0
-64 -8 -192 -12 0
-179 -7 -11 -71 0
-180 -8 -12 -72 0
-83 -7 -11 -167 0
-84 -8 -12 -168 0
-95 -159 -7 -11 0
-96 -160 -8 -12 0
-155 -7 -11 -103 0
-156 -8 -12 -104 0
-113 -7 -11 -151 0
-114 -8 -12 -152 0
-149 -7 -11 -119 0
-150 -8 -12 -120 0
-279 -7 -27 -13 0
-280 -8 -28 -14 0
-31 -7 -223 -13 0
-32 -8 -224 -14 0
-167 -7 -41 -13 0
-168 -8 -42 -14 0
-7 -55 -139 -13 0
-8 -56 -140 -14 0
-7 -125 -71 -13 0
-8 -126 -72 -14 0
-83 -7 -119 -13 0
-84 -8 -120 -14 0
-15 -239 -7 -23 0
-16 -240 -8 -24 0
-15 -207 -7 -25 0
-16 -208 -8 -26 0
-15 -31 -159 -7 0
-16 -32 -160 -8 0
-15 -35 -143 -7 0
-16 -36 -144 -8 0
-15 -47 -7 -119 0
-16 -48 -8 -120 0
-15 -111 -7 -55 0
-16 -112 -8 -56 0
-15 -79 -7 -99 0
-16 -80 -8 -100 0
-17 -179 -7 -23 0
-18 -180 -8 -24 0
-17 -35 -7 -119 0
-18 -36 -8 -120 0
-17 -7 -89 -71 0
-18 -8 -90 -72 0
-19 -149 -7 -23 0
-20 -150 -8 -24 0
-19 -7 -119 -29 0
-20 -8 -120 -30 0
-19 -99 -7 -39 0
-20 -100 -8 -40 0
-131 -21 -7 -23 0
-132 -22 -8 -24 0
-21 -7 -43 -87 0
-22 -8 -44 -88 0
-99 -7 -23 -29 0
-100 -8 -24 -30 0
-31 -95 -7 -23 0
-32 -96 -8 -24 0
-35 -89 -7 -23 0
-36 -90 -8 -24 0
-41 -83 -7 -23 0
-42 -84 -8 -24 0
-47 -79 -7 -23 0
-48 -80 -8 -24 0
-51 -7 -23 -77 0
-52 -8 -24 -78 0
-69 -7 -55 -27 0
-70 -8 -56 -28 0
-55 -7 -41 -59 0
-56 -8 -42 -60 0
-83 -9 -299 -13 0
-84 -10 -300 -14 0
-159 -223 -9 -13 0
-160 -224 -10 -14 0
-15 -47 -9 -299 0
-16 -48 -10 -300 0
-15 -239 -9 -59 0
-16 -240 -10 -60 0
-15 -79 -199 -9 0
-16 -80 -200 -10 0
-15 -175 -9 -109 0
-16 -176 -10 -110 0
-17 -35 -9 -299 0
-18 -36 -10 -300 0
-17 -179 -9 -59 0
-18 -180 -10 -60 0
-17 -149 -89 -9 0
-18 -150 -90 -10 0
-19 -9 -299 -29 0
-20 -10 -300 -30 0
-199 -19 -39 -9 0
-200 -20 -40 -10 0
-19 -149 -9 -59 0
-20 -150 -10 -60 0
-19 -69 -9 -139 0
-20 -70 -10 -140 0
-131 -21 -9 -59 0
-132 -22 -10 -60 0
-199 -23 -9 -29 0
-200 -24 -10 -30 0
-39 -149 -23 -9 0
-40 -150 -24 -10 0
-23 -9 -59 -119 0
-24 -10 -60 -120 0
-99 -69 -9 -27 0
-100 -70 -10 -28 0
-39 -9 -119 -29 0
-40 -10 -120 -30 0
-99 -9 -59 -29 0
-100 -10 -60 -30 0
-31 -95 -9 -59 0
-32 -96 -10 -60 0
-35 -89 -9 -59 0
-36 -90 -10 -60 0
-41 -83 -9 -59 0
-42 -84 -10 -60 0
-47 -79 -9 -59 0
-48 -80 -10 -60 0
-51 -9 -59 -77 0
-52 -10 -60 -78 0
-15 -299 -239 -11 0
-16 -300 -240 -12 0
-17 -299 -89 -11 0
-18 -300 -90 -12 0
-95 -17 -287 -11 0
-96 -18 -288 -12 0
-107 -17 -11 -269 0
-108 -18 -12 -270 0
-17 -251 -11 -125 0
-18 -252 -12 -126 0
-143 -17 -239 -11 0
-144 -18 -240 -12 0
-17 -233 -11 -155 0
-18 -234 -12 -156 0
-17 -219 -197 -11 0
-18 -220 -198 -12 0
-19 -299 -11 -59 0
-20 -300 -12 -60 0
-79 -19 -239 -11 0
-80 -20 -240 -12 0
-199 -19 -119 -11 0
-200 -20 -120 -12 0
-65 -219 -21 -11 0
-66 -220 -22 -12 0
-299 -23 -39 -11 0
-300 -24 -40 -12 0
-279 -23 -41 -11 0
-280 -24 -42 -12 0
-263 -23 -11 -43 0
-264 -24 -12 -44 0
-47 -23 -239 -11 0
-48 -24 -240 -12 0
-215 -53 -23 -11 0
-216 -54 -24 -12 0
-209 -23 -55 -11 0
-210 -24 -56 -12 0
-199 -23 -11 -59 0
-200 -24 -12 -60 0
-63 -23 -191 -11 0
-64 -24 -192 -12 0
-179 -23 -11 -71 0
-180 -24 -12 -72 0
-83 -23 -11 -167 0
-84 -24 -12 -168 0
-95 -159 -23 -11 0
-96 -160 -24 -12 0
-155 -23 -11 -103 0
-156 -24 -12 -104 0
-113 -23 -11 -151 0
-114 -24 -12 -152 0
-149 -23 -11 -119 0
-150 -24 -12 -120 0
-47 -207 -25 -11 0
-48 -208 -26 -12 0
-155 -25 -11 -77 0
-156 -26 -12 -78 0
-35 -251 -11 -27 0
-36 -252 -12 -28 0
-209 -41 -11 -27 0
-210 -42 -12 -28 0
-55 -167 -11 -27 0
-56 -168 -12 -28 0
-65 -153 -11 -27 0
-66 -154 -12 -28 0
-149 -69 -11 -27 0
-150 -70 -12 -28 0
-139 -83 -11 -27 0
-140 -84 -12 -28 0
-199 -39 -11 -29 0
-200 -40 -12 -30 0
-149 -59 -11 -29 0
-150 -60 -12 -30 0
-139 -69 -11 -29 0
-140 -70 -12 -30 0
-31 -47 -159 -11 0
-32 -48 -160 -12 0
-31 -95 -119 -11 0
-32 -96 -120 -12 0
-47 -35 -143 -11 0
-48 -36 -144 -12 0
-35 -71 -11 -119 0
-36 -72 -12 -120 0
-75 -113 -37 -11 0
-76 -114 -38 -12 0
-39 -119 -11 -59 0
-40 -120 -12 -60 0
-55 -41 -11 -119 0
-56 -42 -12 -120 0
-65 -109 -11 -43 0
-66 -110 -12 -44 0
-47 -111 -55 -11 0
-48 -112 -56 -12 0
-47 -79 -99 -11 0
-48 -80 -100 -12 0
-209 -19 -299 -13 0
-210 -20 -300 -14 0
-279 -83 -23 -13 0
-280 -84 -24 -14 0
-111 -23 -239 -13 0
-112 -24 -240 -14 0
-209 -23 -167 -13 0
-210 -24 -168 -14 0
-111 -207 -25 -13 0
-112 -208 -26 -14 0
-279 -55 -27 -13 0
-280 -56 -28 -14 0
-67 -237 -27 -13 0
-68 -238 -28 -14 0
-209 -83 -27 -13 0
-210 -84 -28 -14 0
-97 -195 -27 -13 0
-98 -196 -28 -14 0
-179 -125 -27 -13 0
-180 -126 -28 -14 0
-209 -69 -29 -13 0
-210 -70 -30 -14 0
-29 -167 -119 -13 0
-30 -168 -120 -14 0
-31 -55 -223 -13 0
-32 -56 -224 -14 0
-31 -95 -167 -13 0
-32 -96 -168 -14 0
-31 -111 -159 -13 0
-32 -112 -160 -14 0
-35 -41 -251 -13 0
-36 -42 -252 -14 0
-35 -71 -167 -13 0
-36 -72 -168 -14 0
-111 -35 -143 -13 0
-112 -36 -144 -14 0
-35 -125 -139 -13 0
-36 -126 -140 -14 0
-39 -167 -59 -13 0
-40 -168 -60 -14 0
-167 -55 -41 -13 0
-168 -56 -42 -14 0
-65 -153 -41 -13 0
-66 -154 -42 -14 0
-149 -69 -41 -13 0
-150 -70 -42 -14 0
-83 -41 -139 -13 0
-84 -42 -140 -14 0
-47 -111 -119 -13 0
-48 -112 -120 -14 0
-55 -125 -71 -13 0
-56 -126 -72 -14 0
-83 -55 -119 -13 0
-84 -56 -120 -14 0
-79 -111 -69 -13 0
-80 -112 -70 -14 0
-15 -23 -239 -299 0
-16 -24 -240 -300 0
-15 -259 -207 -25 0
-16 -260 -208 -26 0
-15 -111 -279 -27 0
-16 -112 -280 -28 0
-15 -251 -143 -27 0
-16 -252 -144 -28 0
-15 -167 -239 -27 0
-16 -168 -240 -28 0
-15 -79 -299 -29 0
-16 -80 -300 -30 0
-15 -119 -239 -29 0
-16 -120 -240 -30 0
-15 -31 -71 -287 0
-16 -32 -72 -288 0
-15 -31 -95 -239 0
-16 -32 -96 -240 0
-15 -31 -111 -223 0
-16 -32 -112 -224 0
-15 -31 -159 -199 0
-16 -32 -160 -200 0
-15 -33 -67 -271 0
-16 -34 -68 -272 0
-15 -35 -71 -239 0
-16 -36 -72 -240 0
-15 -35 -143 -179 0
-16 -36 -144 -180 0
-15 -47 -39 -299 0
-16 -48 -40 -300 0
-15 -39 -239 -59 0
-16 -40 -240 -60 0
-15 -199 -79 -39 0
-16 -200 -80 -40 0
-15 -175 -39 -109 0
-16 -176 -40 -110 0
-15 -47 -279 -41 0
-16 -48 -280 -42 0
-15 -239 -55 -41 0
-16 -240 -56 -42 0
-15 -111 -167 -41 0
-16 -112 -168 -42 0
-15 -47 -263 -43 0
-16 -48 -264 -44 0
-15 -175 -87 -43 0
-16 -176 -88 -44 0
-15 -47 -53 -215 0
-16 -48 -54 -216 0
-15 -47 -55 -209 0
-16 -48 -56 -210 0
-15 -47 -199 -59 0
-16 -48 -200 -60 0
-15 -47 -63 -191 0
-16 -48 -64 -192 0
-15 -47 -179 -71 0
-16 -48 -180 -72 0
-15 -47 -83 -167 0
-16 -48 -84 -168 0
-15 -47 -95 -159 0
-16 -48 -96 -160 0
-15 -47 -103 -155 0
-16 -48 -104 -156 0
-15 -47 -151 -113 0
-16 -48 -152 -114 0
-15 -47 -149 -119 0
-16 -48 -150 -120 0
-15 -143 -53 -107 0
-16 -144 -54 -108 0
-15 -111 -55 -139 0
-16 -112 -56 -140 0
-15 -79 -149 -59 0
-16 -80 -150 -60 0
-15 -143 -89 -59 0
-16 -144 -90 -60 0
-15 -79 -69 -139 0
-16 -80 -70 -140 0
-15 -111 -71 -125 0
-16 -112 -72 -126 0
-15 -83 -111 -119 0
-16 -84 -112 -120 0
-17 -179 -299 -29 0
-18 -180 -300 -30 0
-31 -17 -143 -287 0
-32 -18 -144 -288 0
-31 -17 -223 -251 0
-32 -18 -224 -252 0
-17 -35 -89 -299 0
-18 -36 -90 -300 0
-95 -17 -35 -287 0
-96 -18 -36 -288 0
-17 -35 -107 -269 0
-18 -36 -108 -270 0
-17 -35 -251 -125 0
-18 -36 -252 -126 0
-143 -17 -35 -239 0
-144 -18 -36 -240 0
-17 -35 -233 -155 0
-18 -36 -234 -156 0
-17 -35 -197 -219 0
-18 -36 -198 -220 0
-17 -299 -39 -71 0
-18 -300 -40 -72 0
-199 -17 -179 -39 0
-200 -18 -180 -40 0
-17 -71 -41 -279 0
-18 -72 -42 -280 0
-17 -83 -41 -251 0
-18 -84 -42 -252 0
-17 -41 -209 -125 0
-18 -42 -210 -126 0
-17 -197 -153 -41 0
-18 -198 -154 -42 0
-17 -71 -43 -263 0
-18 -72 -44 -264 0
-17 -131 -197 -43 0
-18 -132 -198 -44 0
-47 -17 -71 -239 0
-48 -18 -72 -240 0
-47 -17 -179 -143 0
-48 -18 -180 -144 0
-215 -17 -53 -71 0
-216 -18 -54 -72 0
-17 -179 -53 -107 0
-18 -180 -54 -108 0
-17 -55 -71 -209 0
-18 -56 -72 -210 0
-17 -55 -167 -125 0
-18 -56 -168 -126 0
-199 -17 -71 -59 0
-200 -18 -72 -60 0
-17 -179 -89 -59 0
-18 -180 -90 -60 0
-63 -17 -71 -191 0
-64 -18 -72 -192 0
-17 -153 -125 -65 0
-18 -154 -126 -66 0
-17 -149 -69 -125 0
-18 -150 -70 -126 0
-17 -83 -71 -167 0
-18 -84 -72 -168 0
-95 -17 -159 -71 0
-96 -18 -160 -72 0
-17 -71 -103 -155 0
-18 -72 -104 -156 0
-17 -71 -151 -113 0
-18 -72 -152 -114 0
-17 -149 -71 -119 0
-18 -150 -72 -120 0
-79 -17 -143 -119 0
-80 -18 -144 -120 0
-111 -17 -83 -143 0
-112 -18 -84 -144 0
-17 -83 -139 -125 0
-18 -84 -140 -126 0
-19 -35 -179 -299 0
-20 -36 -180 -300 0
-19 -299 -39 -119 0
-20 -300 -40 -120 0
-279 -19 -39 -139 0
-280 -20 -40 -140 0
-199 -19 -39 -249 0
-200 -20 -40 -250 0
-279 -19 -119 -41 0
-280 -20 -120 -42 0
-263 -19 -119 -43 0
-264 -20 -120 -44 0
-47 -19 -79 -299 0
-48 -20 -80 -300 0
-47 -19 -119 -239 0
-48 -20 -120 -240 0
-49 -19 -99 -249 0
-50 -20 -100 -250 0
-215 -19 -53 -119 0
-216 -20 -54 -120 0
-279 -19 -69 -55 0
-280 -20 -70 -56 0
-209 -19 -55 -119 0
-210 -20 -56 -120 0
-199 -19 -55 -139 0
-200 -20 -56 -140 0
-79 -19 -239 -59 0
-80 -20 -240 -60 0
-199 -19 -119 -59 0
-200 -20 -120 -60 0
-63 -19 -119 -191 0
-64 -20 -120 -192 0
-19 -69 -67 -237 0
-20 -70 -68 -238 0
-209 -19 -69 -83 0
-210 -20 -70 -84 0
-97 -19 -69 -195 0
-98 -20 -70 -196 0
-19 -69 -179 -125 0
-20 -70 -180 -126 0
-199 -19 -71 -89 0
-200 -20 -72 -90 0
-19 -71 -179 -119 0
-20 -72 -180 -120 0
-79 -19 -175 -109 0
-80 -20 -176 -110 0
-19 -83 -119 -167 0
-20 -84 -120 -168 0
-95 -19 -159 -119 0
-96 -20 -160 -120 0
-155 -19 -103 -119 0
-156 -20 -104 -120 0
-19 -149 -131 -109 0
-20 -150 -132 -110 0
-113 -19 -119 -151 0
-114 -20 -120 -152 0
-263 -21 -39 -299 0
-264 -22 -40 -300 0
-279 -21 -263 -41 0
-280 -22 -264 -42 0
-47 -175 -21 -263 0
-48 -176 -22 -264 0
-285 -65 -21 -77 0
-286 -66 -22 -78 0
-65 -21 -87 -263 0
-66 -22 -88 -264 0
-65 -131 -21 -219 0
-66 -132 -22 -220 0
-65 -21 -153 -209 0
-66 -22 -154 -210 0
-199 -21 -87 -109 0
-200 -22 -88 -110 0
-197 -21 -89 -109 0
-198 -22 -90 -110 0
-47 -23 -239 -299 0
-48 -24 -240 -300 0
-199 -49 -23 -299 0
-200 -50 -24 -300 0
-215 -53 -23 -269 0
-216 -54 -24 -270 0
-299 -23 -55 -139 0
-300 -24 -56 -140 0
-279 -23 -55 -167 0
-280 -24 -56 -168 0
-299 -23 -59 -119 0
-300 -24 -60 -120 0
-139 -23 -59 -279 0
-140 -24 -60 -280 0
-199 -23 -249 -59 0
-200 -24 -250 -60 0
-247 -23 -185 -61 0
-248 -24 -186 -62 0
-63 -239 -23 -191 0
-64 -240 -24 -192 0
-65 -131 -23 -263 0
-66 -132 -24 -264 0
-175 -65 -23 -239 0
-176 -66 -24 -240 0
-67 -23 -237 -167 0
-68 -24 -238 -168 0
-299 -23 -89 -71 0
-300 -24 -90 -72 0
-95 -23 -287 -71 0
-96 -24 -288 -72 0
-107 -23 -71 -269 0
-108 -24 -72 -270 0
-251 -23 -71 -125 0
-252 -24 -72 -126 0
-143 -23 -239 -71 0
-144 -24 -240 -72 0
-155 -23 -233 -71 0
-156 -24 -234 -72 0
-219 -197 -23 -71 0
-220 -198 -24 -72 0
-227 -23 -75 -151 0
-228 -24 -76 -152 0
-285 -23 -87 -77 0
-286 -24 -88 -78 0
-259 -23 -103 -77 0
-260 -24 -104 -78 0
-79 -23 -239 -119 0
-80 -24 -240 -120 0
-111 -83 -23 -239 0
-112 -84 -24 -240 0
-209 -83 -23 -167 0
-210 -84 -24 -168 0
-131 -219 -23 -87 0
-132 -220 -24 -88 0
-209 -23 -153 -87 0
-210 -24 -154 -88 0
-199 -179 -23 -89 0
-200 -180 -24 -90 0
-95 -111 -23 -223 0
-96 -112 -24 -224 0
-95 -199 -159 -23 0
-96 -200 -160 -24 0
-97 -195 -23 -167 0
-98 -196 -24 -168 0
-199 -99 -149 -23 0
-200 -100 -150 -24 0
-101 -23 -203 -135 0
-102 -24 -204 -136 0
-199 -131 -23 -109 0
-200 -132 -24 -110 0
-113 -23 -189 -151 0
-114 -24 -190 -152 0
-179 -23 -167 -125 0
-180 -24 -168 -126 0
-259 -25 -155 -77 0
-260 -26 -156 -78 0
-207 -239 -25 -77 0
-208 -240 -26 -78 0
-87 -25 -103 -285 0
-88 -26 -104 -286 0
-111 -181 -207 -25 0
-112 -182 -208 -26 0
-299 -209 -69 -27 0
-300 -210 -70 -28 0
-223 -71 -287 -27 0
-224 -72 -288 -28 0
-279 -251 -71 -27 0
-280 -252 -72 -28 0
-139 -83 -299 -27 0
-140 -84 -300 -28 0
-279 -83 -167 -27 0
-280 -84 -168 -28 0
-279 -87 -153 -27 0
-280 -88 -154 -28 0
-299 -89 -27 -125 0
-300 -90 -28 -126 0
-209 -251 -89 -27 0
-210 -252 -90 -28 0
-95 -287 -27 -125 0
-96 -288 -28 -126 0
-95 -223 -239 -27 0
-96 -224 -240 -28 0
-203 -101 -27 -237 0
-204 -102 -28 -238 0
-107 -269 -27 -125 0
-108 -270 -28 -126 0
-111 -251 -143 -27 0
-112 -252 -144 -28 0
-111 -167 -239 -27 0
-112 -168 -240 -28 0
-143 -239 -27 -125 0
-144 -240 -28 -126 0
-155 -233 -27 -125 0
-156 -234 -28 -126 0
-219 -197 -27 -125 0
-220 -198 -28 -126 0
-159 -139 -223 -27 0
-160 -140 -224 -28 0
-155 -181 -27 -209 0
-156 -182 -28 -210 0
-259 -77 -299 -29 0
-260 -78 -300 -30 0
-79 -239 -299 -29 0
-80 -240 -300 -30 0
-209 -83 -299 -29 0
-210 -84 -300 -30 0
-179 -89 -299 -29 0
-180 -90 -300 -30 0
-275 -229 -91 -29 0
-276 -230 -92 -30 0
-95 -159 -299 -29 0
-96 -160 -300 -30 0
-95 -179 -287 -29 0
-96 -180 -288 -30 0
-99 -149 -299 -29 0
-100 -150 -300 -30 0
-269 -179 -107 -29 0
-270 -180 -108 -30 0
-131 -109 -299 -29 0
-132 -110 -300 -30 0
-279 -119 -139 -29 0
-280 -120 -140 -30 0
-199 -119 -249 -29 0
-200 -120 -250 -30 0
-179 -125 -251 -29 0
-180 -126 -252 -30 0
-129 -259 -155 -29 0
-130 -260 -156 -30 0
-207 -129 -239 -29 0
-208 -130 -240 -30 0
-143 -179 -239 -29 0
-144 -180 -240 -30 0
-179 -233 -155 -29 0
-180 -234 -156 -30 0
-159 -209 -223 -29 0
-160 -210 -224 -30 0
-179 -197 -219 -29 0
-180 -198 -220 -30 0
-31 -287 -89 -299 0
-32 -288 -90 -300 0
-31 -95 -239 -299 0
-32 -96 -240 -300 0
-31 -287 -103 -233 0
-32 -288 -104 -234 0
-31 -215 -287 -107 0
-32 -216 -288 -108 0
-31 -279 -111 -223 0
-32 -280 -112 -224 0
-31 -159 -119 -299 0
-32 -160 -120 -300 0
-31 -179 -119 -287 0
-32 -180 -120 -288 0
-31 -167 -287 -125 0
-32 -168 -288 -126 0
-31 -159 -279 -139 0
-32 -160 -280 -140 0
-31 -143 -223 -251 0
-32 -144 -224 -252 0
-31 -159 -199 -249 0
-32 -160 -200 -250 0
-31 -239 -167 -223 0
-32 -240 -168 -224 0
-33 -135 -279 -237 0
-34 -136 -280 -238 0
-299 -35 -251 -139 0
-300 -36 -252 -140 0
-143 -35 -239 -299 0
-144 -36 -240 -300 0
-159 -35 -239 -287 0
-160 -36 -240 -288 0
-223 -35 -167 -287 0
-224 -36 -168 -288 0
-279 -35 -167 -251 0
-280 -36 -168 -252 0
-227 -37 -299 -189 0
-228 -38 -300 -190 0
-209 -299 -39 -279 0
-210 -300 -40 -280 0
-215 -39 -299 -269 0
-216 -40 -300 -270 0
-263 -299 -39 -219 0
-264 -300 -40 -220 0
-1 -9 -29 0
-2 -10 -30 0
-1 -11 -17 0
-2 -12 -18 0
-17 -3 -107 0
-18 -4 -108 0
-3 -19 -59 0
-4 -20 -60 0
-3 -21 -43 0
-4 -22 -44 0
-3 -35 -23 0
-4 -36 -24 0
-233 -5 -25 0
-234 -6 -26 0
-5 -27 -125 0
-6 -28 -126 0
-5 -89 -29 0
-6 -90 -30 0
-31 -5 -71 0
-32 -6 -72 0
-53 -35 -5 0
-54 -36 -6 0
-215 -35 -7 0
-216 -36 -8 0
-37 -7 -151 0
-38 -8 -152 0
-7 -39 -119 0
-8 -40 -120 0
-7 -43 -87 0
-8 -44 -88 0
-47 -7 -71 0
-48 -8 -72 0
-229 -9 -45 0
-230 -10 -46 0
-47 -179 -9 0
-48 -180 -10 0
-49 -149 -9 0
-50 -150 -10 0
-129 -51 -9 0
-130 -52 -10 0
-89 -9 -59 0
-90 -10 -60 0
-63 -79 -9 0
-64 -80 -10 0
-251 -55 -11 0
-252 -56 -12 0
-179 -11 -59 0
-180 -12 -60 0
-63 -143 -11 0
-64 -144 -12 0
-65 -131 -11 0
-66 -132 -12 0
-107 -71 -11 0
-108 -72 -12 0
-79 -89 -11 0
-80 -90 -12 0
-67 -237 -13 0
-68 -238 -14 0
-209 -69 -13 0
-210 -70 -14 0
-79 -139 -13 0
-80 -140 -14 0
-83 -125 -13 0
-84 -126 -14 0
-15 -79 -239 0
-16 -80 -240 0
-15 -175 -87 0
-16 -176 -88 0
-15 -95 -143 0
-16 -96 -144 0
-17 -89 -269 0
-18 -90 -270 0
-95 -17 -215 0
-96 -18 -216 0
-161 -17 -107 0
-162 -18 -108 0
-19 -99 -299 0
-20 -100 -300 0
-19 -103 -259 0
-20 -104 -260 0
-19 -219 -109 0
-20 -220 -110 0
-111 -209 -19 0
-112 -210 -20 0
-19 -119 -179 0
-20 -120 -180 0
-127 -19 -159 0
-128 -20 -160 0
-129 -19 -155 0
-130 -20 -156 0
-197 -131 -21 0
-198 -132 -22 0
-127 -23 -287 0
-128 -24 -288 0
-263 -131 -23 0
-264 -132 -24 0
-143 -215 -23 0
-144 -216 -24 0
-199 -149 -23 0
-200 -150 -24 0
-159 -179 -23 0
-160 -180 -24 0
-233 -25 -155 0
-234 -26 -156 0
-159 -279 -27 0
-160 -280 -28 0
-251 -167 -27 0
-252 -168 -28 0
-289 -173 -29 0
-290 -174 -30 0
-269 -179 -29 0
-270 -180 -30 0
-191 -239 -29 0
-192 -240 -30 0
-31 -191 -287 0
-32 -192 -288 0
-239 -35 -269 0
-240 -36 -270 0
-31 -1 -7 0
-32 -2 -8 0
-1 -19 -9 0
-2 -20 -10 0
-15 -1 -11 0
-16 -2 -12 0
-111 -3 -13 0
-112 -4 -14 0
-15 -3 -63 0
-16 -4 -64 0
-47 -17 -3 0
-48 -18 -4 0
-3 -19 -39 0
-4 -20 -40 0
-31 -3 -23 0
-32 -4 -24 0
-239 -19 -5 0
-240 -20 -6 0
-21 -131 -5 0
-22 -132 -6 0
-95 -5 -23 0
-96 -6 -24 0
-5 -25 -77 0
-6 -26 -78 0
-5 -59 -29 0
-6 -60 -30 0
-47 -35 -5 0
-48 -36 -6 0
-223 -7 -27 0
-224 -8 -28 0
-159 -7 -29 0
-160 -8 -30 0
-31 -127 -7 0
-32 -128 -8 0
-95 -35 -7 0
-96 -36 -8 0
-79 -7 -39 0
-80 -8 -40 0
-47 -63 -7 0
-48 -64 -8 0
-239 -35 -9 0
-240 -36 -10 0
-37 -9 -189 0
-38 -10 -190 0
-159 -39 -9 0
-160 -40 -10 0
-41 -9 -139 0
-42 -10 -140 0
-49 -99 -9 0
-50 -100 -10 0
-89 -53 -9 0
-90 -54 -10 0
-79 -9 -59 0
-80 -10 -60 0
-263 -11 -43 0
-264 -12 -44 0
-47 -191 -11 0
-48 -192 -12 0
-155 -51 -11 0
-156 -52 -12 0
-143 -53 -11 0
-144 -54 -12 0
-119 -11 -59 0
-120 -12 -60 0
-67 -101 -11 0
-68 -102 -12 0
-95 -71 -11 0
-96 -72 -12 0
-53 -251 -13 0
-54 -252 -14 0
-223 -55 -13 0
-224 -56 -14 0
-65 -153 -13 0
-66 -154 -14 0
-69 -139 -13 0
-70 -140 -14 0
-111 -83 -13 0
-112 -84 -14 0
-15 -63 -255 0
-16 -64 -256 0
-15 -71 -191 0
-16 -72 -192 0
-15 -79 -159 0
-16 -80 -160 0
-15 -95 -127 0
-16 -96 -128 0
-287 -17 -71 0
-288 -18 -72 0
-17 -233 -77 0
-18 -234 -78 0
-17 -179 -89 0
-18 -180 -90 0
-143 -17 -107 0
-144 -18 -108 0
-279 -19 -83 0
-280 -20 -84 0
-239 -19 -89 0
-240 -20 -90 0
-19 -229 -91 0
-20 -230 -92 0
-199 -19 -99 0
-200 -20 -100 0
-19 -179 -107 0
-20 -180 -108 0
-175 -19 -109 0
-176 -20 -110 0
-159 -19 -119 0
-160 -20 -120 0
-21 -219 -109 0
-22 -220 -110 0
-175 -131 -21 0
-176 -132 -22 0
-287 -23 -107 0
-288 -24 -108 0
-239 -23 -119 0
-240 -24 -120 0
-223 -23 -125 0
-224 -24 -126 0
-23 -203 -135 0
-24 -204 -136 0
-143 -23 -191 0
-144 -24 -192 0
-129 -259 -25 0
-130 -260 -26 0
-207 -25 -155 0
-208 -26 -156 0
-139 -279 -27 0
-140 -280 -28 0
-223 -167 -27 0
-224 -168 -28 0
-209 -179 -27 0
-210 -180 -28 0
-207 -181 -27 0
-208 -182 -28 0
-149 -299 -29 0
-150 -300 -30 0
-269 -161 -29 0
-270 -162 -30 0
-239 -179 -29 0
-240 -180 -30 0
-227 -189 -29 0
-228 -190 -30 0
-197 -219 -29 0
-198 -220 -30 0
-31 -191 -255 0
-32 -192 -256 0
-271 -33 -203 0
-272 -34 -204 0
-287 -35 -215 0
-288 -36 -216 0
-287 -39 -269 0
-288 -40 -270 0
-1 -21 -9 -109 0
-2 -22 -10 -110 0
-1 -23 -9 -59 0
-2 -24 -10 -60 0
-1 -41 -11 -13 0
-2 -42 -12 -14 0
-15 -1 -23 -11 0
-16 -2 -24 -12 0
-17 -3 -83 -251 0
-18 -4 -84 -252 0
-17 -3 -197 -87 0
-18 -4 -198 -88 0
-17 -3 -179 -89 0
-18 -4 -180 -90 0
-95 -17 -3 -143 0
-96 -18 -4 -144 0
-219 -3 -19 -43 0
-220 -4 -20 -44 0
-47 -3 -19 -119 0
-48 -4 -20 -120 0
-49 -3 -19 -99 0
-50 -4 -20 -100 0
-69 -3 -19 -55 0
-70 -4 -20 -56 0
-31 -175 -3 -21 0
-32 -176 -4 -22 0
-3 -23 -25 -155 0
-4 -24 -26 -156 0
-3 -23 -83 -27 0
-4 -24 -84 -28 0
-3 -23 -59 -29 0
-4 -24 -60 -30 0
-31 -47 -3 -23 0
-32 -48 -4 -24 0
-97 -5 -293 -27 0
-98 -6 -294 -28 0
-101 -5 -27 -237 0
-102 -6 -28 -238 0
-111 -5 -167 -27 0
-112 -6 -168 -28 0
-139 -5 -119 -27 0
-140 -6 -120 -28 0
-69 -5 -209 -29 0
-70 -6 -210 -30 0
-179 -5 -71 -29 0
-180 -6 -72 -30 0
-129 -5 -77 -29 0
-130 -6 -78 -30 0
-79 -5 -119 -29 0
-80 -6 -120 -30 0
-31 -53 -5 -215 0
-32 -54 -6 -216 0
-31 -5 -55 -167 0
-32 -6 -56 -168 0
-31 -5 -119 -59 0
-32 -6 -120 -60 0
-31 -95 -63 -5 0
-32 -96 -64 -6 0
-31 -65 -5 -87 0
-32 -66 -6 -88 0
-47 -33 -5 -135 0
-48 -34 -6 -136 0
-35 -5 -39 -179 0
-36 -6 -40 -180 0
-35 -5 -41 -125 0
-36 -6 -42 -126 0
-47 -35 -5 -71 0
-48 -36 -6 -72 0
-191 -35 -7 -287 0
-192 -36 -8 -288 0
-263 -35 -197 -7 0
-264 -36 -198 -8 0
-207 -35 -7 -233 0
-208 -36 -8 -234 0
-95 -239 -7 -39 0
-96 -240 -8 -40 0
-199 -99 -7 -39 0
-200 -100 -8 -40 0
-111 -7 -39 -139 0
-112 -8 -40 -140 0
-79 -209 -7 -41 0
-80 -210 -8 -42 0
-83 -7 -41 -167 0
-84 -8 -42 -168 0
-95 -111 -7 -41 0
-96 -112 -8 -42 0
-65 -7 -43 -263 0
-66 -8 -44 -264 0
-79 -7 -43 -109 0
-80 -8 -44 -110 0
-47 -215 -53 -7 0
-48 -216 -54 -8 0
-47 -7 -55 -167 0
-48 -8 -56 -168 0
-47 -7 -59 -119 0
-48 -8 -60 -120 0
-47 -63 -95 -7 0
-48 -64 -96 -8 0
-47 -65 -7 -87 0
-48 -66 -8 -88 0
-47 -149 -9 -299 0
-48 -150 -10 -300 0
-47 -259 -9 -155 0
-48 -260 -10 -156 0
-47 -159 -239 -9 0
-48 -160 -240 -10 0
-47 -209 -167 -9 0
-48 -210 -168 -10 0
-47 -169 -9 -203 0
-48 -170 -10 -204 0
-49 -119 -9 -299 0
-50 -120 -10 -300 0
-51 -103 -9 -259 0
-52 -104 -10 -260 0
-51 -119 -9 -155 0
-52 -120 -10 -156 0
-89 -53 -9 -269 0
-90 -54 -10 -270 0
-79 -279 -55 -9 0
-80 -280 -56 -10 0
-209 -83 -55 -9 0
-210 -84 -56 -10 0
-209 -69 -9 -59 0
-210 -70 -10 -60 0
-179 -71 -9 -59 0
-180 -72 -10 -60 0
-129 -9 -59 -77 0
-130 -10 -60 -78 0
-79 -119 -9 -59 0
-80 -120 -10 -60 0
-63 -111 -69 -9 0
-64 -112 -70 -10 0
-239 -279 -55 -11 0
-240 -280 -56 -12 0
-299 -149 -11 -59 0
-300 -150 -12 -60 0
-155 -259 -11 -59 0
-156 -260 -12 -60 0
-159 -239 -11 -59 0
-160 -240 -12 -60 0
-209 -167 -11 -59 0
-210 -168 -12 -60 0
-203 -169 -11 -59 0
-204 -170 -12 -60 0
-63 -119 -239 -11 0
-64 -120 -240 -12 0
-63 -127 -191 -11 0
-64 -128 -192 -12 0
-63 -131 -175 -11 0
-64 -132 -176 -12 0
-65 -103 -11 -285 0
-66 -104 -12 -286 0
-65 -219 -11 -109 0
-66 -220 -12 -110 0
-95 -67 -271 -11 0
-96 -68 -272 -12 0
-203 -67 -101 -11 0
-204 -68 -102 -12 0
-251 -69 -89 -11 0
-252 -70 -90 -12 0
-111 -69 -119 -11 0
-112 -70 -120 -12 0
-83 -251 -71 -11 0
-84 -252 -72 -12 0
-197 -71 -11 -87 0
-198 -72 -12 -88 0
-179 -71 -89 -11 0
-180 -72 -90 -12 0
-95 -143 -71 -11 0
-96 -144 -72 -12 0
-223 -67 -271 -13 0
-224 -68 -272 -14 0
-69 -265 -189 -13 0
-70 -266 -190 -14 0
-71 -167 -251 -13 0
-72 -168 -252 -14 0
-209 -179 -71 -13 0
-210 -180 -72 -14 0
-125 -233 -77 -13 0
-126 -234 -78 -14 0
-129 -77 -209 -13 0
-130 -78 -210 -14 0
-79 -111 -279 -13 0
-80 -112 -280 -14 0
-79 -209 -119 -13 0
-80 -210 -120 -14 0
-79 -179 -125 -13 0
-80 -180 -126 -14 0
-97 -83 -293 -13 0
-98 -84 -294 -14 0
-83 -101 -237 -13 0
-84 -102 -238 -14 0
-111 -83 -167 -13 0
-112 -84 -168 -14 0
-83 -119 -139 -13 0
-84 -120 -140 -14 0
-15 -279 -79 -223 0
-16 -280 -80 -224 0
-15 -83 -191 -223 0
-16 -84 -192 -224 0
-15 -159 -87 -219 0
-16 -160 -88 -220 0
-15 -143 -239 -89 0
-16 -144 -240 -90 0
-15 -179 -159 -89 0
-16 -180 -160 -90 0
-15 -95 -119 -239 0
-16 -96 -120 -240 0
-15 -95 -127 -191 0
-16 -96 -128 -192 0
-15 -95 -175 -131 0
-16 -96 -176 -132 0
-95 -17 -191 -287 0
-96 -18 -192 -288 0
-95 -17 -197 -263 0
-96 -18 -198 -264 0
-95 -17 -207 -233 0
-96 -18 -208 -234 0
-17 -103 -233 -155 0
-18 -104 -234 -156 0
-143 -17 -215 -107 0
-144 -18 -216 -108 0
-111 -17 -251 -125 0
-112 -18 -252 -126 0
-111 -17 -179 -139 0
-112 -18 -180 -140 0
-111 -17 -143 -167 0
-112 -18 -144 -168 0
-143 -17 -151 -113 0
-144 -18 -152 -114 0
-19 -215 -107 -269 0
-20 -216 -108 -270 0
-111 -19 -265 -189 0
-112 -20 -266 -190 0
-113 -19 -227 -189 0
-114 -20 -228 -190 0
-19 -149 -119 -299 0
-20 -150 -120 -300 0
-19 -119 -155 -259 0
-20 -120 -156 -260 0
-159 -19 -119 -239 0
-160 -20 -120 -240 0
-209 -19 -119 -167 0
-210 -20 -120 -168 0
-19 -119 -169 -203 0
-20 -120 -170 -204 0
-19 -251 -139 -125 0
-20 -252 -140 -126 0
-127 -19 -223 -139 0
-128 -20 -224 -140 0
-239 -263 -21 -119 0
-240 -264 -22 -120 0
-127 -263 -21 -191 0
-128 -264 -22 -192 0
-175 -131 -21 -263 0
-176 -132 -22 -264 0
-209 -23 -139 -279 0
-210 -24 -140 -280 0
-223 -23 -239 -139 0
-224 -24 -240 -140 0
-143 -287 -23 -191 0
-144 -288 -24 -192 0
-143 -263 -197 -23 0
-144 -264 -198 -24 0
-143 -233 -23 -207 0
-144 -234 -24 -208 0
-263 -23 -153 -167 0
-264 -24 -154 -168 0
-159 -209 -23 -167 0
-160 -210 -24 -168 0
-159 -23 -169 -203 0
-160 -24 -170 -204 0
-159 -259 -207 -25 0
-160 -260 -208 -26 0
-239 -279 -167 -27 0
-240 -280 -168 -28 0
-209 -179 -251 -27 0
-210 -180 -252 -28 0
-191 -279 -223 -29 0
-192 -280 -224 -30 0
-209 -195 -293 -29 0
-210 -196 -294 -30 0
-209 -237 -203 -29 0
-210 -238 -204 -30 0
-31 -197 -263 -287 0
-32 -198 -264 -288 0
-31 -287 -207 -233 0
-32 -288 -208 -234 0
-1 -119 -9 -11 0
-2 -120 -10 -12 0
-1 -69 -9 -13 0
-2 -70 -10 -14 0
-1 -19 -39 -9 0
-2 -20 -40 -10 0
-47 -17 -3 -287 0
-48 -18 -4 -288 0
-17 -3 -51 -233 0
-18 -4 -52 -234 0
-17 -3 -53 -215 0
-18 -4 -54 -216 0
-17 -3 -179 -59 0
-18 -4 -180 -60 0
-143 -17 -3 -71 0
-144 -18 -4 -72 0
-17 -3 -83 -125 0
-18 -4 -84 -126 0
-17 -3 -119 -89 0
-18 -4 -120 -90 0
-239 -3 -19 -23 0
-240 -4 -20 -24 0
-139 -3 -19 -27 0
-140 -4 -20 -28 0
-3 -19 -119 -29 0
-4 -20 -120 -30 0
-35 -3 -19 -89 0
-36 -4 -20 -90 0
-79 -3 -19 -39 0
-80 -4 -20 -40 0
-3 -23 -41 -27 0
-4 -24 -42 -28 0
-3 -23 -39 -29 0
-4 -24 -40 -30 0
-5 -279 -27 -59 0
-6 -280 -28 -60 0
-69 -5 -27 -209 0
-70 -6 -28 -210 0
-181 -5 -27 -77 0
-182 -6 -28 -78 0
-83 -5 -167 -27 0
-84 -6 -168 -28 0
-239 -5 -39 -29 0
-240 -6 -40 -30 0
-209 -5 -41 -29 0
-210 -6 -42 -30 0
-47 -159 -5 -29 0
-48 -160 -6 -30 0
-49 -149 -5 -29 0
-50 -150 -6 -30 0
-5 -119 -59 -29 0
-6 -120 -60 -30 0
-65 -5 -109 -29 0
-66 -6 -110 -30 0
-79 -95 -5 -29 0
-80 -96 -6 -30 0
-31 -143 -35 -5 0
-32 -144 -36 -6 0
-31 -5 -39 -119 0
-32 -6 -40 -120 0
-31 -111 -5 -41 0
-32 -112 -6 -42 0
-31 -47 -95 -5 0
-32 -48 -96 -6 0
-31 -83 -5 -55 0
-32 -84 -6 -56 0
-31 -79 -5 -59 0
-32 -80 -6 -60 0
-143 -35 -7 -287 0
-144 -36 -8 -288 0
-35 -7 -251 -167 0
-36 -8 -252 -168 0
-239 -35 -7 -179 0
-240 -36 -8 -180 0
-279 -55 -7 -39 0
-280 -56 -8 -40 0
-239 -7 -39 -59 0
-240 -8 -40 -60 0
-179 -7 -39 -71 0
-180 -8 -40 -72 0
-79 -159 -7 -39 0
-80 -160 -8 -40 0
-143 -89 -7 -39 0
-144 -90 -8 -40 0
-129 -7 -39 -103 0
-130 -8 -40 -104 0
-47 -223 -7 -41 0
-48 -224 -8 -42 0
-55 -7 -41 -167 0
-56 -8 -42 -168 0
-7 -41 -71 -125 0
-8 -42 -72 -126 0
-111 -83 -7 -41 0
-112 -84 -8 -42 0
-47 -83 -7 -55 0
-48 -84 -8 -56 0
-47 -79 -7 -59 0
-48 -80 -8 -60 0
-47 -99 -9 -299 0
-48 -100 -10 -300 0
-47 -9 -107 -269 0
-48 -10 -108 -270 0
-47 -263 -9 -109 0
-48 -264 -10 -110 0
-47 -239 -119 -9 0
-48 -240 -120 -10 0
-47 -131 -9 -219 0
-48 -132 -10 -220 0
-47 -209 -9 -139 0
-48 -210 -10 -140 0
-47 -149 -199 -9 0
-48 -150 -200 -10 0
-47 -159 -191 -9 0
-48 -160 -192 -10 0
-49 -99 -199 -9 0
-50 -100 -200 -10 0
-53 -215 -9 -59 0
-54 -216 -10 -60 0
-53 -119 -9 -107 0
-54 -120 -10 -108 0
-55 -9 -59 -167 0
-56 -10 -60 -168 0
-69 -55 -9 -139 0
-70 -56 -10 -140 0
-83 -55 -9 -119 0
-84 -56 -10 -120 0
-65 -9 -59 -109 0
-66 -10 -60 -110 0
-79 -95 -9 -59 0
-80 -96 -10 -60 0
-195 -293 -55 -11 0
-196 -294 -56 -12 0
-209 -55 -11 -279 0
-210 -56 -12 -280 0
-227 -55 -265 -11 0
-228 -56 -266 -12 0
-231 -57 -11 -173 0
-232 -58 -12 -174 0
-99 -299 -11 -59 0
-100 -300 -12 -60 0
-107 -269 -11 -59 0
-108 -270 -12 -60 0
-263 -109 -11 -59 0
-264 -110 -12 -60 0
-239 -119 -11 -59 0
-240 -120 -12 -60 0
-131 -219 -11 -59 0
-132 -220 -12 -60 0
-139 -209 -11 -59 0
-140 -210 -12 -60 0
-149 -199 -11 -59 0
-150 -200 -12 -60 0
-159 -191 -11 -59 0
-160 -192 -12 -60 0
-123 -185 -11 -61 0
-124 -186 -12 -62 0
-63 -71 -287 -11 0
-64 -72 -288 -12 0
-63 -79 -239 -11 0
-64 -80 -240 -12 0
-63 -83 -223 -11 0
-64 -84 -224 -12 0
-63 -95 -191 -11 0
-64 -96 -192 -12 0
-63 -111 -167 -11 0
-64 -112 -168 -12 0
-63 -159 -119 -11 0
-64 -160 -120 -12 0
-175 -65 -87 -11 0
-176 -66 -88 -12 0
-67 -101 -135 -11 0
-68 -102 -136 -12 0
-139 -83 -69 -11 0
-140 -84 -70 -12 0
-83 -71 -11 -125 0
-84 -72 -12 -126 0
-71 -89 -11 -119 0
-72 -90 -12 -120 0
-69 -279 -139 -13 0
-70 -280 -140 -14 0
-239 -69 -167 -13 0
-240 -70 -168 -14 0
-69 -237 -169 -13 0
-70 -238 -170 -14 0
-111 -71 -287 -13 0
-112 -72 -288 -14 0
-71 -125 -251 -13 0
-72 -126 -252 -14 0
-143 -71 -223 -13 0
-144 -72 -224 -14 0
-79 -209 -83 -13 0
-80 -210 -84 -14 0
-79 -111 -159 -13 0
-80 -112 -160 -14 0
-15 -287 -233 -77 0
-16 -288 -234 -78 0
-15 -79 -287 -179 0
-16 -80 -288 -180 0
-15 -79 -207 -259 0
-16 -80 -208 -260 0
-15 -83 -287 -125 0
-16 -84 -288 -126 0
-15 -83 -143 -251 0
-16 -84 -144 -252 0
-15 -83 -167 -223 0
-16 -84 -168 -224 0
-15 -197 -143 -87 0
-16 -198 -144 -88 0
-15 -179 -143 -89 0
-16 -180 -144 -90 0
-15 -95 -111 -167 0
-16 -96 -112 -168 0
-15 -95 -159 -119 0
-16 -96 -160 -120 0
-239 -17 -287 -89 0
-240 -18 -288 -90 0
-17 -279 -89 -251 0
-18 -280 -90 -252 0
-95 -17 -143 -287 0
-96 -18 -144 -288 0
-95 -17 -167 -251 0
-96 -18 -168 -252 0
-95 -17 -179 -239 0
-96 -18 -180 -240 0
-17 -293 -125 -97 0
-18 -294 -126 -98 0
-17 -99 -199 -179 0
-18 -100 -200 -180 0
-17 -101 -237 -125 0
-18 -102 -238 -126 0
-111 -17 -167 -125 0
-112 -18 -168 -126 0
-17 -119 -139 -125 0
-18 -120 -140 -126 0
-19 -103 -219 -285 0
-20 -104 -220 -286 0
-19 -179 -107 -269 0
-20 -180 -108 -270 0
-239 -19 -215 -107 0
-240 -20 -216 -108 0
-19 -279 -153 -109 0
-20 -280 -154 -110 0
-111 -19 -279 -139 0
-112 -20 -280 -140 0
-111 -19 -167 -239 0
-112 -20 -168 -240 0
-111 -19 -169 -237 0
-112 -20 -170 -238 0
-239 -113 -19 -151 0
-240 -114 -20 -152 0
-19 -119 -131 -219 0
-20 -120 -132 -220 0
-209 -19 -119 -139 0
-210 -20 -120 -140 0
-199 -19 -149 -119 0
-200 -20 -150 -120 0
-159 -19 -119 -191 0
-160 -20 -120 -192 0
-19 -179 -139 -125 0
-20 -180 -140 -126 0
-263 -21 -119 -219 0
-264 -22 -120 -220 0
-271 -23 -203 -135 0
-272 -24 -204 -136 0
-275 -23 -137 -183 0
-276 -24 -138 -184 0
-239 -229 -23 -137 0
-240 -230 -24 -138 0
-279 -23 -139 -167 0
-280 -24 -140 -168 0
-239 -209 -23 -139 0
-240 -210 -24 -140 0
-143 -23 -251 -167 0
-144 -24 -252 -168 0
-143 -179 -23 -239 0
-144 -180 -24 -240 0
-181 -153 -25 -285 0
-182 -154 -26 -286 0
-195 -293 -167 -27 0
-196 -294 -168 -28 0
-209 -167 -27 -279 0
-210 -168 -28 -280 0
-227 -167 -265 -27 0
-228 -168 -266 -28 0
-175 -251 -197 -27 0
-176 -252 -198 -28 0
-207 -181 -223 -27 0
-208 -182 -224 -28 0
-239 -179 -287 -29 0
-240 -180 -288 -30 0
-179 -279 -251 -29 0
-180 -280 -252 -30 0
-275 -229 -183 -29 0
-276 -230 -184 -30 0
-209 -265 -189 -29 0
-210 -266 -190 -30 0
-191 -259 -207 -29 0
-192 -260 -208 -30 0
-223 -33 -271 -237 0
-224 -34 -272 -238 0
-239 -35 -279 -251 0
-240 -36 -280 -252 0
-1 -5 -25 -77 0
-2 -6 -26 -78 0
-1 -5 -41 -27 0
-2 -6 -42 -28 0
-1 -35 -7 -17 0
-2 -36 -8 -18 0
-15 -1 -19 -9 0
-16 -2 -20 -10 0
-3 -87 -9 -219 0
-4 -88 -10 -220 0
-179 -3 -89 -9 0
-180 -4 -90 -10 0
-95 -3 -119 -9 0
-96 -4 -120 -10 0
-49 -3 -299 -11 0
-50 -4 -300 -12 0
-155 -3 -51 -11 0
-156 -4 -52 -12 0
-107 -3 -53 -11 0
-108 -4 -54 -12 0
-3 -55 -83 -11 0
-4 -56 -84 -12 0
-3 -39 -139 -13 0
-4 -40 -140 -14 0
-3 -83 -41 -13 0
-4 -84 -42 -14 0
-15 -33 -3 -135 0
-16 -34 -4 -136 0
-15 -3 -35 -71 0
-16 -4 -36 -72 0
-17 -3 -179 -29 0
-18 -4 -180 -30 0
-31 -17 -3 -71 0
-32 -18 -4 -72 0
-3 -19 -59 -29 0
-4 -20 -60 -30 0
-31 -3 -19 -39 0
-32 -4 -20 -40 0
-3 -23 -25 -77 0
-4 -24 -26 -78 0
-195 -5 -293 -13 0
-196 -6 -294 -14 0
-5 -237 -203 -13 0
-6 -238 -204 -14 0
-15 -5 -215 -107 0
-16 -6 -216 -108 0
-15 -111 -5 -167 0
-16 -112 -6 -168 0
-15 -113 -5 -151 0
-16 -114 -6 -152 0
-17 -5 -233 -77 0
-18 -6 -234 -78 0
-79 -17 -179 -5 0
-80 -18 -180 -6 0
-17 -83 -5 -125 0
-18 -84 -6 -126 0
-63 -19 -5 -239 0
-64 -20 -6 -240 0
-19 -5 -71 -89 0
-20 -6 -72 -90 0
-21 -5 -59 -109 0
-22 -6 -60 -110 0
-49 -5 -23 -299 0
-50 -6 -24 -300 0
-51 -5 -23 -155 0
-52 -6 -24 -156 0
-53 -5 -23 -107 0
-54 -6 -24 -108 0
-83 -5 -23 -55 0
-84 -6 -24 -56 0
-47 -5 -25 -155 0
-48 -6 -26 -156 0
-51 -5 -25 -77 0
-52 -6 -26 -78 0
-47 -83 -5 -27 0
-48 -84 -6 -28 0
-5 -109 -43 -29 0
-6 -110 -44 -30 0
-47 -5 -59 -29 0
-48 -6 -60 -30 0
-31 -5 -39 -239 0
-32 -6 -40 -240 0
-35 -5 -39 -89 0
-36 -6 -40 -90 0
-191 -19 -7 -239 0
-192 -20 -8 -240 0
-263 -131 -21 -7 0
-264 -132 -22 -8 0
-215 -7 -23 -107 0
-216 -8 -24 -108 0
-111 -7 -23 -167 0
-112 -8 -24 -168 0
-113 -7 -23 -151 0
-114 -8 -24 -152 0
-95 -7 -25 -155 0
-96 -8 -26 -156 0
-79 -279 -7 -27 0
-80 -280 -8 -28 0
-83 -7 -27 -167 0
-84 -8 -28 -168 0
-79 -7 -119 -29 0
-80 -8 -120 -30 0
-31 -67 -7 -271 0
-32 -68 -8 -272 0
-31 -143 -7 -71 0
-32 -144 -8 -72 0
-63 -33 -7 -271 0
-64 -34 -8 -272 0
-33 -67 -7 -135 0
-34 -68 -8 -136 0
-63 -35 -143 -7 0
-64 -36 -144 -8 0
-7 -39 -59 -119 0
-8 -40 -60 -120 0
-63 -79 -7 -39 0
-64 -80 -8 -40 0
-47 -49 -7 -299 0
-48 -50 -8 -300 0
-47 -51 -7 -155 0
-48 -52 -8 -156 0
-47 -53 -7 -107 0
-48 -54 -8 -108 0
-207 -25 -9 -259 0
-208 -26 -10 -260 0
-159 -279 -9 -27 0
-160 -280 -10 -28 0
-209 -167 -9 -27 0
-210 -168 -10 -28 0
-229 -137 -9 -29 0
-230 -138 -10 -30 0
-209 -9 -139 -29 0
-210 -10 -140 -30 0
-143 -179 -9 -29 0
-144 -180 -10 -30 0
-31 -239 -119 -9 0
-32 -240 -120 -10 0
-31 -159 -127 -9 0
-32 -160 -128 -10 0
-219 -39 -9 -87 0
-220 -40 -10 -88 0
-179 -89 -39 -9 0
-180 -90 -40 -10 0
-95 -39 -9 -119 0
-96 -40 -10 -120 0
-209 -41 -83 -9 0
-210 -42 -84 -10 0
-41 -89 -9 -125 0
-42 -90 -10 -126 0
-79 -219 -9 -43 0
-80 -220 -10 -44 0
-87 -9 -43 -109 0
-88 -10 -44 -110 0
-47 -79 -119 -9 0
-48 -80 -120 -10 0
-79 -49 -99 -9 0
-80 -50 -100 -10 0
-63 -239 -9 -59 0
-64 -240 -10 -60 0
-89 -71 -9 -59 0
-90 -72 -10 -60 0
-191 -33 -271 -11 0
-192 -34 -272 -12 0
-35 -251 -167 -11 0
-36 -252 -168 -12 0
-175 -35 -197 -11 0
-176 -36 -198 -12 0
-227 -37 -151 -11 0
-228 -38 -152 -12 0
-229 -39 -137 -11 0
-230 -40 -138 -12 0
-139 -39 -11 -209 0
-140 -40 -12 -210 0
-143 -179 -39 -11 0
-144 -180 -40 -12 0
-251 -41 -11 -125 0
-252 -42 -12 -126 0
-127 -223 -41 -11 0
-128 -224 -42 -12 0
-219 -119 -11 -43 0
-220 -120 -12 -44 0
-47 -107 -215 -11 0
-48 -108 -216 -12 0
-47 -111 -167 -11 0
-48 -112 -168 -12 0
-47 -113 -151 -11 0
-48 -114 -152 -12 0
-49 -99 -299 -11 0
-50 -100 -300 -12 0
-155 -51 -103 -11 0
-156 -52 -104 -12 0
-95 -53 -215 -11 0
-96 -54 -216 -12 0
-95 -55 -11 -167 0
-96 -56 -12 -168 0
-219 -87 -11 -59 0
-220 -88 -12 -60 0
-179 -89 -11 -59 0
-180 -90 -12 -60 0
-95 -119 -11 -59 0
-96 -120 -12 -60 0
-65 -131 -87 -11 0
-66 -132 -88 -12 0
-79 -209 -69 -11 0
-80 -210 -70 -12 0
-71 -233 -11 -77 0
-72 -234 -12 -78 0
-79 -179 -71 -11 0
-80 -180 -72 -12 0
-79 -129 -11 -77 0
-80 -130 -12 -78 0
-223 -279 -39 -13 0
-224 -280 -40 -14 0
-195 -293 -41 -13 0
-196 -294 -42 -14 0
-237 -41 -203 -13 0
-238 -42 -204 -14 0
-47 -263 -153 -13 0
-48 -264 -154 -14 0
-47 -209 -159 -13 0
-48 -210 -160 -14 0
-49 -149 -209 -13 0
-50 -150 -210 -14 0
-55 -125 -251 -13 0
-56 -126 -252 -14 0
-127 -55 -223 -13 0
-128 -56 -224 -14 0
-209 -119 -59 -13 0
-210 -120 -60 -14 0
-63 -111 -223 -13 0
-64 -112 -224 -14 0
-65 -109 -209 -13 0
-66 -110 -210 -14 0
-69 -153 -109 -13 0
-70 -154 -110 -14 0
-111 -69 -139 -13 0
-112 -70 -140 -14 0
-111 -71 -125 -13 0
-112 -72 -126 -14 0
-79 -209 -95 -13 0
-80 -210 -96 -14 0
-95 -83 -167 -13 0
-96 -84 -168 -14 0
-15 -215 -53 -191 0
-16 -216 -54 -192 0
-15 -181 -55 -207 0
-16 -182 -56 -208 0
-15 -159 -239 -59 0
-16 -160 -240 -60 0
-15 -63 -143 -287 0
-16 -64 -144 -288 0
-15 -67 -135 -271 0
-16 -68 -136 -272 0
-15 -127 -71 -287 0
-16 -128 -72 -288 0
-15 -79 -119 -239 0
-16 -80 -120 -240 0
-15 -159 -79 -127 0
-16 -160 -80 -128 0
-15 -83 -143 -125 0
-16 -84 -144 -126 0
-15 -143 -119 -89 0
-16 -144 -120 -90 0
-15 -95 -215 -107 0
-16 -96 -216 -108 0
-15 -113 -95 -151 0
-16 -114 -96 -152 0
-17 -215 -59 -269 0
-18 -216 -60 -270 0
-63 -17 -191 -287 0
-64 -18 -192 -288 0
-17 -179 -69 -209 0
-18 -180 -70 -210 0
-17 -71 -251 -167 0
-18 -72 -252 -168 0
-175 -17 -197 -71 0
-176 -18 -198 -72 0
-17 -233 -155 -77 0
-18 -234 -156 -78 0
-79 -17 -179 -159 0
-80 -18 -180 -160 0
-143 -17 -83 -251 0
-144 -18 -84 -252 0
-143 -17 -197 -87 0
-144 -18 -198 -88 0
-17 -229 -137 -89 0
-18 -230 -138 -90 0
-17 -89 -139 -209 0
-18 -90 -140 -210 0
-143 -17 -179 -89 0
-144 -18 -180 -90 0
-95 -17 -127 -287 0
-96 -18 -128 -288 0
-129 -17 -179 -103 0
-130 -18 -180 -104 0
-17 -119 -107 -269 0
-18 -120 -108 -270 0
-223 -19 -69 -279 0
-224 -20 -70 -280 0
-215 -19 -71 -269 0
-216 -20 -72 -270 0
-79 -19 -191 -239 0
-80 -20 -192 -240 0
-19 -83 -179 -251 0
-20 -84 -180 -252 0
-175 -19 -87 -219 0
-176 -20 -88 -220 0
-19 -197 -87 -179 0
-20 -198 -88 -180 0
-19 -167 -89 -251 0
-20 -168 -90 -252 0
-175 -19 -197 -89 0
-176 -20 -198 -90 0
-95 -19 -159 -239 0
-96 -20 -160 -240 0
-19 -149 -99 -299 0
-20 -150 -100 -300 0
-159 -199 -19 -99 0
-160 -200 -20 -100 0
-143 -19 -107 -269 0
-144 -20 -108 -270 0
-19 -229 -119 -137 0
-20 -230 -120 -138 0
-143 -19 -119 -179 0
-144 -20 -120 -180 0
-79 -263 -21 -239 0
-80 -264 -22 -240 0
-223 -83 -21 -263 0
-224 -84 -22 -264 0
-207 -21 -87 -285 0
-208 -22 -88 -286 0
-95 -263 -21 -191 0
-96 -264 -22 -192 0
-175 -21 -103 -285 0
-176 -22 -104 -286 0
-175 -21 -219 -109 0
-176 -22 -220 -110 0
-197 -179 -21 -109 0
-198 -180 -22 -110 0
-111 -263 -21 -167 0
-112 -264 -22 -168 0
-159 -263 -21 -119 0
-160 -264 -22 -120 0
-279 -23 -89 -251 0
-280 -24 -90 -252 0
-223 -97 -293 -23 0
-224 -98 -294 -24 0
-223 -101 -23 -237 0
-224 -102 -24 -238 0
-111 -195 -293 -23 0
-112 -196 -294 -24 0
-111 -23 -203 -237 0
-112 -24 -204 -238 0
-191 -23 -239 -119 0
-192 -24 -240 -120 0
-247 -23 -185 -123 0
-248 -24 -186 -124 0
-279 -179 -23 -125 0
-280 -180 -24 -126 0
-175 -263 -131 -23 0
-176 -264 -132 -24 0
-143 -197 -175 -23 0
-144 -198 -176 -24 0
-159 -149 -23 -299 0
-160 -150 -24 -300 0
-159 -259 -23 -155 0
-160 -260 -24 -156 0
-207 -129 -259 -25 0
-208 -130 -260 -26 0
-191 -207 -25 -155 0
-192 -208 -26 -156 0
-223 -139 -279 -27 0
-224 -140 -280 -28 0
-143 -251 -223 -27 0
-144 -252 -224 -28 0
-299 -209 -149 -27 0
-300 -210 -150 -28 0
-207 -153 -27 -285 0
-208 -154 -28 -286 0
-155 -259 -27 -209 0
-156 -260 -28 -210 0
-159 -209 -239 -27 0
-160 -210 -240 -28 0
-203 -167 -27 -237 0
-204 -168 -28 -238 0
-143 -279 -251 -29 0
-144 -280 -252 -30 0
-239 -149 -299 -29 0
-240 -150 -300 -30 0
-239 -259 -155 -29 0
-240 -260 -156 -30 0
-223 -279 -167 -29 0
-224 -280 -168 -30 0
-175 -263 -219 -29 0
-176 -264 -220 -30 0
-269 -179 -215 -29 0
-270 -180 -216 -30 0
-31 -167 -287 -251 0
-32 -168 -288 -252 0
-31 -179 -239 -287 0
-32 -180 -240 -288 0
-95 -1 -5 -7 0
-96 -2 -6 -8 0
-1 -5 -9 -59 0
-2 -6 -10 -60 0
-47 -1 -5 -11 0
-48 -2 -6 -12 0
-1 -5 -41 -13 0
-2 -6 -42 -14 0
-1 -35 -5 -17 0
-2 -36 -6 -18 0
-31 -1 -5 -23 0
-32 -2 -6 -24 0
-1 -7 -23 -11 0
-2 -8 -24 -12 0
-3 -279 -9 -27 0
-4 -280 -10 -28 0
-239 -3 -9 -29 0
-240 -4 -10 -30 0
-179 -3 -35 -9 0
-180 -4 -36 -10 0
-159 -3 -39 -9 0
-160 -4 -40 -10 0
-129 -3 -51 -9 0
-130 -4 -52 -10 0
-3 -119 -9 -59 0
-4 -120 -10 -60 0
-111 -3 -69 -9 0
-112 -4 -70 -10 0
-15 -3 -191 -11 0
-16 -4 -192 -12 0
-143 -17 -3 -11 0
-144 -18 -4 -12 0
-3 -19 -119 -11 0
-4 -20 -120 -12 0
-95 -3 -23 -11 0
-96 -4 -24 -12 0
-3 -83 -11 -27 0
-4 -84 -12 -28 0
-79 -3 -11 -29 0
-80 -4 -12 -30 0
-3 -35 -71 -11 0
-4 -36 -72 -12 0
-65 -3 -11 -43 0
-66 -4 -12 -44 0
-47 -3 -63 -11 0
-48 -4 -64 -12 0
-69 -3 -19 -13 0
-70 -4 -20 -14 0
-3 -55 -27 -13 0
-4 -56 -28 -14 0
-47 -3 -41 -13 0
-48 -4 -42 -14 0
-15 -47 -3 -23 0
-16 -48 -4 -24 0
-97 -5 -293 -13 0
-98 -6 -294 -14 0
-113 -5 -265 -13 0
-114 -6 -266 -14 0
-5 -125 -251 -13 0
-6 -126 -252 -14 0
-239 -5 -139 -13 0
-240 -6 -140 -14 0
-223 -5 -167 -13 0
-224 -6 -168 -14 0
-15 -35 -5 -287 0
-16 -36 -6 -288 0
-15 -5 -39 -239 0
-16 -6 -40 -240 0
-15 -5 -223 -41 0
-16 -6 -224 -42 0
-15 -47 -5 -191 0
-16 -48 -6 -192 0
-15 -5 -55 -167 0
-16 -6 -56 -168 0
-15 -159 -5 -59 0
-16 -160 -6 -60 0
-15 -143 -5 -71 0
-16 -144 -6 -72 0
-15 -131 -5 -87 0
-16 -132 -6 -88 0
-15 -127 -95 -5 0
-16 -128 -96 -6 0
-287 -17 -5 -23 0
-288 -18 -6 -24 0
-17 -233 -5 -25 0
-18 -234 -6 -26 0
-17 -179 -5 -29 0
-18 -180 -6 -30 0
-143 -17 -35 -5 0
-144 -18 -36 -6 0
-17 -5 -41 -125 0
-18 -6 -42 -126 0
-53 -17 -5 -107 0
-54 -18 -6 -108 0
-95 -17 -5 -71 0
-96 -18 -6 -72 0
-159 -19 -5 -23 0
-160 -20 -6 -24 0
-19 -5 -119 -29 0
-20 -6 -120 -30 0
-95 -19 -5 -39 0
-96 -20 -6 -40 0
-79 -19 -5 -59 0
-80 -20 -6 -60 0
-83 -5 -23 -27 0
-84 -6 -24 -28 0
-79 -5 -23 -29 0
-80 -6 -24 -30 0
-35 -5 -23 -71 0
-36 -6 -24 -72 0
-65 -5 -23 -43 0
-66 -6 -24 -44 0
-47 -63 -5 -23 0
-48 -64 -6 -24 0
-5 -55 -41 -27 0
-6 -56 -42 -28 0
-287 -19 -7 -89 0
-288 -20 -8 -90 0
-19 -7 -103 -259 0
-20 -8 -104 -260 0
-239 -19 -7 -119 0
-240 -20 -8 -120 0
-223 -19 -7 -139 0
-224 -20 -8 -140 0
-209 -19 -7 -167 0
-210 -20 -8 -168 0
-197 -21 -7 -71 0
-198 -22 -8 -72 0
-175 -21 -7 -87 0
-176 -22 -8 -88 0
-159 -21 -7 -109 0
-160 -22 -8 -110 0
-287 -35 -7 -23 0
-288 -36 -8 -24 0
-239 -39 -7 -23 0
-240 -40 -8 -24 0
-223 -41 -7 -23 0
-224 -42 -8 -24 0
-47 -191 -7 -23 0
-48 -192 -8 -24 0
-55 -7 -23 -167 0
-56 -8 -24 -168 0
-159 -7 -23 -59 0
-160 -8 -24 -60 0
-143 -7 -23 -71 0
-144 -8 -24 -72 0
-131 -7 -23 -87 0
-132 -8 -24 -88 0
-95 -127 -7 -23 0
-96 -128 -8 -24 0
-139 -7 -39 -27 0
-140 -8 -40 -28 0
-111 -7 -55 -27 0
-112 -8 -56 -28 0
-95 -83 -7 -27 0
-96 -84 -8 -28 0
-7 -39 -119 -29 0
-8 -40 -120 -30 0
-95 -7 -59 -29 0
-96 -8 -60 -30 0
-7 -89 -71 -29 0
-8 -90 -72 -30 0
-31 -47 -95 -7 0
-32 -48 -96 -8 0
-35 -89 -7 -39 0
-36 -90 -8 -40 0
-55 -69 -7 -39 0
-56 -70 -8 -40 0
-285 -25 -9 -109 0
-286 -26 -10 -110 0
-129 -25 -9 -259 0
-130 -26 -10 -260 0
-239 -25 -9 -155 0
-240 -26 -10 -156 0
-69 -279 -9 -27 0
-70 -280 -10 -28 0
-239 -83 -9 -27 0
-240 -84 -10 -28 0
-49 -9 -299 -29 0
-50 -10 -300 -30 0
-269 -53 -9 -29 0
-270 -54 -10 -30 0
-239 -9 -59 -29 0
-240 -10 -60 -30 0
-65 -9 -219 -29 0
-66 -10 -220 -30 0
-209 -69 -9 -29 0
-210 -70 -10 -30 0
-79 -191 -9 -29 0
-80 -192 -10 -30 0
-179 -89 -9 -29 0
-180 -90 -10 -30 0
-101 -169 -9 -29 0
-102 -170 -10 -30 0
-159 -119 -9 -29 0
-160 -120 -10 -30 0
-129 -9 -155 -29 0
-130 -10 -156 -30 0
-31 -47 -239 -9 0
-32 -48 -240 -10 0
-31 -191 -9 -59 0
-32 -192 -10 -60 0
-31 -111 -9 -139 0
-32 -112 -10 -140 0
-143 -35 -9 -59 0
-144 -36 -10 -60 0
-35 -89 -119 -9 0
-36 -90 -120 -10 0
-129 -51 -39 -9 0
-130 -52 -40 -10 0
-39 -9 -59 -119 0
-40 -10 -60 -120 0
-111 -69 -39 -9 0
-112 -70 -40 -10 0
-111 -41 -9 -59 0
-112 -42 -10 -60 0
-47 -95 -9 -59 0
-48 -96 -10 -60 0
-47 -89 -71 -9 0
-48 -90 -72 -10 0
-83 -55 -9 -59 0
-84 -56 -10 -60 0
-79 -69 -55 -9 0
-80 -70 -56 -10 0
-31 -143 -287 -11 0
-32 -144 -288 -12 0
-31 -175 -263 -11 0
-32 -176 -264 -12 0
-31 -191 -255 -11 0
-32 -192 -256 -12 0
-271 -33 -101 -11 0
-272 -34 -102 -12 0
-287 -35 -71 -11 0
-288 -36 -72 -12 0
-35 -251 -83 -11 0
-36 -252 -84 -12 0
-239 -35 -89 -11 0
-240 -36 -90 -12 0
-107 -35 -215 -11 0
-108 -36 -216 -12 0
-35 -197 -131 -11 0
-36 -198 -132 -12 0
-143 -35 -191 -11 0
-144 -36 -192 -12 0
-75 -227 -37 -11 0
-76 -228 -38 -12 0
-49 -299 -39 -11 0
-50 -300 -40 -12 0
-53 -39 -11 -269 0
-54 -40 -12 -270 0
-239 -39 -11 -59 0
-240 -40 -12 -60 0
-65 -219 -39 -11 0
-66 -220 -40 -12 0
-209 -69 -39 -11 0
-210 -70 -40 -12 0
-79 -39 -191 -11 0
-80 -40 -192 -12 0
-179 -39 -89 -11 0
-180 -40 -90 -12 0
-101 -39 -169 -11 0
-102 -40 -170 -12 0
-159 -39 -11 -119 0
-160 -40 -12 -120 0
-129 -39 -11 -155 0
-130 -40 -12 -156 0
-223 -55 -41 -11 0
-224 -56 -42 -12 0
-209 -41 -11 -59 0
-210 -42 -12 -60 0
-83 -167 -41 -11 0
-84 -168 -42 -12 0
-143 -41 -11 -125 0
-144 -42 -12 -126 0
-175 -65 -11 -43 0
-176 -66 -12 -44 0
-83 -153 -11 -43 0
-84 -154 -12 -44 0
-47 -55 -11 -167 0
-48 -56 -12 -168 0
-47 -159 -11 -59 0
-48 -160 -12 -60 0
-47 -143 -71 -11 0
-48 -144 -72 -12 0
-47 -131 -87 -11 0
-48 -132 -88 -12 0
-47 -95 -127 -11 0
-48 -96 -128 -12 0
-49 -149 -11 -59 0
-50 -150 -12 -60 0
-49 -99 -119 -11 0
-50 -100 -120 -12 0
-69 -55 -11 -119 0
-70 -56 -12 -120 0
-111 -83 -55 -11 0
-112 -84 -56 -12 0
-111 -69 -11 -59 0
-112 -70 -12 -60 0
-95 -65 -87 -11 0
-96 -66 -88 -12 0
-279 -39 -139 -13 0
-280 -40 -140 -14 0
-179 -39 -251 -13 0
-180 -40 -252 -14 0
-239 -209 -39 -13 0
-240 -210 -40 -14 0
-97 -293 -41 -13 0
-98 -294 -42 -14 0
-125 -41 -251 -13 0
-126 -42 -252 -14 0
-239 -41 -139 -13 0
-240 -42 -140 -14 0
-223 -167 -41 -13 0
-224 -168 -42 -14 0
-47 -71 -251 -13 0
-48 -72 -252 -14 0
-47 -83 -223 -13 0
-48 -84 -224 -14 0
-47 -111 -191 -13 0
-48 -112 -192 -14 0
-209 -55 -59 -13 0
-210 -56 -60 -14 0
-83 -55 -167 -13 0
-84 -56 -168 -14 0
-143 -55 -125 -13 0
-144 -56 -126 -14 0
-69 -167 -59 -13 0
-70 -168 -60 -14 0
-63 -111 -127 -13 0
-64 -112 -128 -14 0
-125 -69 -89 -13 0
-126 -70 -90 -14 0
-83 -71 -125 -13 0
-84 -72 -126 -14 0
-15 -47 -143 -287 0
-16 -48 -144 -288 0
-15 -47 -175 -263 0
-16 -48 -176 -264 0
-15 -47 -191 -255 0
-16 -48 -192 -256 0
-15 -51 -143 -233 0
-16 -52 -144 -234 0
-15 -143 -53 -215 0
-16 -144 -54 -216 0
-15 -279 -79 -55 0
-16 -280 -80 -56 0
-15 -111 -55 -223 0
-16 -112 -56 -224 0
-15 -55 -191 -167 0
-16 -56 -192 -168 0
-15 -79 -239 -59 0
-16 -80 -240 -60 0
-15 -119 -191 -59 0
-16 -120 -192 -60 0
-15 -179 -143 -59 0
-16 -180 -144 -60 0
-15 -63 -95 -191 0
-16 -64 -96 -192 0
-15 -65 -87 -191 0
-16 -66 -88 -192 0
-15 -159 -111 -69 0
-16 -160 -112 -70 0
-15 -79 -71 -179 0
-16 -80 -72 -180 0
-15 -79 -111 -139 0
-16 -80 -112 -140 0
-287 -17 -53 -215 0
-288 -18 -54 -216 0
-287 -17 -55 -167 0
-288 -18 -56 -168 0
-17 -179 -55 -279 0
-18 -180 -56 -280 0
-287 -17 -119 -59 0
-288 -18 -120 -60 0
-17 -279 -59 -125 0
-18 -280 -60 -126 0
-239 -17 -179 -59 0
-240 -18 -180 -60 0
-63 -17 -95 -287 0
-64 -18 -96 -288 0
-287 -17 -87 -65 0
-288 -18 -88 -66 0
-17 -69 -89 -251 0
-18 -70 -90 -252 0
-17 -69 -209 -125 0
-18 -70 -210 -126 0
-17 -83 -71 -251 0
-18 -84 -72 -252 0
-239 -17 -71 -89 0
-240 -18 -72 -90 0
-215 -17 -71 -107 0
-216 -18 -72 -108 0
-17 -131 -197 -71 0
-18 -132 -198 -72 0
-143 -17 -71 -191 0
-144 -18 -72 -192 0
-17 -181 -125 -77 0
-18 -182 -126 -78 0
-129 -17 -179 -77 0
-130 -18 -180 -78 0
-79 -17 -179 -119 0
-80 -18 -180 -120 0
-17 -83 -167 -125 0
-18 -84 -168 -126 0
-17 -101 -169 -89 0
-18 -102 -170 -90 0
-159 -17 -119 -89 0
-160 -18 -120 -90 0
-129 -17 -89 -155 0
-130 -18 -90 -156 0
-63 -279 -19 -223 0
-64 -280 -20 -224 0
-65 -19 -263 -219 0
-66 -20 -264 -220 0
-271 -19 -67 -169 0
-272 -20 -68 -170 0
-19 -69 -279 -139 0
-20 -70 -280 -140 0
-19 -69 -179 -251 0
-20 -70 -180 -252 0
-239 -209 -19 -69 0
-240 -210 -20 -70 0
-287 -19 -71 -119 0
-288 -20 -72 -120 0
-279 -19 -71 -125 0
-280 -20 -72 -126 0
-239 -19 -71 -179 0
-240 -20 -72 -180 0
-239 -129 -19 -77 0
-240 -130 -20 -78 0
-79 -19 -287 -89 0
-80 -20 -288 -90 0
-79 -19 -103 -259 0
-80 -20 -104 -260 0
-79 -19 -119 -239 0
-80 -20 -120 -240 0
-79 -19 -223 -139 0
-80 -20 -224 -140 0
-79 -209 -19 -167 0
-80 -210 -20 -168 0
-223 -19 -83 -119 0
-224 -20 -84 -120 0
-209 -19 -83 -139 0
-210 -20 -84 -140 0
-19 -87 -219 -109 0
-20 -88 -220 -110 0
-19 -215 -89 -107 0
-20 -216 -90 -108 0
-197 -19 -131 -89 0
-198 -20 -132 -90 0
-143 -19 -191 -89 0
-144 -20 -192 -90 0
-95 -19 -119 -191 0
-96 -20 -120 -192 0
-95 -19 -143 -179 0
-96 -20 -144 -180 0
-111 -19 -119 -167 0
-112 -20 -120 -168 0
-111 -19 -159 -139 0
-112 -20 -160 -140 0
-129 -19 -119 -155 0
-130 -20 -120 -156 0
-287 -263 -21 -71 0
-288 -264 -22 -72 0
-83 -21 -263 -153 0
-84 -22 -264 -154 0
-263 -131 -21 -87 0
-264 -132 -22 -88 0
-197 -21 -89 -219 0
-198 -22 -90 -220 0
-131 -21 -167 -153 0
-132 -22 -168 -154 0
-287 -83 -23 -251 0
-288 -84 -24 -252 0
-287 -197 -23 -87 0
-288 -198 -24 -88 0
-287 -179 -23 -89 0
-288 -180 -24 -90 0
-215 -23 -89 -269 0
-216 -24 -90 -270 0
-95 -143 -23 -287 0
-96 -144 -24 -288 0
-95 -263 -175 -23 0
-96 -264 -176 -24 0
-95 -255 -23 -191 0
-96 -256 -24 -192 0
-99 -299 -23 -119 0
-100 -300 -24 -120 0
-199 -99 -23 -239 0
-200 -100 -24 -240 0
-271 -101 -23 -135 0
-272 -102 -24 -136 0
-269 -23 -107 -119 0
-270 -24 -108 -120 0
-263 -23 -119 -109 0
-264 -24 -120 -110 0
-111 -113 -23 -265 0
-112 -114 -24 -266 0
-111 -23 -251 -125 0
-112 -24 -252 -126 0
-111 -23 -239 -139 0
-112 -24 -240 -140 0
-111 -23 -223 -167 0
-112 -24 -224 -168 0
-113 -227 -23 -151 0
-114 -228 -24 -152 0
-223 -139 -23 -119 0
-224 -140 -24 -120 0
-209 -23 -119 -167 0
-210 -24 -120 -168 0
-175 -131 -23 -191 0
-176 -132 -24 -192 0
-175 -23 -153 -167 0
-176 -24 -154 -168 0
-259 -119 -25 -155 0
-260 -120 -26 -156 0
-233 -181 -25 -125 0
-234 -182 -26 -126 0
-239 -129 -25 -155 0
-240 -130 -26 -156 0
-111 -251 -287 -27 0
-112 -252 -288 -28 0
-287 -167 -27 -125 0
-288 -168 -28 -126 0
-179 -279 -27 -125 0
-180 -280 -28 -126 0
-127 -223 -255 -27 0
-128 -224 -256 -28 0
-139 -179 -251 -27 0
-140 -180 -252 -28 0
-239 -139 -27 -209 0
-240 -140 -28 -210 0
-143 -251 -167 -27 0
-144 -252 -168 -28 0
-209 -203 -169 -27 0
-210 -204 -170 -28 0
-287 -279 -125 -29 0
-288 -280 -126 -30 0
-275 -229 -137 -29 0
-276 -230 -138 -30 0
-209 -279 -139 -29 0
-210 -280 -140 -30 0
-143 -179 -287 -29 0
-144 -180 -288 -30 0
-143 -269 -215 -29 0
-144 -270 -216 -30 0
-159 -175 -263 -29 0
-160 -176 -264 -30 0
-159 -191 -255 -29 0
-160 -192 -256 -30 0
-179 -167 -251 -29 0
-180 -168 -252 -30 0
-239 -209 -167 -29 0
-240 -210 -168 -30 0
-239 -169 -203 -29 0
-240 -170 -204 -30 0
-209 -237 -169 -29 0
-210 -238 -170 -30 0
-31 -279 -159 -223 0
-32 -280 -160 -224 0
-35 -251 -293 -195 0
-36 -252 -294 -196 0
-287 -35 -197 -263 0
-288 -36 -198 -264 0
-207 -35 -287 -233 0
-208 -36 -288 -234 0
-209 -35 -279 -251 0
-210 -36 -280 -252 0
-35 -251 -265 -227 0
-36 -252 -266 -228 0
-1 -3 -71 -17 0
-2 -4 -72 -18 0
-1 -3 -19 -39 0
-2 -4 -20 -40 0
-15 -1 -5 -23 0
-16 -2 -6 -24 0
-47 -1 -7 -11 0
-48 -2 -8 -12 0
-1 -9 -11 -29 0
-2 -10 -12 -30 0
-53 -3 -5 -215 0
-54 -4 -6 -216 0
-3 -5 -55 -167 0
-4 -6 -56 -168 0
-3 -5 -119 -59 0
-4 -6 -120 -60 0
-63 -95 -3 -5 0
-64 -96 -4 -6 0
-65 -3 -5 -87 0
-66 -4 -6 -88 0
-271 -33 -3 -7 0
-272 -34 -4 -8 0
-143 -3 -35 -7 0
-144 -4 -36 -8 0
-79 -3 -7 -39 0
-80 -4 -8 -40 0
-3 -119 -9 -29 0
-4 -120 -10 -30 0
-31 -3 -79 -9 0
-32 -4 -80 -10 0
-155 -3 -25 -11 0
-156 -4 -26 -12 0
-3 -59 -11 -29 0
-4 -60 -12 -30 0
-31 -47 -3 -11 0
-32 -48 -4 -12 0
-3 -23 -167 -13 0
-4 -24 -168 -14 0
-15 -3 -95 -23 0
-16 -4 -96 -24 0
-17 -3 -23 -71 0
-18 -4 -24 -72 0
-21 -3 -19 -109 0
-22 -4 -20 -110 0
-3 -19 -23 -59 0
-4 -20 -24 -60 0
-239 -5 -7 -119 0
-240 -6 -8 -120 0
-127 -5 -7 -191 0
-128 -6 -8 -192 0
-175 -131 -5 -7 0
-176 -132 -6 -8 0
-69 -5 -9 -209 0
-70 -6 -10 -210 0
-179 -5 -71 -9 0
-180 -6 -72 -10 0
-129 -5 -9 -77 0
-130 -6 -10 -78 0
-79 -5 -119 -9 0
-80 -6 -120 -10 0
-53 -5 -215 -11 0
-54 -6 -216 -12 0
-5 -55 -11 -167 0
-6 -56 -12 -168 0
-5 -119 -11 -59 0
-6 -120 -12 -60 0
-63 -95 -5 -11 0
-64 -96 -6 -12 0
-65 -5 -87 -11 0
-66 -6 -88 -12 0
-47 -5 -167 -13 0
-48 -6 -168 -14 0
-83 -5 -55 -13 0
-84 -6 -56 -14 0
-69 -5 -59 -13 0
-70 -6 -60 -14 0
-15 -47 -95 -5 0
-16 -48 -96 -6 0
-17 -179 -5 -39 0
-18 -180 -6 -40 0
-47 -17 -5 -71 0
-48 -18 -6 -72 0
-19 -5 -39 -119 0
-20 -6 -40 -120 0
-47 -19 -5 -59 0
-48 -20 -6 -60 0
-21 -197 -35 -5 0
-22 -198 -36 -6 0
-21 -65 -5 -43 0
-22 -66 -6 -44 0
-271 -33 -5 -23 0
-272 -34 -6 -24 0
-143 -35 -5 -23 0
-144 -36 -6 -24 0
-79 -5 -23 -39 0
-80 -6 -24 -40 0
-31 -5 -239 -29 0
-32 -6 -240 -30 0
-35 -5 -89 -29 0
-36 -6 -90 -30 0
-5 -39 -59 -29 0
-6 -40 -60 -30 0
-223 -279 -7 -9 0
-224 -280 -8 -10 0
-239 -7 -11 -119 0
-240 -8 -12 -120 0
-127 -7 -191 -11 0
-128 -8 -192 -12 0
-175 -131 -7 -11 0
-176 -132 -8 -12 0
-95 -7 -167 -13 0
-96 -8 -168 -14 0
-15 -7 -287 -71 0
-16 -8 -288 -72 0
-15 -79 -159 -7 0
-16 -80 -160 -8 0
-63 -17 -7 -287 0
-64 -18 -8 -288 0
-143 -17 -7 -71 0
-144 -18 -8 -72 0
-239 -19 -7 -59 0
-240 -20 -8 -60 0
-63 -19 -159 -7 0
-64 -20 -160 -8 0
-111 -19 -69 -7 0
-112 -20 -70 -8 0
-215 -53 -7 -23 0
-216 -54 -8 -24 0
-7 -23 -59 -119 0
-8 -24 -60 -120 0
-63 -95 -7 -23 0
-64 -96 -8 -24 0
-65 -7 -23 -87 0
-66 -8 -24 -88 0
-207 -51 -7 -25 0
-208 -52 -8 -26 0
-47 -7 -239 -29 0
-48 -8 -240 -30 0
-79 -7 -59 -29 0
-80 -8 -60 -30 0
-31 -47 -7 -191 0
-32 -48 -8 -192 0
-47 -35 -143 -7 0
-48 -36 -144 -8 0
-219 -7 -39 -43 0
-220 -8 -40 -44 0
-47 -7 -39 -119 0
-48 -8 -40 -120 0
-49 -99 -7 -39 0
-50 -100 -8 -40 0
-47 -111 -7 -41 0
-48 -112 -8 -42 0
-265 -9 -189 -13 0
-266 -10 -190 -14 0
-15 -223 -9 -139 0
-16 -224 -10 -140 0
-17 -9 -107 -269 0
-18 -10 -108 -270 0
-17 -179 -119 -9 0
-18 -180 -120 -10 0
-95 -19 -239 -9 0
-96 -20 -240 -10 0
-199 -19 -99 -9 0
-200 -20 -100 -10 0
-111 -19 -9 -139 0
-112 -20 -10 -140 0
-21 -87 -9 -219 0
-22 -88 -10 -220 0
-89 -197 -21 -9 0
-90 -198 -22 -10 0
-79 -239 -23 -9 0
-80 -240 -24 -10 0
-143 -89 -23 -9 0
-144 -90 -24 -10 0
-95 -23 -9 -119 0
-96 -24 -10 -120 0
-79 -139 -9 -27 0
-80 -140 -10 -28 0
-83 -119 -9 -27 0
-84 -120 -10 -28 0
-179 -71 -9 -29 0
-180 -72 -10 -30 0
-129 -77 -9 -29 0
-130 -78 -10 -30 0
-79 -119 -9 -29 0
-80 -120 -10 -30 0
-33 -67 -169 -9 0
-34 -68 -170 -10 0
-35 -71 -9 -119 0
-36 -72 -10 -120 0
-79 -35 -89 -9 0
-80 -36 -90 -10 0
-239 -39 -9 -59 0
-240 -40 -10 -60 0
-63 -159 -39 -9 0
-64 -160 -40 -10 0
-209 -41 -9 -59 0
-210 -42 -10 -60 0
-65 -119 -9 -43 0
-66 -120 -10 -44 0
-47 -159 -9 -59 0
-48 -160 -10 -60 0
-47 -63 -119 -9 0
-48 -64 -120 -10 0
-49 -149 -9 -59 0
-50 -150 -10 -60 0
-63 -95 -9 -59 0
-64 -96 -10 -60 0
-65 -87 -9 -59 0
-66 -88 -10 -60 0
-191 -17 -287 -11 0
-192 -18 -288 -12 0
-17 -197 -263 -11 0
-18 -198 -264 -12 0
-207 -17 -233 -11 0
-208 -18 -234 -12 0
-299 -19 -149 -11 0
-300 -20 -150 -12 0
-155 -19 -11 -259 0
-156 -20 -12 -260 0
-159 -19 -239 -11 0
-160 -20 -240 -12 0
-209 -19 -167 -11 0
-210 -20 -168 -12 0
-19 -203 -169 -11 0
-20 -204 -170 -12 0
-131 -21 -263 -11 0
-132 -22 -264 -12 0
-143 -197 -21 -11 0
-144 -198 -22 -12 0
-21 -167 -153 -11 0
-22 -168 -154 -12 0
-239 -23 -11 -119 0
-240 -24 -12 -120 0
-127 -23 -191 -11 0
-128 -24 -192 -12 0
-175 -131 -23 -11 0
-176 -132 -24 -12 0
-97 -293 -11 -27 0
-98 -294 -12 -28 0
-101 -237 -11 -27 0
-102 -238 -12 -28 0
-111 -167 -11 -27 0
-112 -168 -12 -28 0
-139 -119 -11 -27 0
-140 -120 -12 -28 0
-95 -239 -11 -29 0
-96 -240 -12 -30 0
-99 -199 -11 -29 0
-100 -200 -12 -30 0
-111 -139 -11 -29 0
-112 -140 -12 -30 0
-31 -95 -191 -11 0
-32 -96 -192 -12 0
-33 -101 -135 -11 0
-34 -102 -136 -12 0
-35 -197 -87 -11 0
-36 -198 -88 -12 0
-35 -179 -89 -11 0
-36 -180 -90 -12 0
-95 -35 -143 -11 0
-96 -36 -144 -12 0
-79 -39 -239 -11 0
-80 -40 -240 -12 0
-143 -39 -89 -11 0
-144 -40 -90 -12 0
-95 -39 -11 -119 0
-96 -40 -12 -120 0
-79 -209 -41 -11 0
-80 -210 -42 -12 0
-95 -111 -41 -11 0
-96 -112 -42 -12 0
-131 -87 -11 -43 0
-132 -88 -12 -44 0
-47 -71 -287 -11 0
-48 -72 -288 -12 0
-47 -79 -159 -11 0
-48 -80 -160 -12 0
-79 -49 -149 -11 0
-80 -50 -150 -12 0
-51 -71 -233 -11 0
-52 -72 -234 -12 0
-155 -51 -11 -77 0
-156 -52 -12 -78 0
-215 -53 -71 -11 0
-216 -54 -72 -12 0
-239 -69 -55 -11 0
-240 -70 -56 -12 0
-209 -69 -11 -59 0
-210 -70 -12 -60 0
-179 -71 -11 -59 0
-180 -72 -12 -60 0
-129 -77 -11 -59 0
-130 -78 -12 -60 0
-79 -119 -11 -59 0
-80 -120 -12 -60 0
-79 -65 -11 -109 0
-80 -66 -12 -110 0
-191 -23 -223 -13 0
-192 -24 -224 -14 0
-285 -153 -25 -13 0
-286 -154 -26 -14 0
-139 -279 -27 -13 0
-140 -280 -28 -14 0
-143 -251 -27 -13 0
-144 -252 -28 -14 0
-209 -29 -139 -13 0
-210 -30 -140 -14 0
-31 -127 -223 -13 0
-32 -128 -224 -14 0
-111 -35 -251 -13 0
-112 -36 -252 -14 0
-35 -167 -125 -13 0
-36 -168 -126 -14 0
-101 -237 -41 -13 0
-102 -238 -42 -14 0
-111 -167 -41 -13 0
-112 -168 -42 -14 0
-119 -41 -139 -13 0
-120 -42 -140 -14 0
-111 -153 -43 -13 0
-112 -154 -44 -14 0
-47 -95 -223 -13 0
-48 -96 -224 -14 0
-53 -125 -107 -13 0
-54 -126 -108 -14 0
-95 -55 -167 -13 0
-96 -56 -168 -14 0
-83 -279 -59 -13 0
-84 -280 -60 -14 0
-79 -69 -279 -13 0
-80 -70 -280 -14 0
-209 -83 -69 -13 0
-210 -84 -70 -14 0
-95 -71 -125 -13 0
-96 -72 -126 -14 0
-83 -181 -77 -13 0
-84 -182 -78 -14 0
-95 -83 -111 -13 0
-96 -84 -112 -14 0
-15 -233 -287 -25 0
-16 -234 -288 -26 0
-15 -179 -287 -29 0
-16 -180 -288 -30 0
-15 -191 -239 -29 0
-16 -192 -240 -30 0
-15 -35 -143 -287 0
-16 -36 -144 -288 0
-15 -39 -223 -139 0
-16 -40 -224 -140 0
-15 -287 -41 -125 0
-16 -288 -42 -126 0
-15 -47 -119 -239 0
-16 -48 -120 -240 0
-15 -47 -127 -191 0
-16 -48 -128 -192 0
-15 -47 -131 -175 0
-16 -48 -132 -176 0
-15 -129 -51 -159 0
-16 -130 -52 -160 0
-15 -53 -287 -107 0
-16 -54 -288 -108 0
-15 -159 -119 -59 0
-16 -160 -120 -60 0
-15 -95 -71 -287 0
-16 -96 -72 -288 0
-15 -79 -95 -239 0
-16 -80 -96 -240 0
-15 -199 -79 -99 0
-16 -200 -80 -100 0
-15 -83 -95 -223 0
-16 -84 -96 -224 0
-191 -17 -35 -287 0
-192 -18 -36 -288 0
-17 -35 -197 -263 0
-18 -36 -198 -264 0
-207 -17 -35 -233 0
-208 -18 -36 -234 0
-239 -17 -179 -39 0
-240 -18 -180 -40 0
-17 -167 -41 -251 0
-18 -168 -42 -252 0
-17 -179 -41 -209 0
-18 -180 -42 -210 0
-175 -17 -197 -43 0
-176 -18 -198 -44 0
-47 -17 -143 -287 0
-48 -18 -144 -288 0
-143 -17 -51 -233 0
-144 -18 -52 -234 0
-143 -17 -53 -215 0
-144 -18 -54 -216 0
-143 -17 -179 -59 0
-144 -18 -180 -60 0
-17 -131 -197 -65 0
-18 -132 -198 -66 0
-17 -69 -119 -251 0
-18 -70 -120 -252 0
-239 -17 -71 -119 0
-240 -18 -72 -120 0
-127 -17 -71 -191 0
-128 -18 -72 -192 0
-175 -17 -131 -71 0
-176 -18 -132 -72 0
-111 -17 -83 -251 0
-112 -18 -84 -252 0
-143 -17 -131 -87 0
-144 -18 -132 -88 0
-17 -89 -107 -269 0
-18 -90 -108 -270 0
-17 -179 -119 -89 0
-18 -180 -120 -90 0
-95 -17 -127 -143 0
-96 -18 -128 -144 0
-223 -279 -19 -39 0
-224 -280 -20 -40 0
-209 -19 -279 -41 0
-210 -20 -280 -42 0
-223 -19 -239 -41 0
-224 -20 -240 -42 0
-47 -19 -287 -179 0
-48 -20 -288 -180 0
-47 -19 -191 -239 0
-48 -20 -192 -240 0
-233 -19 -51 -179 0
-234 -20 -52 -180 0
-19 -53 -215 -179 0
-20 -54 -216 -180 0
-159 -279 -19 -55 0
-160 -280 -20 -56 0
-239 -19 -55 -167 0
-240 -20 -56 -168 0
-299 -19 -149 -59 0
-300 -20 -150 -60 0
-155 -19 -59 -259 0
-156 -20 -60 -260 0
-159 -19 -239 -59 0
-160 -20 -240 -60 0
-209 -19 -167 -59 0
-210 -20 -168 -60 0
-19 -203 -169 -59 0
-20 -204 -170 -60 0
-143 -19 -69 -251 0
-144 -20 -70 -252 0
-143 -19 -71 -239 0
-144 -20 -72 -240 0
-159 -19 -71 -179 0
-160 -20 -72 -180 0
-19 -151 -75 -189 0
-20 -152 -76 -190 0
-239 -19 -87 -131 0
-240 -20 -88 -132 0
-19 -279 -89 -125 0
-20 -280 -90 -126 0
-143 -19 -179 -89 0
-144 -20 -180 -90 0
-95 -19 -127 -239 0
-96 -20 -128 -240 0
-19 -299 -99 -119 0
-20 -300 -100 -120 0
-207 -129 -19 -103 0
-208 -130 -20 -104 0
-19 -119 -107 -269 0
-20 -120 -108 -270 0
-263 -19 -119 -109 0
-264 -20 -120 -110 0
-127 -19 -119 -191 0
-128 -20 -120 -192 0
-175 -19 -119 -131 0
-176 -20 -120 -132 0
-207 -51 -21 -285 0
-208 -52 -22 -286 0
-175 -65 -21 -263 0
-176 -66 -22 -264 0
-285 -21 -155 -77 0
-286 -22 -156 -78 0
-159 -21 -87 -219 0
-160 -22 -88 -220 0
-159 -175 -21 -109 0
-160 -176 -22 -110 0
-143 -197 -131 -21 0
-144 -198 -132 -22 0
-239 -279 -23 -55 0
-240 -280 -24 -56 0
-223 -279 -23 -59 0
-224 -280 -24 -60 0
-239 -65 -23 -219 0
-240 -66 -24 -220 0
-271 -67 -23 -203 0
-272 -68 -24 -204 0
-239 -209 -69 -23 0
-240 -210 -70 -24 0
-191 -23 -287 -71 0
-192 -24 -288 -72 0
-263 -197 -23 -71 0
-264 -198 -24 -72 0
-207 -23 -233 -71 0
-208 -24 -234 -72 0
-79 -179 -23 -287 0
-80 -180 -24 -288 0
-79 -239 -23 -191 0
-80 -240 -24 -192 0
-191 -83 -23 -223 0
-192 -84 -24 -224 0
-175 -263 -23 -87 0
-176 -264 -24 -88 0
-239 -179 -23 -89 0
-240 -180 -24 -90 0
-159 -99 -23 -299 0
-160 -100 -24 -300 0
-239 -101 -23 -169 0
-240 -102 -24 -170 0
-159 -23 -107 -269 0
-160 -24 -108 -270 0
-159 -263 -23 -109 0
-160 -264 -24 -110 0
-299 -149 -23 -119 0
-300 -150 -24 -120 0
-155 -259 -23 -119 0
-156 -260 -24 -120 0
-159 -23 -239 -119 0
-160 -24 -240 -120 0
-203 -23 -169 -119 0
-204 -24 -170 -120 0
-239 -129 -23 -155 0
-240 -130 -24 -156 0
-159 -131 -23 -219 0
-160 -132 -24 -220 0
-159 -209 -23 -139 0
-160 -210 -24 -140 0
-159 -199 -149 -23 0
-160 -200 -150 -24 0
-129 -179 -233 -25 0
-130 -180 -234 -26 0
-239 -83 -279 -27 0
-240 -84 -280 -28 0
-239 -251 -89 -27 0
-240 -252 -90 -28 0
-209 -99 -299 -27 0
-210 -100 -300 -28 0
-107 -209 -27 -269 0
-108 -210 -28 -270 0
-107 -251 -215 -27 0
-108 -252 -216 -28 0
-209 -263 -27 -109 0
-210 -264 -28 -110 0
-239 -209 -119 -27 0
-240 -210 -120 -28 0
-191 -287 -27 -125 0
-192 -288 -28 -126 0
-197 -263 -27 -125 0
-198 -264 -28 -126 0
-207 -233 -27 -125 0
-208 -234 -28 -126 0
-251 -131 -197 -27 0
-252 -132 -198 -28 0
-209 -131 -219 -27 0
-210 -132 -220 -28 0
-139 -265 -27 -189 0
-140 -266 -28 -190 0
-143 -251 -191 -27 0
-144 -252 -192 -28 0
-191 -167 -223 -27 0
-192 -168 -224 -28 0
-239 -99 -299 -29 0
-240 -100 -300 -30 0
-239 -269 -107 -29 0
-240 -270 -108 -30 0
-239 -263 -109 -29 0
-240 -264 -110 -30 0
-223 -279 -119 -29 0
-224 -280 -120 -30 0
-131 -263 -219 -29 0
-132 -264 -220 -30 0
-223 -239 -139 -29 0
-224 -240 -140 -30 0
-149 -199 -299 -29 0
-150 -200 -300 -30 0
-207 -259 -155 -29 0
-208 -260 -156 -30 0
-191 -179 -287 -29 0
-192 -180 -288 -30 0
-179 -197 -263 -29 0
-180 -198 -264 -30 0
-207 -179 -233 -29 0
-208 -180 -234 -30 0
-175 -35 -263 -287 0
-176 -36 -264 -288 0
-191 -35 -287 -255 0
-192 -36 -288 -256 0
-79 -1 -3 -9 0
-80 -2 -4 -10 0
-47 -1 -3 -11 0
-48 -2 -4 -12 0
-15 -1 -3 -31 0
-16 -2 -4 -32 0
-47 -1 -5 -7 0
-48 -2 -6 -8 0
-1 -5 -9 -29 0
-2 -6 -10 -30 0
-1 -5 -23 -11 0
-2 -6 -24 -12 0
-239 -3 -5 -29 0
-240 -4 -6 -30 0
-31 -3 -5 -191 0
-32 -4 -6 -192 0
-35 -143 -3 -5 0
-36 -144 -4 -6 0
-3 -5 -39 -119 0
-4 -6 -40 -120 0
-111 -3 -5 -41 0
-112 -4 -6 -42 0
-47 -95 -3 -5 0
-48 -96 -4 -6 0
-3 -5 -55 -83 0
-4 -6 -56 -84 0
-79 -3 -5 -59 0
-80 -4 -6 -60 0
-287 -17 -3 -7 0
-288 -18 -4 -8 0
-159 -3 -19 -7 0
-160 -4 -20 -8 0
-95 -3 -7 -23 0
-96 -4 -8 -24 0
-31 -3 -63 -7 0
-32 -4 -64 -8 0
-15 -3 -159 -9 0
-16 -4 -160 -10 0
-79 -3 -19 -9 0
-80 -4 -20 -10 0
-3 -23 -9 -59 0
-4 -24 -10 -60 0
-47 -3 -9 -29 0
-48 -4 -10 -30 0
-3 -167 -11 -13 0
-4 -168 -12 -14 0
-15 -3 -95 -11 0
-16 -4 -96 -12 0
-17 -3 -71 -11 0
-18 -4 -72 -12 0
-3 -19 -11 -59 0
-4 -20 -12 -60 0
-47 -3 -23 -11 0
-48 -4 -24 -12 0
-3 -41 -11 -27 0
-4 -42 -12 -28 0
-3 -39 -11 -29 0
-4 -40 -12 -30 0
-3 -23 -41 -13 0
-4 -24 -42 -14 0
-17 -3 -35 -23 0
-18 -4 -36 -24 0
-287 -5 -7 -71 0
-288 -6 -8 -72 0
-79 -5 -7 -239 0
-80 -6 -8 -240 0
-223 -83 -5 -7 0
-224 -84 -6 -8 0
-95 -5 -7 -191 0
-96 -6 -8 -192 0
-111 -5 -7 -167 0
-112 -6 -8 -168 0
-159 -5 -7 -119 0
-160 -6 -8 -120 0
-239 -5 -39 -9 0
-240 -6 -40 -10 0
-209 -41 -5 -9 0
-210 -42 -6 -10 0
-47 -159 -5 -9 0
-48 -160 -6 -10 0
-49 -149 -5 -9 0
-50 -150 -6 -10 0
-5 -119 -9 -59 0
-6 -120 -10 -60 0
-65 -5 -9 -109 0
-66 -6 -10 -110 0
-79 -95 -5 -9 0
-80 -96 -6 -10 0
-239 -5 -11 -29 0
-240 -6 -12 -30 0
-31 -5 -191 -11 0
-32 -6 -192 -12 0
-143 -35 -5 -11 0
-144 -36 -6 -12 0
-5 -39 -11 -119 0
-6 -40 -12 -120 0
-111 -5 -41 -11 0
-112 -6 -42 -12 0
-47 -95 -5 -11 0
-48 -96 -6 -12 0
-83 -5 -55 -11 0
-84 -6 -56 -12 0
-79 -5 -11 -59 0
-80 -6 -12 -60 0
-5 -167 -27 -13 0
-6 -168 -28 -14 0
-5 -29 -139 -13 0
-6 -30 -140 -14 0
-83 -5 -41 -13 0
-84 -6 -42 -14 0
-15 -5 -23 -191 0
-16 -6 -24 -192 0
-15 -31 -95 -5 0
-16 -32 -96 -6 0
-15 -47 -63 -5 0
-16 -48 -64 -6 0
-21 -17 -5 -197 0
-22 -18 -6 -198 0
-143 -17 -5 -23 0
-144 -18 -6 -24 0
-17 -5 -89 -29 0
-18 -6 -90 -30 0
-17 -35 -5 -71 0
-18 -36 -6 -72 0
-19 -5 -23 -119 0
-20 -6 -24 -120 0
-79 -19 -5 -29 0
-80 -20 -6 -30 0
-19 -5 -39 -59 0
-20 -6 -40 -60 0
-31 -63 -5 -23 0
-32 -64 -6 -24 0
-47 -5 -41 -27 0
-48 -6 -42 -28 0
-47 -5 -39 -29 0
-48 -6 -40 -30 0
-287 -179 -7 -9 0
-288 -180 -8 -10 0
-207 -259 -7 -9 0
-208 -260 -8 -10 0
-287 -7 -11 -71 0
-288 -8 -12 -72 0
-79 -7 -239 -11 0
-80 -8 -240 -12 0
-223 -83 -7 -11 0
-224 -84 -8 -12 0
-95 -7 -191 -11 0
-96 -8 -192 -12 0
-111 -7 -11 -167 0
-112 -8 -12 -168 0
-159 -7 -11 -119 0
-160 -8 -12 -120 0
-223 -7 -55 -13 0
-224 -8 -56 -14 0
-159 -69 -7 -13 0
-160 -70 -8 -14 0
-79 -7 -139 -13 0
-80 -8 -140 -14 0
-15 -47 -7 -191 0
-16 -48 -8 -192 0
-15 -63 -127 -7 0
-16 -64 -128 -8 0
-287 -17 -35 -7 0
-288 -18 -36 -8 0
-47 -17 -143 -7 0
-48 -18 -144 -8 0
-95 -17 -7 -71 0
-96 -18 -8 -72 0
-79 -17 -7 -89 0
-80 -18 -8 -90 0
-159 -19 -7 -39 0
-160 -20 -8 -40 0
-47 -19 -7 -119 0
-48 -20 -8 -120 0
-95 -19 -7 -59 0
-96 -20 -8 -60 0
-239 -7 -23 -29 0
-240 -8 -24 -30 0
-31 -191 -7 -23 0
-32 -192 -8 -24 0
-143 -35 -7 -23 0
-144 -36 -8 -24 0
-39 -7 -23 -119 0
-40 -8 -24 -120 0
-111 -41 -7 -23 0
-112 -42 -8 -24 0
-47 -95 -7 -23 0
-48 -96 -8 -24 0
-55 -83 -7 -23 0
-56 -84 -8 -24 0
-79 -7 -23 -59 0
-80 -8 -24 -60 0
-95 -7 -41 -27 0
-96 -8 -42 -28 0
-47 -83 -7 -27 0
-48 -84 -8 -28 0
-95 -7 -39 -29 0
-96 -8 -40 -30 0
-47 -79 -7 -29 0
-48 -80 -8 -30 0
-47 -35 -7 -71 0
-48 -36 -8 -72 0
-47 -65 -7 -43 0
-48 -66 -8 -44 0
-279 -9 -139 -13 0
-280 -10 -140 -14 0
-239 -167 -9 -13 0
-240 -168 -10 -14 0
-237 -169 -9 -13 0
-238 -170 -10 -14 0
-15 -95 -239 -9 0
-16 -96 -240 -10 0
-15 -191 -119 -9 0
-16 -192 -120 -10 0
-17 -69 -9 -251 0
-18 -70 -10 -252 0
-239 -17 -71 -9 0
-240 -18 -72 -10 0
-17 -179 -89 -9 0
-18 -180 -90 -10 0
-143 -17 -119 -9 0
-144 -18 -120 -10 0
-17 -9 -139 -125 0
-18 -10 -140 -126 0
-279 -19 -55 -9 0
-280 -20 -56 -10 0
-239 -19 -9 -59 0
-240 -20 -10 -60 0
-19 -179 -71 -9 0
-20 -180 -72 -10 0
-79 -19 -159 -9 0
-80 -20 -160 -10 0
-143 -19 -89 -9 0
-144 -20 -90 -10 0
-129 -19 -103 -9 0
-130 -20 -104 -10 0
-69 -21 -153 -9 0
-70 -22 -154 -10 0
-47 -239 -23 -9 0
-48 -240 -24 -10 0
-159 -23 -9 -59 0
-160 -24 -10 -60 0
-79 -23 -9 -119 0
-80 -24 -10 -120 0
-279 -39 -9 -27 0
-280 -40 -10 -28 0
-239 -41 -9 -27 0
-240 -42 -10 -28 0
-139 -55 -9 -27 0
-140 -56 -10 -28 0
-111 -69 -9 -27 0
-112 -70 -10 -28 0
-239 -39 -9 -29 0
-240 -40 -10 -30 0
-209 -41 -9 -29 0
-210 -42 -10 -30 0
-47 -159 -9 -29 0
-48 -160 -10 -30 0
-49 -149 -9 -29 0
-50 -150 -10 -30 0
-119 -9 -59 -29 0
-120 -10 -60 -30 0
-65 -109 -9 -29 0
-66 -110 -10 -30 0
-79 -95 -9 -29 0
-80 -96 -10 -30 0
-35 -179 -39 -9 0
-36 -180 -40 -10 0
-35 -89 -71 -9 0
-36 -90 -72 -10 0
-47 -39 -9 -119 0
-48 -40 -10 -120 0
-95 -39 -9 -59 0
-96 -40 -10 -60 0
-41 -69 -83 -9 0
-42 -70 -84 -10 0
-143 -17 -287 -11 0
-144 -18 -288 -12 0
-17 -251 -167 -11 0
-18 -252 -168 -12 0
-239 -17 -179 -11 0
-240 -18 -180 -12 0
-19 -299 -99 -11 0
-20 -300 -100 -12 0
-107 -19 -11 -269 0
-108 -20 -12 -270 0
-19 -263 -11 -109 0
-20 -264 -12 -110 0
-239 -19 -119 -11 0
-240 -20 -120 -12 0
-19 -219 -131 -11 0
-20 -220 -132 -12 0
-139 -19 -11 -209 0
-140 -20 -12 -210 0
-19 -149 -199 -11 0
-20 -150 -200 -12 0
-159 -19 -191 -11 0
-160 -20 -192 -12 0
-263 -21 -87 -11 0
-264 -22 -88 -12 0
-175 -131 -21 -11 0
-176 -132 -22 -12 0
-287 -23 -11 -71 0
-288 -24 -12 -72 0
-79 -23 -239 -11 0
-80 -24 -240 -12 0
-223 -83 -23 -11 0
-224 -84 -24 -12 0
-95 -23 -191 -11 0
-96 -24 -192 -12 0
-111 -23 -11 -167 0
-112 -24 -12 -168 0
-159 -23 -11 -119 0
-160 -24 -12 -120 0
-233 -71 -25 -11 0
-234 -72 -26 -12 0
-207 -25 -11 -77 0
-208 -26 -12 -78 0
-155 -103 -25 -11 0
-156 -104 -26 -12 0
-279 -59 -11 -27 0
-280 -60 -12 -28 0
-209 -69 -11 -27 0
-210 -70 -12 -28 0
-181 -77 -11 -27 0
-182 -78 -12 -28 0
-83 -167 -11 -27 0
-84 -168 -12 -28 0
-279 -55 -11 -29 0
-280 -56 -12 -30 0
-239 -59 -11 -29 0
-240 -60 -12 -30 0
-179 -71 -11 -29 0
-180 -72 -12 -30 0
-79 -159 -11 -29 0
-80 -160 -12 -30 0
-143 -89 -11 -29 0
-144 -90 -12 -30 0
-129 -103 -11 -29 0
-130 -104 -12 -30 0
-31 -63 -191 -11 0
-32 -64 -192 -12 0
-31 -95 -127 -11 0
-32 -96 -128 -12 0
-47 -35 -287 -11 0
-48 -36 -288 -12 0
-35 -51 -233 -11 0
-36 -52 -234 -12 0
-35 -53 -215 -11 0
-36 -54 -216 -12 0
-35 -179 -11 -59 0
-36 -180 -12 -60 0
-143 -35 -71 -11 0
-144 -36 -72 -12 0
-35 -83 -11 -125 0
-36 -84 -12 -126 0
-35 -119 -89 -11 0
-36 -120 -90 -12 0
-47 -39 -239 -11 0
-48 -40 -240 -12 0
-159 -39 -11 -59 0
-160 -40 -12 -60 0
-79 -39 -11 -119 0
-80 -40 -12 -120 0
-47 -223 -41 -11 0
-48 -224 -42 -12 0
-55 -41 -11 -167 0
-56 -42 -12 -168 0
-71 -41 -11 -125 0
-72 -42 -12 -126 0
-111 -83 -41 -11 0
-112 -84 -42 -12 0
-65 -131 -11 -43 0
-66 -132 -12 -44 0
-47 -63 -127 -11 0
-48 -64 -128 -12 0
-129 -51 -11 -59 0
-130 -52 -12 -60 0
-51 -103 -11 -77 0
-52 -104 -12 -78 0
-107 -53 -71 -11 0
-108 -54 -72 -12 0
-95 -83 -55 -11 0
-96 -84 -56 -12 0
-65 -109 -11 -59 0
-66 -110 -12 -60 0
-79 -95 -11 -59 0
-80 -96 -12 -60 0
-79 -71 -89 -11 0
-80 -72 -90 -12 0
-197 -21 -251 -13 0
-198 -22 -252 -14 0
-287 -23 -125 -13 0
-288 -24 -126 -14 0
-143 -23 -251 -13 0
-144 -24 -252 -14 0
-223 -23 -167 -13 0
-224 -24 -168 -14 0
-125 -233 -25 -13 0
-126 -234 -26 -14 0
-111 -223 -27 -13 0
-112 -224 -28 -14 0
-209 -119 -27 -13 0
-210 -120 -28 -14 0
-175 -153 -27 -13 0
-176 -154 -28 -14 0
-279 -83 -29 -13 0
-280 -84 -30 -14 0
-29 -89 -251 -13 0
-30 -90 -252 -14 0
-179 -29 -125 -13 0
-180 -30 -126 -14 0
-29 -167 -139 -13 0
-30 -168 -140 -14 0
-35 -71 -251 -13 0
-36 -72 -252 -14 0
-143 -35 -125 -13 0
-144 -36 -126 -14 0
-223 -69 -39 -13 0
-224 -70 -40 -14 0
-111 -39 -139 -13 0
-112 -40 -140 -14 0
-279 -41 -59 -13 0
-280 -42 -60 -14 0
-209 -69 -41 -13 0
-210 -70 -42 -14 0
-77 -181 -41 -13 0
-78 -182 -42 -14 0
-83 -167 -41 -13 0
-84 -168 -42 -14 0
-87 -153 -43 -13 0
-88 -154 -44 -14 0
-159 -69 -55 -13 0
-160 -70 -56 -14 0
-79 -55 -139 -13 0
-80 -56 -140 -14 0
-83 -69 -119 -13 0
-84 -70 -120 -14 0
-15 -159 -279 -27 0
-16 -160 -280 -28 0
-15 -159 -239 -29 0
-16 -160 -240 -30 0
-15 -31 -127 -255 0
-16 -32 -128 -256 0
-15 -35 -95 -287 0
-16 -36 -96 -288 0
-15 -35 -143 -191 0
-16 -36 -144 -192 0
-15 -35 -159 -179 0
-16 -36 -160 -180 0
-15 -95 -39 -239 0
-16 -96 -40 -240 0
-15 -39 -191 -119 0
-16 -40 -192 -120 0
-15 -95 -223 -41 0
-16 -96 -224 -42 0
-15 -111 -191 -41 0
-16 -112 -192 -42 0
-15 -47 -71 -287 0
-16 -48 -72 -288 0
-15 -47 -79 -239 0
-16 -48 -80 -240 0
-15 -47 -83 -223 0
-16 -48 -84 -224 0
-15 -47 -95 -191 0
-16 -48 -96 -192 0
-15 -47 -111 -167 0
-16 -48 -112 -168 0
-15 -47 -159 -119 0
-16 -48 -160 -120 0
-15 -83 -55 -191 0
-16 -84 -56 -192 0
-15 -95 -55 -167 0
-16 -96 -56 -168 0
-15 -79 -191 -59 0
-16 -80 -192 -60 0
-15 -95 -159 -59 0
-16 -96 -160 -60 0
-15 -95 -143 -71 0
-16 -96 -144 -72 0
-15 -79 -143 -89 0
-16 -80 -144 -90 0
-15 -129 -79 -103 0
-16 -130 -80 -104 0
-15 -95 -87 -131 0
-16 -96 -88 -132 0
-239 -17 -287 -29 0
-240 -18 -288 -30 0
-17 -279 -251 -29 0
-18 -280 -252 -30 0
-31 -17 -191 -287 0
-32 -18 -192 -288 0
-143 -17 -35 -287 0
-144 -18 -36 -288 0
-17 -35 -167 -251 0
-18 -36 -168 -252 0
-239 -17 -35 -179 0
-240 -18 -36 -180 0
-287 -17 -39 -119 0
-288 -18 -40 -120 0
-143 -17 -39 -239 0
-144 -18 -40 -240 0
-111 -17 -287 -41 0
-112 -18 -288 -42 0
-17 -41 -251 -125 0
-18 -42 -252 -126 0
-143 -17 -223 -41 0
-144 -18 -224 -42 0
-47 -17 -95 -287 0
-48 -18 -96 -288 0
-47 -17 -143 -191 0
-48 -18 -144 -192 0
-47 -17 -179 -159 0
-48 -18 -180 -160 0
-17 -299 -89 -49 0
-18 -300 -90 -50 0
-17 -179 -149 -49 0
-18 -180 -150 -50 0
-17 -51 -103 -233 0
-18 -52 -104 -234 0
-17 -53 -89 -269 0
-18 -54 -90 -270 0
-17 -53 -215 -107 0
-18 -54 -216 -108 0
-287 -17 -83 -55 0
-288 -18 -84 -56 0
-143 -17 -55 -167 0
-144 -18 -56 -168 0
-79 -17 -287 -59 0
-80 -18 -288 -60 0
-239 -17 -89 -59 0
-240 -18 -90 -60 0
-17 -179 -119 -59 0
-18 -180 -120 -60 0
-143 -17 -159 -59 0
-144 -18 -160 -60 0
-17 -89 -219 -65 0
-18 -90 -220 -66 0
-17 -179 -109 -65 0
-18 -180 -110 -66 0
-17 -69 -89 -209 0
-18 -70 -90 -210 0
-79 -17 -71 -239 0
-80 -18 -72 -240 0
-223 -17 -83 -71 0
-224 -18 -84 -72 0
-95 -17 -71 -191 0
-96 -18 -72 -192 0
-111 -17 -71 -167 0
-112 -18 -72 -168 0
-159 -17 -71 -119 0
-160 -18 -72 -120 0
-79 -17 -191 -89 0
-80 -18 -192 -90 0
-79 -17 -95 -179 0
-80 -18 -96 -180 0
-143 -17 -83 -125 0
-144 -18 -84 -126 0
-143 -17 -119 -89 0
-144 -18 -120 -90 0
-17 -89 -139 -125 0
-18 -90 -140 -126 0
-239 -19 -35 -287 0
-240 -20 -36 -288 0
-19 -35 -279 -251 0
-20 -36 -280 -252 0
-287 -19 -39 -179 0
-288 -20 -40 -180 0
-207 -19 -39 -259 0
-208 -20 -40 -260 0
-279 -19 -167 -41 0
-280 -20 -168 -42 0
-239 -209 -19 -41 0
-240 -210 -20 -42 0
-19 -279 -153 -43 0
-20 -280 -154 -44 0
-19 -229 -183 -45 0
-20 -230 -184 -46 0
-47 -19 -159 -239 0
-48 -20 -160 -240 0
-49 -19 -119 -299 0
-50 -20 -120 -300 0
-239 -49 -19 -149 0
-240 -50 -20 -150 0
-129 -19 -51 -259 0
-130 -20 -52 -260 0
-19 -53 -119 -269 0
-20 -54 -120 -270 0
-111 -279 -19 -55 0
-112 -280 -20 -56 0
-223 -19 -55 -139 0
-224 -20 -56 -140 0
-19 -299 -99 -59 0
-20 -300 -100 -60 0
-107 -19 -59 -269 0
-108 -20 -60 -270 0
-19 -263 -59 -109 0
-20 -264 -60 -110 0
-239 -19 -119 -59 0
-240 -20 -120 -60 0
-19 -219 -131 -59 0
-20 -220 -132 -60 0
-139 -19 -59 -209 0
-140 -20 -60 -210 0
-19 -149 -199 -59 0
-20 -150 -200 -60 0
-159 -19 -191 -59 0
-160 -20 -192 -60 0
-239 -65 -19 -109 0
-240 -66 -20 -110 0
-65 -19 -119 -219 0
-66 -20 -120 -220 0
-111 -19 -69 -223 0
-112 -20 -70 -224 0
-209 -19 -69 -119 0
-210 -20 -70 -120 0
-175 -19 -69 -153 0
-176 -20 -70 -154 0
-287 -19 -71 -89 0
-288 -20 -72 -90 0
-143 -19 -71 -179 0
-144 -20 -72 -180 0
-79 -19 -95 -239 0
-80 -20 -96 -240 0
-79 -19 -119 -191 0
-80 -20 -120 -192 0
-19 -83 -89 -251 0
-20 -84 -90 -252 0
-19 -83 -179 -125 0
-20 -84 -180 -126 0
-19 -83 -139 -167 0
-20 -84 -140 -168 0
-19 -179 -119 -89 0
-20 -180 -120 -90 0
-143 -19 -159 -89 0
-144 -20 -160 -90 0
-19 -101 -119 -169 0
-20 -102 -120 -170 0
-159 -129 -19 -103 0
-160 -130 -20 -104 0
-143 -19 -139 -125 0
-144 -20 -140 -126 0
-65 -131 -21 -263 0
-66 -132 -22 -264 0
-69 -21 -153 -219 0
-70 -22 -154 -220 0
-175 -197 -21 -71 0
-176 -198 -22 -72 0
-143 -197 -21 -87 0
-144 -198 -22 -88 0
-239 -49 -23 -299 0
-240 -50 -24 -300 0
-287 -51 -23 -233 0
-288 -52 -24 -234 0
-215 -53 -23 -287 0
-216 -54 -24 -288 0
-239 -53 -23 -269 0
-240 -54 -24 -270 0
-195 -293 -23 -55 0
-196 -294 -24 -56 0
-209 -23 -55 -279 0
-210 -24 -56 -280 0
-227 -23 -55 -265 0
-228 -24 -56 -266 0
-287 -179 -23 -59 0
-288 -180 -24 -60 0
-207 -259 -23 -59 0
-208 -260 -24 -60 0
-63 -255 -23 -191 0
-64 -256 -24 -192 0
-175 -65 -23 -263 0
-176 -66 -24 -264 0
-223 -209 -69 -23 0
-224 -210 -70 -24 0
-143 -23 -287 -71 0
-144 -24 -288 -72 0
-251 -23 -71 -167 0
-252 -24 -72 -168 0
-239 -179 -23 -71 0
-240 -180 -24 -72 0
-223 -181 -23 -77 0
-224 -182 -24 -78 0
-79 -159 -23 -239 0
-80 -160 -24 -240 0
-287 -83 -23 -125 0
-288 -84 -24 -126 0
-143 -83 -23 -251 0
-144 -84 -24 -252 0
-223 -83 -23 -167 0
-224 -84 -24 -168 0
-263 -131 -23 -87 0
-264 -132 -24 -88 0
-287 -23 -89 -119 0
-288 -24 -90 -120 0
-143 -239 -23 -89 0
-144 -240 -24 -90 0
-95 -127 -23 -255 0
-96 -128 -24 -256 0
-111 -97 -293 -23 0
-112 -98 -294 -24 0
-259 -23 -103 -119 0
-260 -24 -104 -120 0
-239 -129 -23 -103 0
-240 -130 -24 -104 0
-207 -155 -23 -103 0
-208 -156 -24 -104 0
-143 -215 -23 -107 0
-144 -216 -24 -108 0
-111 -23 -191 -167 0
-112 -24 -192 -168 0
-131 -219 -23 -119 0
-132 -220 -24 -120 0
-139 -23 -119 -209 0
-140 -24 -120 -210 0
-199 -149 -23 -119 0
-200 -150 -24 -120 0
-159 -23 -191 -119 0
-160 -24 -192 -120 0
-143 -131 -197 -23 0
-144 -132 -198 -24 0
-143 -179 -159 -23 0
-144 -180 -160 -24 0
-223 -181 -103 -25 0
-224 -182 -104 -26 0
-285 -129 -25 -109 0
-286 -130 -26 -110 0
-287 -251 -71 -27 0
-288 -252 -72 -28 0
-79 -279 -223 -27 0
-80 -280 -224 -28 0
-83 -293 -27 -195 0
-84 -294 -28 -196 0
-209 -83 -279 -27 0
-210 -84 -280 -28 0
-83 -265 -27 -227 0
-84 -266 -28 -228 0
-97 -293 -167 -27 0
-98 -294 -168 -28 0
-111 -159 -279 -27 0
-112 -160 -280 -28 0
-113 -167 -265 -27 0
-114 -168 -266 -28 0
-223 -209 -119 -27 0
-224 -210 -120 -28 0
-143 -287 -27 -125 0
-144 -288 -28 -126 0
-251 -167 -27 -125 0
-252 -168 -28 -126 0
-239 -179 -27 -125 0
-240 -180 -28 -126 0
-131 -263 -153 -27 0
-132 -264 -154 -28 0
-239 -139 -167 -27 0
-240 -140 -168 -28 0
-139 -169 -27 -237 0
-140 -170 -28 -238 0
-209 -149 -199 -27 0
-210 -150 -200 -28 0
-175 -223 -153 -27 0
-176 -224 -154 -28 0
-159 -209 -191 -27 0
-160 -210 -192 -28 0
-239 -287 -89 -29 0
-240 -288 -90 -30 0
-279 -89 -251 -29 0
-280 -90 -252 -30 0
-97 -293 -209 -29 0
-98 -294 -210 -30 0
-99 -199 -299 -29 0
-100 -200 -300 -30 0
-239 -259 -103 -29 0
-240 -260 -104 -30 0
-269 -215 -107 -29 0
-270 -216 -108 -30 0
-263 -109 -219 -29 0
-264 -110 -220 -30 0
-113 -265 -209 -29 0
-114 -266 -210 -30 0
-287 -179 -119 -29 0
-288 -180 -120 -30 0
-207 -259 -119 -29 0
-208 -260 -120 -30 0
-179 -279 -125 -29 0
-180 -280 -126 -30 0
-209 -125 -251 -29 0
-210 -126 -252 -30 0
-239 -131 -219 -29 0
-240 -132 -220 -30 0
-279 -167 -139 -29 0
-280 -168 -140 -30 0
-239 -209 -139 -29 0
-240 -210 -140 -30 0
-143 -159 -287 -29 0
-144 -160 -288 -30 0
-239 -149 -199 -29 0
-240 -150 -200 -30 0
-159 -191 -239 -29 0
-160 -192 -240 -30 0
-223 -209 -167 -29 0
-224 -210 -168 -30 0
-31 -143 -191 -287 0
-32 -144 -192 -288 0
-31 -179 -159 -287 0
-32 -180 -160 -288 0
-31 -259 -159 -207 0
-32 -260 -160 -208 0
-31 -263 -175 -191 0
-32 -264 -176 -192 0
-287 -35 -167 -251 0
-288 -36 -168 -252 0
-239 -35 -287 -179 0
-240 -36 -288 -180 0
-35 -279 -179 -251 0
-36 -280 -180 -252 0
-239 -35 -215 -269 0
-240 -36 -216 -270 0
-287 -279 -39 -251 0
-288 -280 -40 -252 0
-1 -7 -25 -103 0
-2 -8 -26 -104 0
-1 -7 -55 -27 0
-2 -8 -56 -28 0
-1 -7 -39 -29 0
-2 -8 -40 -30 0
-15 -1 -79 -9 0
-16 -2 -80 -10 0
-1 -9 -17 -29 0
-2 -10 -18 -30 0
-1 -27 -11 -13 0
-2 -28 -12 -14 0
-95 -3 -223 -13 0
-96 -4 -224 -14 0
-97 -3 -195 -13 0
-98 -4 -196 -14 0
-3 -125 -107 -13 0
-4 -126 -108 -14 0
-15 -3 -51 -207 0
-16 -4 -52 -208 0
-15 -143 -3 -53 0
-16 -144 -4 -54 0
-15 -3 -111 -55 0
-16 -4 -112 -56 0
-15 -3 -79 -59 0
-16 -4 -80 -60 0
-17 -3 -37 -227 0
-18 -4 -38 -228 0
-17 -3 -39 -119 0
-18 -4 -40 -120 0
-17 -3 -83 -41 0
-18 -4 -84 -42 0
-17 -3 -43 -65 0
-18 -4 -44 -66 0
-31 -159 -3 -19 0
-32 -160 -4 -20 0
-35 -3 -19 -59 0
-36 -4 -20 -60 0
-3 -21 -153 -27 0
-4 -22 -154 -28 0
-3 -23 -25 -103 0
-4 -24 -26 -104 0
-3 -23 -55 -27 0
-4 -24 -56 -28 0
-229 -19 -5 -275 0
-230 -20 -6 -276 0
-19 -5 -233 -259 0
-20 -6 -234 -260 0
-21 -5 -153 -125 0
-22 -6 -154 -126 0
-79 -5 -23 -239 0
-80 -6 -24 -240 0
-83 -5 -23 -167 0
-84 -6 -24 -168 0
-131 -5 -23 -87 0
-132 -6 -24 -88 0
-5 -23 -89 -119 0
-6 -24 -90 -120 0
-5 -71 -25 -103 0
-6 -72 -26 -104 0
-53 -251 -5 -27 0
-54 -252 -6 -28 0
-5 -55 -27 -167 0
-6 -56 -28 -168 0
-47 -5 -239 -29 0
-48 -6 -240 -30 0
-53 -5 -89 -29 0
-54 -6 -90 -30 0
-37 -35 -5 -227 0
-38 -36 -6 -228 0
-35 -5 -39 -119 0
-36 -6 -40 -120 0
-35 -5 -83 -41 0
-36 -6 -84 -42 0
-65 -35 -5 -43 0
-66 -36 -6 -44 0
-209 -7 -27 -279 0
-210 -8 -28 -280 0
-215 -251 -7 -27 0
-216 -252 -8 -28 0
-279 -7 -139 -29 0
-280 -8 -140 -30 0
-143 -7 -239 -29 0
-144 -8 -240 -30 0
-199 -149 -7 -29 0
-200 -150 -8 -30 0
-7 -151 -189 -29 0
-8 -152 -190 -30 0
-31 -7 -287 -107 0
-32 -8 -288 -108 0
-31 -111 -7 -223 0
-32 -112 -8 -224 0
-31 -159 -7 -119 0
-32 -160 -8 -120 0
-33 -101 -7 -135 0
-34 -102 -8 -136 0
-79 -35 -7 -239 0
-80 -36 -8 -240 0
-35 -7 -83 -167 0
-36 -8 -84 -168 0
-35 -7 -131 -87 0
-36 -8 -132 -88 0
-35 -7 -89 -119 0
-36 -8 -90 -120 0
-227 -37 -7 -71 0
-228 -38 -8 -72 0
-37 -7 -75 -151 0
-38 -8 -76 -152 0
-65 -7 -39 -219 0
-66 -8 -40 -220 0
-67 -169 -7 -39 0
-68 -170 -8 -40 0
-69 -7 -39 -139 0
-70 -8 -40 -140 0
-7 -39 -71 -119 0
-8 -40 -72 -120 0
-279 -7 -41 -59 0
-280 -8 -42 -60 0
-83 -7 -41 -71 0
-84 -8 -42 -72 0
-65 -7 -43 -87 0
-66 -8 -44 -88 0
-47 -51 -7 -207 0
-48 -52 -8 -208 0
-47 -143 -53 -7 0
-48 -144 -54 -8 0
-47 -111 -7 -55 0
-48 -112 -8 -56 0
-35 -229 -9 -275 0
-36 -230 -10 -276 0
-35 -233 -9 -259 0
-36 -234 -10 -260 0
-179 -37 -9 -227 0
-180 -38 -10 -228 0
-279 -39 -9 -139 0
-280 -40 -10 -140 0
-143 -239 -39 -9 0
-144 -240 -40 -10 0
-199 -149 -39 -9 0
-200 -150 -40 -10 0
-39 -9 -189 -151 0
-40 -10 -190 -152 0
-279 -41 -119 -9 0
-280 -42 -120 -10 0
-209 -41 -9 -125 0
-210 -42 -10 -126 0
-129 -41 -181 -9 0
-130 -42 -182 -10 0
-219 -9 -43 -109 0
-220 -10 -44 -110 0
-47 -89 -239 -9 0
-48 -90 -240 -10 0
-47 -95 -159 -9 0
-48 -96 -160 -10 0
-49 -149 -89 -9 0
-50 -150 -90 -10 0
-51 -259 -9 -77 0
-52 -260 -10 -78 0
-79 -51 -207 -9 0
-80 -52 -208 -10 0
-79 -143 -53 -9 0
-80 -144 -54 -10 0
-279 -69 -55 -9 0
-280 -70 -56 -10 0
-209 -55 -9 -71 0
-210 -56 -10 -72 0
-79 -111 -55 -9 0
-80 -112 -56 -10 0
-65 -219 -9 -59 0
-66 -220 -10 -60 0
-67 -169 -9 -59 0
-68 -170 -10 -60 0
-139 -69 -9 -59 0
-140 -70 -10 -60 0
-71 -9 -59 -119 0
-72 -10 -60 -120 0
-47 -175 -263 -11 0
-48 -176 -264 -12 0
-47 -179 -239 -11 0
-48 -180 -240 -12 0
-299 -49 -149 -11 0
-300 -50 -150 -12 0
-143 -51 -207 -11 0
-144 -52 -208 -12 0
-251 -53 -11 -125 0
-252 -54 -12 -126 0
-197 -131 -53 -11 0
-198 -132 -54 -12 0
-209 -55 -11 -119 0
-210 -56 -12 -120 0
-55 -167 -11 -125 0
-56 -168 -12 -126 0
-115 -57 -11 -173 0
-116 -58 -12 -174 0
-107 -179 -11 -59 0
-108 -180 -12 -60 0
-65 -87 -11 -263 0
-66 -88 -12 -264 0
-65 -219 -89 -11 0
-66 -220 -90 -12 0
-67 -169 -89 -11 0
-68 -170 -90 -12 0
-209 -83 -69 -11 0
-210 -84 -70 -12 0
-139 -69 -89 -11 0
-140 -70 -90 -12 0
-79 -71 -239 -11 0
-80 -72 -240 -12 0
-83 -71 -11 -167 0
-84 -72 -12 -168 0
-131 -71 -11 -87 0
-132 -72 -12 -88 0
-209 -55 -279 -13 0
-210 -56 -280 -14 0
-215 -55 -251 -13 0
-216 -56 -252 -14 0
-279 -167 -59 -13 0
-280 -168 -60 -14 0
-209 -179 -59 -13 0
-210 -180 -60 -14 0
-65 -219 -139 -13 0
-66 -220 -140 -14 0
-67 -169 -139 -13 0
-68 -170 -140 -14 0
-279 -69 -119 -13 0
-280 -70 -120 -14 0
-209 -69 -125 -13 0
-210 -70 -126 -14 0
-129 -181 -69 -13 0
-130 -182 -70 -14 0
-209 -71 -119 -13 0
-210 -72 -120 -14 0
-167 -71 -125 -13 0
-168 -72 -126 -14 0
-79 -111 -139 -13 0
-80 -112 -140 -14 0
-95 -83 -223 -13 0
-96 -84 -224 -14 0
-97 -83 -195 -13 0
-98 -84 -196 -14 0
-83 -125 -107 -13 0
-84 -126 -108 -14 0
-15 -67 -271 -203 0
-16 -68 -272 -204 0
-15 -263 -175 -71 0
-16 -264 -176 -72 0
-15 -179 -71 -239 0
-16 -180 -72 -240 0
-15 -207 -155 -77 0
-16 -208 -156 -78 0
-15 -79 -279 -139 0
-16 -80 -280 -140 0
-15 -79 -143 -239 0
-16 -80 -144 -240 0
-15 -79 -149 -199 0
-16 -80 -150 -200 0
-15 -79 -151 -189 0
-16 -80 -152 -190 0
-15 -83 -143 -167 0
-16 -84 -144 -168 0
-15 -131 -175 -87 0
-16 -132 -176 -88 0
-15 -239 -119 -89 0
-16 -240 -120 -90 0
-15 -95 -287 -107 0
-16 -96 -288 -108 0
-15 -95 -111 -223 0
-16 -96 -112 -224 0
-15 -97 -111 -195 0
-16 -98 -112 -196 0
-15 -111 -107 -125 0
-16 -112 -108 -126 0
-79 -17 -215 -239 0
-80 -18 -216 -240 0
-159 -17 -287 -89 0
-160 -18 -288 -90 0
-161 -17 -89 -269 0
-162 -18 -90 -270 0
-95 -17 -179 -159 0
-96 -18 -180 -160 0
-17 -99 -149 -179 0
-18 -100 -150 -180 0
-17 -251 -107 -125 0
-18 -252 -108 -126 0
-17 -131 -197 -107 0
-18 -132 -198 -108 0
-17 -131 -179 -109 0
-18 -132 -180 -110 0
-19 -229 -89 -275 0
-20 -230 -90 -276 0
-19 -233 -89 -259 0
-20 -234 -90 -260 0
-95 -209 -19 -223 0
-96 -210 -20 -224 0
-19 -99 -179 -299 0
-20 -100 -180 -300 0
-159 -19 -287 -107 0
-160 -20 -288 -108 0
-161 -19 -107 -269 0
-162 -20 -108 -270 0
-285 -19 -155 -109 0
-286 -20 -156 -110 0
-111 -19 -159 -223 0
-112 -20 -160 -224 0
-279 -19 -119 -139 0
-280 -20 -120 -140 0
-143 -19 -119 -239 0
-144 -20 -120 -240 0
-19 -119 -189 -151 0
-20 -120 -190 -152 0
-209 -19 -139 -125 0
-210 -20 -140 -126 0
-129 -19 -181 -139 0
-130 -20 -182 -140 0
-263 -21 -103 -233 0
-264 -22 -104 -234 0
-263 -21 -215 -107 0
-264 -22 -216 -108 0
-263 -179 -21 -119 0
-264 -180 -22 -120 0
-263 -21 -167 -125 0
-264 -22 -168 -126 0
-131 -21 -155 -285 0
-132 -22 -156 -286 0
-219 -21 -153 -139 0
-220 -22 -154 -140 0
-275 -229 -23 -119 0
-276 -230 -24 -120 0
-259 -23 -233 -119 0
-260 -24 -234 -120 0
-209 -23 -279 -125 0
-210 -24 -280 -126 0
-215 -23 -251 -125 0
-216 -24 -252 -126 0
-207 -129 -23 -239 0
-208 -130 -24 -240 0
-263 -131 -197 -23 0
-264 -132 -198 -24 0
-279 -179 -23 -139 0
-280 -180 -24 -140 0
-143 -263 -175 -23 0
-144 -264 -176 -24 0
-199 -179 -149 -23 0
-200 -180 -150 -24 0
-179 -23 -189 -151 0
-180 -24 -190 -152 0
-159 -279 -223 -27 0
-160 -280 -224 -28 0
-215 -251 -167 -27 0
-216 -252 -168 -28 0
-159 -269 -287 -29 0
-160 -270 -288 -30 0
-279 -167 -251 -29 0
-280 -168 -252 -30 0
-175 -263 -239 -29 0
-176 -264 -240 -30 0
-179 -229 -275 -29 0
-180 -230 -276 -30 0
-179 -259 -233 -29 0
-180 -260 -234 -30 0
-31 -179 -287 -269 0
-32 -180 -288 -270 0
-31 -209 -223 -279 0
-32 -210 -224 -280 0
-31 -215 -223 -251 0
-32 -216 -224 -252 0
-35 -229 -275 -269 0
-36 -230 -276 -270 0
-1 -7 -9 -119 0
-2 -8 -10 -120 0
-1 -7 -11 -71 0
-2 -8 -12 -72 0
-15 -1 -7 -47 0
-16 -2 -8 -48 0
-1 -19 -7 -39 0
-2 -20 -8 -40 0
-1 -35 -7 -23 0
-2 -36 -8 -24 0
-279 -3 -39 -13 0
-280 -4 -40 -14 0
-3 -41 -251 -13 0
-4 -42 -252 -14 0
-181 -3 -51 -13 0
-182 -4 -52 -14 0
-3 -55 -167 -13 0
-4 -56 -168 -14 0
-3 -69 -139 -13 0
-4 -70 -140 -14 0
-3 -83 -125 -13 0
-4 -84 -126 -14 0
-15 -3 -19 -239 0
-16 -4 -20 -240 0
-15 -175 -3 -21 0
-16 -176 -4 -22 0
-15 -3 -143 -23 0
-16 -4 -144 -24 0
-15 -31 -3 -95 0
-16 -32 -4 -96 0
-15 -3 -79 -39 0
-16 -4 -80 -40 0
-15 -47 -3 -71 0
-16 -48 -4 -72 0
-17 -3 -19 -89 0
-18 -4 -20 -90 0
-17 -3 -59 -29 0
-18 -4 -60 -30 0
-53 -17 -3 -35 0
-54 -18 -4 -36 0
-149 -19 -5 -299 0
-150 -20 -6 -300 0
-159 -19 -5 -287 0
-160 -20 -6 -288 0
-279 -19 -5 -167 0
-280 -20 -6 -168 0
-19 -5 -179 -269 0
-20 -6 -180 -270 0
-209 -19 -5 -251 0
-210 -20 -6 -252 0
-21 -219 -5 -59 0
-22 -220 -6 -60 0
-21 -65 -5 -197 0
-22 -66 -6 -198 0
-31 -5 -23 -287 0
-32 -6 -24 -288 0
-215 -35 -5 -23 0
-216 -36 -6 -24 0
-179 -5 -23 -39 0
-180 -6 -24 -40 0
-47 -143 -5 -23 0
-48 -144 -6 -24 0
-5 -23 -55 -125 0
-6 -24 -56 -126 0
-5 -23 -59 -119 0
-6 -24 -60 -120 0
-107 -5 -23 -71 0
-108 -6 -24 -72 0
-5 -23 -103 -77 0
-6 -24 -104 -78 0
-5 -55 -27 -71 0
-6 -56 -28 -72 0
-69 -5 -27 -59 0
-70 -6 -28 -60 0
-5 -39 -71 -29 0
-6 -40 -72 -30 0
-139 -7 -27 -279 0
-140 -8 -28 -280 0
-7 -265 -27 -151 0
-8 -266 -28 -152 0
-263 -7 -153 -27 0
-264 -8 -154 -28 0
-251 -7 -27 -167 0
-252 -8 -28 -168 0
-279 -69 -7 -29 0
-280 -70 -8 -30 0
-269 -7 -71 -29 0
-270 -8 -72 -30 0
-79 -7 -239 -29 0
-80 -8 -240 -30 0
-219 -7 -87 -29 0
-220 -8 -88 -30 0
-215 -7 -89 -29 0
-216 -8 -90 -30 0
-199 -99 -7 -29 0
-200 -100 -8 -30 0
-179 -7 -119 -29 0
-180 -8 -120 -30 0
-169 -7 -135 -29 0
-170 -8 -136 -30 0
-7 -167 -139 -29 0
-8 -168 -140 -30 0
-31 -47 -7 -287 0
-32 -48 -8 -288 0
-31 -63 -7 -191 0
-32 -64 -8 -192 0
-31 -79 -159 -7 0
-32 -80 -160 -8 0
-31 -95 -143 -7 0
-32 -96 -144 -8 0
-35 -179 -7 -39 0
-36 -180 -8 -40 0
-35 -7 -41 -167 0
-36 -8 -42 -168 0
-35 -7 -59 -119 0
-36 -8 -60 -120 0
-107 -35 -7 -71 0
-108 -36 -8 -72 0
-35 -7 -103 -77 0
-36 -8 -104 -78 0
-7 -39 -43 -109 0
-8 -40 -44 -110 0
-89 -7 -39 -59 0
-90 -8 -40 -60 0
-83 -69 -7 -39 0
-84 -70 -8 -40 0
-65 -7 -43 -71 0
-66 -8 -44 -72 0
-35 -149 -9 -299 0
-36 -150 -10 -300 0
-159 -35 -287 -9 0
-160 -36 -288 -10 0
-279 -35 -167 -9 0
-280 -36 -168 -10 0
-35 -179 -9 -269 0
-36 -180 -10 -270 0
-209 -35 -9 -251 0
-210 -36 -10 -252 0
-39 -9 -71 -269 0
-40 -10 -72 -270 0
-79 -239 -39 -9 0
-80 -240 -40 -10 0
-215 -89 -39 -9 0
-216 -90 -40 -10 0
-199 -99 -39 -9 0
-200 -100 -40 -10 0
-179 -39 -9 -119 0
-180 -40 -10 -120 0
-169 -39 -9 -135 0
-170 -40 -10 -136 0
-39 -9 -139 -167 0
-40 -10 -140 -168 0
-279 -41 -55 -9 0
-280 -42 -56 -10 0
-41 -251 -9 -59 0
-42 -252 -10 -60 0
-41 -179 -83 -9 0
-42 -180 -84 -10 0
-41 -153 -9 -109 0
-42 -154 -10 -110 0
-197 -9 -43 -59 0
-198 -10 -44 -60 0
-65 -179 -9 -43 0
-66 -180 -10 -44 0
-131 -9 -43 -109 0
-132 -10 -44 -110 0
-47 -143 -9 -59 0
-48 -144 -10 -60 0
-107 -53 -9 -59 0
-108 -54 -10 -60 0
-275 -137 -11 -45 0
-276 -138 -12 -46 0
-47 -95 -287 -11 0
-48 -96 -288 -12 0
-47 -101 -271 -11 0
-48 -102 -272 -12 0
-47 -111 -251 -11 0
-48 -112 -252 -12 0
-47 -119 -239 -11 0
-48 -120 -240 -12 0
-47 -143 -215 -11 0
-48 -144 -216 -12 0
-47 -155 -207 -11 0
-48 -156 -208 -12 0
-47 -197 -175 -11 0
-48 -198 -176 -12 0
-199 -49 -119 -11 0
-200 -50 -120 -12 0
-49 -179 -149 -11 0
-50 -180 -150 -12 0
-65 -51 -11 -285 0
-66 -52 -12 -286 0
-51 -233 -11 -77 0
-52 -234 -12 -78 0
-269 -53 -11 -59 0
-270 -54 -12 -60 0
-179 -53 -89 -11 0
-180 -54 -90 -12 0
-107 -161 -53 -11 0
-108 -162 -54 -12 0
-111 -143 -55 -11 0
-112 -144 -56 -12 0
-139 -55 -11 -119 0
-140 -56 -12 -120 0
-79 -143 -11 -59 0
-80 -144 -12 -60 0
-71 -103 -11 -77 0
-72 -104 -12 -78 0
-269 -209 -53 -13 0
-270 -210 -54 -14 0
-279 -55 -139 -13 0
-280 -56 -140 -14 0
-55 -151 -265 -13 0
-56 -152 -266 -14 0
-263 -55 -153 -13 0
-264 -56 -154 -14 0
-55 -167 -251 -13 0
-56 -168 -252 -14 0
-111 -239 -59 -13 0
-112 -240 -60 -14 0
-139 -209 -59 -13 0
-140 -210 -60 -14 0
-63 -111 -191 -13 0
-64 -112 -192 -14 0
-111 -65 -175 -13 0
-112 -66 -176 -14 0
-83 -69 -179 -13 0
-84 -70 -180 -14 0
-83 -71 -167 -13 0
-84 -72 -168 -14 0
-111 -143 -71 -13 0
-112 -144 -72 -14 0
-139 -71 -119 -13 0
-140 -72 -120 -14 0
-79 -111 -119 -13 0
-80 -112 -120 -14 0
-15 -63 -191 -287 0
-16 -64 -192 -288 0
-15 -65 -175 -263 0
-16 -66 -176 -264 0
-15 -65 -239 -219 0
-16 -66 -240 -220 0
-15 -67 -239 -169 0
-16 -68 -240 -170 0
-15 -69 -239 -139 0
-16 -70 -240 -140 0
-15 -159 -69 -223 0
-16 -160 -70 -224 0
-15 -101 -71 -271 0
-16 -102 -72 -272 0
-15 -71 -239 -119 0
-16 -72 -240 -120 0
-15 -215 -143 -71 0
-16 -216 -144 -72 0
-15 -71 -207 -155 0
-16 -72 -208 -156 0
-15 -197 -175 -71 0
-16 -198 -176 -72 0
-15 -79 -259 -77 0
-16 -80 -260 -78 0
-15 -103 -207 -77 0
-16 -104 -208 -78 0
-15 -79 -87 -219 0
-16 -80 -88 -220 0
-15 -79 -215 -89 0
-16 -80 -216 -90 0
-15 -79 -119 -179 0
-16 -80 -120 -180 0
-15 -79 -135 -169 0
-16 -80 -136 -170 0
-15 -79 -167 -139 0
-16 -80 -168 -140 0
-15 -131 -143 -87 0
-16 -132 -144 -88 0
-15 -95 -159 -89 0
-16 -96 -160 -90 0
-17 -179 -259 -77 0
-18 -180 -260 -78 0
-79 -17 -143 -269 0
-80 -18 -144 -270 0
-79 -17 -179 -239 0
-80 -18 -180 -240 0
-215 -17 -83 -167 0
-216 -18 -84 -168 0
-17 -83 -179 -209 0
-18 -84 -180 -210 0
-215 -17 -131 -87 0
-216 -18 -132 -88 0
-215 -17 -119 -89 0
-216 -18 -120 -90 0
-263 -19 -87 -219 0
-264 -20 -88 -220 0
-19 -149 -89 -299 0
-20 -150 -90 -300 0
-159 -19 -287 -89 0
-160 -20 -288 -90 0
-279 -19 -167 -89 0
-280 -20 -168 -90 0
-19 -179 -89 -269 0
-20 -180 -90 -270 0
-209 -19 -89 -251 0
-210 -20 -90 -252 0
-95 -19 -119 -287 0
-96 -20 -120 -288 0
-97 -19 -195 -209 0
-98 -20 -196 -210 0
-19 -101 -169 -203 0
-20 -102 -170 -204 0
-19 -103 -233 -119 0
-20 -104 -234 -120 0
-215 -19 -119 -107 0
-216 -20 -120 -108 0
-209 -19 -107 -125 0
-210 -20 -108 -126 0
-19 -197 -131 -109 0
-20 -198 -132 -110 0
-19 -119 -169 -135 0
-20 -120 -170 -136 0
-95 -21 -263 -287 0
-96 -22 -264 -288 0
-285 -129 -21 -109 0
-286 -130 -22 -110 0
-175 -21 -239 -109 0
-176 -22 -240 -110 0
-111 -287 -23 -223 0
-112 -288 -24 -224 0
-111 -279 -23 -239 0
-112 -280 -24 -240 0
-159 -23 -287 -119 0
-160 -24 -288 -120 0
-179 -23 -119 -269 0
-180 -24 -120 -270 0
-209 -251 -23 -119 0
-210 -252 -24 -120 0
-279 -23 -139 -125 0
-280 -24 -140 -126 0
-23 -151 -265 -125 0
-24 -152 -266 -126 0
-263 -23 -153 -125 0
-264 -24 -154 -126 0
-215 -131 -197 -23 0
-216 -132 -198 -24 0
-143 -23 -207 -155 0
-144 -24 -208 -156 0
-129 -233 -25 -269 0
-130 -234 -26 -270 0
-143 -233 -207 -25 0
-144 -234 -208 -26 0
-143 -223 -287 -27 0
-144 -224 -288 -28 0
-143 -279 -239 -27 0
-144 -280 -240 -28 0
-279 -149 -199 -27 0
-280 -150 -200 -28 0
-279 -151 -27 -189 0
-280 -152 -28 -190 0
-159 -223 -239 -27 0
-160 -224 -240 -28 0
-159 -239 -287 -29 0
-160 -240 -288 -30 0
-31 -175 -263 -287 0
-32 -176 -264 -288 0
-269 -35 -233 -259 0
-270 -36 -234 -260 0
-1 -3 -83 -13 0
-2 -4 -84 -14 0
-15 -1 -3 -47 0
-16 -2 -4 -48 0
-1 -3 -35 -17 0
-2 -4 -36 -18 0
-1 -3 -19 -29 0
-2 -4 -20 -30 0
-89 -1 -5 -9 0
-90 -2 -6 -10 0
-1 -35 -5 -11 0
-2 -36 -6 -12 0
-1 -39 -7 -9 0
-2 -40 -8 -10 0
-1 -19 -9 -11 0
-2 -20 -10 -12 0
-3 -5 -41 -251 0
-4 -6 -42 -252 0
-197 -3 -5 -43 0
-198 -4 -6 -44 0
-47 -143 -3 -5 0
-48 -144 -4 -6 0
-53 -3 -5 -107 0
-54 -4 -6 -108 0
-3 -5 -89 -59 0
-4 -6 -90 -60 0
-3 -7 -27 -167 0
-4 -8 -28 -168 0
-3 -7 -119 -29 0
-4 -8 -120 -30 0
-31 -3 -95 -7 0
-32 -4 -96 -8 0
-3 -35 -7 -71 0
-4 -36 -8 -72 0
-3 -7 -39 -59 0
-4 -8 -40 -60 0
-3 -55 -7 -41 0
-4 -56 -8 -42 0
-3 -21 -9 -219 0
-4 -22 -10 -220 0
-3 -23 -9 -119 0
-4 -24 -10 -120 0
-3 -69 -9 -27 0
-4 -70 -10 -28 0
-3 -9 -59 -29 0
-4 -10 -60 -30 0
-3 -19 -179 -11 0
-4 -20 -180 -12 0
-3 -23 -11 -71 0
-4 -24 -12 -72 0
-17 -3 -251 -13 0
-18 -4 -252 -14 0
-3 -23 -55 -13 0
-4 -24 -56 -14 0
-3 -41 -27 -13 0
-4 -42 -28 -14 0
-15 -17 -3 -143 0
-16 -18 -4 -144 0
-15 -79 -3 -19 0
-16 -80 -4 -20 0
-3 -19 -23 -39 0
-4 -20 -24 -40 0
-95 -5 -7 -287 0
-96 -6 -8 -288 0
-5 -7 -233 -103 0
-6 -8 -234 -104 0
-215 -5 -7 -107 0
-216 -6 -8 -108 0
-179 -5 -7 -119 0
-180 -6 -8 -120 0
-5 -7 -167 -125 0
-6 -8 -168 -126 0
-53 -5 -9 -269 0
-54 -6 -10 -270 0
-179 -5 -9 -59 0
-180 -6 -10 -60 0
-69 -5 -9 -125 0
-70 -6 -10 -126 0
-5 -71 -9 -119 0
-6 -72 -10 -120 0
-251 -5 -41 -11 0
-252 -6 -42 -12 0
-197 -5 -11 -43 0
-198 -6 -12 -44 0
-47 -143 -5 -11 0
-48 -144 -6 -12 0
-53 -107 -5 -11 0
-54 -108 -6 -12 0
-5 -89 -11 -59 0
-6 -90 -12 -60 0
-35 -5 -251 -13 0
-36 -6 -252 -14 0
-125 -5 -41 -13 0
-126 -6 -42 -14 0
-5 -55 -71 -13 0
-6 -56 -72 -14 0
-15 -31 -5 -287 0
-16 -32 -6 -288 0
-15 -143 -35 -5 0
-16 -144 -36 -6 0
-15 -47 -5 -71 0
-16 -48 -6 -72 0
-269 -17 -5 -29 0
-270 -18 -6 -30 0
-17 -35 -5 -107 0
-18 -36 -6 -108 0
-19 -5 -179 -29 0
-20 -6 -180 -30 0
-35 -19 -5 -89 0
-36 -20 -6 -90 0
-19 -5 -39 -71 0
-20 -6 -40 -72 0
-5 -23 -27 -167 0
-6 -24 -28 -168 0
-5 -23 -119 -29 0
-6 -24 -120 -30 0
-31 -95 -5 -23 0
-32 -96 -6 -24 0
-5 -23 -39 -59 0
-6 -24 -40 -60 0
-55 -5 -23 -41 0
-56 -6 -24 -42 0
-35 -5 -59 -29 0
-36 -6 -60 -30 0
-199 -7 -9 -299 0
-200 -8 -10 -300 0
-209 -7 -9 -279 0
-210 -8 -10 -280 0
-215 -7 -9 -269 0
-216 -8 -10 -270 0
-263 -7 -9 -219 0
-264 -8 -10 -220 0
-95 -7 -287 -11 0
-96 -8 -288 -12 0
-7 -233 -11 -103 0
-8 -234 -12 -104 0
-107 -215 -7 -11 0
-108 -216 -8 -12 0
-179 -7 -11 -119 0
-180 -8 -12 -120 0
-7 -167 -11 -125 0
-8 -168 -12 -126 0
-279 -69 -7 -13 0
-280 -70 -8 -14 0
-251 -7 -71 -13 0
-252 -8 -72 -14 0
-83 -7 -167 -13 0
-84 -8 -168 -14 0
-7 -153 -87 -13 0
-8 -154 -88 -14 0
-15 -7 -239 -59 0
-16 -8 -240 -60 0
-15 -63 -7 -191 0
-16 -64 -8 -192 0
-15 -65 -175 -7 0
-16 -66 -176 -8 0
-15 -143 -7 -71 0
-16 -144 -8 -72 0
-15 -79 -7 -119 0
-16 -80 -8 -120 0
-15 -83 -111 -7 0
-16 -84 -112 -8 0
-215 -17 -53 -7 0
-216 -18 -54 -8 0
-107 -17 -7 -71 0
-108 -18 -8 -72 0
-47 -19 -7 -239 0
-48 -20 -8 -240 0
-199 -49 -19 -7 0
-200 -50 -20 -8 0
-19 -7 -55 -139 0
-20 -8 -56 -140 0
-19 -7 -59 -119 0
-20 -8 -60 -120 0
-19 -7 -89 -71 0
-20 -8 -90 -72 0
-263 -21 -7 -43 0
-264 -22 -8 -44 0
-47 -175 -21 -7 0
-48 -176 -22 -8 0
-65 -21 -7 -87 0
-66 -22 -8 -88 0
-41 -7 -23 -251 0
-42 -8 -24 -252 0
-197 -7 -23 -43 0
-198 -8 -24 -44 0
-47 -143 -7 -23 0
-48 -144 -8 -24 0
-53 -7 -23 -107 0
-54 -8 -24 -108 0
-89 -7 -23 -59 0
-90 -8 -24 -60 0
-39 -7 -25 -259 0
-40 -8 -26 -260 0
-51 -7 -25 -103 0
-52 -8 -26 -104 0
-209 -7 -39 -27 0
-210 -8 -40 -28 0
-7 -41 -27 -167 0
-8 -42 -28 -168 0
-47 -111 -7 -27 0
-48 -112 -8 -28 0
-83 -7 -55 -27 0
-84 -8 -56 -28 0
-179 -7 -39 -29 0
-180 -8 -40 -30 0
-7 -71 -59 -29 0
-8 -72 -60 -30 0
-31 -35 -7 -287 0
-32 -36 -8 -288 0
-31 -159 -7 -39 0
-32 -160 -8 -40 0
-35 -53 -7 -71 0
-36 -54 -8 -72 0
-47 -79 -7 -39 0
-48 -80 -8 -40 0
-279 -167 -9 -13 0
-280 -168 -10 -14 0
-179 -9 -251 -13 0
-180 -10 -252 -14 0
-15 -111 -279 -9 0
-16 -112 -280 -10 0
-15 -239 -119 -9 0
-16 -240 -120 -10 0
-15 -129 -207 -9 0
-16 -130 -208 -10 0
-15 -179 -143 -9 0
-16 -180 -144 -10 0
-17 -89 -9 -269 0
-18 -90 -10 -270 0
-17 -179 -9 -107 0
-18 -180 -10 -108 0
-19 -259 -9 -77 0
-20 -260 -10 -78 0
-79 -19 -239 -9 0
-80 -20 -240 -10 0
-209 -19 -83 -9 0
-210 -20 -84 -10 0
-179 -19 -89 -9 0
-180 -20 -90 -10 0
-95 -19 -159 -9 0
-96 -20 -160 -10 0
-19 -149 -99 -9 0
-20 -150 -100 -10 0
-19 -131 -9 -109 0
-20 -132 -10 -110 0
-79 -175 -21 -9 0
-80 -176 -22 -10 0
-179 -23 -9 -71 0
-180 -24 -10 -72 0
-79 -143 -23 -9 0
-80 -144 -24 -10 0
-89 -23 -9 -119 0
-90 -24 -10 -120 0
-25 -9 -59 -259 0
-26 -10 -60 -260 0
-129 -25 -9 -77 0
-130 -26 -10 -78 0
-279 -55 -9 -27 0
-280 -56 -10 -28 0
-209 -9 -27 -59 0
-210 -10 -28 -60 0
-139 -69 -9 -27 0
-140 -70 -10 -28 0
-79 -111 -9 -27 0
-80 -112 -10 -28 0
-179 -9 -59 -29 0
-180 -10 -60 -30 0
-125 -69 -9 -29 0
-126 -70 -10 -30 0
-71 -9 -119 -29 0
-72 -10 -120 -30 0
-31 -159 -9 -59 0
-32 -160 -10 -60 0
-31 -79 -95 -9 0
-32 -80 -96 -10 0
-179 -35 -53 -9 0
-180 -36 -54 -10 0
-47 -239 -39 -9 0
-48 -240 -40 -10 0
-199 -49 -39 -9 0
-200 -50 -40 -10 0
-55 -39 -9 -139 0
-56 -40 -10 -140 0
-89 -39 -9 -71 0
-90 -40 -10 -72 0
-89 -41 -69 -9 0
-90 -42 -70 -10 0
-109 -9 -43 -59 0
-110 -10 -44 -60 0
-47 -79 -71 -9 0
-48 -80 -72 -10 0
-49 -99 -9 -59 0
-50 -100 -10 -60 0
-17 -179 -11 -269 0
-18 -180 -12 -270 0
-139 -19 -251 -11 0
-140 -20 -252 -12 0
-143 -19 -239 -11 0
-144 -20 -240 -12 0
-197 -131 -21 -11 0
-198 -132 -22 -12 0
-143 -175 -21 -11 0
-144 -176 -22 -12 0
-95 -23 -287 -11 0
-96 -24 -288 -12 0
-23 -233 -11 -103 0
-24 -234 -12 -104 0
-107 -215 -23 -11 0
-108 -216 -24 -12 0
-179 -23 -11 -119 0
-180 -24 -12 -120 0
-23 -167 -11 -125 0
-24 -168 -12 -126 0
-259 -89 -25 -11 0
-260 -90 -26 -12 0
-83 -251 -11 -27 0
-84 -252 -12 -28 0
-209 -89 -11 -27 0
-210 -90 -12 -28 0
-111 -143 -11 -27 0
-112 -144 -12 -28 0
-259 -77 -11 -29 0
-260 -78 -12 -30 0
-79 -239 -11 -29 0
-80 -240 -12 -30 0
-209 -83 -11 -29 0
-210 -84 -12 -30 0
-179 -89 -11 -29 0
-180 -90 -12 -30 0
-95 -159 -11 -29 0
-96 -160 -12 -30 0
-99 -149 -11 -29 0
-100 -150 -12 -30 0
-131 -109 -11 -29 0
-132 -110 -12 -30 0
-31 -71 -287 -11 0
-32 -72 -288 -12 0
-31 -159 -89 -11 0
-32 -160 -90 -12 0
-31 -95 -143 -11 0
-32 -96 -144 -12 0
-215 -35 -71 -11 0
-216 -36 -72 -12 0
-179 -39 -11 -71 0
-180 -40 -12 -72 0
-79 -143 -39 -11 0
-80 -144 -40 -12 0
-39 -89 -11 -119 0
-40 -90 -12 -120 0
-179 -69 -41 -11 0
-180 -70 -42 -12 0
-71 -41 -11 -167 0
-72 -42 -12 -168 0
-83 -41 -11 -125 0
-84 -42 -12 -126 0
-65 -197 -11 -43 0
-66 -198 -12 -44 0
-109 -89 -11 -43 0
-110 -90 -12 -44 0
-47 -239 -11 -59 0
-48 -240 -12 -60 0
-47 -63 -191 -11 0
-48 -64 -192 -12 0
-47 -65 -175 -11 0
-48 -66 -176 -12 0
-47 -79 -119 -11 0
-48 -80 -120 -12 0
-47 -83 -111 -11 0
-48 -84 -112 -12 0
-49 -99 -89 -11 0
-50 -100 -90 -12 0
-55 -125 -11 -71 0
-56 -126 -12 -72 0
-69 -125 -11 -59 0
-70 -126 -12 -60 0
-71 -119 -11 -59 0
-72 -120 -12 -60 0
-83 -69 -89 -11 0
-84 -70 -90 -12 0
-23 -167 -251 -13 0
-24 -168 -252 -14 0
-259 -25 -139 -13 0
-260 -26 -140 -14 0
-279 -119 -27 -13 0
-280 -120 -28 -14 0
-251 -125 -27 -13 0
-252 -126 -28 -14 0
-139 -209 -27 -13 0
-140 -210 -28 -14 0
-155 -181 -27 -13 0
-156 -182 -28 -14 0
-209 -29 -125 -13 0
-210 -30 -126 -14 0
-179 -29 -139 -13 0
-180 -30 -140 -14 0
-31 -111 -223 -13 0
-32 -112 -224 -14 0
-31 -159 -139 -13 0
-32 -160 -140 -14 0
-33 -101 -237 -13 0
-34 -102 -238 -14 0
-279 -83 -39 -13 0
-280 -84 -40 -14 0
-139 -39 -119 -13 0
-140 -40 -120 -14 0
-83 -41 -251 -13 0
-84 -42 -252 -14 0
-209 -89 -41 -13 0
-210 -90 -42 -14 0
-111 -143 -41 -13 0
-112 -144 -42 -14 0
-139 -109 -43 -13 0
-140 -110 -44 -14 0
-47 -111 -125 -13 0
-48 -112 -126 -14 0
-49 -99 -139 -13 0
-50 -100 -140 -14 0
-51 -181 -83 -13 0
-52 -182 -84 -14 0
-279 -69 -55 -13 0
-280 -70 -56 -14 0
-251 -55 -71 -13 0
-252 -56 -72 -14 0
-55 -153 -87 -13 0
-56 -154 -88 -14 0
-251 -69 -59 -13 0
-252 -70 -60 -14 0
-139 -89 -59 -13 0
-140 -90 -60 -14 0
-83 -69 -139 -13 0
-84 -70 -140 -14 0
-15 -259 -239 -25 0
-16 -260 -240 -26 0
-15 -209 -239 -27 0
-16 -210 -240 -28 0
-15 -159 -287 -29 0
-16 -160 -288 -30 0
-15 -179 -239 -29 0
-16 -180 -240 -30 0
-15 -31 -143 -287 0
-16 -32 -144 -288 0
-15 -31 -159 -239 0
-16 -32 -160 -240 0
-15 -31 -167 -223 0
-16 -32 -168 -224 0
-15 -33 -135 -271 0
-16 -34 -136 -272 0
-15 -35 -143 -215 0
-16 -36 -144 -216 0
-15 -279 -111 -39 0
-16 -280 -112 -40 0
-15 -39 -239 -119 0
-16 -40 -240 -120 0
-15 -129 -39 -207 0
-16 -130 -40 -208 0
-15 -179 -143 -39 0
-16 -180 -144 -40 0
-15 -111 -41 -251 0
-16 -112 -42 -252 0
-15 -143 -167 -41 0
-16 -144 -168 -42 0
-15 -239 -43 -109 0
-16 -240 -44 -110 0
-15 -131 -175 -43 0
-16 -132 -176 -44 0
-15 -47 -95 -287 0
-16 -48 -96 -288 0
-15 -47 -103 -233 0
-16 -48 -104 -234 0
-15 -47 -215 -107 0
-16 -48 -216 -108 0
-15 -47 -179 -119 0
-16 -48 -180 -120 0
-15 -47 -167 -125 0
-16 -48 -168 -126 0
-15 -49 -99 -239 0
-16 -50 -100 -240 0
-15 -51 -103 -207 0
-16 -52 -104 -208 0
-15 -181 -51 -111 0
-16 -182 -52 -112 0
-15 -95 -55 -223 0
-16 -96 -56 -224 0
-15 -111 -55 -167 0
-16 -112 -56 -168 0
-15 -143 -55 -125 0
-16 -144 -56 -126 0
-15 -239 -89 -59 0
-16 -240 -90 -60 0
-15 -143 -119 -59 0
-16 -144 -120 -60 0
-15 -79 -69 -279 0
-16 -80 -70 -280 0
-15 -83 -69 -239 0
-16 -84 -70 -240 0
-15 -111 -69 -139 0
-16 -112 -70 -140 0
-15 -79 -71 -269 0
-16 -80 -72 -270 0
-15 -143 -71 -107 0
-16 -144 -72 -108 0
-15 -143 -103 -77 0
-16 -144 -104 -78 0
-15 -209 -79 -83 0
-16 -210 -80 -84 0
-15 -79 -179 -89 0
-16 -80 -180 -90 0
-15 -159 -79 -95 0
-16 -160 -80 -96 0
-15 -79 -149 -99 0
-16 -80 -150 -100 0
-15 -79 -131 -109 0
-16 -80 -132 -110 0
-15 -83 -111 -125 0
-16 -84 -112 -126 0
-31 -17 -215 -287 0
-32 -18 -216 -288 0
-17 -35 -179 -269 0
-18 -36 -180 -270 0
-215 -17 -179 -39 0
-216 -18 -180 -40 0
-215 -17 -167 -41 0
-216 -18 -168 -42 0
-47 -17 -143 -215 0
-48 -18 -144 -216 0
-215 -17 -55 -125 0
-216 -18 -56 -126 0
-107 -17 -59 -269 0
-108 -18 -60 -270 0
-215 -17 -119 -59 0
-216 -18 -120 -60 0
-95 -17 -71 -287 0
-96 -18 -72 -288 0
-17 -71 -233 -103 0
-18 -72 -234 -104 0
-17 -179 -71 -119 0
-18 -180 -72 -120 0
-17 -71 -167 -125 0
-18 -72 -168 -126 0
-215 -17 -103 -77 0
-216 -18 -104 -78 0
-17 -179 -89 -107 0
-18 -180 -90 -108 0
-199 -19 -39 -299 0
-200 -20 -40 -300 0
-209 -19 -39 -279 0
-210 -20 -40 -280 0
-215 -19 -39 -269 0
-216 -20 -40 -270 0
-263 -19 -39 -219 0
-264 -20 -40 -220 0
-209 -19 -41 -251 0
-210 -20 -42 -252 0
-47 -19 -159 -287 0
-48 -20 -160 -288 0
-47 -19 -239 -179 0
-48 -20 -240 -180 0
-49 -19 -149 -299 0
-50 -20 -150 -300 0
-19 -51 -155 -259 0
-20 -52 -156 -260 0
-181 -209 -19 -51 0
-182 -210 -20 -52 0
-279 -19 -55 -139 0
-280 -20 -56 -140 0
-159 -19 -55 -223 0
-160 -20 -56 -224 0
-209 -19 -55 -167 0
-210 -20 -56 -168 0
-139 -19 -251 -59 0
-140 -20 -252 -60 0
-143 -19 -239 -59 0
-144 -20 -240 -60 0
-63 -19 -159 -191 0
-64 -20 -160 -192 0
-279 -19 -69 -119 0
-280 -20 -70 -120 0
-19 -69 -251 -125 0
-20 -70 -252 -126 0
-209 -19 -69 -139 0
-210 -20 -70 -140 0
-181 -19 -69 -155 0
-182 -20 -70 -156 0
-19 -71 -119 -269 0
-20 -72 -120 -270 0
-79 -19 -111 -279 0
-80 -20 -112 -280 0
-79 -129 -19 -207 0
-80 -130 -20 -208 0
-79 -19 -143 -179 0
-80 -20 -144 -180 0
-209 -19 -83 -125 0
-210 -20 -84 -126 0
-19 -83 -179 -139 0
-20 -84 -180 -140 0
-263 -19 -87 -109 0
-264 -20 -88 -110 0
-19 -219 -87 -119 0
-20 -220 -88 -120 0
-19 -89 -107 -269 0
-20 -90 -108 -270 0
-215 -19 -119 -89 0
-216 -20 -120 -90 0
-95 -159 -19 -143 0
-96 -160 -20 -144 0
-199 -19 -99 -119 0
-200 -20 -100 -120 0
-19 -153 -139 -109 0
-20 -154 -140 -110 0
-19 -119 -167 -125 0
-20 -120 -168 -126 0
-197 -219 -21 -59 0
-198 -220 -22 -60 0
-65 -179 -21 -219 0
-66 -180 -22 -220 0
-263 -21 -119 -109 0
-264 -22 -120 -110 0
-131 -21 -219 -109 0
-132 -22 -220 -110 0
-111 -175 -21 -153 0
-112 -176 -22 -154 0
-143 -175 -131 -21 0
-144 -176 -132 -22 0
-223 -287 -23 -55 0
-224 -288 -24 -56 0
-199 -299 -23 -59 0
-200 -300 -24 -60 0
-209 -23 -59 -279 0
-210 -24 -60 -280 0
-215 -23 -59 -269 0
-216 -24 -60 -270 0
-263 -219 -23 -59 0
-264 -220 -24 -60 0
-63 -287 -23 -191 0
-64 -288 -24 -192 0
-65 -197 -23 -263 0
-66 -198 -24 -264 0
-279 -179 -69 -23 0
-280 -180 -70 -24 0
-179 -23 -71 -269 0
-180 -24 -72 -270 0
-79 -159 -23 -287 0
-80 -160 -24 -288 0
-79 -179 -23 -239 0
-80 -180 -24 -240 0
-83 -23 -251 -167 0
-84 -24 -252 -168 0
-179 -219 -23 -87 0
-180 -220 -24 -88 0
-215 -179 -23 -89 0
-216 -180 -24 -90 0
-95 -159 -23 -239 0
-96 -160 -24 -240 0
-95 -23 -223 -167 0
-96 -24 -224 -168 0
-199 -99 -23 -179 0
-200 -100 -24 -180 0
-143 -101 -23 -271 0
-144 -102 -24 -272 0
-155 -23 -233 -103 0
-156 -24 -234 -104 0
-215 -161 -23 -107 0
-216 -162 -24 -108 0
-111 -143 -23 -251 0
-112 -144 -24 -252 0
-139 -251 -23 -119 0
-140 -252 -24 -120 0
-143 -23 -239 -119 0
-144 -24 -240 -120 0
-179 -23 -169 -135 0
-180 -24 -170 -136 0
-179 -23 -139 -167 0
-180 -24 -140 -168 0
-65 -233 -25 -285 0
-66 -234 -26 -286 0
-285 -197 -25 -77 0
-286 -198 -26 -78 0
-79 -259 -207 -25 0
-80 -260 -208 -26 0
-129 -259 -25 -155 0
-130 -260 -26 -156 0
-129 -181 -25 -209 0
-130 -182 -26 -210 0
-279 -71 -27 -269 0
-280 -72 -28 -270 0
-79 -279 -239 -27 0
-80 -280 -240 -28 0
-223 -83 -287 -27 0
-224 -84 -288 -28 0
-279 -219 -87 -27 0
-280 -220 -88 -28 0
-279 -215 -89 -27 0
-280 -216 -90 -28 0
-95 -251 -223 -27 0
-96 -252 -224 -28 0
-97 -195 -293 -27 0
-98 -196 -294 -28 0
-279 -99 -199 -27 0
-280 -100 -200 -28 0
-111 -209 -239 -27 0
-112 -210 -240 -28 0
-279 -179 -119 -27 0
-280 -180 -120 -28 0
-269 -179 -27 -125 0
-270 -180 -28 -126 0
-129 -259 -181 -27 0
-130 -260 -182 -28 0
-279 -135 -169 -27 0
-280 -136 -170 -28 0
-139 -167 -27 -279 0
-140 -168 -28 -280 0
-151 -265 -27 -167 0
-152 -266 -28 -168 0
-263 -167 -153 -27 0
-264 -168 -154 -28 0
-155 -181 -233 -27 0
-156 -182 -234 -28 0
-95 -239 -287 -29 0
-96 -240 -288 -30 0
-239 -101 -271 -29 0
-240 -102 -272 -30 0
-111 -239 -251 -29 0
-112 -240 -252 -30 0
-199 -119 -299 -29 0
-200 -120 -300 -30 0
-209 -119 -279 -29 0
-210 -120 -280 -30 0
-215 -269 -119 -29 0
-216 -270 -120 -30 0
-263 -119 -219 -29 0
-264 -120 -220 -30 0
-269 -209 -125 -29 0
-270 -210 -126 -30 0
-285 -129 -197 -29 0
-286 -130 -198 -30 0
-209 -251 -139 -29 0
-210 -252 -140 -30 0
-143 -215 -239 -29 0
-144 -216 -240 -30 0
-179 -149 -299 -29 0
-180 -150 -300 -30 0
-207 -239 -155 -29 0
-208 -240 -156 -30 0
-159 -179 -287 -29 0
-160 -180 -288 -30 0
-279 -179 -167 -29 0
-280 -180 -168 -30 0
-175 -197 -239 -29 0
-176 -198 -240 -30 0
-31 -287 -101 -271 0
-32 -288 -102 -272 0
-31 -111 -287 -251 0
-32 -112 -288 -252 0
-31 -287 -119 -239 0
-32 -288 -120 -240 0
-31 -279 -223 -139 0
-32 -280 -224 -140 0
-31 -143 -215 -287 0
-32 -144 -216 -288 0
-31 -151 -223 -265 0
-32 -152 -224 -266 0
-31 -263 -223 -153 0
-32 -264 -224 -154 0
-31 -207 -287 -155 0
-32 -208 -288 -156 0
-31 -159 -199 -299 0
-32 -160 -200 -300 0
-31 -209 -159 -279 0
-32 -210 -160 -280 0
-31 -159 -215 -269 0
-32 -160 -216 -270 0
-31 -159 -263 -219 0
-32 -160 -264 -220 0
-31 -167 -223 -251 0
-32 -168 -224 -252 0
-31 -197 -175 -287 0
-32 -198 -176 -288 0
-239 -33 -271 -169 0
-240 -34 -272 -170 0
-33 -251 -203 -237 0
-34 -252 -204 -238 0
-35 -149 -299 -269 0
-36 -150 -300 -270 0
-159 -35 -287 -269 0
-160 -36 -288 -270 0
-279 -35 -167 -269 0
-280 -36 -168 -270 0
-209 -35 -251 -269 0
-210 -36 -252 -270 0
-143 -1 -7 -17 0
-144 -2 -8 -18 0
-79 -1 -19 -7 0
-80 -2 -20 -8 0
-47 -1 -7 -23 0
-48 -2 -8 -24 0
-1 -9 -11 -59 0
-2 -10 -12 -60 0
-3 -69 -279 -13 0
-4 -70 -280 -14 0
-3 -71 -251 -13 0
-4 -72 -252 -14 0
-3 -83 -167 -13 0
-4 -84 -168 -14 0
-3 -87 -153 -13 0
-4 -88 -154 -14 0
-15 -3 -35 -287 0
-16 -4 -36 -288 0
-15 -3 -159 -39 0
-16 -4 -160 -40 0
-15 -47 -3 -95 0
-16 -48 -4 -96 0
-17 -3 -167 -27 0
-18 -4 -168 -28 0
-17 -3 -119 -29 0
-18 -4 -120 -30 0
-31 -17 -3 -95 0
-32 -18 -4 -96 0
-17 -3 -35 -71 0
-18 -4 -36 -72 0
-17 -3 -39 -59 0
-18 -4 -40 -60 0
-17 -3 -55 -41 0
-18 -4 -56 -42 0
-21 -3 -19 -219 0
-22 -4 -20 -220 0
-3 -19 -23 -119 0
-4 -20 -24 -120 0
-69 -3 -19 -27 0
-70 -4 -20 -28 0
-65 -3 -21 -23 0
-66 -4 -22 -24 0
-19 -5 -199 -299 0
-20 -6 -200 -300 0
-209 -19 -5 -279 0
-210 -20 -6 -280 0
-19 -5 -215 -269 0
-20 -6 -216 -270 0
-19 -5 -263 -219 0
-20 -6 -264 -220 0
-21 -263 -5 -87 0
-22 -264 -6 -88 0
-239 -5 -23 -59 0
-240 -6 -24 -60 0
-63 -5 -23 -191 0
-64 -6 -24 -192 0
-175 -65 -5 -23 0
-176 -66 -6 -24 0
-143 -5 -23 -71 0
-144 -6 -24 -72 0
-79 -5 -23 -119 0
-80 -6 -24 -120 0
-111 -83 -5 -23 0
-112 -84 -6 -24 0
-47 -5 -207 -25 0
-48 -6 -208 -26 0
-51 -5 -25 -155 0
-52 -6 -26 -156 0
-209 -5 -39 -27 0
-210 -6 -40 -28 0
-5 -167 -41 -27 0
-6 -168 -42 -28 0
-47 -111 -5 -27 0
-48 -112 -6 -28 0
-83 -5 -55 -27 0
-84 -6 -56 -28 0
-35 -5 -179 -29 0
-36 -6 -180 -30 0
-47 -79 -5 -29 0
-48 -80 -6 -30 0
-31 -47 -63 -5 0
-32 -48 -64 -6 0
-35 -5 -39 -59 0
-36 -6 -40 -60 0
-35 -5 -55 -41 0
-36 -6 -56 -42 0
-239 -209 -7 -27 0
-240 -210 -8 -28 0
-111 -279 -7 -29 0
-112 -280 -8 -30 0
-239 -7 -119 -29 0
-240 -8 -120 -30 0
-207 -129 -7 -29 0
-208 -130 -8 -30 0
-143 -179 -7 -29 0
-144 -180 -8 -30 0
-31 -95 -7 -191 0
-32 -96 -8 -192 0
-271 -33 -67 -7 0
-272 -34 -68 -8 0
-79 -33 -7 -169 0
-80 -34 -8 -170 0
-239 -35 -7 -59 0
-240 -36 -8 -60 0
-63 -35 -7 -191 0
-64 -36 -8 -192 0
-175 -65 -35 -7 0
-176 -66 -36 -8 0
-143 -35 -7 -71 0
-144 -36 -8 -72 0
-79 -35 -7 -119 0
-80 -36 -8 -120 0
-111 -35 -7 -83 0
-112 -36 -8 -84 0
-47 -239 -7 -39 0
-48 -240 -8 -40 0
-199 -49 -7 -39 0
-200 -50 -8 -40 0
-55 -7 -39 -139 0
-56 -8 -40 -140 0
-89 -7 -39 -71 0
-90 -8 -40 -72 0
-47 -7 -41 -167 0
-48 -8 -42 -168 0
-111 -55 -7 -41 0
-112 -56 -8 -42 0
-79 -69 -7 -41 0
-80 -70 -8 -42 0
-47 -131 -7 -43 0
-48 -132 -8 -44 0
-35 -199 -9 -299 0
-36 -200 -10 -300 0
-209 -35 -279 -9 0
-210 -36 -280 -10 0
-35 -215 -9 -269 0
-36 -216 -10 -270 0
-35 -263 -9 -219 0
-36 -264 -10 -220 0
-111 -279 -39 -9 0
-112 -280 -40 -10 0
-239 -39 -9 -119 0
-240 -40 -10 -120 0
-207 -129 -39 -9 0
-208 -130 -40 -10 0
-143 -179 -39 -9 0
-144 -180 -40 -10 0
-41 -119 -9 -167 0
-42 -120 -10 -168 0
-219 -87 -9 -43 0
-220 -88 -10 -44 0
-131 -119 -9 -43 0
-132 -120 -10 -44 0
-47 -69 -223 -9 0
-48 -70 -224 -10 0
-47 -79 -159 -9 0
-48 -80 -160 -10 0
-47 -95 -119 -9 0
-48 -96 -120 -10 0
-49 -299 -9 -59 0
-50 -300 -10 -60 0
-51 -119 -9 -77 0
-52 -120 -10 -78 0
-179 -53 -9 -59 0
-180 -54 -10 -60 0
-69 -53 -9 -125 0
-70 -54 -10 -126 0
-53 -71 -9 -119 0
-54 -72 -10 -120 0
-111 -69 -55 -9 0
-112 -70 -56 -10 0
-275 -183 -11 -45 0
-276 -184 -12 -46 0
-47 -143 -287 -11 0
-48 -144 -288 -12 0
-47 -159 -239 -11 0
-48 -160 -240 -12 0
-47 -167 -223 -11 0
-48 -168 -224 -12 0
-49 -299 -119 -11 0
-50 -300 -120 -12 0
-49 -149 -199 -11 0
-50 -150 -200 -12 0
-95 -53 -287 -11 0
-96 -54 -288 -12 0
-53 -103 -233 -11 0
-54 -104 -234 -12 0
-107 -53 -215 -11 0
-108 -54 -216 -12 0
-179 -53 -119 -11 0
-180 -54 -120 -12 0
-53 -167 -11 -125 0
-54 -168 -12 -126 0
-95 -55 -223 -11 0
-96 -56 -224 -12 0
-111 -55 -11 -167 0
-112 -56 -12 -168 0
-143 -55 -11 -125 0
-144 -56 -12 -126 0
-259 -77 -11 -59 0
-260 -78 -12 -60 0
-209 -83 -11 -59 0
-210 -84 -12 -60 0
-95 -159 -11 -59 0
-96 -160 -12 -60 0
-99 -149 -11 -59 0
-100 -150 -12 -60 0
-131 -109 -11 -59 0
-132 -110 -12 -60 0
-63 -95 -127 -11 0
-64 -96 -128 -12 0
-65 -197 -71 -11 0
-66 -198 -72 -12 0
-83 -69 -119 -11 0
-84 -70 -120 -12 0
-79 -71 -11 -119 0
-80 -72 -12 -120 0
-111 -83 -71 -11 0
-112 -84 -72 -12 0
-223 -53 -287 -13 0
-224 -54 -288 -14 0
-239 -209 -55 -13 0
-240 -210 -56 -14 0
-139 -279 -59 -13 0
-140 -280 -60 -14 0
-159 -223 -59 -13 0
-160 -224 -60 -14 0
-209 -167 -59 -13 0
-210 -168 -60 -14 0
-63 -127 -223 -13 0
-64 -128 -224 -14 0
-65 -197 -125 -13 0
-66 -198 -126 -14 0
-69 -119 -167 -13 0
-70 -120 -168 -14 0
-95 -71 -223 -13 0
-96 -72 -224 -14 0
-111 -71 -167 -13 0
-112 -72 -168 -14 0
-143 -71 -125 -13 0
-144 -72 -126 -14 0
-83 -87 -153 -13 0
-84 -88 -154 -14 0
-15 -65 -197 -287 0
-16 -66 -198 -288 0
-15 -159 -69 -279 0
-16 -160 -70 -280 0
-15 -143 -71 -287 0
-16 -144 -72 -288 0
-15 -159 -71 -239 0
-16 -160 -72 -240 0
-15 -71 -223 -167 0
-16 -72 -224 -168 0
-15 -159 -75 -189 0
-16 -160 -76 -190 0
-15 -79 -111 -279 0
-16 -80 -112 -280 0
-15 -129 -79 -207 0
-16 -130 -80 -208 0
-15 -79 -143 -179 0
-16 -80 -144 -180 0
-15 -83 -111 -223 0
-16 -84 -112 -224 0
-15 -83 -159 -139 0
-16 -84 -160 -140 0
-15 -263 -95 -87 0
-16 -264 -96 -88 0
-15 -95 -239 -89 0
-16 -96 -240 -90 0
-15 -159 -119 -89 0
-16 -160 -120 -90 0
-285 -17 -197 -77 0
-286 -18 -198 -78 0
-79 -17 -179 -287 0
-80 -18 -180 -288 0
-17 -83 -167 -251 0
-18 -84 -168 -252 0
-143 -17 -87 -263 0
-144 -18 -88 -264 0
-175 -17 -197 -87 0
-176 -18 -198 -88 0
-17 -251 -89 -139 0
-18 -252 -90 -140 0
-143 -17 -239 -89 0
-144 -18 -240 -90 0
-95 -17 -143 -191 0
-96 -18 -144 -192 0
-143 -17 -103 -155 0
-144 -18 -104 -156 0
-17 -179 -119 -107 0
-18 -180 -120 -108 0
-17 -167 -107 -125 0
-18 -168 -108 -126 0
-239 -263 -19 -87 0
-240 -264 -20 -88 0
-19 -199 -89 -299 0
-20 -200 -90 -300 0
-209 -19 -279 -89 0
-210 -20 -280 -90 0
-19 -215 -89 -269 0
-20 -216 -90 -270 0
-19 -263 -89 -219 0
-20 -264 -90 -220 0
-95 -19 -191 -239 0
-96 -20 -192 -240 0
-239 -19 -103 -155 0
-240 -20 -104 -156 0
-139 -19 -251 -107 0
-140 -20 -252 -108 0
-143 -19 -239 -107 0
-144 -20 -240 -108 0
-19 -263 -131 -109 0
-20 -264 -132 -110 0
-111 -19 -223 -139 0
-112 -20 -224 -140 0
-113 -19 -151 -189 0
-114 -20 -152 -190 0
-207 -129 -19 -119 0
-208 -130 -20 -120 0
-19 -167 -139 -125 0
-20 -168 -140 -126 0
-19 -153 -131 -139 0
-20 -154 -132 -140 0
-207 -21 -103 -285 0
-208 -22 -104 -286 0
-197 -21 -263 -107 0
-198 -22 -264 -108 0
-175 -21 -119 -219 0
-176 -22 -120 -220 0
-111 -23 -287 -251 0
-112 -24 -288 -252 0
-199 -299 -23 -119 0
-200 -300 -24 -120 0
-209 -23 -119 -279 0
-210 -24 -120 -280 0
-215 -23 -119 -269 0
-216 -24 -120 -270 0
-263 -219 -23 -119 0
-264 -220 -24 -120 0
-239 -209 -23 -125 0
-240 -210 -24 -126 0
-127 -255 -23 -191 0
-128 -256 -24 -192 0
-239 -23 -139 -167 0
-240 -24 -140 -168 0
-143 -159 -23 -239 0
-144 -160 -24 -240 0
-143 -23 -223 -167 0
-144 -24 -224 -168 0
-207 -181 -167 -25 0
-208 -182 -168 -26 0
-143 -251 -287 -27 0
-144 -252 -288 -28 0
-219 -279 -153 -27 0
-220 -280 -154 -28 0
-155 -251 -233 -27 0
-156 -252 -234 -28 0
-161 -251 -215 -27 0
-162 -252 -216 -28 0
-239 -209 -167 -27 0
-240 -210 -168 -28 0
-239 -279 -167 -29 0
-240 -280 -168 -30 0
-239 -271 -169 -29 0
-240 -272 -170 -30 0
-179 -199 -299 -29 0
-180 -200 -300 -30 0
-209 -179 -279 -29 0
-210 -180 -280 -30 0
-179 -263 -219 -29 0
-180 -264 -220 -30 0
-239 -229 -183 -29 0
-240 -230 -184 -30 0
-1 -19 -5 -119 0
-2 -20 -6 -120 0
-21 -1 -5 -65 0
-22 -2 -6 -66 0
-47 -1 -5 -23 0
-48 -2 -6 -24 0
-15 -1 -7 -31 0
-16 -2 -8 -32 0
-1 -7 -23 -17 0
-2 -8 -24 -18 0
-1 -39 -9 -11 0
-2 -40 -10 -12 0
-3 -69 -279 -9 0
-4 -70 -280 -10 0
-239 -3 -71 -9 0
-240 -4 -72 -10 0
-3 -9 -75 -189 0
-4 -10 -76 -190 0
-79 -3 -159 -9 0
-80 -4 -160 -10 0
-3 -83 -9 -139 0
-4 -84 -10 -140 0
-3 -89 -119 -9 0
-4 -90 -120 -10 0
-239 -3 -39 -11 0
-240 -4 -40 -12 0
-3 -167 -41 -11 0
-4 -168 -42 -12 0
-3 -131 -11 -43 0
-4 -132 -12 -44 0
-47 -3 -95 -11 0
-48 -4 -96 -12 0
-3 -51 -11 -77 0
-4 -52 -12 -78 0
-3 -53 -71 -11 0
-4 -54 -72 -12 0
-279 -3 -29 -13 0
-280 -4 -30 -14 0
-3 -35 -83 -13 0
-4 -36 -84 -14 0
-3 -55 -41 -13 0
-4 -56 -42 -14 0
-15 -3 -207 -25 0
-16 -4 -208 -26 0
-15 -3 -79 -29 0
-16 -4 -80 -30 0
-15 -31 -3 -63 0
-16 -32 -4 -64 0
-15 -47 -3 -35 0
-16 -48 -4 -36 0
-143 -17 -3 -23 0
-144 -18 -4 -24 0
-79 -3 -19 -23 0
-80 -4 -20 -24 0
-3 -19 -39 -29 0
-4 -20 -40 -30 0
-179 -5 -279 -13 0
-180 -6 -280 -14 0
-15 -263 -5 -87 0
-16 -264 -6 -88 0
-15 -5 -239 -89 0
-16 -6 -240 -90 0
-15 -95 -5 -191 0
-16 -96 -6 -192 0
-15 -5 -103 -155 0
-16 -6 -104 -156 0
-15 -143 -5 -107 0
-16 -144 -6 -108 0
-197 -17 -5 -65 0
-198 -18 -6 -66 0
-143 -17 -5 -71 0
-144 -18 -6 -72 0
-49 -19 -5 -299 0
-50 -20 -6 -300 0
-53 -19 -5 -179 0
-54 -20 -6 -180 0
-19 -5 -119 -59 0
-20 -6 -120 -60 0
-69 -19 -5 -83 0
-70 -20 -6 -84 0
-79 -19 -5 -71 0
-80 -20 -6 -72 0
-21 -5 -263 -43 0
-22 -6 -264 -44 0
-239 -5 -23 -39 0
-240 -6 -24 -40 0
-131 -5 -23 -43 0
-132 -6 -24 -44 0
-47 -95 -5 -23 0
-48 -96 -6 -24 0
-51 -5 -23 -77 0
-52 -6 -24 -78 0
-53 -5 -23 -71 0
-54 -6 -24 -72 0
-35 -5 -167 -27 0
-36 -6 -168 -28 0
-33 -5 -169 -29 0
-34 -6 -170 -30 0
-35 -5 -119 -29 0
-36 -6 -120 -30 0
-79 -5 -39 -29 0
-80 -6 -40 -30 0
-31 -95 -35 -5 0
-32 -96 -36 -6 0
-279 -19 -7 -167 0
-280 -20 -8 -168 0
-271 -19 -7 -169 0
-272 -20 -8 -170 0
-239 -19 -7 -179 0
-240 -20 -8 -180 0
-19 -229 -7 -183 0
-20 -230 -8 -184 0
-219 -21 -7 -119 0
-220 -22 -8 -120 0
-175 -131 -21 -7 0
-176 -132 -22 -8 0
-263 -7 -23 -87 0
-264 -8 -24 -88 0
-239 -89 -7 -23 0
-240 -90 -8 -24 0
-95 -191 -7 -23 0
-96 -192 -8 -24 0
-155 -7 -23 -103 0
-156 -8 -24 -104 0
-143 -7 -23 -107 0
-144 -8 -24 -108 0
-207 -7 -25 -77 0
-208 -8 -26 -78 0
-7 -167 -27 -71 0
-8 -168 -28 -72 0
-111 -83 -7 -27 0
-112 -84 -8 -28 0
-239 -7 -59 -29 0
-240 -8 -60 -30 0
-7 -119 -71 -29 0
-8 -120 -72 -30 0
-79 -95 -7 -29 0
-80 -96 -8 -30 0
-31 -53 -7 -287 0
-32 -54 -8 -288 0
-31 -159 -7 -59 0
-32 -160 -8 -60 0
-31 -63 -127 -7 0
-32 -64 -128 -8 0
-31 -95 -7 -71 0
-32 -96 -8 -72 0
-47 -35 -7 -287 0
-48 -36 -8 -288 0
-143 -35 -53 -7 0
-144 -36 -54 -8 0
-47 -159 -7 -39 0
-48 -160 -8 -40 0
-79 -7 -39 -59 0
-80 -8 -40 -60 0
-47 -51 -7 -77 0
-48 -52 -8 -78 0
-47 -53 -7 -71 0
-48 -54 -8 -72 0
-139 -279 -9 -27 0
-140 -280 -10 -28 0
-219 -153 -9 -27 0
-220 -154 -10 -28 0
-239 -119 -9 -29 0
-240 -120 -10 -30 0
-209 -125 -9 -29 0
-210 -126 -10 -30 0
-167 -9 -139 -29 0
-168 -10 -140 -30 0
-143 -159 -9 -29 0
-144 -160 -10 -30 0
-31 -159 -119 -9 0
-32 -160 -120 -10 0
-33 -101 -169 -9 0
-34 -102 -170 -10 0
-79 -35 -287 -9 0
-80 -36 -288 -10 0
-179 -35 -89 -9 0
-180 -36 -90 -10 0
-35 -119 -9 -107 0
-36 -120 -10 -108 0
-239 -39 -9 -71 0
-240 -40 -10 -72 0
-39 -9 -75 -189 0
-40 -10 -76 -190 0
-79 -159 -39 -9 0
-80 -160 -40 -10 0
-83 -39 -9 -139 0
-84 -40 -10 -140 0
-89 -39 -9 -119 0
-90 -40 -10 -120 0
-41 -83 -9 -119 0
-42 -84 -10 -120 0
-65 -219 -9 -43 0
-66 -220 -10 -44 0
-47 -239 -9 -59 0
-48 -240 -10 -60 0
-47 -71 -9 -119 0
-48 -72 -10 -120 0
-47 -79 -95 -9 0
-48 -80 -96 -10 0
-49 -199 -9 -59 0
-50 -200 -10 -60 0
-139 -55 -9 -59 0
-140 -56 -10 -60 0
-79 -71 -9 -59 0
-80 -72 -10 -60 0
-31 -215 -287 -11 0
-32 -216 -288 -12 0
-143 -35 -287 -11 0
-144 -36 -288 -12 0
-155 -35 -233 -11 0
-156 -36 -234 -12 0
-161 -35 -215 -11 0
-162 -36 -216 -12 0
-239 -39 -11 -119 0
-240 -40 -12 -120 0
-209 -39 -11 -125 0
-210 -40 -12 -126 0
-139 -39 -11 -167 0
-140 -40 -12 -168 0
-143 -159 -39 -11 0
-144 -160 -40 -12 0
-107 -251 -41 -11 0
-108 -252 -42 -12 0
-111 -223 -41 -11 0
-112 -224 -42 -12 0
-167 -41 -11 -125 0
-168 -42 -12 -126 0
-131 -153 -41 -11 0
-132 -154 -42 -12 0
-107 -197 -11 -43 0
-108 -198 -12 -44 0
-91 -275 -11 -45 0
-92 -276 -12 -46 0
-47 -263 -87 -11 0
-48 -264 -88 -12 0
-47 -239 -89 -11 0
-48 -240 -90 -12 0
-47 -95 -191 -11 0
-48 -96 -192 -12 0
-47 -155 -103 -11 0
-48 -156 -104 -12 0
-47 -107 -143 -11 0
-48 -108 -144 -12 0
-49 -199 -89 -11 0
-50 -200 -90 -12 0
-49 -99 -149 -11 0
-50 -100 -150 -12 0
-139 -55 -89 -11 0
-140 -56 -90 -12 0
-69 -279 -11 -59 0
-70 -280 -12 -60 0
-239 -71 -11 -59 0
-240 -72 -12 -60 0
-75 -189 -11 -59 0
-76 -190 -12 -60 0
-79 -159 -11 -59 0
-80 -160 -12 -60 0
-119 -89 -11 -59 0
-120 -90 -12 -60 0
-63 -71 -191 -11 0
-64 -72 -192 -12 0
-175 -65 -71 -11 0
-176 -66 -72 -12 0
-209 -39 -279 -13 0
-210 -40 -280 -14 0
-179 -279 -41 -13 0
-180 -280 -42 -14 0
-175 -223 -43 -13 0
-176 -224 -44 -14 0
-47 -239 -139 -13 0
-48 -240 -140 -14 0
-47 -143 -223 -13 0
-48 -144 -224 -14 0
-49 -199 -139 -13 0
-50 -200 -140 -14 0
-251 -55 -107 -13 0
-252 -56 -108 -14 0
-111 -55 -223 -13 0
-112 -56 -224 -14 0
-167 -55 -125 -13 0
-168 -56 -126 -14 0
-131 -55 -153 -13 0
-132 -56 -154 -14 0
-139 -125 -59 -13 0
-140 -126 -60 -14 0
-63 -95 -223 -13 0
-64 -96 -224 -14 0
-83 -69 -279 -13 0
-84 -70 -280 -14 0
-209 -69 -89 -13 0
-210 -70 -90 -14 0
-83 -71 -251 -13 0
-84 -72 -252 -14 0
-71 -125 -107 -13 0
-72 -126 -108 -14 0
-83 -89 -139 -13 0
-84 -90 -140 -14 0
-15 -47 -215 -287 0
-16 -48 -216 -288 0
-15 -51 -175 -285 0
-16 -52 -176 -286 0
-15 -161 -53 -287 0
-16 -162 -54 -288 0
-15 -55 -223 -167 0
-16 -56 -224 -168 0
-15 -143 -239 -59 0
-16 -144 -240 -60 0
-15 -159 -191 -59 0
-16 -160 -192 -60 0
-15 -63 -127 -255 0
-16 -64 -128 -256 0
-15 -63 -143 -191 0
-16 -64 -144 -192 0
-15 -65 -143 -175 0
-16 -66 -144 -176 0
-15 -69 -119 -223 0
-16 -70 -120 -224 0
-15 -159 -69 -139 0
-16 -160 -70 -140 0
-15 -71 -287 -107 0
-16 -72 -288 -108 0
-15 -79 -159 -119 0
-16 -80 -160 -120 0
-15 -159 -87 -109 0
-16 -160 -88 -110 0
-15 -159 -89 -107 0
-16 -160 -90 -108 0
-15 -95 -103 -155 0
-16 -96 -104 -156 0
-15 -95 -143 -107 0
-16 -96 -144 -108 0
-17 -251 -59 -209 0
-18 -252 -60 -210 0
-239 -17 -215 -59 0
-240 -18 -216 -60 0
-143 -17 -71 -287 0
-144 -18 -72 -288 0
-17 -71 -233 -155 0
-18 -72 -234 -156 0
-161 -17 -71 -215 0
-162 -18 -72 -216 0
-17 -131 -197 -87 0
-18 -132 -198 -88 0
-239 -17 -119 -89 0
-240 -18 -120 -90 0
-17 -167 -89 -139 0
-18 -168 -90 -140 0
-143 -17 -159 -89 0
-144 -18 -160 -90 0
-95 -17 -287 -107 0
-96 -18 -288 -108 0
-95 -17 -111 -251 0
-96 -18 -112 -252 0
-143 -17 -101 -135 0
-144 -18 -102 -136 0
-17 -103 -233 -107 0
-18 -104 -234 -108 0
-209 -19 -69 -279 0
-210 -20 -70 -280 0
-209 -19 -71 -251 0
-210 -20 -72 -252 0
-215 -19 -71 -239 0
-216 -20 -72 -240 0
-19 -259 -179 -77 0
-20 -260 -180 -78 0
-79 -279 -19 -167 0
-80 -280 -20 -168 0
-79 -19 -271 -169 0
-80 -20 -272 -170 0
-79 -19 -239 -179 0
-80 -20 -240 -180 0
-79 -19 -229 -183 0
-80 -20 -230 -184 0
-239 -19 -83 -167 0
-240 -20 -84 -168 0
-209 -19 -83 -179 0
-210 -20 -84 -180 0
-143 -19 -287 -89 0
-144 -20 -288 -90 0
-19 -233 -89 -155 0
-20 -234 -90 -156 0
-161 -19 -215 -89 0
-162 -20 -216 -90 0
-95 -19 -143 -239 0
-96 -20 -144 -240 0
-95 -19 -159 -191 0
-96 -20 -160 -192 0
-199 -19 -149 -99 0
-200 -20 -150 -100 0
-239 -19 -101 -135 0
-240 -20 -102 -136 0
-129 -19 -103 -259 0
-130 -20 -104 -260 0
-19 -131 -219 -109 0
-20 -132 -220 -110 0
-111 -279 -19 -119 0
-112 -280 -20 -120 0
-111 -19 -239 -125 0
-112 -20 -240 -126 0
-209 -19 -119 -125 0
-210 -20 -120 -126 0
-143 -19 -159 -119 0
-144 -20 -160 -120 0
-285 -21 -233 -77 0
-286 -22 -234 -78 0
-197 -263 -21 -87 0
-198 -264 -22 -88 0
-95 -175 -21 -263 0
-96 -176 -22 -264 0
-21 -103 -155 -285 0
-22 -104 -156 -286 0
-239 -287 -23 -89 0
-240 -288 -24 -90 0
-95 -215 -23 -287 0
-96 -216 -24 -288 0
-199 -99 -23 -299 0
-200 -100 -24 -300 0
-271 -101 -23 -203 0
-272 -102 -24 -204 0
-215 -23 -233 -103 0
-216 -24 -234 -104 0
-239 -197 -23 -109 0
-240 -198 -24 -110 0
-111 -279 -179 -23 0
-112 -280 -180 -24 0
-239 -113 -23 -189 0
-240 -114 -24 -190 0
-271 -23 -169 -119 0
-272 -24 -170 -120 0
-239 -179 -23 -119 0
-240 -180 -24 -120 0
-229 -23 -119 -183 0
-230 -24 -120 -184 0
-207 -129 -179 -23 0
-208 -130 -180 -24 0
-143 -23 -233 -155 0
-144 -24 -234 -156 0
-143 -161 -23 -215 0
-144 -162 -24 -216 0
-279 -251 -119 -27 0
-280 -252 -120 -28 0
-139 -279 -27 -209 0
-140 -280 -28 -210 0
-143 -251 -215 -27 0
-144 -252 -216 -28 0
-197 -263 -153 -27 0
-198 -264 -154 -28 0
-159 -209 -223 -27 0
-160 -210 -224 -28 0
-279 -179 -167 -27 0
-280 -180 -168 -28 0
-251 -279 -139 -29 0
-252 -280 -140 -30 0
-143 -239 -287 -29 0
-144 -240 -288 -30 0
-259 -233 -155 -29 0
-260 -234 -156 -30 0
-159 -215 -287 -29 0
-160 -216 -288 -30 0
-175 -239 -219 -29 0
-176 -240 -220 -30 0
-239 -179 -215 -29 0
-240 -180 -216 -30 0
-31 -215 -191 -287 0
-32 -216 -192 -288 0
-35 -199 -299 -269 0
-36 -200 -300 -270 0
-271 -35 -287 -203 0
-272 -36 -288 -204 0
-209 -35 -279 -269 0
-210 -36 -280 -270 0
-1 -5 -125 -13 0
-2 -6 -126 -14 0
-15 -1 -5 -71 0
-16 -2 -6 -72 0
-53 -1 -5 -17 0
-54 -2 -6 -18 0
-1 -35 -5 -23 0
-2 -36 -6 -24 0
-1 -7 -9 -59 0
-2 -8 -10 -60 0
-1 -35 -7 -11 0
-2 -36 -8 -12 0
-1 -7 -27 -13 0
-2 -8 -28 -14 0
-15 -1 -7 -23 0
-16 -2 -8 -24 0
-49 -3 -9 -299 0
-50 -4 -10 -300 0
-3 -51 -9 -259 0
-4 -52 -10 -260 0
-209 -3 -55 -9 0
-210 -4 -56 -10 0
-3 -179 -9 -59 0
-4 -180 -10 -60 0
-63 -3 -159 -9 0
-64 -4 -160 -10 0
-3 -69 -9 -139 0
-4 -70 -10 -140 0
-79 -3 -119 -9 0
-80 -4 -120 -10 0
-3 -87 -9 -109 0
-4 -88 -10 -110 0
-3 -89 -9 -107 0
-4 -90 -10 -108 0
-3 -251 -11 -27 0
-4 -252 -12 -28 0
-3 -179 -11 -29 0
-4 -180 -12 -30 0
-31 -3 -143 -11 0
-32 -4 -144 -12 0
-107 -3 -35 -11 0
-108 -4 -36 -12 0
-3 -39 -89 -11 0
-4 -40 -90 -12 0
-3 -83 -41 -11 0
-4 -84 -42 -12 0
-47 -3 -71 -11 0
-48 -4 -72 -12 0
-3 -23 -125 -13 0
-4 -24 -126 -14 0
-3 -83 -27 -13 0
-4 -84 -28 -14 0
-15 -17 -3 -215 0
-16 -18 -4 -216 0
-15 -3 -19 -119 0
-16 -4 -20 -120 0
-15 -3 -21 -87 0
-16 -4 -22 -88 0
-15 -3 -23 -71 0
-16 -4 -24 -72 0
-15 -3 -55 -27 0
-16 -4 -56 -28 0
-15 -31 -3 -47 0
-16 -32 -4 -48 0
-17 -3 -53 -23 0
-18 -4 -54 -24 0
-35 -3 -19 -29 0
-36 -4 -20 -30 0
-5 -167 -251 -13 0
-6 -168 -252 -14 0
-181 -5 -233 -13 0
-182 -6 -234 -14 0
-191 -5 -223 -13 0
-192 -6 -224 -14 0
-15 -63 -5 -287 0
-16 -64 -6 -288 0
-15 -65 -5 -263 0
-16 -66 -6 -264 0
-15 -215 -5 -71 0
-16 -216 -6 -72 0
-15 -79 -5 -179 0
-16 -80 -6 -180 0
-15 -83 -5 -167 0
-16 -84 -6 -168 0
-15 -143 -95 -5 0
-16 -144 -96 -6 0
-15 -101 -5 -135 0
-16 -102 -6 -136 0
-15 -111 -5 -125 0
-16 -112 -6 -126 0
-47 -17 -5 -215 0
-48 -18 -6 -216 0
-53 -17 -5 -161 0
-54 -18 -6 -162 0
-17 -5 -71 -107 0
-18 -6 -72 -108 0
-35 -19 -5 -269 0
-36 -20 -6 -270 0
-19 -5 -39 -179 0
-20 -6 -40 -180 0
-47 -19 -5 -119 0
-48 -20 -6 -120 0
-19 -5 -89 -59 0
-20 -6 -90 -60 0
-21 -47 -5 -87 0
-22 -48 -6 -88 0
-251 -5 -23 -27 0
-252 -6 -24 -28 0
-179 -5 -23 -29 0
-180 -6 -24 -30 0
-31 -143 -5 -23 0
-32 -144 -6 -24 0
-35 -5 -23 -107 0
-36 -6 -24 -108 0
-89 -5 -23 -39 0
-90 -6 -24 -40 0
-83 -5 -23 -41 0
-84 -6 -24 -42 0
-47 -5 -23 -71 0
-48 -6 -24 -72 0
-129 -5 -25 -29 0
-130 -6 -26 -30 0
-47 -5 -55 -27 0
-48 -6 -56 -28 0
-31 -79 -5 -29 0
-32 -80 -6 -30 0
-279 -19 -7 -139 0
-280 -20 -8 -140 0
-143 -19 -7 -269 0
-144 -20 -8 -270 0
-159 -19 -7 -239 0
-160 -20 -8 -240 0
-175 -19 -7 -219 0
-176 -20 -8 -220 0
-215 -19 -7 -179 0
-216 -20 -8 -180 0
-263 -21 -7 -87 0
-264 -22 -8 -88 0
-63 -287 -7 -23 0
-64 -288 -8 -24 0
-65 -7 -23 -263 0
-66 -8 -24 -264 0
-215 -7 -23 -71 0
-216 -8 -24 -72 0
-79 -179 -7 -23 0
-80 -180 -8 -24 0
-83 -7 -23 -167 0
-84 -8 -24 -168 0
-95 -143 -7 -23 0
-96 -144 -8 -24 0
-101 -7 -23 -135 0
-102 -8 -24 -136 0
-111 -7 -23 -125 0
-112 -8 -24 -126 0
-79 -129 -7 -25 0
-80 -130 -8 -26 0
-47 -251 -7 -27 0
-48 -252 -8 -28 0
-7 -55 -27 -167 0
-8 -56 -28 -168 0
-69 -7 -27 -119 0
-70 -8 -28 -120 0
-279 -7 -41 -29 0
-280 -8 -42 -30 0
-47 -179 -7 -29 0
-48 -180 -8 -30 0
-79 -7 -89 -29 0
-80 -8 -90 -30 0
-31 -239 -7 -39 0
-32 -240 -8 -40 0
-31 -175 -7 -43 0
-32 -176 -8 -44 0
-31 -47 -143 -7 0
-32 -48 -144 -8 0
-31 -111 -7 -55 0
-32 -112 -8 -56 0
-31 -63 -95 -7 0
-32 -64 -96 -8 0
-47 -35 -7 -107 0
-48 -36 -8 -108 0
-47 -89 -7 -39 0
-48 -90 -8 -40 0
-7 -39 -59 -71 0
-8 -40 -60 -72 0
-47 -83 -7 -41 0
-48 -84 -8 -42 0
-55 -7 -41 -71 0
-56 -8 -42 -72 0
-111 -279 -9 -27 0
-112 -280 -10 -28 0
-251 -119 -9 -27 0
-252 -120 -10 -28 0
-139 -9 -27 -209 0
-140 -10 -28 -210 0
-179 -167 -9 -27 0
-180 -168 -10 -28 0
-269 -89 -9 -29 0
-270 -90 -10 -30 0
-95 -239 -9 -29 0
-96 -240 -10 -30 0
-109 -197 -9 -29 0
-110 -198 -10 -30 0
-113 -9 -189 -29 0
-114 -10 -190 -30 0
-179 -119 -9 -29 0
-180 -120 -10 -30 0
-31 -79 -239 -9 0
-32 -80 -240 -10 0
-31 -95 -179 -9 0
-32 -96 -180 -10 0
-31 -143 -119 -9 0
-32 -144 -120 -10 0
-33 -69 -9 -237 0
-34 -70 -10 -238 0
-35 -9 -59 -269 0
-36 -10 -60 -270 0
-35 -179 -71 -9 0
-36 -180 -72 -10 0
-49 -39 -9 -299 0
-50 -40 -10 -300 0
-51 -39 -9 -259 0
-52 -40 -10 -260 0
-209 -55 -39 -9 0
-210 -56 -40 -10 0
-179 -39 -9 -59 0
-180 -40 -10 -60 0
-69 -39 -9 -139 0
-70 -40 -10 -140 0
-79 -39 -9 -119 0
-80 -40 -10 -120 0
-39 -9 -87 -109 0
-40 -10 -88 -110 0
-89 -39 -9 -107 0
-90 -40 -10 -108 0
-47 -41 -279 -9 0
-48 -42 -280 -10 0
-41 -179 -55 -9 0
-42 -180 -56 -10 0
-41 -69 -9 -125 0
-42 -70 -10 -126 0
-47 -119 -9 -59 0
-48 -120 -10 -60 0
-47 -79 -89 -9 0
-48 -80 -90 -10 0
-83 -69 -55 -9 0
-84 -70 -56 -10 0
-31 -191 -287 -11 0
-32 -192 -288 -12 0
-31 -203 -271 -11 0
-32 -204 -272 -12 0
-31 -251 -223 -11 0
-32 -252 -224 -12 0
-33 -167 -11 -237 0
-34 -168 -12 -238 0
-35 -119 -11 -269 0
-36 -120 -12 -270 0
-35 -251 -11 -125 0
-36 -252 -12 -126 0
-143 -35 -215 -11 0
-144 -36 -216 -12 0
-113 -227 -37 -11 0
-114 -228 -38 -12 0
-39 -89 -11 -269 0
-40 -90 -12 -270 0
-95 -39 -239 -11 0
-96 -40 -240 -12 0
-197 -39 -11 -109 0
-198 -40 -12 -110 0
-113 -39 -11 -189 0
-114 -40 -12 -190 0
-179 -39 -11 -119 0
-180 -40 -12 -120 0
-79 -279 -41 -11 0
-80 -280 -42 -12 0
-83 -251 -41 -11 0
-84 -252 -42 -12 0
-97 -195 -41 -11 0
-98 -196 -42 -12 0
-181 -103 -41 -11 0
-182 -104 -42 -12 0
-111 -167 -41 -11 0
-112 -168 -42 -12 0
-197 -87 -11 -43 0
-198 -88 -12 -44 0
-95 -175 -11 -43 0
-96 -176 -12 -44 0
-47 -63 -287 -11 0
-48 -64 -288 -12 0
-47 -65 -263 -11 0
-48 -66 -264 -12 0
-47 -215 -71 -11 0
-48 -216 -72 -12 0
-47 -79 -179 -11 0
-48 -80 -180 -12 0
-47 -83 -167 -11 0
-48 -84 -168 -12 0
-47 -95 -143 -11 0
-48 -96 -144 -12 0
-47 -101 -135 -11 0
-48 -102 -136 -12 0
-47 -111 -11 -125 0
-48 -112 -12 -126 0
-49 -299 -11 -59 0
-50 -300 -12 -60 0
-51 -259 -11 -59 0
-52 -260 -12 -60 0
-161 -53 -71 -11 0
-162 -54 -72 -12 0
-209 -55 -11 -59 0
-210 -56 -12 -60 0
-83 -55 -11 -125 0
-84 -56 -12 -126 0
-95 -111 -55 -11 0
-96 -112 -56 -12 0
-63 -159 -11 -59 0
-64 -160 -12 -60 0
-139 -69 -11 -59 0
-140 -70 -12 -60 0
-87 -109 -11 -59 0
-88 -110 -12 -60 0
-107 -89 -11 -59 0
-108 -90 -12 -60 0
-209 -39 -251 -13 0
-210 -40 -252 -14 0
-223 -39 -239 -13 0
-224 -40 -240 -14 0
-167 -41 -251 -13 0
-168 -42 -252 -14 0
-233 -181 -41 -13 0
-234 -182 -42 -14 0
-191 -223 -41 -13 0
-192 -224 -42 -14 0
-47 -111 -251 -13 0
-48 -112 -252 -14 0
-47 -215 -125 -13 0
-48 -216 -126 -14 0
-161 -53 -125 -13 0
-162 -54 -126 -14 0
-79 -279 -55 -13 0
-80 -280 -56 -14 0
-83 -55 -251 -13 0
-84 -56 -252 -14 0
-97 -195 -55 -13 0
-98 -196 -56 -14 0
-111 -55 -167 -13 0
-112 -56 -168 -14 0
-209 -83 -59 -13 0
-210 -84 -60 -14 0
-139 -119 -59 -13 0
-140 -120 -60 -14 0
-79 -69 -167 -13 0
-80 -70 -168 -14 0
-111 -69 -119 -13 0
-112 -70 -120 -14 0
-71 -89 -139 -13 0
-72 -90 -140 -14 0
-15 -47 -191 -287 0
-16 -48 -192 -288 0
-15 -47 -271 -203 0
-16 -48 -272 -204 0
-15 -47 -223 -251 0
-16 -48 -224 -252 0
-15 -49 -159 -299 0
-16 -50 -160 -300 0
-15 -49 -199 -239 0
-16 -50 -200 -240 0
-15 -51 -159 -259 0
-16 -52 -160 -260 0
-15 -55 -239 -139 0
-16 -56 -240 -140 0
-15 -209 -159 -55 0
-16 -210 -160 -56 0
-15 -179 -159 -59 0
-16 -180 -160 -60 0
-15 -63 -95 -287 0
-16 -64 -96 -288 0
-15 -63 -111 -223 0
-16 -64 -112 -224 0
-15 -63 -127 -191 0
-16 -64 -128 -192 0
-15 -65 -95 -263 0
-16 -66 -96 -264 0
-15 -65 -131 -175 0
-16 -66 -132 -176 0
-15 -239 -71 -89 0
-16 -240 -72 -90 0
-15 -215 -95 -71 0
-16 -216 -96 -72 0
-15 -79 -95 -179 0
-16 -80 -96 -180 0
-15 -79 -143 -119 0
-16 -80 -144 -120 0
-15 -83 -95 -167 0
-16 -84 -96 -168 0
-15 -143 -83 -111 0
-16 -144 -84 -112 0
-15 -95 -101 -135 0
-16 -96 -102 -136 0
-15 -95 -111 -125 0
-16 -96 -112 -126 0
-17 -179 -59 -269 0
-18 -180 -60 -270 0
-63 -17 -143 -287 0
-64 -18 -144 -288 0
-63 -17 -191 -215 0
-64 -18 -192 -216 0
-143 -17 -263 -65 0
-144 -18 -264 -66 0
-175 -17 -215 -65 0
-176 -18 -216 -66 0
-269 -17 -69 -125 0
-270 -18 -70 -126 0
-17 -71 -119 -269 0
-18 -72 -120 -270 0
-17 -71 -251 -125 0
-18 -72 -252 -126 0
-143 -17 -71 -215 0
-144 -18 -72 -216 0
-79 -17 -119 -215 0
-80 -18 -120 -216 0
-79 -17 -179 -143 0
-80 -18 -180 -144 0
-111 -17 -83 -215 0
-112 -18 -84 -216 0
-143 -17 -83 -167 0
-144 -18 -84 -168 0
-95 -17 -239 -89 0
-96 -18 -240 -90 0
-17 -197 -89 -109 0
-18 -198 -90 -110 0
-17 -89 -189 -113 0
-18 -90 -190 -114 0
-63 -19 -239 -287 0
-64 -20 -240 -288 0
-239 -65 -19 -263 0
-240 -66 -20 -264 0
-209 -19 -69 -251 0
-210 -20 -70 -252 0
-223 -19 -69 -239 0
-224 -20 -70 -240 0
-19 -71 -179 -269 0
-20 -72 -180 -270 0
-19 -227 -75 -189 0
-20 -228 -76 -190 0
-19 -259 -155 -77 0
-20 -260 -156 -78 0
-79 -19 -279 -139 0
-80 -20 -280 -140 0
-79 -19 -143 -269 0
-80 -20 -144 -270 0
-79 -19 -159 -239 0
-80 -20 -160 -240 0
-79 -19 -175 -219 0
-80 -20 -176 -220 0
-79 -19 -215 -179 0
-80 -20 -216 -180 0
-19 -251 -83 -139 0
-20 -252 -84 -140 0
-209 -19 -83 -167 0
-210 -20 -84 -168 0
-209 -19 -87 -153 0
-210 -20 -88 -154 0
-19 -119 -89 -269 0
-20 -120 -90 -270 0
-19 -89 -251 -125 0
-20 -90 -252 -126 0
-143 -19 -215 -89 0
-144 -20 -216 -90 0
-95 -19 -119 -239 0
-96 -20 -120 -240 0
-95 -19 -159 -179 0
-96 -20 -160 -180 0
-97 -19 -139 -195 0
-98 -20 -140 -196 0
-19 -149 -99 -179 0
-20 -150 -100 -180 0
-19 -181 -103 -139 0
-20 -182 -104 -140 0
-19 -197 -119 -109 0
-20 -198 -120 -110 0
-19 -179 -131 -109 0
-20 -180 -132 -110 0
-111 -19 -167 -139 0
-112 -20 -168 -140 0
-113 -19 -119 -189 0
-114 -20 -120 -190 0
-79 -21 -263 -219 0
-80 -22 -264 -220 0
-175 -263 -21 -87 0
-176 -264 -22 -88 0
-209 -21 -153 -109 0
-210 -22 -154 -110 0
-131 -21 -119 -219 0
-132 -22 -120 -220 0
-239 -23 -89 -269 0
-240 -24 -90 -270 0
-95 -287 -23 -191 0
-96 -288 -24 -192 0
-95 -23 -271 -203 0
-96 -24 -272 -204 0
-95 -23 -223 -251 0
-96 -24 -224 -252 0
-207 -23 -233 -103 0
-208 -24 -234 -104 0
-111 -23 -251 -167 0
-112 -24 -252 -168 0
-111 -181 -23 -233 0
-112 -182 -24 -234 0
-111 -223 -23 -191 0
-112 -224 -24 -192 0
-139 -23 -119 -279 0
-140 -24 -120 -280 0
-143 -23 -119 -269 0
-144 -24 -120 -270 0
-175 -219 -23 -119 0
-176 -220 -24 -120 0
-215 -179 -23 -119 0
-216 -180 -24 -120 0
-143 -23 -251 -125 0
-144 -24 -252 -126 0
-215 -23 -167 -125 0
-216 -24 -168 -126 0
-175 -131 -197 -23 0
-176 -132 -198 -24 0
-131 -25 -155 -285 0
-132 -26 -156 -286 0
-239 -279 -119 -27 0
-240 -280 -120 -28 0
-251 -119 -27 -269 0
-252 -120 -28 -270 0
-207 -129 -279 -27 0
-208 -130 -280 -28 0
-139 -251 -27 -209 0
-140 -252 -28 -210 0
-223 -139 -239 -27 0
-224 -140 -240 -28 0
-143 -179 -279 -27 0
-144 -180 -280 -28 0
-175 -263 -153 -27 0
-176 -264 -154 -28 0
-155 -251 -181 -27 0
-156 -252 -182 -28 0
-181 -167 -233 -27 0
-182 -168 -234 -28 0
-285 -131 -259 -29 0
-286 -132 -260 -30 0
-239 -279 -139 -29 0
-240 -280 -140 -30 0
-269 -251 -139 -29 0
-270 -252 -140 -30 0
-143 -269 -239 -29 0
-144 -270 -240 -30 0
-159 -191 -287 -29 0
-160 -192 -288 -30 0
-159 -271 -203 -29 0
-160 -272 -204 -30 0
-159 -223 -251 -29 0
-160 -224 -252 -30 0
-209 -167 -251 -29 0
-210 -168 -252 -30 0
-223 -167 -239 -29 0
-224 -168 -240 -30 0
-209 -181 -233 -29 0
-210 -182 -234 -30 0
-191 -209 -223 -29 0
-192 -210 -224 -30 0
-31 -159 -239 -287 0
-32 -160 -240 -288 0
-31 -287 -167 -223 0
-32 -288 -168 -224 0
-31 -191 -271 -203 0
-32 -192 -272 -204 0
-31 -191 -223 -251 0
-32 -192 -224 -252 0
-35 -263 -219 -269 0
-36 -264 -220 -270 0
