p cnf 384 15848
1 2 0
3 4 0
5 6 0
7 8 0
9 10 0
11 12 0
13 14 0
15 16 0
17 18 0
19 20 0
21 22 0
23 24 0
25 26 0
27 28 0
29 30 0
31 32 0
33 34 0
35 36 0
37 38 0
39 40 0
41 42 0
43 44 0
45 46 0
47 48 0
49 50 0
51 52 0
53 54 0
55 56 0
57 58 0
59 60 0
61 62 0
63 64 0
65 66 0
67 68 0
69 70 0
71 72 0
73 74 0
75 76 0
77 78 0
79 80 0
81 82 0
83 84 0
85 86 0
87 88 0
89 90 0
91 92 0
93 94 0
95 96 0
97 98 0
99 100 0
101 102 0
103 104 0
105 106 0
107 108 0
109 110 0
111 112 0
113 114 0
115 116 0
117 118 0
119 120 0
121 122 0
123 124 0
125 126 0
127 128 0
129 130 0
131 132 0
133 134 0
135 136 0
137 138 0
139 140 0
141 142 0
143 144 0
145 146 0
147 148 0
149 150 0
151 152 0
153 154 0
155 156 0
157 158 0
159 160 0
161 162 0
163 164 0
165 166 0
167 168 0
169 170 0
171 172 0
173 174 0
175 176 0
177 178 0
179 180 0
181 182 0
183 184 0
185 186 0
187 188 0
189 190 0
191 192 0
193 194 0
195 196 0
197 198 0
199 200 0
201 202 0
203 204 0
205 206 0
207 208 0
209 210 0
211 212 0
213 214 0
215 216 0
217 218 0
219 220 0
221 222 0
223 224 0
225 226 0
227 228 0
229 230 0
231 232 0
233 234 0
235 236 0
237 238 0
239 240 0
241 242 0
243 244 0
245 246 0
247 248 0
249 250 0
251 252 0
253 254 0
255 256 0
257 258 0
259 260 0
261 262 0
263 264 0
265 266 0
267 268 0
269 270 0
271 272 0
273 274 0
275 276 0
277 278 0
279 280 0
281 282 0
283 284 0
285 286 0
287 288 0
289 290 0
291 292 0
293 294 0
295 296 0
297 298 0
299 300 0
301 302 0
303 304 0
305 306 0
307 308 0
309 310 0
311 312 0
313 314 0
315 316 0
317 318 0
319 320 0
321 322 0
323 324 0
325 326 0
327 328 0
329 330 0
331 332 0
333 334 0
335 336 0
337 338 0
339 340 0
341 342 0
343 344 0
345 346 0
347 348 0
349 350 0
351 352 0
353 354 0
355 356 0
357 358 0
359 360 0
361 362 0
363 364 0
365 366 0
367 368 0
369 370 0
371 372 0
373 374 0
375 376 0
377 378 0
379 380 0
381 382 0
383 384 0
-15 -1 0
-16 -2 0
-31 -3 0
-32 -4 0
-47 -5 0
-48 -6 0
-63 -7 0
-64 -8 0
-79 -9 0
-80 -10 0
-95 -11 0
-96 -12 0
-111 -13 0
-112 -14 0
-15 -127 0
-16 -128 0
-143 -17 0
-144 -18 0
-159 -19 0
-160 -20 0
-175 -21 0
-176 -22 0
-191 -23 0
-192 -24 0
-207 -25 0
-208 -26 0
-223 -27 0
-224 -28 0
-239 -29 0
-240 -30 0
-31 -255 0
-32 -256 0
-271 -33 0
-272 -34 0
-287 -35 0
-288 -36 0
-303 -37 0
-304 -38 0
-319 -39 0
-320 -40 0
-335 -41 0
-336 -42 0
-351 -43 0
-352 -44 0
-367 -45 0
-368 -46 0
-47 -383 0
-48 -384 0
-3 -59 -29 0
-4 -60 -30 0
-131 -5 -43 0
-132 -6 -44 0
-231 -7 -57 0
-232 -8 -58 0
-7 -59 -119 0
-8 -60 -120 0
-359 -71 -9 0
-360 -72 -10 0
-263 -87 -11 0
-264 -88 -12 0
-179 -89 -11 0
-180 -90 -12 0
-91 -137 -11 0
-92 -138 -12 0
-15 -119 -239 0
-16 -120 -240 0
-15 -143 -125 0
-16 -144 -126 0
-17 -179 -139 0
-18 -180 -140 0
-369 -19 -147 0
-370 -20 -148 0
-19 -149 -299 0
-20 -150 -300 0
-19 -153 -219 0
-20 -154 -220 0
-263 -21 -167 0
-264 -22 -168 0
-179 -359 -23 0
-180 -360 -24 0
-311 -181 -23 0
-312 -182 -24 0
-275 -23 -183 0
-276 -24 -184 0
-247 -23 -185 0
-248 -24 -186 0
-195 -25 -363 0
-196 -26 -364 0
-227 -379 -29 0
-228 -380 -30 0
-31 -287 -251 0
-32 -288 -252 0
-35 -359 -279 0
-36 -360 -280 0
-1 -3 -27 0
-2 -4 -28 0
-3 -5 -83 0
-4 -6 -84 0
-3 -7 -55 0
-4 -8 -56 0
-3 -41 -11 0
-4 -42 -12 0
-17 -3 -35 0
-18 -4 -36 0
-5 -7 -167 0
-6 -8 -168 0
-83 -5 -11 0
-84 -6 -12 0
-19 -5 -59 0
-20 -6 -60 0
-5 -23 -55 0
-6 -24 -56 0
-279 -7 -9 0
-280 -8 -10 0
-7 -11 -167 0
-8 -12 -168 0
-15 -111 -7 0
-16 -112 -8 0
-21 -7 -87 0
-22 -8 -88 0
-83 -7 -23 0
-84 -8 -24 0
-35 -7 -71 0
-36 -8 -72 0
-69 -7 -39 0
-70 -8 -40 0
-19 -9 -139 0
-20 -10 -140 0
-23 -9 -119 0
-24 -10 -120 0
-83 -9 -59 0
-84 -10 -60 0
-15 -11 -335 0
-16 -12 -336 0
-17 -251 -11 0
-18 -252 -12 0
-209 -19 -11 0
-210 -20 -12 0
-23 -11 -167 0
-24 -12 -168 0
-155 -25 -11 0
-156 -26 -12 0
-139 -11 -29 0
-140 -12 -30 0
-35 -11 -125 0
-36 -12 -126 0
-39 -11 -119 0
-40 -12 -120 0
-47 -111 -11 0
-48 -112 -12 0
-107 -53 -11 0
-108 -54 -12 0
-67 -101 -11 0
-68 -102 -12 0
-97 -83 -11 0
-98 -84 -12 0
-195 -27 -13 0
-196 -28 -14 0
-15 -23 -335 0
-16 -24 -336 0
-15 -239 -29 0
-16 -240 -30 0
-15 -31 -223 0
-16 -32 -224 0
-15 -175 -43 0
-16 -176 -44 0
-15 -47 -167 0
-16 -48 -168 0
-15 -143 -71 0
-16 -144 -72 0
-15 -79 -139 0
-16 -80 -140 0
-31 -17 -287 0
-32 -18 -288 0
-17 -35 -251 0
-18 -36 -252 0
-17 -179 -59 0
-18 -180 -60 0
-17 -71 -167 0
-18 -72 -168 0
-339 -33 -19 0
-340 -34 -20 0
-279 -19 -39 0
-280 -20 -40 0
-47 -19 -239 0
-48 -20 -240 0
-209 -19 -59 0
-210 -20 -60 0
-19 -69 -195 0
-20 -70 -196 0
-19 -75 -189 0
-20 -76 -190 0
-19 -179 -89 0
-20 -180 -90 0
-19 -119 -167 0
-20 -120 -168 0
-307 -21 -43 0
-308 -22 -44 0
-47 -23 -335 0
-48 -24 -336 0
-311 -51 -23 0
-312 -52 -24 0
-293 -23 -55 0
-294 -24 -56 0
-279 -23 -59 0
-280 -24 -60 0
-65 -23 -263 0
-66 -24 -264 0
-251 -23 -71 0
-252 -24 -72 0
-79 -23 -239 0
-80 -24 -240 0
-95 -23 -223 0
-96 -24 -224 0
-215 -23 -107 0
-216 -24 -108 0
-209 -23 -119 0
-210 -24 -120 0
-23 -203 -135 0
-24 -204 -136 0
-199 -149 -23 0
-200 -150 -24 0
-195 -23 -167 0
-196 -24 -168 0
-51 -25 -363 0
-52 -26 -364 0
-83 -293 -27 0
-84 -294 -28 0
-251 -27 -125 0
-252 -28 -126 0
-359 -71 -29 0
-360 -72 -30 0
-79 -335 -29 0
-80 -336 -30 0
-99 -299 -29 0
-100 -300 -30 0
-279 -119 -29 0
-280 -120 -30 0
-259 -155 -29 0
-260 -156 -30 0
-179 -251 -29 0
-180 -252 -30 0
-31 -87 -351 0
-32 -88 -352 0
-31 -95 -335 0
-32 -96 -336 0
-31 -143 -287 0
-32 -144 -288 0
-31 -159 -279 0
-32 -160 -280 0
-35 -377 -107 0
-36 -378 -108 0
-35 -359 -119 0
-36 -360 -120 0
-143 -35 -335 0
-144 -36 -336 0
-323 -161 -35 0
-324 -162 -36 0
-35 -197 -307 0
-36 -198 -308 0
-305 -35 -203 0
-306 -36 -204 0
-35 -293 -251 0
-36 -294 -252 0
-39 -379 -151 0
-40 -380 -152 0
-179 -359 -39 0
-180 -360 -40 0
-199 -39 -349 0
-200 -40 -350 0
-239 -39 -335 0
-240 -40 -336 0
-263 -39 -329 0
-264 -40 -330 0
-363 -43 -285 0
-364 -44 -286 0
-1 -27 -13 0
-2 -28 -14 0
-3 -103 -25 0
-4 -104 -26 0
-3 -55 -27 0
-4 -56 -28 0
-3 -39 -29 0
-4 -40 -30 0
-37 -227 -5 0
-38 -228 -6 0
-5 -39 -119 0
-6 -40 -120 0
-83 -5 -41 0
-84 -6 -42 0
-65 -5 -43 0
-66 -6 -44 0
-207 -51 -7 0
-208 -52 -8 0
-143 -53 -7 0
-144 -54 -8 0
-111 -7 -55 0
-112 -8 -56 0
-79 -7 -59 0
-80 -8 -60 0
-63 -9 -319 0
-64 -10 -320 0
-65 -9 -219 0
-66 -10 -220 0
-67 -169 -9 0
-68 -170 -10 0
-69 -9 -139 0
-70 -10 -140 0
-71 -9 -119 0
-72 -10 -120 0
-311 -11 -77 0
-312 -12 -78 0
-79 -239 -11 0
-80 -240 -12 0
-83 -167 -11 0
-84 -168 -12 0
-131 -87 -11 0
-132 -88 -12 0
-119 -89 -11 0
-120 -90 -12 0
-321 -91 -13 0
-322 -92 -14 0
-95 -223 -13 0
-96 -224 -14 0
-97 -195 -13 0
-98 -196 -14 0
-125 -107 -13 0
-126 -108 -14 0
-15 -287 -107 0
-16 -288 -108 0
-15 -111 -223 0
-16 -112 -224 0
-15 -159 -119 0
-16 -160 -120 0
-17 -359 -119 0
-18 -360 -120 0
-17 -251 -125 0
-18 -252 -126 0
-17 -131 -197 0
-18 -132 -198 0
-339 -19 -135 0
-340 -20 -136 0
-19 -279 -139 0
-20 -280 -140 0
-143 -19 -239 0
-144 -20 -240 0
-19 -149 -199 0
-20 -150 -200 0
-19 -151 -189 0
-20 -152 -190 0
-307 -21 -153 0
-308 -22 -154 0
-21 -155 -285 0
-22 -156 -286 0
-335 -23 -167 0
-336 -24 -168 0
-175 -263 -23 0
-176 -264 -24 0
-239 -179 -23 0
-240 -180 -24 0
-181 -25 -363 0
-182 -26 -364 0
-199 -27 -349 0
-200 -28 -350 0
-209 -279 -27 0
-210 -280 -28 0
-251 -215 -27 0
-252 -216 -28 0
-359 -215 -29 0
-360 -216 -30 0
-329 -219 -29 0
-330 -220 -30 0
-275 -229 -29 0
-276 -230 -30 0
-259 -233 -29 0
-260 -234 -30 0
-31 -239 -319 0
-32 -240 -320 0
-35 -359 -269 0
-36 -360 -270 0
-303 -39 -379 0
-304 -40 -380 0
-323 -41 -377 0
-324 -42 -378 0
-1 -35 -5 0
-2 -36 -6 0
-1 -7 -23 0
-2 -8 -24 0
-1 -19 -9 0
-2 -20 -10 0
-1 -11 -17 0
-2 -12 -18 0
-3 -119 -9 0
-4 -120 -10 0
-3 -71 -11 0
-4 -72 -12 0
-3 -55 -13 0
-4 -56 -14 0
-15 -47 -3 0
-16 -48 -4 0
-3 -19 -39 0
-4 -20 -40 0
-3 -35 -23 0
-4 -36 -24 0
-5 -251 -13 0
-6 -252 -14 0
-15 -143 -5 0
-16 -144 -6 0
-17 -5 -107 0
-18 -6 -108 0
-19 -5 -89 0
-20 -6 -90 0
-5 -23 -71 0
-6 -24 -72 0
-5 -59 -29 0
-6 -60 -30 0
-53 -35 -5 0
-54 -36 -6 0
-239 -19 -7 0
-240 -20 -8 0
-175 -21 -7 0
-176 -22 -8 0
-143 -7 -23 0
-144 -8 -24 0
-111 -7 -27 0
-112 -8 -28 0
-31 -95 -7 0
-32 -96 -8 0
-79 -7 -39 0
-80 -8 -40 0
-47 -7 -71 0
-48 -8 -72 0
-359 -23 -9 0
-360 -24 -10 0
-25 -9 -259 0
-26 -10 -260 0
-209 -9 -27 0
-210 -10 -28 0
-179 -9 -29 0
-180 -10 -30 0
-31 -159 -9 0
-32 -160 -10 0
-39 -9 -119 0
-40 -10 -120 0
-9 -43 -109 0
-10 -44 -110 0
-49 -99 -9 0
-50 -100 -10 0
-89 -9 -59 0
-90 -10 -60 0
-83 -69 -9 0
-84 -70 -10 0
-359 -11 -29 0
-360 -12 -30 0
-31 -287 -11 0
-32 -288 -12 0
-35 -215 -11 0
-36 -216 -12 0
-179 -39 -11 0
-180 -40 -12 0
-167 -41 -11 0
-168 -42 -12 0
-47 -143 -11 0
-48 -144 -12 0
-55 -11 -125 0
-56 -12 -126 0
-119 -11 -59 0
-120 -12 -60 0
-107 -71 -11 0
-108 -72 -12 0
-103 -11 -77 0
-104 -12 -78 0
-35 -377 -13 0
-36 -378 -14 0
-279 -39 -13 0
-280 -40 -14 0
-41 -251 -13 0
-42 -252 -14 0
-51 -181 -13 0
-52 -182 -14 0
-55 -167 -13 0
-56 -168 -14 0
-69 -139 -13 0
-70 -140 -14 0
-83 -125 -13 0
-84 -126 -14 0
-15 -43 -351 0
-16 -44 -352 0
-15 -47 -287 0
-16 -48 -288 0
-15 -55 -223 0
-16 -56 -224 0
-15 -63 -191 0
-16 -64 -192 0
-15 -79 -159 0
-16 -80 -160 0
-15 -95 -143 0
-16 -96 -144 0
-17 -323 -53 0
-18 -324 -54 0
-17 -59 -269 0
-18 -60 -270 0
-215 -17 -71 0
-216 -18 -72 0
-17 -179 -89 0
-18 -180 -90 0
-161 -17 -107 0
-162 -18 -108 0
-19 -359 -59 0
-20 -360 -60 0
-63 -19 -319 0
-64 -20 -320 0
-19 -69 -279 0
-20 -70 -280 0
-19 -71 -269 0
-20 -72 -270 0
-79 -19 -239 0
-80 -20 -240 0
-19 -87 -219 0
-20 -88 -220 0
-19 -215 -89 0
-20 -216 -90 0
-199 -19 -99 0
-200 -20 -100 0
-19 -119 -179 0
-20 -120 -180 0
-19 -135 -169 0
-20 -136 -170 0
-19 -167 -139 0
-20 -168 -140 0
-67 -21 -373 0
-68 -22 -374 0
-263 -21 -87 0
-264 -22 -88 0
-21 -219 -109 0
-22 -220 -110 0
-197 -131 -21 0
-198 -132 -22 0
-79 -359 -23 0
-80 -360 -24 0
-335 -83 -23 0
-336 -84 -24 0
-95 -23 -287 0
-96 -24 -288 0
-271 -101 -23 0
-272 -102 -24 0
-111 -23 -251 0
-112 -24 -252 0
-239 -23 -119 0
-240 -24 -120 0
-143 -215 -23 0
-144 -216 -24 0
-207 -23 -155 0
-208 -24 -156 0
-175 -197 -23 0
-176 -198 -24 0
-311 -103 -25 0
-312 -104 -26 0
-129 -259 -25 0
-130 -260 -26 0
-233 -25 -155 0
-234 -26 -156 0
-103 -363 -27 0
-104 -364 -28 0
-111 -27 -335 0
-112 -28 -336 0
-139 -279 -27 0
-140 -280 -28 0
-151 -265 -27 0
-152 -266 -28 0
-263 -153 -27 0
-264 -154 -28 0
-251 -167 -27 0
-252 -168 -28 0
-113 -379 -29 0
-114 -380 -30 0
-359 -119 -29 0
-360 -120 -30 0
-131 -329 -29 0
-132 -330 -30 0
-149 -299 -29 0
-150 -300 -30 0
-159 -287 -29 0
-160 -288 -30 0
-279 -167 -29 0
-280 -168 -30 0
-269 -179 -29 0
-270 -180 -30 0
-209 -251 -29 0
-210 -252 -30 0
-31 -127 -383 0
-32 -128 -384 0
-31 -159 -319 0
-32 -160 -320 0
-31 -191 -287 0
-32 -192 -288 0
-33 -339 -169 0
-34 -340 -170 0
-33 -305 -203 0
-34 -306 -204 0
-35 -167 -377 0
-36 -168 -378 0
-35 -359 -179 0
-36 -360 -180 0
-323 -35 -215 0
-324 -36 -216 0
-35 -311 -233 0
-36 -312 -234 0
-37 -379 -189 0
-38 -380 -190 0
-227 -37 -341 0
-228 -38 -342 0
-367 -229 -39 0
-368 -230 -40 0
-239 -359 -39 0
-240 -360 -40 0
-271 -339 -39 0
-272 -340 -40 0
-335 -279 -39 0
-336 -280 -40 0
-41 -251 -377 0
-42 -252 -378 0
-359 -279 -41 0
-360 -280 -42 0
-41 -299 -349 0
-42 -300 -350 0
-359 -329 -43 0
-360 -330 -44 0
-15 -1 -111 -13 0
-16 -2 -112 -14 0
-3 -25 -155 -77 0
-4 -26 -156 -78 0
-31 -3 -223 -27 0
-32 -4 -224 -28 0
-3 -35 -27 -125 0
-4 -36 -28 -126 0
-3 -83 -41 -27 0
-4 -84 -42 -28 0
-359 -5 -39 -71 0
-360 -6 -40 -72 0
-259 -5 -39 -77 0
-260 -6 -40 -78 0
-79 -5 -39 -239 0
-80 -6 -40 -240 0
-209 -83 -5 -39 0
-210 -84 -6 -40 0
-179 -5 -39 -89 0
-180 -6 -40 -90 0
-95 -159 -5 -39 0
-96 -160 -6 -40 0
-149 -99 -5 -39 0
-150 -100 -6 -40 0
-131 -5 -39 -109 0
-132 -6 -40 -110 0
-47 -5 -41 -335 0
-48 -6 -42 -336 0
-5 -55 -41 -167 0
-6 -56 -42 -168 0
-139 -5 -41 -59 0
-140 -6 -42 -60 0
-311 -51 -7 -155 0
-312 -52 -8 -156 0
-359 -53 -7 -89 0
-360 -54 -8 -90 0
-95 -53 -7 -287 0
-96 -54 -8 -288 0
-53 -7 -233 -103 0
-54 -8 -234 -104 0
-215 -53 -7 -107 0
-216 -54 -8 -108 0
-179 -53 -7 -119 0
-180 -54 -8 -120 0
-53 -7 -167 -125 0
-54 -8 -168 -126 0
-279 -69 -7 -55 0
-280 -70 -8 -56 0
-251 -7 -55 -71 0
-252 -8 -56 -72 0
-83 -7 -55 -167 0
-84 -8 -56 -168 0
-153 -7 -55 -87 0
-154 -8 -56 -88 0
-7 -89 -59 -71 0
-8 -90 -60 -72 0
-63 -287 -359 -9 0
-64 -288 -360 -10 0
-159 -65 -9 -351 0
-160 -66 -10 -352 0
-67 -373 -9 -109 0
-68 -374 -10 -110 0
-69 -119 -9 -167 0
-70 -120 -10 -168 0
-259 -71 -9 -77 0
-260 -72 -10 -78 0
-79 -239 -71 -9 0
-80 -240 -72 -10 0
-209 -83 -71 -9 0
-210 -84 -72 -10 0
-179 -89 -71 -9 0
-180 -90 -72 -10 0
-95 -159 -71 -9 0
-96 -160 -72 -10 0
-99 -149 -71 -9 0
-100 -150 -72 -10 0
-131 -71 -9 -109 0
-132 -72 -10 -110 0
-79 -179 -359 -11 0
-80 -180 -360 -12 0
-79 -191 -11 -319 0
-80 -192 -12 -320 0
-79 -299 -199 -11 0
-80 -300 -200 -12 0
-79 -209 -279 -11 0
-80 -210 -280 -12 0
-79 -215 -11 -269 0
-80 -216 -12 -270 0
-79 -219 -263 -11 0
-80 -220 -264 -12 0
-81 -163 -245 -11 0
-82 -164 -246 -12 0
-107 -83 -377 -11 0
-108 -84 -378 -12 0
-111 -83 -11 -335 0
-112 -84 -12 -336 0
-279 -83 -119 -11 0
-280 -84 -120 -12 0
-83 -251 -11 -125 0
-84 -252 -12 -126 0
-139 -83 -11 -209 0
-140 -84 -12 -210 0
-155 -83 -181 -11 0
-156 -84 -182 -12 0
-95 -159 -89 -11 0
-96 -160 -90 -12 0
-99 -149 -89 -11 0
-100 -150 -90 -12 0
-131 -89 -11 -109 0
-132 -90 -12 -110 0
-95 -167 -335 -13 0
-96 -168 -336 -14 0
-95 -307 -175 -13 0
-96 -308 -176 -14 0
-95 -209 -239 -13 0
-96 -210 -240 -14 0
-209 -99 -149 -13 0
-210 -100 -150 -14 0
-111 -101 -271 -13 0
-112 -102 -272 -14 0
-111 -103 -207 -13 0
-112 -104 -208 -14 0
-111 -143 -107 -13 0
-112 -144 -108 -14 0
-15 -359 -239 -107 0
-16 -360 -240 -108 0
-15 -251 -107 -335 0
-16 -252 -108 -336 0
-15 -305 -271 -107 0
-16 -306 -272 -108 0
-15 -263 -239 -109 0
-16 -264 -240 -110 0
-15 -111 -167 -335 0
-16 -112 -168 -336 0
-15 -111 -175 -307 0
-16 -112 -176 -308 0
-15 -209 -111 -239 0
-16 -210 -112 -240 0
-15 -113 -143 -341 0
-16 -114 -144 -342 0
-15 -113 -151 -303 0
-16 -114 -152 -304 0
-15 -129 -119 -207 0
-16 -130 -120 -208 0
-15 -179 -143 -119 0
-16 -180 -144 -120 0
-17 -341 -119 -379 0
-18 -342 -120 -380 0
-223 -17 -287 -125 0
-224 -18 -288 -126 0
-127 -17 -179 -319 0
-128 -18 -180 -320 0
-127 -17 -191 -287 0
-128 -18 -192 -288 0
-129 -17 -179 -259 0
-130 -18 -180 -260 0
-17 -131 -179 -219 0
-18 -132 -180 -220 0
-17 -179 -135 -169 0
-18 -180 -136 -170 0
-339 -19 -139 -237 0
-340 -20 -140 -238 0
-239 -19 -139 -335 0
-240 -20 -140 -336 0
-143 -19 -359 -179 0
-144 -20 -360 -180 0
-143 -19 -191 -319 0
-144 -20 -192 -320 0
-143 -19 -199 -299 0
-144 -20 -200 -300 0
-143 -209 -19 -279 0
-144 -210 -20 -280 0
-143 -19 -215 -269 0
-144 -20 -216 -270 0
-143 -19 -263 -219 0
-144 -20 -264 -220 0
-311 -21 -263 -155 0
-312 -22 -264 -156 0
-159 -263 -21 -239 0
-160 -264 -22 -240 0
-161 -21 -215 -263 0
-162 -22 -216 -264 0
-311 -23 -363 -167 0
-312 -24 -364 -168 0
-257 -343 -23 -171 0
-258 -344 -24 -172 0
-231 -23 -347 -173 0
-232 -24 -348 -174 0
-175 -373 -23 -203 0
-176 -374 -24 -204 0
-175 -23 -329 -219 0
-176 -24 -330 -220 0
-191 -179 -23 -319 0
-192 -180 -24 -320 0
-199 -179 -23 -299 0
-200 -180 -24 -300 0
-209 -179 -23 -279 0
-210 -180 -24 -280 0
-215 -179 -23 -269 0
-216 -180 -24 -270 0
-263 -179 -23 -219 0
-264 -180 -24 -220 0
-321 -183 -25 -363 0
-322 -184 -26 -364 0
-191 -223 -25 -363 0
-192 -224 -26 -364 0
-209 -339 -27 -237 0
-210 -340 -28 -238 0
-239 -209 -27 -335 0
-240 -210 -28 -336 0
-223 -215 -287 -27 0
-224 -216 -288 -28 0
-341 -215 -379 -29 0
-342 -216 -380 -30 0
-223 -279 -335 -29 0
-224 -280 -336 -30 0
-31 -359 -239 -287 0
-32 -360 -240 -288 0
-35 -341 -379 -269 0
-36 -342 -380 -270 0
-271 -339 -35 -359 0
-272 -340 -36 -360 0
-1 -3 -51 -25 0
-2 -4 -52 -26 0
-1 -19 -5 -29 0
-2 -20 -6 -30 0
-1 -7 -23 -17 0
-2 -8 -24 -18 0
-15 -1 -39 -9 0
-16 -2 -40 -10 0
-15 -1 -23 -11 0
-16 -2 -24 -12 0
-3 -5 -75 -227 0
-4 -6 -76 -228 0
-3 -5 -155 -77 0
-4 -6 -156 -78 0
-79 -3 -5 -119 0
-80 -4 -6 -120 0
-199 -49 -3 -7 0
-200 -50 -4 -8 0
-3 -51 -7 -103 0
-4 -52 -8 -104 0
-3 -53 -7 -71 0
-4 -54 -8 -72 0
-3 -41 -9 -139 0
-4 -42 -10 -140 0
-113 -3 -37 -11 0
-114 -4 -38 -12 0
-3 -39 -11 -59 0
-4 -40 -12 -60 0
-3 -35 -83 -13 0
-4 -36 -84 -14 0
-15 -47 -3 -35 0
-16 -48 -4 -36 0
-31 -17 -3 -143 0
-32 -18 -4 -144 0
-31 -79 -3 -19 0
-32 -80 -4 -20 0
-3 -21 -219 -29 0
-4 -22 -220 -30 0
-3 -23 -119 -29 0
-4 -24 -120 -30 0
-31 -47 -3 -23 0
-32 -48 -4 -24 0
-3 -69 -27 -29 0
-4 -70 -28 -30 0
-311 -5 -7 -155 0
-312 -6 -8 -156 0
-159 -5 -7 -239 0
-160 -6 -8 -240 0
-215 -161 -5 -7 0
-216 -162 -6 -8 0
-95 -5 -239 -9 0
-96 -6 -240 -10 0
-149 -99 -5 -9 0
-150 -100 -6 -10 0
-75 -227 -5 -11 0
-76 -228 -6 -12 0
-155 -5 -11 -77 0
-156 -6 -12 -78 0
-79 -5 -119 -11 0
-80 -6 -120 -12 0
-83 -5 -71 -13 0
-84 -6 -72 -14 0
-15 -5 -239 -59 0
-16 -6 -240 -60 0
-15 -95 -63 -5 0
-16 -96 -64 -6 0
-17 -5 -55 -251 0
-18 -6 -56 -252 0
-17 -5 -89 -59 0
-18 -6 -90 -60 0
-53 -19 -5 -179 0
-54 -20 -6 -180 0
-199 -49 -5 -23 0
-200 -50 -6 -24 0
-51 -5 -23 -103 0
-52 -6 -24 -104 0
-53 -5 -23 -71 0
-54 -6 -24 -72 0
-47 -5 -311 -25 0
-48 -6 -312 -26 0
-51 -5 -25 -77 0
-52 -6 -26 -78 0
-47 -5 -167 -27 0
-48 -6 -168 -28 0
-47 -5 -119 -29 0
-48 -6 -120 -30 0
-31 -47 -95 -5 0
-32 -48 -96 -6 0
-47 -35 -5 -71 0
-48 -36 -6 -72 0
-47 -5 -39 -59 0
-48 -6 -40 -60 0
-5 -153 -41 -43 0
-6 -154 -42 -44 0
-47 -5 -55 -41 0
-48 -6 -56 -42 0
-359 -7 -9 -269 0
-360 -8 -10 -270 0
-271 -339 -7 -9 0
-272 -340 -8 -10 0
-155 -7 -11 -311 0
-156 -8 -12 -312 0
-159 -7 -239 -11 0
-160 -8 -240 -12 0
-215 -161 -7 -11 0
-216 -162 -8 -12 0
-279 -7 -119 -13 0
-280 -8 -120 -14 0
-167 -7 -125 -13 0
-168 -8 -126 -14 0
-15 -101 -7 -271 0
-16 -102 -8 -272 0
-15 -7 -207 -103 0
-16 -8 -208 -104 0
-15 -143 -7 -107 0
-16 -144 -8 -108 0
-17 -359 -7 -89 0
-18 -360 -8 -90 0
-95 -17 -143 -7 0
-96 -18 -144 -8 0
-279 -19 -7 -83 0
-280 -20 -8 -84 0
-19 -7 -89 -119 0
-20 -8 -90 -120 0
-79 -21 -7 -219 0
-80 -22 -8 -220 0
-227 -7 -23 -75 0
-228 -8 -24 -76 0
-7 -23 -155 -77 0
-8 -24 -156 -78 0
-79 -7 -23 -119 0
-80 -8 -24 -120 0
-311 -7 -25 -71 0
-312 -8 -26 -72 0
-7 -25 -103 -77 0
-8 -26 -104 -78 0
-279 -69 -7 -27 0
-280 -70 -8 -28 0
-7 -167 -27 -71 0
-8 -168 -28 -72 0
-69 -7 -167 -29 0
-70 -8 -168 -30 0
-7 -119 -71 -29 0
-8 -120 -72 -30 0
-31 -65 -7 -351 0
-32 -66 -8 -352 0
-31 -95 -7 -71 0
-32 -96 -8 -72 0
-33 -67 -7 -135 0
-34 -68 -8 -136 0
-63 -35 -7 -287 0
-64 -36 -8 -288 0
-309 -7 -39 -61 0
-310 -8 -40 -62 0
-63 -159 -7 -39 0
-64 -160 -8 -40 0
-65 -7 -39 -109 0
-66 -8 -40 -110 0
-65 -7 -43 -87 0
-66 -8 -44 -88 0
-47 -7 -239 -59 0
-48 -8 -240 -60 0
-47 -63 -95 -7 0
-48 -64 -96 -8 0
-199 -49 -7 -59 0
-200 -50 -8 -60 0
-139 -7 -55 -59 0
-140 -8 -56 -60 0
-239 -279 -9 -13 0
-240 -280 -10 -14 0
-15 -179 -239 -9 0
-16 -180 -240 -10 0
-143 -17 -359 -9 0
-144 -18 -360 -10 0
-127 -19 -9 -319 0
-128 -20 -10 -320 0
-129 -19 -9 -259 0
-130 -20 -10 -260 0
-19 -131 -9 -219 0
-20 -132 -10 -220 0
-19 -169 -135 -9 0
-20 -170 -136 -10 0
-21 -119 -9 -219 0
-22 -120 -10 -220 0
-359 -23 -9 -107 0
-360 -24 -10 -108 0
-263 -23 -9 -109 0
-264 -24 -10 -110 0
-111 -209 -23 -9 0
-112 -210 -24 -10 0
-25 -103 -9 -259 0
-26 -104 -10 -260 0
-95 -239 -9 -29 0
-96 -240 -10 -30 0
-99 -149 -9 -29 0
-100 -150 -10 -30 0
-31 -95 -159 -9 0
-32 -96 -160 -10 0
-179 -35 -89 -9 0
-180 -36 -90 -10 0
-279 -83 -39 -9 0
-280 -84 -40 -10 0
-89 -39 -9 -119 0
-90 -40 -10 -120 0
-209 -41 -83 -9 0
-210 -42 -84 -10 0
-87 -9 -43 -109 0
-88 -10 -44 -110 0
-47 -79 -239 -9 0
-48 -80 -240 -10 0
-79 -49 -199 -9 0
-80 -50 -200 -10 0
-51 -259 -9 -77 0
-52 -260 -10 -78 0
-79 -55 -9 -139 0
-80 -56 -10 -140 0
-75 -227 -9 -59 0
-76 -228 -10 -60 0
-155 -9 -59 -77 0
-156 -10 -60 -78 0
-79 -119 -9 -59 0
-80 -120 -10 -60 0
-79 -89 -71 -9 0
-80 -90 -72 -10 0
-239 -17 -359 -11 0
-240 -18 -360 -12 0
-19 -197 -329 -11 0
-20 -198 -330 -12 0
-19 -299 -199 -11 0
-20 -300 -200 -12 0
-175 -21 -263 -11 0
-176 -22 -264 -12 0
-219 -179 -21 -11 0
-220 -180 -22 -12 0
-155 -23 -11 -311 0
-156 -24 -12 -312 0
-159 -23 -239 -11 0
-160 -24 -240 -12 0
-215 -161 -23 -11 0
-216 -162 -24 -12 0
-143 -311 -25 -11 0
-144 -312 -26 -12 0
-139 -209 -11 -27 0
-140 -210 -12 -28 0
-143 -167 -11 -27 0
-144 -168 -12 -28 0
-127 -319 -11 -29 0
-128 -320 -12 -30 0
-129 -259 -11 -29 0
-130 -260 -12 -30 0
-131 -219 -11 -29 0
-132 -220 -12 -30 0
-135 -169 -11 -29 0
-136 -170 -12 -30 0
-31 -223 -11 -125 0
-32 -224 -12 -126 0
-31 -127 -191 -11 0
-32 -128 -192 -12 0
-113 -35 -341 -11 0
-114 -36 -342 -12 0
-35 -119 -179 -11 0
-36 -120 -180 -12 0
-113 -227 -37 -11 0
-114 -228 -38 -12 0
-107 -359 -39 -11 0
-108 -360 -40 -12 0
-263 -39 -11 -109 0
-264 -40 -12 -110 0
-111 -209 -39 -11 0
-112 -210 -40 -12 0
-107 -251 -41 -11 0
-108 -252 -42 -12 0
-111 -167 -41 -11 0
-112 -168 -42 -12 0
-107 -197 -11 -43 0
-108 -198 -12 -44 0
-47 -101 -271 -11 0
-48 -102 -272 -12 0
-47 -103 -207 -11 0
-48 -104 -208 -12 0
-47 -107 -143 -11 0
-48 -108 -144 -12 0
-49 -99 -299 -11 0
-50 -100 -300 -12 0
-155 -51 -103 -11 0
-156 -52 -104 -12 0
-95 -55 -11 -335 0
-96 -56 -12 -336 0
-95 -239 -11 -59 0
-96 -240 -12 -60 0
-99 -149 -11 -59 0
-100 -150 -12 -60 0
-63 -95 -191 -11 0
-64 -96 -192 -12 0
-95 -65 -175 -11 0
-96 -66 -176 -12 0
-359 -71 -89 -11 0
-360 -72 -90 -12 0
-95 -143 -71 -11 0
-96 -144 -72 -12 0
-259 -89 -11 -77 0
-260 -90 -12 -78 0
-79 -239 -89 -11 0
-80 -240 -90 -12 0
-79 -95 -119 -11 0
-80 -96 -120 -12 0
-83 -87 -11 -307 0
-84 -88 -12 -308 0
-209 -83 -89 -11 0
-210 -84 -90 -12 0
-95 -83 -111 -11 0
-96 -84 -112 -12 0
-307 -21 -263 -13 0
-308 -22 -264 -14 0
-223 -23 -335 -13 0
-224 -24 -336 -14 0
-181 -363 -27 -13 0
-182 -364 -28 -14 0
-321 -183 -27 -13 0
-322 -184 -28 -14 0
-191 -223 -27 -13 0
-192 -224 -28 -14 0
-209 -179 -29 -13 0
-210 -180 -30 -14 0
-31 -167 -223 -13 0
-32 -168 -224 -14 0
-279 -39 -139 -13 0
-280 -40 -140 -14 0
-143 -209 -39 -13 0
-144 -210 -40 -14 0
-209 -41 -139 -13 0
-210 -42 -140 -14 0
-143 -167 -41 -13 0
-144 -168 -42 -14 0
-131 -307 -43 -13 0
-132 -308 -44 -14 0
-47 -125 -335 -13 0
-48 -126 -336 -14 0
-279 -55 -119 -13 0
-280 -56 -120 -14 0
-167 -55 -125 -13 0
-168 -56 -126 -14 0
-209 -119 -59 -13 0
-210 -120 -60 -14 0
-139 -125 -59 -13 0
-140 -126 -60 -14 0
-111 -69 -279 -13 0
-112 -70 -280 -14 0
-69 -119 -139 -13 0
-70 -120 -140 -14 0
-111 -71 -251 -13 0
-112 -72 -252 -14 0
-83 -251 -107 -13 0
-84 -252 -108 -14 0
-111 -83 -167 -13 0
-112 -84 -168 -14 0
-111 -87 -153 -13 0
-112 -88 -154 -14 0
-209 -89 -107 -13 0
-210 -90 -108 -14 0
-15 -287 -311 -25 0
-16 -288 -312 -26 0
-15 -251 -27 -335 0
-16 -252 -28 -336 0
-15 -31 -215 -287 0
-16 -32 -216 -288 0
-15 -33 -271 -203 0
-16 -34 -272 -204 0
-15 -35 -191 -287 0
-16 -36 -192 -288 0
-15 -179 -39 -239 0
-16 -180 -40 -240 0
-15 -167 -41 -335 0
-16 -168 -42 -336 0
-15 -47 -311 -155 0
-16 -48 -312 -156 0
-15 -47 -159 -239 0
-16 -48 -160 -240 0
-15 -47 -215 -161 0
-16 -48 -216 -162 0
-15 -49 -159 -199 0
-16 -50 -160 -200 0
-15 -51 -207 -155 0
-16 -52 -208 -156 0
-15 -143 -55 -335 0
-16 -144 -56 -336 0
-15 -175 -55 -153 0
-16 -176 -56 -154 0
-15 -139 -59 -335 0
-16 -140 -60 -336 0
-15 -143 -239 -59 0
-16 -144 -240 -60 0
-15 -63 -143 -191 0
-16 -64 -144 -192 0
-15 -65 -143 -175 0
-16 -66 -144 -176 0
-15 -67 -135 -271 0
-16 -68 -136 -272 0
-15 -79 -127 -319 0
-16 -80 -128 -320 0
-15 -129 -79 -259 0
-16 -130 -80 -260 0
-15 -79 -131 -219 0
-16 -80 -132 -220 0
-15 -79 -135 -169 0
-16 -80 -136 -170 0
-15 -83 -335 -125 0
-16 -84 -336 -126 0
-15 -131 -175 -87 0
-16 -132 -176 -88 0
-15 -95 -223 -125 0
-16 -96 -224 -126 0
-15 -95 -127 -191 0
-16 -96 -128 -192 0
-15 -279 -111 -119 0
-16 -280 -112 -120 0
-15 -111 -167 -125 0
-16 -112 -168 -126 0
-239 -17 -35 -359 0
-240 -18 -36 -360 0
-17 -227 -37 -341 0
-18 -228 -38 -342 0
-215 -17 -359 -39 0
-216 -18 -360 -40 0
-17 -215 -41 -251 0
-18 -216 -42 -252 0
-47 -17 -191 -287 0
-48 -18 -192 -288 0
-17 -179 -53 -269 0
-18 -180 -54 -270 0
-17 -67 -179 -169 0
-18 -68 -180 -170 0
-17 -179 -69 -167 0
-18 -180 -70 -168 0
-17 -71 -155 -311 0
-18 -72 -156 -312 0
-159 -17 -71 -239 0
-160 -18 -72 -240 0
-161 -17 -71 -215 0
-162 -18 -72 -216 0
-17 -341 -151 -75 0
-18 -342 -152 -76 0
-17 -233 -155 -77 0
-18 -234 -156 -78 0
-79 -17 -179 -159 0
-80 -18 -180 -160 0
-143 -17 -359 -89 0
-144 -18 -360 -90 0
-95 -17 -143 -287 0
-96 -18 -144 -288 0
-17 -99 -149 -179 0
-18 -100 -150 -180 0
-143 -17 -103 -233 0
-144 -18 -104 -234 0
-143 -17 -215 -107 0
-144 -18 -216 -108 0
-143 -17 -179 -119 0
-144 -18 -180 -120 0
-17 -209 -139 -125 0
-18 -210 -140 -126 0
-143 -17 -167 -125 0
-144 -18 -168 -126 0
-19 -359 -39 -269 0
-20 -360 -40 -270 0
-271 -339 -19 -39 0
-272 -340 -20 -40 0
-19 -51 -219 -285 0
-20 -52 -220 -286 0
-19 -53 -215 -269 0
-20 -54 -216 -270 0
-209 -19 -55 -279 0
-210 -20 -56 -280 0
-19 -197 -329 -59 0
-20 -198 -330 -60 0
-19 -299 -199 -59 0
-20 -300 -200 -60 0
-63 -19 -191 -319 0
-64 -20 -192 -320 0
-65 -19 -197 -219 0
-66 -20 -198 -220 0
-181 -19 -69 -363 0
-182 -20 -70 -364 0
-321 -19 -69 -183 0
-322 -20 -70 -184 0
-191 -19 -69 -223 0
-192 -20 -70 -224 0
-19 -359 -71 -179 0
-20 -360 -72 -180 0
-19 -259 -179 -77 0
-20 -260 -180 -78 0
-79 -19 -239 -179 0
-80 -20 -240 -180 0
-209 -19 -83 -179 0
-210 -20 -84 -180 0
-175 -19 -87 -219 0
-176 -20 -88 -220 0
-19 -101 -169 -203 0
-20 -102 -170 -204 0
-161 -19 -107 -269 0
-162 -20 -108 -270 0
-111 -19 -159 -279 0
-112 -20 -160 -280 0
-311 -19 -119 -155 0
-312 -20 -120 -156 0
-159 -19 -119 -239 0
-160 -20 -120 -240 0
-215 -161 -19 -119 0
-216 -162 -20 -120 0
-129 -19 -155 -259 0
-130 -20 -156 -260 0
-159 -129 -19 -207 0
-160 -130 -20 -208 0
-19 -149 -139 -349 0
-20 -150 -140 -350 0
-143 -19 -159 -179 0
-144 -20 -160 -180 0
-51 -21 -263 -285 0
-52 -22 -264 -286 0
-263 -21 -55 -251 0
-264 -22 -56 -252 0
-239 -21 -263 -59 0
-240 -22 -264 -60 0
-65 -21 -329 -219 0
-66 -22 -330 -220 0
-215 -263 -21 -71 0
-216 -264 -22 -72 0
-207 -21 -263 -77 0
-208 -22 -264 -78 0
-197 -83 -21 -307 0
-198 -84 -22 -308 0
-191 -21 -87 -351 0
-192 -22 -88 -352 0
-197 -263 -21 -87 0
-198 -264 -22 -88 0
-95 -263 -21 -191 0
-96 -264 -22 -192 0
-179 -21 -329 -109 0
-180 -22 -330 -110 0
-175 -21 -119 -329 0
-176 -22 -120 -330 0
-263 -179 -21 -119 0
-264 -180 -22 -120 0
-175 -131 -21 -263 0
-176 -132 -22 -264 0
-131 -21 -179 -219 0
-132 -22 -180 -220 0
-307 -21 -167 -153 0
-308 -22 -168 -154 0
-287 -23 -55 -335 0
-288 -24 -56 -336 0
-359 -23 -59 -269 0
-360 -24 -60 -270 0
-271 -339 -23 -59 0
-272 -340 -24 -60 0
-63 -23 -255 -383 0
-64 -24 -256 -384 0
-279 -69 -23 -251 0
-280 -70 -24 -252 0
-239 -359 -23 -71 0
-240 -360 -24 -72 0
-311 -23 -233 -77 0
-312 -24 -234 -78 0
-239 -259 -23 -77 0
-240 -260 -24 -78 0
-223 -83 -23 -335 0
-224 -84 -24 -336 0
-219 -23 -329 -87 0
-220 -24 -330 -88 0
-215 -359 -23 -89 0
-216 -360 -24 -90 0
-95 -215 -23 -287 0
-96 -216 -24 -288 0
-207 -311 -23 -103 0
-208 -312 -24 -104 0
-215 -23 -233 -103 0
-216 -24 -234 -104 0
-111 -209 -23 -239 0
-112 -210 -24 -240 0
-197 -23 -329 -119 0
-198 -24 -330 -120 0
-199 -299 -23 -119 0
-200 -300 -24 -120 0
-127 -23 -191 -383 0
-128 -24 -192 -384 0
-191 -131 -23 -351 0
-192 -132 -24 -352 0
-263 -131 -197 -23 0
-264 -132 -198 -24 0
-143 -287 -23 -191 0
-144 -288 -24 -192 0
-159 -239 -23 -191 0
-160 -240 -24 -192 0
-181 -23 -363 -167 0
-182 -24 -364 -168 0
-321 -23 -183 -167 0
-322 -24 -184 -168 0
-191 -23 -223 -167 0
-192 -24 -224 -168 0
-335 -55 -25 -363 0
-336 -56 -26 -364 0
-69 -279 -25 -363 0
-70 -280 -26 -364 0
-363 -25 -75 -265 0
-364 -26 -76 -266 0
-83 -363 -25 -251 0
-84 -364 -26 -252 0
-311 -233 -103 -25 0
-312 -234 -104 -26 0
-239 -259 -103 -25 0
-240 -260 -104 -26 0
-111 -223 -25 -363 0
-112 -224 -26 -364 0
-215 -25 -363 -125 0
-216 -26 -364 -126 0
-129 -25 -219 -285 0
-130 -26 -220 -286 0
-209 -363 -25 -139 0
-210 -364 -26 -140 0
-207 -311 -25 -155 0
-208 -312 -26 -156 0
-233 -215 -25 -155 0
-234 -216 -26 -156 0
-287 -83 -27 -335 0
-288 -84 -28 -336 0
-91 -321 -275 -27 0
-92 -322 -276 -28 0
-107 -251 -377 -27 0
-108 -252 -378 -28 0
-111 -251 -27 -335 0
-112 -252 -28 -336 0
-279 -251 -119 -27 0
-280 -252 -120 -28 0
-239 -359 -27 -125 0
-240 -360 -28 -126 0
-239 -139 -279 -27 0
-240 -140 -280 -28 0
-223 -167 -27 -335 0
-224 -168 -28 -336 0
-175 -307 -223 -27 0
-176 -308 -224 -28 0
-223 -209 -239 -27 0
-224 -210 -240 -28 0
-341 -379 -75 -29 0
-342 -380 -76 -30 0
-279 -377 -107 -29 0
-280 -378 -108 -30 0
-111 -279 -335 -29 0
-112 -280 -336 -30 0
-269 -359 -119 -29 0
-270 -360 -120 -30 0
-271 -339 -119 -29 0
-272 -340 -120 -30 0
-131 -263 -329 -29 0
-132 -264 -330 -30 0
-349 -149 -251 -29 0
-350 -150 -252 -30 0
-329 -153 -251 -29 0
-330 -154 -252 -30 0
-279 -167 -251 -29 0
-280 -168 -252 -30 0
-239 -179 -359 -29 0
-240 -180 -360 -30 0
-191 -239 -319 -29 0
-192 -240 -320 -30 0
-239 -199 -299 -29 0
-240 -200 -300 -30 0
-239 -209 -279 -29 0
-240 -210 -280 -30 0
-239 -269 -215 -29 0
-240 -270 -216 -30 0
-239 -263 -219 -29 0
-240 -264 -220 -30 0
-31 -111 -351 -307 0
-32 -112 -352 -308 0
-31 -127 -287 -383 0
-32 -128 -288 -384 0
-31 -131 -287 -351 0
-32 -132 -288 -352 0
-31 -159 -359 -269 0
-32 -160 -360 -270 0
-31 -339 -159 -271 0
-32 -340 -160 -272 0
-31 -175 -263 -351 0
-32 -176 -264 -352 0
-31 -179 -287 -269 0
-32 -180 -288 -270 0
-31 -191 -255 -383 0
-32 -192 -256 -384 0
-31 -197 -263 -287 0
-32 -198 -264 -288 0
-31 -223 -251 -335 0
-32 -224 -252 -336 0
-33 -339 -373 -109 0
-34 -340 -374 -110 0
-339 -35 -359 -135 0
-340 -36 -360 -136 0
-335 -35 -359 -139 0
-336 -36 -360 -140 0
-159 -35 -359 -319 0
-160 -36 -360 -320 0
-303 -35 -359 -189 0
-304 -36 -360 -190 0
-35 -359 -199 -299 0
-36 -360 -200 -300 0
-289 -35 -359 -231 0
-290 -36 -360 -232 0
-239 -35 -359 -287 0
-240 -36 -360 -288 0
-287 -35 -251 -335 0
-288 -36 -252 -336 0
-35 -279 -377 -269 0
-36 -280 -378 -270 0
-271 -305 -35 -287 0
-272 -306 -36 -288 0
-335 -339 -39 -237 0
-336 -340 -40 -238 0
-323 -359 -39 -269 0
-324 -360 -40 -270 0
-287 -359 -39 -319 0
-288 -360 -40 -320 0
-335 -311 -41 -363 0
-336 -312 -42 -364 0
-1 -3 -5 -71 0
-2 -4 -6 -72 0
-47 -1 -3 -7 0
-48 -2 -4 -8 0
-1 -3 -39 -9 0
-2 -4 -40 -10 0
-1 -3 -35 -11 0
-2 -4 -36 -12 0
-15 -1 -3 -31 0
-16 -2 -4 -32 0
-1 -3 -19 -29 0
-2 -4 -20 -30 0
-1 -5 -23 -11 0
-2 -6 -24 -12 0
-15 -3 -5 -287 0
-16 -4 -6 -288 0
-17 -3 -5 -215 0
-18 -4 -6 -216 0
-19 -3 -5 -179 0
-20 -4 -6 -180 0
-143 -3 -5 -23 0
-144 -4 -6 -24 0
-3 -5 -27 -125 0
-4 -6 -28 -126 0
-3 -5 -119 -29 0
-4 -6 -120 -30 0
-35 -3 -5 -107 0
-36 -4 -6 -108 0
-47 -95 -3 -5 0
-48 -96 -4 -6 0
-3 -5 -89 -59 0
-4 -6 -90 -60 0
-65 -3 -5 -87 0
-66 -4 -6 -88 0
-239 -3 -7 -9 0
-240 -4 -8 -10 0
-143 -3 -7 -11 0
-144 -4 -8 -12 0
-111 -3 -7 -13 0
-112 -4 -8 -14 0
-15 -3 -95 -7 0
-16 -4 -96 -8 0
-79 -3 -19 -7 0
-80 -4 -20 -8 0
-3 -7 -23 -71 0
-4 -8 -24 -72 0
-31 -3 -63 -7 0
-32 -4 -64 -8 0
-3 -7 -39 -59 0
-4 -8 -40 -60 0
-3 -89 -9 -11 0
-4 -90 -10 -12 0
-3 -19 -9 -59 0
-4 -20 -10 -60 0
-47 -3 -39 -9 0
-48 -4 -40 -10 0
-17 -3 -53 -11 0
-18 -4 -54 -12 0
-47 -3 -23 -11 0
-48 -4 -24 -12 0
-3 -41 -27 -13 0
-4 -42 -28 -14 0
-35 -3 -19 -29 0
-36 -4 -20 -30 0
-359 -5 -7 -39 0
-360 -6 -8 -40 0
-335 -5 -7 -41 0
-336 -6 -8 -42 0
-47 -5 -7 -287 0
-48 -6 -8 -288 0
-5 -7 -55 -251 0
-6 -8 -56 -252 0
-239 -5 -7 -59 0
-240 -6 -8 -60 0
-215 -5 -7 -71 0
-216 -6 -8 -72 0
-207 -5 -7 -77 0
-208 -6 -8 -78 0
-197 -5 -7 -87 0
-198 -6 -8 -88 0
-95 -5 -7 -191 0
-96 -6 -8 -192 0
-179 -5 -7 -119 0
-180 -6 -8 -120 0
-175 -131 -5 -7 0
-176 -132 -6 -8 0
-19 -5 -359 -9 0
-20 -6 -360 -10 0
-239 -5 -23 -9 0
-240 -6 -24 -10 0
-179 -5 -9 -29 0
-180 -6 -10 -30 0
-143 -5 -39 -9 0
-144 -6 -40 -10 0
-41 -5 -9 -139 0
-42 -6 -10 -140 0
-5 -119 -9 -59 0
-6 -120 -10 -60 0
-89 -5 -9 -107 0
-90 -6 -10 -108 0
-15 -5 -287 -11 0
-16 -6 -288 -12 0
-17 -5 -215 -11 0
-18 -6 -216 -12 0
-19 -5 -179 -11 0
-20 -6 -180 -12 0
-143 -5 -23 -11 0
-144 -6 -24 -12 0
-5 -125 -11 -27 0
-6 -126 -12 -28 0
-5 -119 -11 -29 0
-6 -120 -12 -30 0
-107 -35 -5 -11 0
-108 -36 -6 -12 0
-47 -95 -5 -11 0
-48 -96 -6 -12 0
-5 -89 -11 -59 0
-6 -90 -12 -60 0
-65 -5 -87 -11 0
-66 -6 -88 -12 0
-111 -5 -23 -13 0
-112 -6 -24 -14 0
-83 -5 -41 -13 0
-84 -6 -42 -14 0
-15 -95 -5 -23 0
-16 -96 -6 -24 0
-15 -47 -5 -71 0
-16 -48 -6 -72 0
-17 -35 -5 -71 0
-18 -36 -6 -72 0
-79 -19 -5 -23 0
-80 -20 -6 -24 0
-19 -5 -71 -29 0
-20 -6 -72 -30 0
-31 -63 -5 -23 0
-32 -64 -6 -24 0
-5 -23 -39 -59 0
-6 -24 -40 -60 0
-5 -55 -41 -27 0
-6 -56 -42 -28 0
-359 -7 -9 -119 0
-360 -8 -10 -120 0
-339 -7 -9 -135 0
-340 -8 -10 -136 0
-335 -7 -9 -139 0
-336 -8 -10 -140 0
-159 -7 -9 -319 0
-160 -8 -10 -320 0
-303 -7 -9 -189 0
-304 -8 -10 -190 0
-199 -7 -9 -299 0
-200 -8 -10 -300 0
-231 -289 -7 -9 0
-232 -290 -8 -10 0
-239 -287 -7 -9 0
-240 -288 -8 -10 0
-359 -7 -39 -11 0
-360 -8 -40 -12 0
-335 -7 -41 -11 0
-336 -8 -42 -12 0
-47 -7 -287 -11 0
-48 -8 -288 -12 0
-251 -7 -55 -11 0
-252 -8 -56 -12 0
-239 -7 -11 -59 0
-240 -8 -12 -60 0
-215 -7 -11 -71 0
-216 -8 -12 -72 0
-207 -7 -11 -77 0
-208 -8 -12 -78 0
-197 -7 -11 -87 0
-198 -8 -12 -88 0
-95 -7 -191 -11 0
-96 -8 -192 -12 0
-179 -7 -11 -119 0
-180 -8 -12 -120 0
-175 -131 -7 -11 0
-176 -132 -8 -12 0
-335 -7 -27 -13 0
-336 -8 -28 -14 0
-209 -7 -39 -13 0
-210 -8 -40 -14 0
-167 -7 -55 -13 0
-168 -8 -56 -14 0
-143 -83 -7 -13 0
-144 -84 -8 -14 0
-15 -21 -7 -351 0
-16 -22 -8 -352 0
-15 -287 -7 -23 0
-16 -288 -8 -24 0
-15 -7 -223 -27 0
-16 -8 -224 -28 0
-15 -31 -7 -191 0
-16 -32 -8 -192 0
-15 -159 -7 -39 0
-16 -160 -8 -40 0
-15 -47 -143 -7 0
-16 -48 -144 -8 0
-15 -63 -127 -7 0
-16 -64 -128 -8 0
-15 -79 -7 -119 0
-16 -80 -8 -120 0
-215 -17 -7 -23 0
-216 -18 -8 -24 0
-143 -17 -35 -7 0
-144 -18 -36 -8 0
-107 -17 -7 -71 0
-108 -18 -8 -72 0
-19 -179 -7 -23 0
-20 -180 -8 -24 0
-143 -19 -7 -29 0
-144 -20 -8 -30 0
-19 -7 -39 -119 0
-20 -8 -40 -120 0
-79 -19 -95 -7 0
-80 -20 -96 -8 0
-21 -7 -39 -109 0
-22 -8 -40 -110 0
-7 -23 -27 -125 0
-8 -24 -28 -126 0
-7 -23 -119 -29 0
-8 -24 -120 -30 0
-35 -7 -23 -107 0
-36 -8 -24 -108 0
-47 -95 -7 -23 0
-48 -96 -8 -24 0
-89 -7 -23 -59 0
-90 -8 -24 -60 0
-65 -7 -23 -87 0
-66 -8 -24 -88 0
-83 -7 -55 -27 0
-84 -8 -56 -28 0
-79 -69 -7 -27 0
-80 -70 -8 -28 0
-89 -7 -39 -29 0
-90 -8 -40 -30 0
-79 -7 -59 -29 0
-80 -8 -60 -30 0
-7 -39 -59 -71 0
-8 -40 -60 -72 0
-55 -7 -41 -71 0
-56 -8 -42 -72 0
-83 -359 -9 -13 0
-84 -360 -10 -14 0
-109 -307 -9 -13 0
-110 -308 -10 -14 0
-279 -9 -139 -13 0
-280 -10 -140 -14 0
-259 -181 -9 -13 0
-260 -182 -10 -14 0
-209 -9 -251 -13 0
-210 -10 -252 -14 0
-15 -47 -359 -9 0
-16 -48 -360 -10 0
-15 -287 -9 -59 0
-16 -288 -10 -60 0
-15 -79 -239 -9 0
-16 -80 -240 -10 0
-15 -209 -111 -9 0
-16 -210 -112 -10 0
-15 -159 -191 -9 0
-16 -160 -192 -10 0
-17 -35 -359 -9 0
-18 -36 -360 -10 0
-17 -215 -9 -59 0
-18 -216 -10 -60 0
-17 -179 -89 -9 0
-18 -180 -90 -10 0
-143 -17 -159 -9 0
-144 -18 -160 -10 0
-19 -359 -9 -29 0
-20 -360 -10 -30 0
-31 -19 -9 -319 0
-32 -20 -10 -320 0
-19 -35 -9 -269 0
-20 -36 -10 -270 0
-239 -19 -39 -9 0
-240 -20 -40 -10 0
-19 -219 -9 -43 0
-20 -220 -10 -44 0
-49 -19 -199 -9 0
-50 -20 -200 -10 0
-19 -179 -9 -59 0
-20 -180 -10 -60 0
-19 -169 -67 -9 0
-20 -170 -68 -10 0
-19 -69 -167 -9 0
-20 -70 -168 -10 0
-79 -19 -159 -9 0
-80 -20 -160 -10 0
-19 -149 -99 -9 0
-20 -150 -100 -10 0
-143 -19 -119 -9 0
-144 -20 -120 -10 0
-131 -21 -9 -109 0
-132 -22 -10 -110 0
-239 -23 -9 -29 0
-240 -24 -10 -30 0
-39 -179 -23 -9 0
-40 -180 -24 -10 0
-47 -159 -23 -9 0
-48 -160 -24 -10 0
-143 -23 -9 -59 0
-144 -24 -10 -60 0
-125 -9 -27 -59 0
-126 -10 -28 -60 0
-69 -119 -9 -27 0
-70 -120 -10 -28 0
-143 -39 -9 -29 0
-144 -40 -10 -30 0
-41 -9 -139 -29 0
-42 -10 -140 -30 0
-119 -9 -59 -29 0
-120 -10 -60 -30 0
-89 -9 -107 -29 0
-90 -10 -108 -30 0
-107 -35 -9 -59 0
-108 -36 -10 -60 0
-79 -95 -39 -9 0
-80 -96 -40 -10 0
-47 -95 -9 -59 0
-48 -96 -10 -60 0
-47 -79 -89 -9 0
-48 -80 -90 -10 0
-65 -87 -9 -59 0
-66 -88 -10 -60 0
-15 -191 -11 -383 0
-16 -192 -12 -384 0
-15 -359 -239 -11 0
-16 -360 -240 -12 0
-15 -263 -11 -351 0
-16 -264 -12 -352 0
-15 -341 -303 -11 0
-16 -342 -304 -12 0
-17 -83 -377 -11 0
-18 -84 -378 -12 0
-17 -359 -89 -11 0
-18 -360 -90 -12 0
-107 -17 -323 -11 0
-108 -18 -324 -12 0
-143 -17 -287 -11 0
-144 -18 -288 -12 0
-17 -179 -11 -269 0
-18 -180 -12 -270 0
-17 -197 -263 -11 0
-18 -198 -264 -12 0
-19 -359 -11 -59 0
-20 -360 -12 -60 0
-65 -19 -329 -11 0
-66 -20 -330 -12 0
-79 -19 -287 -11 0
-80 -20 -288 -12 0
-279 -19 -83 -11 0
-280 -20 -84 -12 0
-19 -89 -11 -269 0
-20 -90 -12 -270 0
-239 -19 -119 -11 0
-240 -20 -120 -12 0
-129 -19 -233 -11 0
-130 -20 -234 -12 0
-19 -229 -137 -11 0
-20 -230 -138 -12 0
-19 -215 -179 -11 0
-20 -216 -180 -12 0
-47 -21 -11 -351 0
-48 -22 -12 -352 0
-65 -21 -263 -11 0
-66 -22 -264 -12 0
-197 -131 -21 -11 0
-198 -132 -22 -12 0
-359 -23 -39 -11 0
-360 -24 -40 -12 0
-335 -23 -41 -11 0
-336 -24 -42 -12 0
-47 -23 -287 -11 0
-48 -24 -288 -12 0
-251 -23 -55 -11 0
-252 -24 -56 -12 0
-239 -23 -11 -59 0
-240 -24 -12 -60 0
-215 -23 -11 -71 0
-216 -24 -12 -72 0
-207 -23 -11 -77 0
-208 -24 -12 -78 0
-197 -23 -11 -87 0
-198 -24 -12 -88 0
-95 -23 -191 -11 0
-96 -24 -192 -12 0
-179 -23 -11 -119 0
-180 -24 -12 -120 0
-175 -131 -23 -11 0
-176 -132 -24 -12 0
-51 -233 -25 -11 0
-52 -234 -26 -12 0
-83 -181 -25 -11 0
-84 -182 -26 -12 0
-251 -41 -11 -27 0
-252 -42 -12 -28 0
-47 -223 -11 -27 0
-48 -224 -12 -28 0
-179 -69 -11 -27 0
-180 -70 -12 -28 0
-83 -167 -11 -27 0
-84 -168 -12 -28 0
-31 -319 -11 -29 0
-32 -320 -12 -30 0
-269 -35 -11 -29 0
-270 -36 -12 -30 0
-239 -39 -11 -29 0
-240 -40 -12 -30 0
-219 -43 -11 -29 0
-220 -44 -12 -30 0
-49 -199 -11 -29 0
-50 -200 -12 -30 0
-179 -59 -11 -29 0
-180 -60 -12 -30 0
-67 -169 -11 -29 0
-68 -170 -12 -30 0
-69 -167 -11 -29 0
-70 -168 -12 -30 0
-79 -159 -11 -29 0
-80 -160 -12 -30 0
-99 -149 -11 -29 0
-100 -150 -12 -30 0
-143 -119 -11 -29 0
-144 -120 -12 -30 0
-31 -47 -191 -11 0
-32 -48 -192 -12 0
-31 -95 -143 -11 0
-32 -96 -144 -12 0
-33 -101 -135 -11 0
-34 -102 -136 -12 0
-161 -35 -53 -11 0
-162 -36 -54 -12 0
-143 -35 -71 -11 0
-144 -36 -72 -12 0
-47 -159 -39 -11 0
-48 -160 -40 -12 0
-143 -39 -11 -59 0
-144 -40 -12 -60 0
-143 -55 -41 -11 0
-144 -56 -42 -12 0
-139 -41 -11 -59 0
-140 -42 -12 -60 0
-83 -41 -11 -125 0
-84 -42 -12 -126 0
-65 -131 -11 -43 0
-66 -132 -12 -44 0
-47 -63 -127 -11 0
-48 -64 -128 -12 0
-47 -79 -119 -11 0
-48 -80 -120 -12 0
-111 -83 -55 -11 0
-112 -84 -56 -12 0
-107 -89 -11 -59 0
-108 -90 -12 -60 0
-19 -377 -179 -13 0
-20 -378 -180 -14 0
-209 -19 -359 -13 0
-210 -20 -360 -14 0
-335 -19 -279 -13 0
-336 -20 -280 -14 0
-19 -307 -329 -13 0
-20 -308 -330 -14 0
-111 -21 -351 -13 0
-112 -22 -352 -14 0
-307 -21 -153 -13 0
-308 -22 -154 -14 0
-21 -279 -219 -13 0
-22 -280 -220 -14 0
-23 -377 -71 -13 0
-24 -378 -72 -14 0
-335 -83 -23 -13 0
-336 -84 -24 -14 0
-111 -23 -287 -13 0
-112 -24 -288 -14 0
-279 -23 -119 -13 0
-280 -24 -120 -14 0
-23 -167 -251 -13 0
-24 -168 -252 -14 0
-239 -209 -23 -13 0
-240 -210 -24 -14 0
-51 -363 -27 -13 0
-52 -364 -28 -14 0
-335 -55 -27 -13 0
-336 -56 -28 -14 0
-69 -279 -27 -13 0
-70 -280 -28 -14 0
-75 -265 -27 -13 0
-76 -266 -28 -14 0
-83 -251 -27 -13 0
-84 -252 -28 -14 0
-111 -223 -27 -13 0
-112 -224 -28 -14 0
-215 -125 -27 -13 0
-216 -126 -28 -14 0
-139 -209 -27 -13 0
-140 -210 -28 -14 0
-279 -29 -59 -13 0
-280 -30 -60 -14 0
-69 -29 -251 -13 0
-70 -30 -252 -14 0
-31 -111 -191 -13 0
-32 -112 -192 -14 0
-35 -167 -125 -13 0
-36 -168 -126 -14 0
-209 -39 -55 -13 0
-210 -40 -56 -14 0
-111 -159 -39 -13 0
-112 -160 -40 -14 0
-47 -223 -41 -13 0
-48 -224 -42 -14 0
-179 -69 -41 -13 0
-180 -70 -42 -14 0
-83 -167 -41 -13 0
-84 -168 -42 -14 0
-47 -111 -143 -13 0
-48 -112 -144 -14 0
-143 -83 -55 -13 0
-144 -84 -56 -14 0
-139 -83 -59 -13 0
-140 -84 -60 -14 0
-63 -111 -127 -13 0
-64 -112 -128 -14 0
-79 -111 -119 -13 0
-80 -112 -120 -14 0
-15 -23 -191 -383 0
-16 -24 -192 -384 0
-15 -359 -23 -239 0
-16 -360 -24 -240 0
-15 -263 -23 -351 0
-16 -264 -24 -352 0
-15 -341 -23 -303 0
-16 -342 -24 -304 0
-15 -311 -207 -25 0
-16 -312 -208 -26 0
-15 -111 -27 -335 0
-16 -112 -28 -336 0
-15 -167 -287 -27 0
-16 -168 -288 -28 0
-15 -79 -359 -29 0
-16 -80 -360 -30 0
-15 -95 -319 -29 0
-16 -96 -320 -30 0
-15 -119 -287 -29 0
-16 -120 -288 -30 0
-15 -269 -143 -29 0
-16 -270 -144 -30 0
-15 -31 -63 -383 0
-16 -32 -64 -384 0
-15 -31 -79 -319 0
-16 -32 -80 -320 0
-15 -31 -95 -287 0
-16 -32 -96 -288 0
-15 -31 -127 -255 0
-16 -32 -128 -256 0
-15 -31 -159 -239 0
-16 -32 -160 -240 0
-15 -35 -71 -287 0
-16 -36 -72 -288 0
-15 -35 -79 -269 0
-16 -36 -80 -270 0
-15 -35 -223 -125 0
-16 -36 -224 -126 0
-15 -35 -143 -215 0
-16 -36 -144 -216 0
-15 -47 -359 -39 0
-16 -48 -360 -40 0
-15 -39 -287 -59 0
-16 -40 -288 -60 0
-15 -79 -39 -239 0
-16 -80 -40 -240 0
-15 -209 -111 -39 0
-16 -210 -112 -40 0
-15 -159 -39 -191 0
-16 -160 -40 -192 0
-15 -47 -41 -335 0
-16 -48 -42 -336 0
-15 -287 -55 -41 0
-16 -288 -56 -42 0
-15 -83 -223 -41 0
-16 -84 -224 -42 0
-15 -79 -219 -43 0
-16 -80 -220 -44 0
-15 -47 -55 -251 0
-16 -48 -56 -252 0
-15 -47 -239 -59 0
-16 -48 -240 -60 0
-15 -47 -71 -215 0
-16 -48 -72 -216 0
-15 -47 -207 -77 0
-16 -48 -208 -78 0
-15 -47 -197 -87 0
-16 -48 -198 -88 0
-15 -47 -95 -191 0
-16 -48 -96 -192 0
-15 -47 -179 -119 0
-16 -48 -180 -120 0
-15 -47 -131 -175 0
-16 -48 -132 -176 0
-15 -49 -79 -199 0
-16 -50 -80 -200 0
-15 -143 -53 -161 0
-16 -144 -54 -162 0
-15 -111 -55 -167 0
-16 -112 -56 -168 0
-15 -159 -55 -139 0
-16 -160 -56 -140 0
-15 -79 -179 -59 0
-16 -80 -180 -60 0
-15 -159 -119 -59 0
-16 -160 -120 -60 0
-15 -67 -79 -169 0
-16 -68 -80 -170 0
-15 -79 -69 -167 0
-16 -80 -70 -168 0
-15 -159 -71 -89 0
-16 -160 -72 -90 0
-15 -79 -149 -99 0
-16 -80 -150 -100 0
-15 -79 -143 -119 0
-16 -80 -144 -120 0
-15 -143 -83 -111 0
-16 -144 -84 -112 0
-17 -251 -377 -27 0
-18 -252 -378 -28 0
-17 -179 -359 -29 0
-18 -180 -360 -30 0
-269 -17 -323 -29 0
-270 -18 -324 -30 0
-287 -17 -319 -29 0
-288 -18 -320 -30 0
-31 -17 -179 -319 0
-32 -18 -180 -320 0
-17 -35 -83 -377 0
-18 -36 -84 -378 0
-17 -35 -359 -89 0
-18 -36 -360 -90 0
-323 -17 -35 -107 0
-324 -18 -36 -108 0
-143 -17 -35 -287 0
-144 -18 -36 -288 0
-17 -35 -179 -269 0
-18 -36 -180 -270 0
-17 -35 -197 -263 0
-18 -36 -198 -264 0
-17 -359 -39 -71 0
-18 -360 -40 -72 0
-17 -39 -119 -269 0
-18 -40 -120 -270 0
-239 -17 -179 -39 0
-240 -18 -180 -40 0
-335 -17 -71 -41 0
-336 -18 -72 -42 0
-17 -41 -251 -125 0
-18 -42 -252 -126 0
-17 -179 -219 -43 0
-18 -180 -220 -44 0
-17 -197 -215 -43 0
-18 -198 -216 -44 0
-47 -17 -71 -287 0
-48 -18 -72 -288 0
-47 -17 -79 -269 0
-48 -18 -80 -270 0
-47 -17 -223 -125 0
-48 -18 -224 -126 0
-47 -17 -143 -215 0
-48 -18 -144 -216 0
-17 -179 -199 -49 0
-18 -180 -200 -50 0
-17 -53 -215 -107 0
-18 -54 -216 -108 0
-17 -251 -55 -71 0
-18 -252 -56 -72 0
-239 -17 -71 -59 0
-240 -18 -72 -60 0
-17 -215 -89 -59 0
-18 -216 -90 -60 0
-17 -179 -69 -125 0
-18 -180 -70 -126 0
-207 -17 -71 -77 0
-208 -18 -72 -78 0
-17 -197 -71 -87 0
-18 -198 -72 -88 0
-95 -17 -71 -191 0
-96 -18 -72 -192 0
-17 -179 -71 -119 0
-18 -180 -72 -120 0
-175 -17 -131 -71 0
-176 -18 -132 -72 0
-17 -83 -167 -125 0
-18 -84 -168 -126 0
-143 -17 -159 -89 0
-144 -18 -160 -90 0
-31 -19 -319 -383 0
-32 -20 -320 -384 0
-33 -19 -373 -219 0
-34 -20 -374 -220 0
-19 -35 -359 -179 0
-20 -36 -360 -180 0
-323 -19 -35 -269 0
-324 -20 -36 -270 0
-287 -19 -35 -319 0
-288 -20 -36 -320 0
-19 -359 -39 -119 0
-20 -360 -40 -120 0
-339 -19 -39 -135 0
-340 -20 -40 -136 0
-335 -19 -39 -139 0
-336 -20 -40 -140 0
-159 -19 -39 -319 0
-160 -20 -40 -320 0
-303 -19 -39 -189 0
-304 -20 -40 -190 0
-199 -19 -39 -299 0
-200 -20 -40 -300 0
-231 -289 -19 -39 0
-232 -290 -20 -40 0
-239 -19 -39 -287 0
-240 -20 -40 -288 0
-335 -19 -119 -41 0
-336 -20 -120 -42 0
-209 -19 -279 -41 0
-210 -20 -280 -42 0
-19 -41 -251 -269 0
-20 -42 -252 -270 0
-19 -329 -43 -109 0
-20 -330 -44 -110 0
-19 -197 -43 -269 0
-20 -198 -44 -270 0
-19 -219 -263 -43 0
-20 -220 -264 -44 0
-47 -19 -79 -359 0
-48 -20 -80 -360 0
-47 -19 -95 -319 0
-48 -20 -96 -320 0
-47 -19 -119 -287 0
-48 -20 -120 -288 0
-47 -19 -143 -269 0
-48 -20 -144 -270 0
-49 -19 -99 -299 0
-50 -20 -100 -300 0
-239 -49 -19 -199 0
-240 -50 -20 -200 0
-69 -19 -51 -363 0
-70 -20 -52 -364 0
-129 -19 -51 -259 0
-130 -20 -52 -260 0
-19 -53 -107 -269 0
-20 -54 -108 -270 0
-335 -19 -69 -55 0
-336 -20 -70 -56 0
-19 -251 -55 -119 0
-20 -252 -56 -120 0
-239 -19 -55 -139 0
-240 -20 -56 -140 0
-65 -19 -329 -59 0
-66 -20 -330 -60 0
-79 -19 -287 -59 0
-80 -20 -288 -60 0
-279 -19 -83 -59 0
-280 -20 -84 -60 0
-19 -89 -59 -269 0
-20 -90 -60 -270 0
-239 -19 -119 -59 0
-240 -20 -120 -60 0
-129 -19 -233 -59 0
-130 -20 -234 -60 0
-19 -229 -137 -59 0
-20 -230 -138 -60 0
-19 -215 -179 -59 0
-20 -216 -180 -60 0
-65 -19 -131 -219 0
-66 -20 -132 -220 0
-19 -67 -169 -203 0
-20 -68 -170 -204 0
-19 -69 -265 -75 0
-20 -70 -266 -76 0
-19 -69 -83 -251 0
-20 -70 -84 -252 0
-111 -19 -69 -223 0
-112 -20 -70 -224 0
-19 -69 -215 -125 0
-20 -70 -216 -126 0
-209 -19 -69 -139 0
-210 -20 -70 -140 0
-239 -19 -71 -89 0
-240 -20 -72 -90 0
-215 -19 -71 -119 0
-216 -20 -72 -120 0
-207 -19 -119 -77 0
-208 -20 -120 -78 0
-79 -209 -19 -111 0
-80 -210 -20 -112 0
-79 -19 -159 -191 0
-80 -20 -160 -192 0
-19 -197 -87 -119 0
-20 -198 -88 -120 0
-95 -19 -119 -191 0
-96 -20 -120 -192 0
-95 -19 -159 -179 0
-96 -20 -160 -180 0
-19 -149 -99 -179 0
-20 -150 -100 -180 0
-19 -179 -131 -109 0
-20 -180 -132 -110 0
-175 -19 -119 -131 0
-176 -20 -120 -132 0
-263 -359 -21 -39 0
-264 -360 -22 -40 0
-335 -21 -263 -41 0
-336 -22 -264 -42 0
-175 -21 -43 -351 0
-176 -22 -44 -352 0
-219 -21 -329 -43 0
-220 -22 -330 -44 0
-21 -311 -43 -285 0
-22 -312 -44 -286 0
-47 -131 -21 -351 0
-48 -132 -22 -352 0
-47 -21 -263 -287 0
-48 -22 -264 -288 0
-65 -131 -21 -263 0
-66 -132 -22 -264 0
-65 -21 -153 -251 0
-66 -22 -154 -252 0
-79 -175 -21 -219 0
-80 -176 -22 -220 0
-239 -21 -87 -109 0
-240 -22 -88 -110 0
-367 -275 -23 -45 0
-368 -276 -24 -46 0
-47 -23 -191 -383 0
-48 -24 -192 -384 0
-47 -359 -23 -239 0
-48 -360 -24 -240 0
-47 -263 -23 -351 0
-48 -264 -24 -352 0
-47 -341 -23 -303 0
-48 -342 -24 -304 0
-199 -49 -359 -23 0
-200 -50 -360 -24 0
-51 -23 -363 -167 0
-52 -24 -364 -168 0
-215 -323 -53 -23 0
-216 -324 -54 -24 0
-377 -23 -55 -125 0
-378 -24 -56 -126 0
-359 -23 -55 -139 0
-360 -24 -56 -140 0
-149 -23 -55 -349 0
-150 -24 -56 -350 0
-335 -23 -55 -167 0
-336 -24 -56 -168 0
-305 -23 -55 -237 0
-306 -24 -56 -238 0
-359 -23 -59 -119 0
-360 -24 -60 -120 0
-339 -23 -59 -135 0
-340 -24 -60 -136 0
-335 -139 -23 -59 0
-336 -140 -24 -60 0
-159 -23 -59 -319 0
-160 -24 -60 -320 0
-303 -23 -59 -189 0
-304 -24 -60 -190 0
-199 -299 -23 -59 0
-200 -300 -24 -60 0
-231 -289 -23 -59 0
-232 -290 -24 -60 0
-239 -23 -287 -59 0
-240 -24 -288 -60 0
-63 -95 -23 -383 0
-64 -96 -24 -384 0
-63 -287 -23 -191 0
-64 -288 -24 -192 0
-65 -23 -329 -119 0
-66 -24 -330 -120 0
-175 -65 -23 -287 0
-176 -66 -24 -288 0
-305 -67 -23 -135 0
-306 -68 -24 -136 0
-271 -67 -23 -203 0
-272 -68 -24 -204 0
-279 -69 -23 -167 0
-280 -70 -24 -168 0
-83 -23 -377 -71 0
-84 -24 -378 -72 0
-359 -23 -89 -71 0
-360 -24 -90 -72 0
-107 -323 -23 -71 0
-108 -324 -24 -72 0
-143 -23 -287 -71 0
-144 -24 -288 -72 0
-179 -23 -71 -269 0
-180 -24 -72 -270 0
-263 -197 -23 -71 0
-264 -198 -24 -72 0
-303 -113 -23 -75 0
-304 -114 -24 -76 0
-23 -265 -75 -167 0
-24 -266 -76 -168 0
-311 -23 -103 -77 0
-312 -24 -104 -78 0
-79 -95 -23 -319 0
-80 -96 -24 -320 0
-79 -23 -287 -119 0
-80 -24 -288 -120 0
-79 -143 -23 -269 0
-80 -144 -24 -270 0
-111 -83 -23 -287 0
-112 -84 -24 -288 0
-279 -83 -23 -119 0
-280 -84 -24 -120 0
-83 -23 -251 -167 0
-84 -24 -252 -168 0
-239 -209 -83 -23 0
-240 -210 -84 -24 0
-263 -131 -23 -87 0
-264 -132 -24 -88 0
-251 -23 -153 -87 0
-252 -24 -154 -88 0
-23 -89 -119 -269 0
-24 -90 -120 -270 0
-239 -179 -23 -89 0
-240 -180 -24 -90 0
-95 -127 -23 -255 0
-96 -128 -24 -256 0
-95 -159 -23 -239 0
-96 -160 -24 -240 0
-239 -99 -149 -23 0
-240 -100 -150 -24 0
-155 -23 -233 -103 0
-156 -24 -234 -104 0
-239 -131 -23 -109 0
-240 -132 -24 -110 0
-111 -23 -223 -167 0
-112 -24 -224 -168 0
-113 -227 -23 -151 0
-114 -228 -24 -152 0
-129 -23 -233 -119 0
-130 -24 -234 -120 0
-229 -23 -137 -119 0
-230 -24 -138 -120 0
-215 -179 -23 -119 0
-216 -180 -24 -120 0
-143 -23 -223 -125 0
-144 -24 -224 -126 0
-215 -23 -167 -125 0
-216 -24 -168 -126 0
-209 -23 -139 -167 0
-210 -24 -140 -168 0
-129 -69 -25 -363 0
-130 -70 -26 -364 0
-311 -25 -155 -77 0
-312 -26 -156 -78 0
-207 -287 -25 -77 0
-208 -288 -26 -78 0
-233 -89 -25 -259 0
-234 -90 -26 -260 0
-63 -223 -27 -383 0
-64 -224 -28 -384 0
-179 -69 -377 -27 0
-180 -70 -378 -28 0
-209 -69 -359 -27 0
-210 -70 -360 -28 0
-335 -69 -279 -27 0
-336 -70 -280 -28 0
-307 -69 -329 -27 0
-308 -70 -330 -28 0
-71 -377 -27 -167 0
-72 -378 -28 -168 0
-335 -251 -71 -27 0
-336 -252 -72 -28 0
-155 -363 -27 -77 0
-156 -364 -28 -78 0
-79 -223 -27 -319 0
-80 -224 -28 -320 0
-83 -377 -27 -125 0
-84 -378 -28 -126 0
-139 -83 -359 -27 0
-140 -84 -360 -28 0
-83 -149 -27 -349 0
-84 -150 -28 -350 0
-335 -83 -167 -27 0
-336 -84 -168 -28 0
-305 -83 -27 -237 0
-306 -84 -28 -238 0
-335 -87 -153 -27 0
-336 -88 -154 -28 0
-359 -89 -27 -125 0
-360 -90 -28 -126 0
-95 -223 -287 -27 0
-96 -224 -288 -28 0
-97 -195 -293 -27 0
-98 -196 -294 -28 0
-107 -323 -27 -125 0
-108 -324 -28 -126 0
-139 -307 -27 -109 0
-140 -308 -28 -110 0
-111 -167 -287 -27 0
-112 -168 -288 -28 0
-113 -227 -265 -27 0
-114 -228 -266 -28 0
-279 -119 -27 -167 0
-280 -120 -28 -168 0
-143 -287 -27 -125 0
-144 -288 -28 -126 0
-269 -179 -27 -125 0
-270 -180 -28 -126 0
-197 -263 -27 -125 0
-198 -264 -28 -126 0
-127 -223 -255 -27 0
-128 -224 -256 -28 0
-139 -259 -181 -27 0
-140 -260 -182 -28 0
-139 -251 -27 -209 0
-140 -252 -28 -210 0
-155 -251 -181 -27 0
-156 -252 -182 -28 0
-159 -223 -239 -27 0
-160 -224 -240 -28 0
-239 -209 -167 -27 0
-240 -210 -168 -28 0
-279 -71 -377 -29 0
-280 -72 -378 -30 0
-227 -379 -75 -29 0
-228 -380 -76 -30 0
-259 -359 -77 -29 0
-260 -360 -78 -30 0
-79 -191 -383 -29 0
-80 -192 -384 -30 0
-79 -359 -239 -29 0
-80 -360 -240 -30 0
-79 -263 -351 -29 0
-80 -264 -352 -30 0
-79 -341 -303 -29 0
-80 -342 -304 -30 0
-83 -377 -179 -29 0
-84 -378 -180 -30 0
-209 -83 -359 -29 0
-210 -84 -360 -30 0
-335 -83 -279 -29 0
-336 -84 -280 -30 0
-83 -307 -329 -29 0
-84 -308 -330 -30 0
-263 -87 -329 -29 0
-264 -88 -330 -30 0
-179 -359 -89 -29 0
-180 -360 -90 -30 0
-269 -323 -89 -29 0
-270 -324 -90 -30 0
-287 -89 -319 -29 0
-288 -90 -320 -30 0
-95 -159 -359 -29 0
-96 -160 -360 -30 0
-95 -239 -319 -29 0
-96 -240 -320 -30 0
-99 -149 -359 -29 0
-100 -150 -360 -30 0
-339 -101 -169 -29 0
-340 -102 -170 -30 0
-323 -179 -107 -29 0
-324 -180 -108 -30 0
-131 -359 -109 -29 0
-132 -360 -110 -30 0
-209 -307 -109 -29 0
-210 -308 -110 -30 0
-111 -279 -287 -29 0
-112 -280 -288 -30 0
-339 -119 -135 -29 0
-340 -120 -136 -30 0
-335 -119 -139 -29 0
-336 -120 -140 -30 0
-159 -119 -319 -29 0
-160 -120 -320 -30 0
-303 -119 -189 -29 0
-304 -120 -190 -30 0
-199 -119 -299 -29 0
-200 -120 -300 -30 0
-231 -289 -119 -29 0
-232 -290 -120 -30 0
-239 -119 -287 -29 0
-240 -120 -288 -30 0
-279 -125 -251 -29 0
-280 -126 -252 -30 0
-129 -311 -155 -29 0
-130 -312 -156 -30 0
-207 -129 -287 -29 0
-208 -130 -288 -30 0
-275 -229 -137 -29 0
-276 -230 -138 -30 0
-209 -279 -139 -29 0
-210 -280 -140 -30 0
-269 -251 -139 -29 0
-270 -252 -140 -30 0
-143 -179 -287 -29 0
-144 -180 -288 -30 0
-143 -269 -239 -29 0
-144 -270 -240 -30 0
-181 -279 -155 -29 0
-182 -280 -156 -30 0
-179 -197 -263 -29 0
-180 -198 -264 -30 0
-209 -259 -181 -29 0
-210 -260 -182 -30 0
-31 -79 -319 -383 0
-32 -80 -320 -384 0
-31 -83 -287 -377 0
-32 -84 -288 -378 0
-31 -287 -359 -89 0
-32 -288 -360 -90 0
-31 -95 -191 -383 0
-32 -96 -192 -384 0
-31 -95 -359 -239 0
-32 -96 -360 -240 0
-31 -95 -263 -351 0
-32 -96 -264 -352 0
-31 -95 -341 -303 0
-32 -96 -342 -304 0
-31 -323 -287 -107 0
-32 -324 -288 -108 0
-31 -111 -223 -335 0
-32 -112 -224 -336 0
-31 -111 -279 -319 0
-32 -112 -280 -320 0
-31 -359 -159 -119 0
-32 -360 -160 -120 0
-31 -119 -239 -319 0
-32 -120 -240 -320 0
-31 -129 -207 -319 0
-32 -130 -208 -320 0
-31 -339 -159 -135 0
-32 -340 -160 -136 0
-31 -159 -139 -335 0
-32 -160 -140 -336 0
-31 -179 -143 -319 0
-32 -180 -144 -320 0
-31 -159 -303 -189 0
-32 -160 -304 -190 0
-31 -159 -199 -299 0
-32 -160 -200 -300 0
-31 -289 -159 -231 0
-32 -290 -160 -232 0
-31 -159 -239 -287 0
-32 -160 -240 -288 0
-31 -287 -167 -223 0
-32 -288 -168 -224 0
-33 -339 -101 -359 0
-34 -340 -102 -360 0
-335 -33 -135 -237 0
-336 -34 -136 -238 0
-271 -33 -287 -203 0
-272 -34 -288 -204 0
-111 -35 -377 -335 0
-112 -36 -378 -336 0
-279 -35 -119 -377 0
-280 -36 -120 -378 0
-35 -377 -251 -125 0
-36 -378 -252 -126 0
-209 -35 -377 -139 0
-210 -36 -378 -140 0
-35 -251 -359 -139 0
-36 -252 -360 -140 0
-143 -35 -191 -383 0
-144 -36 -192 -384 0
-143 -35 -359 -239 0
-144 -36 -360 -240 0
-143 -35 -263 -351 0
-144 -36 -264 -352 0
-143 -35 -341 -303 0
-144 -36 -342 -304 0
-35 -149 -251 -349 0
-36 -150 -252 -350 0
-35 -181 -377 -155 0
-36 -182 -378 -156 0
-335 -35 -167 -251 0
-336 -36 -168 -252 0
-175 -35 -197 -351 0
-176 -36 -198 -352 0
-323 -35 -179 -269 0
-324 -36 -180 -270 0
-287 -35 -179 -319 0
-288 -36 -180 -320 0
-35 -197 -329 -219 0
-36 -198 -330 -220 0
-35 -197 -311 -285 0
-36 -198 -312 -286 0
-305 -35 -251 -237 0
-306 -36 -252 -238 0
-227 -37 -359 -189 0
-228 -38 -360 -190 0
-159 -39 -319 -383 0
-160 -40 -320 -384 0
-279 -179 -39 -377 0
-280 -180 -40 -378 0
-191 -39 -239 -383 0
-192 -40 -240 -384 0
-191 -359 -39 -319 0
-192 -360 -40 -320 0
-199 -359 -39 -299 0
-200 -360 -40 -300 0
-209 -359 -39 -279 0
-210 -360 -40 -280 0
-215 -359 -39 -269 0
-216 -360 -40 -270 0
-263 -359 -39 -219 0
-264 -360 -40 -220 0
-231 -289 -39 -347 0
-232 -290 -40 -348 0
-239 -263 -39 -351 0
-240 -264 -40 -352 0
-239 -341 -39 -303 0
-240 -342 -40 -304 0
-279 -307 -39 -329 0
-280 -308 -40 -330 0
-191 -41 -335 -383 0
-192 -42 -336 -384 0
-223 -287 -41 -377 0
-224 -288 -42 -378 0
-339 -359 -41 -237 0
-340 -360 -42 -238 0
-239 -359 -41 -335 0
-240 -360 -42 -336 0
-335 -263 -41 -351 0
-336 -264 -42 -352 0
-303 -341 -41 -335 0
-304 -342 -42 -336 0
-1 -35 -11 0
-2 -36 -12 0
-3 -21 -131 0
-4 -22 -132 0
-3 -23 -71 0
-4 -24 -72 0
-3 -51 -25 0
-4 -52 -26 0
-3 -41 -27 0
-4 -42 -28 0
-3 -35 -29 0
-4 -36 -30 0
-31 -5 -287 0
-32 -6 -288 0
-35 -5 -107 0
-36 -6 -108 0
-5 -39 -71 0
-6 -40 -72 0
-263 -7 -43 0
-264 -8 -44 0
-7 -183 -45 0
-8 -184 -46 0
-47 -143 -7 0
-48 -144 -8 0
-49 -7 -119 0
-50 -8 -120 0
-51 -7 -103 0
-52 -8 -104 0
-83 -7 -55 0
-84 -8 -56 0
-7 -59 -71 0
-8 -60 -72 0
-279 -55 -9 0
-280 -56 -10 0
-179 -9 -59 0
-180 -10 -60 0
-305 -67 -11 0
-306 -68 -12 0
-251 -69 -11 0
-252 -70 -12 0
-215 -71 -11 0
-216 -72 -12 0
-155 -11 -77 0
-156 -12 -78 0
-79 -143 -11 0
-80 -144 -12 0
-83 -11 -125 0
-84 -12 -126 0
-107 -89 -11 0
-108 -90 -12 0
-79 -335 -13 0
-80 -336 -14 0
-83 -251 -13 0
-84 -252 -14 0
-99 -139 -13 0
-100 -140 -14 0
-15 -91 -367 0
-16 -92 -368 0
-15 -95 -287 0
-16 -96 -288 0
-15 -99 -239 0
-16 -100 -240 0
-15 -103 -207 0
-16 -104 -208 0
-15 -175 -109 0
-16 -176 -110 0
-15 -111 -167 0
-16 -112 -168 0
-15 -143 -119 0
-16 -144 -120 0
-17 -323 -107 0
-18 -324 -108 0
-215 -17 -119 0
-216 -18 -120 0
-19 -359 -119 0
-20 -360 -120 0
-19 -309 -123 0
-20 -310 -124 0
-129 -19 -259 0
-130 -20 -260 0
-209 -19 -139 0
-210 -20 -140 0
-19 -149 -179 0
-20 -150 -180 0
-307 -21 -139 0
-308 -22 -140 0
-359 -149 -23 0
-360 -150 -24 0
-341 -23 -151 0
-342 -24 -152 0
-311 -23 -155 0
-312 -24 -156 0
-159 -23 -287 0
-160 -24 -288 0
-23 -251 -167 0
-24 -252 -168 0
-231 -23 -173 0
-232 -24 -174 0
-215 -179 -23 0
-216 -180 -24 0
-179 -377 -27 0
-180 -378 -28 0
-181 -363 -27 0
-182 -364 -28 0
-195 -293 -27 0
-196 -294 -28 0
-279 -199 -27 0
-280 -200 -28 0
-209 -251 -27 0
-210 -252 -28 0
-359 -199 -29 0
-360 -200 -30 0
-339 -203 -29 0
-340 -204 -30 0
-31 -219 -351 0
-32 -220 -352 0
-31 -223 -335 0
-32 -224 -336 0
-31 -239 -287 0
-32 -240 -288 0
-35 -377 -251 0
-36 -378 -252 0
-323 -35 -269 0
-324 -36 -270 0
-295 -369 -39 0
-296 -370 -40 0
-359 -39 -299 0
-360 -40 -300 0
-339 -373 -43 0
-340 -374 -44 0
-1 -7 -39 0
-2 -8 -40 0
-1 -19 -11 0
-2 -20 -12 0
-3 -139 -13 0
-4 -140 -14 0
-15 -3 -79 0
-16 -4 -80 0
-17 -3 -59 0
-18 -4 -60 0
-49 -3 -19 0
-50 -4 -20 0
-3 -21 -43 0
-4 -22 -44 0
-3 -23 -39 0
-4 -24 -40 0
-19 -5 -299 0
-20 -6 -300 0
-5 -23 -119 0
-6 -24 -120 0
-83 -5 -27 0
-84 -6 -28 0
-35 -5 -59 0
-36 -6 -60 0
-279 -7 -27 0
-280 -8 -28 0
-199 -7 -29 0
-200 -8 -30 0
-31 -159 -7 0
-32 -160 -8 0
-33 -7 -135 0
-34 -8 -136 0
-35 -7 -119 0
-36 -8 -120 0
-99 -7 -39 0
-100 -8 -40 0
-7 -43 -87 0
-8 -44 -88 0
-47 -79 -7 0
-48 -80 -8 0
-53 -7 -71 0
-54 -8 -72 0
-69 -7 -55 0
-70 -8 -56 0
-35 -9 -299 0
-36 -10 -300 0
-199 -39 -9 0
-200 -40 -10 0
-99 -9 -59 0
-100 -10 -60 0
-329 -11 -43 0
-330 -12 -44 0
-275 -11 -45 0
-276 -12 -46 0
-47 -239 -11 0
-48 -240 -12 0
-179 -53 -11 0
-180 -54 -12 0
-55 -11 -167 0
-56 -12 -168 0
-149 -11 -59 0
-150 -12 -60 0
-65 -131 -11 0
-66 -132 -12 0
-71 -11 -119 0
-72 -12 -120 0
-75 -113 -11 0
-76 -114 -12 0
-99 -89 -11 0
-100 -90 -12 0
-51 -363 -13 0
-52 -364 -14 0
-279 -55 -13 0
-280 -56 -14 0
-71 -167 -13 0
-72 -168 -14 0
-83 -139 -13 0
-84 -140 -14 0
-15 -63 -319 0
-16 -64 -320 0
-15 -67 -271 0
-16 -68 -272 0
-15 -71 -239 0
-16 -72 -240 0
-15 -207 -77 0
-16 -208 -78 0
-15 -79 -199 0
-16 -80 -200 0
-15 -175 -87 0
-16 -176 -88 0
-15 -95 -159 0
-16 -96 -160 0
-15 -143 -107 0
-16 -144 -108 0
-15 -111 -139 0
-16 -112 -140 0
-17 -359 -71 0
-18 -360 -72 0
-17 -83 -251 0
-18 -84 -252 0
-17 -179 -107 0
-18 -180 -108 0
-19 -83 -349 0
-20 -84 -350 0
-19 -89 -299 0
-20 -90 -300 0
-19 -99 -249 0
-20 -100 -250 0
-19 -219 -109 0
-20 -220 -110 0
-199 -19 -119 0
-200 -20 -120 0
-95 -21 -351 0
-96 -22 -352 0
-131 -21 -219 0
-132 -22 -220 0
-359 -23 -107 0
-360 -24 -108 0
-111 -23 -335 0
-112 -24 -336 0
-299 -23 -119 0
-300 -24 -120 0
-279 -23 -125 0
-280 -24 -126 0
-263 -131 -23 0
-264 -132 -24 0
-143 -23 -239 0
-144 -24 -240 0
-227 -23 -151 0
-228 -24 -152 0
-215 -161 -23 0
-216 -162 -24 0
-209 -23 -167 0
-210 -24 -168 0
-199 -179 -23 0
-200 -180 -24 0
-259 -25 -155 0
-260 -26 -156 0
-139 -27 -349 0
-140 -28 -350 0
-143 -27 -335 0
-144 -28 -336 0
-307 -153 -27 0
-308 -154 -28 0
-279 -167 -27 0
-280 -168 -28 0
-259 -181 -27 0
-260 -182 -28 0
-203 -27 -237 0
-204 -28 -238 0
-179 -299 -29 0
-180 -300 -30 0
-31 -175 -351 0
-32 -176 -352 0
-31 -191 -319 0
-32 -192 -320 0
-31 -215 -287 0
-32 -216 -288 0
-31 -279 -223 0
-32 -280 -224 0
-33 -339 -203 0
-34 -340 -204 0
-35 -359 -215 0
-36 -360 -216 0
-35 -341 -227 0
-36 -342 -228 0
-35 -299 -269 0
-36 -300 -270 0
-227 -37 -379 0
-228 -38 -380 0
-359 -39 -269 0
-360 -40 -270 0
-279 -39 -349 0
-280 -40 -350 0
-1 -25 -11 -155 0
-2 -26 -12 -156 0
-1 -83 -11 -27 0
-2 -84 -12 -28 0
-1 -59 -11 -29 0
-2 -60 -12 -30 0
-31 -1 -11 -47 0
-32 -2 -12 -48 0
-15 -1 -55 -13 0
-16 -2 -56 -14 0
-3 -21 -103 -285 0
-4 -22 -104 -286 0
-3 -21 -219 -109 0
-4 -22 -220 -110 0
-311 -3 -51 -23 0
-312 -4 -52 -24 0
-215 -3 -53 -23 0
-216 -4 -54 -24 0
-3 -23 -55 -167 0
-4 -24 -56 -168 0
-3 -23 -59 -119 0
-4 -24 -60 -120 0
-63 -3 -95 -23 0
-64 -4 -96 -24 0
-65 -3 -23 -87 0
-66 -4 -24 -88 0
-129 -3 -39 -25 0
-130 -4 -40 -26 0
-209 -3 -27 -29 0
-210 -4 -28 -30 0
-31 -3 -111 -27 0
-32 -4 -112 -28 0
-31 -47 -3 -29 0
-32 -48 -4 -30 0
-31 -5 -255 -383 0
-32 -6 -256 -384 0
-31 -5 -263 -351 0
-32 -6 -264 -352 0
-33 -339 -5 -119 0
-34 -340 -6 -120 0
-33 -5 -135 -203 0
-34 -6 -136 -204 0
-79 -35 -5 -359 0
-80 -36 -6 -360 0
-35 -5 -83 -251 0
-36 -6 -84 -252 0
-197 -35 -5 -87 0
-198 -36 -6 -88 0
-179 -35 -5 -89 0
-180 -36 -6 -90 0
-95 -143 -35 -5 0
-96 -144 -36 -6 0
-37 -113 -5 -75 0
-38 -114 -6 -76 0
-311 -51 -5 -39 0
-312 -52 -6 -40 0
-53 -215 -5 -39 0
-54 -216 -6 -40 0
-5 -39 -55 -167 0
-6 -40 -56 -168 0
-5 -39 -59 -119 0
-6 -40 -60 -120 0
-63 -95 -5 -39 0
-64 -96 -6 -40 0
-65 -5 -39 -87 0
-66 -6 -40 -88 0
-47 -5 -167 -41 0
-48 -6 -168 -42 0
-83 -5 -55 -41 0
-84 -6 -56 -42 0
-69 -5 -41 -59 0
-70 -6 -42 -60 0
-47 -5 -87 -43 0
-48 -6 -88 -44 0
-239 -7 -329 -43 0
-240 -8 -330 -44 0
-47 -111 -7 -335 0
-48 -112 -8 -336 0
-47 -113 -7 -303 0
-48 -114 -8 -304 0
-47 -7 -239 -119 0
-48 -8 -240 -120 0
-47 -127 -7 -191 0
-48 -128 -8 -192 0
-47 -131 -175 -7 0
-48 -132 -176 -8 0
-49 -359 -7 -89 0
-50 -360 -8 -90 0
-95 -49 -7 -239 0
-96 -50 -8 -240 0
-199 -49 -99 -7 0
-200 -50 -100 -8 0
-111 -49 -7 -139 0
-112 -50 -8 -140 0
-311 -51 -7 -77 0
-312 -52 -8 -78 0
-79 -51 -7 -259 0
-80 -52 -8 -260 0
-215 -53 -7 -71 0
-216 -54 -8 -72 0
-63 -223 -7 -55 0
-64 -224 -8 -56 0
-69 -7 -55 -139 0
-70 -8 -56 -140 0
-7 -55 -71 -125 0
-8 -56 -72 -126 0
-63 -95 -7 -59 0
-64 -96 -8 -60 0
-65 -7 -59 -87 0
-66 -8 -60 -88 0
-359 -55 -9 -251 0
-360 -56 -10 -252 0
-143 -359 -9 -59 0
-144 -360 -10 -60 0
-299 -149 -9 -59 0
-300 -150 -10 -60 0
-155 -259 -9 -59 0
-156 -260 -10 -60 0
-159 -239 -9 -59 0
-160 -240 -10 -60 0
-209 -167 -9 -59 0
-210 -168 -10 -60 0
-203 -169 -9 -59 0
-204 -170 -10 -60 0
-371 -119 -9 -61 0
-372 -120 -10 -62 0
-309 -9 -123 -61 0
-310 -10 -124 -62 0
-63 -191 -119 -9 0
-64 -192 -120 -10 0
-63 -159 -127 -9 0
-64 -160 -128 -10 0
-65 -131 -119 -9 0
-66 -132 -120 -10 0
-79 -69 -279 -9 0
-80 -70 -280 -10 0
-209 -83 -69 -9 0
-210 -84 -70 -10 0
-79 -179 -71 -9 0
-80 -180 -72 -10 0
-89 -71 -9 -119 0
-90 -72 -10 -120 0
-69 -215 -377 -11 0
-70 -216 -378 -12 0
-223 -69 -11 -335 0
-224 -70 -12 -336 0
-239 -69 -279 -11 0
-240 -70 -280 -12 0
-179 -359 -71 -11 0
-180 -360 -72 -12 0
-191 -71 -287 -11 0
-192 -72 -288 -12 0
-263 -197 -71 -11 0
-264 -198 -72 -12 0
-207 -71 -233 -11 0
-208 -72 -234 -12 0
-75 -227 -151 -11 0
-76 -228 -152 -12 0
-129 -259 -11 -77 0
-130 -260 -12 -78 0
-79 -111 -11 -335 0
-80 -112 -12 -336 0
-79 -113 -303 -11 0
-80 -114 -304 -12 0
-79 -119 -239 -11 0
-80 -120 -240 -12 0
-79 -127 -191 -11 0
-80 -128 -192 -12 0
-79 -131 -175 -11 0
-80 -132 -176 -12 0
-95 -83 -11 -335 0
-96 -84 -12 -336 0
-97 -83 -293 -11 0
-98 -84 -294 -12 0
-83 -101 -11 -237 0
-84 -102 -12 -238 0
-111 -83 -167 -11 0
-112 -84 -168 -12 0
-139 -83 -119 -11 0
-140 -84 -120 -12 0
-95 -175 -87 -11 0
-96 -176 -88 -12 0
-87 -119 -11 -109 0
-88 -120 -12 -110 0
-95 -143 -89 -11 0
-96 -144 -90 -12 0
-79 -321 -367 -13 0
-80 -322 -368 -14 0
-83 -215 -377 -13 0
-84 -216 -378 -14 0
-223 -83 -335 -13 0
-224 -84 -336 -14 0
-239 -83 -279 -13 0
-240 -84 -280 -14 0
-175 -307 -87 -13 0
-176 -308 -88 -14 0
-167 -89 -251 -13 0
-168 -90 -252 -14 0
-209 -179 -89 -13 0
-210 -180 -90 -14 0
-95 -287 -125 -13 0
-96 -288 -126 -14 0
-99 -307 -109 -13 0
-100 -308 -110 -14 0
-111 -99 -279 -13 0
-112 -100 -280 -14 0
-209 -99 -119 -13 0
-210 -100 -120 -14 0
-99 -179 -125 -13 0
-100 -180 -126 -14 0
-111 -181 -103 -13 0
-112 -182 -104 -14 0
-15 -95 -255 -383 0
-16 -96 -256 -384 0
-15 -95 -263 -351 0
-16 -96 -264 -352 0
-15 -209 -99 -335 0
-16 -210 -100 -336 0
-15 -279 -99 -223 0
-16 -280 -100 -224 0
-15 -101 -271 -203 0
-16 -102 -272 -204 0
-15 -159 -107 -269 0
-16 -160 -108 -270 0
-15 -159 -219 -109 0
-16 -160 -220 -110 0
-15 -111 -279 -139 0
-16 -112 -280 -140 0
-15 -111 -143 -251 0
-16 -112 -144 -252 0
-15 -127 -119 -191 0
-16 -128 -120 -192 0
-15 -131 -175 -119 0
-16 -132 -176 -120 0
-111 -17 -251 -335 0
-112 -18 -252 -336 0
-17 -227 -341 -113 0
-18 -228 -342 -114 0
-17 -265 -251 -113 0
-18 -266 -252 -114 0
-17 -179 -359 -119 0
-18 -180 -360 -120 0
-191 -17 -119 -287 0
-192 -18 -120 -288 0
-17 -197 -119 -263 0
-18 -198 -120 -264 0
-207 -17 -119 -233 0
-208 -18 -120 -234 0
-17 -167 -251 -125 0
-18 -168 -252 -126 0
-17 -179 -209 -125 0
-18 -180 -210 -126 0
-127 -17 -143 -383 0
-128 -18 -144 -384 0
-129 -17 -143 -311 0
-130 -18 -144 -312 0
-129 -17 -233 -155 0
-130 -18 -234 -156 0
-143 -17 -131 -263 0
-144 -18 -132 -264 0
-143 -17 -135 -203 0
-144 -18 -136 -204 0
-143 -17 -183 -137 0
-144 -18 -184 -138 0
-143 -17 -167 -139 0
-144 -18 -168 -140 0
-127 -19 -239 -383 0
-128 -20 -240 -384 0
-127 -19 -255 -319 0
-128 -20 -256 -320 0
-239 -129 -19 -311 0
-240 -130 -20 -312 0
-19 -131 -219 -329 0
-20 -132 -220 -330 0
-239 -19 -263 -131 0
-240 -20 -264 -132 0
-19 -265 -139 -189 0
-20 -266 -140 -190 0
-143 -19 -159 -359 0
-144 -20 -160 -360 0
-143 -19 -239 -179 0
-144 -20 -240 -180 0
-19 -149 -155 -259 0
-20 -150 -156 -260 0
-159 -19 -149 -239 0
-160 -20 -150 -240 0
-209 -19 -149 -167 0
-210 -20 -150 -168 0
-19 -149 -169 -203 0
-20 -150 -170 -204 0
-21 -363 -139 -285 0
-22 -364 -140 -286 0
-149 -21 -329 -219 0
-150 -22 -330 -220 0
-239 -149 -21 -263 0
-240 -150 -22 -264 0
-263 -227 -21 -151 0
-264 -228 -22 -152 0
-207 -21 -263 -155 0
-208 -22 -264 -156 0
-159 -175 -21 -351 0
-160 -176 -22 -352 0
-159 -263 -21 -191 0
-160 -264 -22 -192 0
-159 -23 -255 -383 0
-160 -24 -256 -384 0
-159 -263 -23 -351 0
-160 -264 -24 -352 0
-327 -163 -245 -23 0
-328 -164 -246 -24 0
-215 -23 -377 -167 0
-216 -24 -378 -168 0
-223 -23 -335 -167 0
-224 -24 -336 -168 0
-239 -279 -23 -167 0
-240 -280 -24 -168 0
-175 -23 -191 -351 0
-176 -24 -192 -352 0
-175 -23 -239 -219 0
-176 -24 -240 -220 0
-191 -179 -23 -287 0
-192 -180 -24 -288 0
-263 -179 -197 -23 0
-264 -180 -198 -24 0
-207 -179 -23 -233 0
-208 -180 -24 -234 0
-335 -167 -25 -363 0
-336 -168 -26 -364 0
-179 -363 -25 -251 0
-180 -364 -26 -252 0
-207 -259 -199 -25 0
-208 -260 -200 -26 0
-251 -359 -199 -27 0
-252 -360 -200 -28 0
-305 -203 -251 -27 0
-306 -204 -252 -28 0
-207 -223 -363 -27 0
-208 -224 -364 -28 0
-209 -215 -377 -27 0
-210 -216 -378 -28 0
-223 -209 -27 -335 0
-224 -210 -28 -336 0
-239 -209 -279 -27 0
-240 -210 -280 -28 0
-209 -349 -299 -29 0
-210 -350 -300 -30 0
-209 -307 -329 -29 0
-210 -308 -330 -30 0
-269 -359 -215 -29 0
-270 -360 -216 -30 0
-263 -329 -219 -29 0
-264 -330 -220 -30 0
-239 -289 -231 -29 0
-240 -290 -232 -30 0
-31 -321 -223 -367 0
-32 -322 -224 -368 0
-31 -239 -255 -383 0
-32 -240 -256 -384 0
-31 -263 -239 -351 0
-32 -264 -240 -352 0
-35 -359 -263 -329 0
-36 -360 -264 -330 0
-287 -35 -367 -275 0
-288 -36 -368 -276 0
-287 -35 -279 -335 0
-288 -36 -280 -336 0
-305 -339 -359 -39 0
-306 -340 -360 -40 0
-1 -167 -11 -13 0
-2 -168 -12 -14 0
-15 -1 -95 -11 0
-16 -2 -96 -12 0
-1 -71 -11 -17 0
-2 -72 -12 -18 0
-1 -19 -11 -59 0
-2 -20 -12 -60 0
-47 -1 -23 -11 0
-48 -2 -24 -12 0
-1 -41 -11 -27 0
-2 -42 -12 -28 0
-1 -39 -11 -29 0
-2 -40 -12 -30 0
-3 -21 -329 -59 0
-4 -22 -330 -60 0
-65 -3 -21 -263 0
-66 -4 -22 -264 0
-175 -3 -21 -87 0
-176 -4 -22 -88 0
-335 -3 -23 -27 0
-336 -4 -24 -28 0
-239 -3 -23 -29 0
-240 -4 -24 -30 0
-31 -3 -23 -191 0
-32 -4 -24 -192 0
-143 -3 -35 -23 0
-144 -4 -36 -24 0
-3 -23 -39 -119 0
-4 -24 -40 -120 0
-111 -3 -23 -41 0
-112 -4 -24 -42 0
-47 -3 -95 -23 0
-48 -4 -96 -24 0
-3 -83 -23 -55 0
-4 -84 -24 -56 0
-79 -3 -23 -59 0
-80 -4 -24 -60 0
-31 -5 -191 -383 0
-32 -6 -192 -384 0
-31 -5 -223 -335 0
-32 -6 -224 -336 0
-31 -5 -239 -319 0
-32 -6 -240 -320 0
-33 -203 -5 -101 0
-34 -204 -6 -102 0
-47 -35 -5 -287 0
-48 -36 -6 -288 0
-51 -35 -5 -233 0
-52 -36 -6 -234 0
-53 -35 -5 -215 0
-54 -36 -6 -216 0
-35 -5 -179 -59 0
-36 -6 -180 -60 0
-143 -35 -5 -71 0
-144 -36 -6 -72 0
-35 -5 -83 -125 0
-36 -6 -84 -126 0
-35 -5 -119 -89 0
-36 -6 -120 -90 0
-111 -5 -39 -41 0
-112 -6 -40 -42 0
-47 -95 -5 -39 0
-48 -96 -6 -40 0
-83 -5 -39 -55 0
-84 -6 -40 -56 0
-79 -5 -39 -59 0
-80 -6 -40 -60 0
-175 -7 -43 -351 0
-176 -8 -44 -352 0
-367 -7 -91 -45 0
-368 -8 -92 -46 0
-47 -63 -7 -383 0
-48 -64 -8 -384 0
-47 -65 -7 -351 0
-48 -66 -8 -352 0
-47 -7 -287 -71 0
-48 -8 -288 -72 0
-47 -79 -7 -239 0
-48 -80 -8 -240 0
-47 -83 -7 -223 0
-48 -84 -8 -224 0
-47 -95 -7 -191 0
-48 -96 -8 -192 0
-47 -111 -7 -167 0
-48 -112 -8 -168 0
-47 -159 -7 -119 0
-48 -160 -8 -120 0
-49 -7 -55 -279 0
-50 -8 -56 -280 0
-239 -49 -7 -59 0
-240 -50 -8 -60 0
-49 -179 -7 -71 0
-50 -180 -8 -72 0
-79 -49 -159 -7 0
-80 -50 -160 -8 0
-143 -49 -7 -89 0
-144 -50 -8 -90 0
-129 -49 -7 -103 0
-130 -50 -8 -104 0
-51 -181 -7 -55 0
-52 -182 -8 -56 0
-107 -53 -7 -71 0
-108 -54 -8 -72 0
-199 -55 -9 -349 0
-200 -56 -10 -350 0
-335 -209 -55 -9 0
-336 -210 -56 -10 0
-223 -55 -9 -319 0
-224 -56 -10 -320 0
-89 -359 -9 -59 0
-90 -360 -10 -60 0
-95 -9 -59 -319 0
-96 -10 -60 -320 0
-99 -299 -9 -59 0
-100 -300 -10 -60 0
-107 -9 -59 -269 0
-108 -10 -60 -270 0
-263 -9 -59 -109 0
-264 -10 -60 -110 0
-239 -119 -9 -59 0
-240 -120 -10 -60 0
-131 -219 -9 -59 0
-132 -220 -10 -60 0
-139 -9 -59 -209 0
-140 -10 -60 -210 0
-149 -199 -9 -59 0
-150 -200 -10 -60 0
-159 -191 -9 -59 0
-160 -192 -10 -60 0
-65 -131 -9 -109 0
-66 -132 -10 -110 0
-67 -101 -119 -9 0
-68 -102 -120 -10 0
-83 -69 -119 -9 0
-84 -70 -120 -10 0
-155 -69 -363 -11 0
-156 -70 -364 -12 0
-335 -69 -167 -11 0
-336 -70 -168 -12 0
-181 -69 -311 -11 0
-182 -70 -312 -12 0
-195 -69 -293 -11 0
-196 -70 -294 -12 0
-209 -69 -279 -11 0
-210 -70 -280 -12 0
-227 -69 -265 -11 0
-228 -70 -266 -12 0
-359 -71 -11 -119 0
-360 -72 -12 -120 0
-335 -71 -11 -125 0
-336 -72 -12 -126 0
-305 -71 -11 -135 0
-306 -72 -12 -136 0
-143 -71 -287 -11 0
-144 -72 -288 -12 0
-251 -71 -11 -167 0
-252 -72 -12 -168 0
-239 -179 -71 -11 0
-240 -180 -72 -12 0
-147 -73 -11 -221 0
-148 -74 -12 -222 0
-75 -113 -227 -11 0
-76 -114 -228 -12 0
-207 -103 -11 -77 0
-208 -104 -12 -78 0
-79 -83 -223 -11 0
-80 -84 -224 -12 0
-79 -95 -191 -11 0
-80 -96 -192 -12 0
-79 -111 -167 -11 0
-80 -112 -168 -12 0
-79 -159 -119 -11 0
-80 -160 -120 -12 0
-79 -307 -351 -13 0
-80 -308 -352 -14 0
-83 -363 -155 -13 0
-84 -364 -156 -14 0
-335 -83 -167 -13 0
-336 -84 -168 -14 0
-83 -181 -311 -13 0
-84 -182 -312 -14 0
-83 -293 -195 -13 0
-84 -294 -196 -14 0
-209 -83 -279 -13 0
-210 -84 -280 -14 0
-83 -265 -227 -13 0
-84 -266 -228 -14 0
-111 -87 -351 -13 0
-112 -88 -352 -14 0
-175 -87 -223 -13 0
-176 -88 -224 -14 0
-111 -287 -89 -13 0
-112 -288 -90 -14 0
-125 -89 -251 -13 0
-126 -90 -252 -14 0
-143 -223 -89 -13 0
-144 -224 -90 -14 0
-95 -111 -191 -13 0
-96 -112 -192 -14 0
-111 -99 -159 -13 0
-112 -100 -160 -14 0
-15 -95 -191 -383 0
-16 -96 -192 -384 0
-15 -95 -223 -335 0
-16 -96 -224 -336 0
-15 -95 -239 -319 0
-16 -96 -240 -320 0
-15 -99 -143 -359 0
-16 -100 -144 -360 0
-15 -99 -159 -319 0
-16 -100 -160 -320 0
-15 -99 -287 -179 0
-16 -100 -288 -180 0
-15 -99 -207 -259 0
-16 -100 -208 -260 0
-15 -143 -305 -101 0
-16 -144 -306 -102 0
-15 -111 -103 -363 0
-16 -112 -104 -364 0
-15 -181 -103 -223 0
-16 -182 -104 -224 0
-15 -143 -215 -107 0
-16 -144 -216 -108 0
-15 -197 -143 -109 0
-16 -198 -144 -110 0
-15 -209 -111 -119 0
-16 -210 -112 -120 0
-15 -111 -175 -153 0
-16 -112 -176 -154 0
-17 -251 -377 -107 0
-18 -252 -378 -108 0
-17 -359 -107 -269 0
-18 -360 -108 -270 0
-17 -359 -219 -109 0
-18 -360 -220 -110 0
-111 -17 -287 -251 0
-112 -18 -288 -252 0
-17 -115 -289 -179 0
-18 -116 -290 -180 0
-335 -17 -119 -125 0
-336 -18 -120 -126 0
-17 -305 -119 -135 0
-18 -306 -120 -136 0
-143 -17 -119 -287 0
-144 -18 -120 -288 0
-17 -119 -251 -167 0
-18 -120 -252 -168 0
-239 -17 -179 -119 0
-240 -18 -180 -120 0
-143 -17 -223 -125 0
-144 -18 -224 -126 0
-319 -19 -119 -383 0
-320 -20 -120 -384 0
-209 -19 -359 -125 0
-210 -20 -360 -126 0
-129 -19 -219 -285 0
-130 -20 -220 -286 0
-19 -263 -131 -219 0
-20 -264 -132 -220 0
-271 -19 -135 -169 0
-272 -20 -136 -170 0
-239 -19 -135 -203 0
-240 -20 -136 -204 0
-239 -19 -183 -137 0
-240 -20 -184 -138 0
-239 -19 -167 -139 0
-240 -20 -168 -140 0
-19 -169 -139 -237 0
-20 -170 -140 -238 0
-159 -19 -149 -191 0
-160 -20 -150 -192 0
-367 -21 -263 -137 0
-368 -22 -264 -138 0
-335 -21 -263 -139 0
-336 -22 -264 -140 0
-143 -197 -21 -351 0
-144 -198 -22 -352 0
-143 -21 -263 -287 0
-144 -22 -264 -288 0
-149 -21 -263 -219 0
-150 -22 -264 -220 0
-197 -21 -153 -251 0
-198 -22 -154 -252 0
-319 -149 -23 -383 0
-320 -150 -24 -384 0
-335 -307 -23 -153 0
-336 -308 -24 -154 0
-159 -23 -191 -383 0
-160 -24 -192 -384 0
-159 -23 -223 -335 0
-160 -24 -224 -336 0
-159 -23 -239 -319 0
-160 -24 -240 -320 0
-215 -161 -323 -23 0
-216 -162 -324 -24 0
-311 -181 -23 -167 0
-312 -182 -24 -168 0
-195 -293 -23 -167 0
-196 -294 -24 -168 0
-209 -23 -279 -167 0
-210 -24 -280 -168 0
-227 -23 -265 -167 0
-228 -24 -266 -168 0
-271 -23 -169 -203 0
-272 -24 -170 -204 0
-311 -167 -25 -363 0
-312 -168 -26 -364 0
-179 -233 -311 -25 0
-180 -234 -312 -26 0
-259 -181 -279 -25 0
-260 -182 -280 -26 0
-367 -321 -183 -27 0
-368 -322 -184 -28 0
-191 -223 -27 -383 0
-192 -224 -28 -384 0
-251 -197 -27 -307 0
-252 -198 -28 -308 0
-335 -209 -199 -27 0
-336 -210 -200 -28 0
-223 -199 -27 -319 0
-224 -200 -28 -320 0
-209 -227 -265 -27 0
-210 -228 -266 -28 0
-319 -199 -383 -29 0
-320 -200 -384 -30 0
-305 -359 -203 -29 0
-306 -360 -204 -30 0
-209 -359 -251 -29 0
-210 -360 -252 -30 0
-335 -209 -279 -29 0
-336 -210 -280 -30 0
-31 -307 -223 -351 0
-32 -308 -224 -352 0
-31 -227 -341 -287 0
-32 -228 -342 -288 0
-31 -289 -231 -319 0
-32 -290 -232 -320 0
-31 -287 -311 -233 0
-32 -288 -312 -234 0
-319 -39 -299 -383 0
-320 -40 -300 -384 0
-319 -41 -335 -383 0
-320 -42 -336 -384 0
-335 -41 -351 -329 0
-336 -42 -352 -330 0
-31 -1 -95 -5 0
-32 -2 -96 -6 0
-1 -21 -7 -43 0
-2 -22 -8 -44 0
-15 -1 -11 -47 0
-16 -2 -12 -48 0
-3 -9 -107 -269 0
-4 -10 -108 -270 0
-3 -9 -219 -109 0
-4 -10 -220 -110 0
-371 -3 -11 -61 0
-372 -4 -12 -62 0
-63 -3 -191 -11 0
-64 -4 -192 -12 0
-65 -3 -131 -11 0
-66 -4 -132 -12 0
-3 -101 -67 -11 0
-4 -102 -68 -12 0
-3 -69 -83 -11 0
-4 -70 -84 -12 0
-47 -3 -335 -13 0
-48 -4 -336 -14 0
-49 -3 -139 -13 0
-50 -4 -140 -14 0
-15 -3 -167 -41 0
-16 -4 -168 -42 0
-15 -3 -87 -43 0
-16 -4 -88 -44 0
-17 -3 -39 -71 0
-18 -4 -40 -72 0
-339 -33 -3 -19 0
-340 -34 -4 -20 0
-35 -3 -19 -89 0
-36 -4 -20 -90 0
-31 -3 -21 -351 0
-32 -4 -22 -352 0
-31 -3 -95 -23 0
-32 -4 -96 -24 0
-3 -25 -155 -29 0
-4 -26 -156 -30 0
-3 -83 -27 -29 0
-4 -84 -28 -30 0
-239 -5 -335 -13 0
-240 -6 -336 -14 0
-15 -127 -5 -383 0
-16 -128 -6 -384 0
-15 -129 -5 -311 0
-16 -130 -6 -312 0
-15 -131 -5 -263 0
-16 -132 -6 -264 0
-15 -5 -135 -203 0
-16 -6 -136 -204 0
-15 -5 -183 -137 0
-16 -6 -184 -138 0
-15 -5 -167 -139 0
-16 -6 -168 -140 0
-95 -17 -5 -287 0
-96 -18 -6 -288 0
-17 -99 -5 -179 0
-18 -100 -6 -180 0
-79 -19 -5 -239 0
-80 -20 -6 -240 0
-19 -5 -83 -139 0
-20 -6 -84 -140 0
-371 -5 -23 -61 0
-372 -6 -24 -62 0
-63 -5 -23 -191 0
-64 -6 -24 -192 0
-65 -131 -5 -23 0
-66 -132 -6 -24 0
-101 -67 -5 -23 0
-102 -68 -6 -24 0
-69 -83 -5 -23 0
-70 -84 -6 -24 0
-155 -5 -25 -59 0
-156 -6 -26 -60 0
-53 -5 -377 -27 0
-54 -6 -378 -28 0
-5 -55 -27 -167 0
-6 -56 -28 -168 0
-83 -5 -27 -59 0
-84 -6 -28 -60 0
-51 -5 -259 -29 0
-52 -6 -260 -30 0
-31 -49 -5 -239 0
-32 -50 -6 -240 0
-47 -33 -5 -271 0
-48 -34 -6 -272 0
-47 -143 -35 -5 0
-48 -144 -36 -6 0
-49 -35 -5 -89 0
-50 -36 -6 -90 0
-5 -39 -329 -43 0
-6 -40 -330 -44 0
-47 -79 -5 -39 0
-48 -80 -6 -40 0
-49 -5 -39 -59 0
-50 -6 -40 -60 0
-231 -289 -19 -7 0
-232 -290 -20 -8 0
-159 -21 -7 -351 0
-160 -22 -8 -352 0
-127 -7 -23 -383 0
-128 -8 -24 -384 0
-129 -7 -23 -311 0
-130 -8 -24 -312 0
-263 -131 -7 -23 0
-264 -132 -8 -24 0
-7 -23 -203 -135 0
-8 -24 -204 -136 0
-137 -7 -23 -183 0
-138 -8 -24 -184 0
-7 -23 -139 -167 0
-8 -24 -140 -168 0
-155 -7 -25 -119 0
-156 -8 -26 -120 0
-279 -99 -7 -27 0
-280 -100 -8 -28 0
-181 -7 -27 -103 0
-182 -8 -28 -104 0
-359 -7 -89 -29 0
-360 -8 -90 -30 0
-95 -159 -7 -29 0
-96 -160 -8 -30 0
-99 -7 -119 -29 0
-100 -8 -120 -30 0
-31 -83 -7 -335 0
-32 -84 -8 -336 0
-31 -175 -7 -87 0
-32 -176 -8 -88 0
-31 -143 -7 -89 0
-32 -144 -8 -90 0
-79 -33 -7 -271 0
-80 -34 -8 -272 0
-79 -35 -143 -7 0
-80 -36 -144 -8 0
-37 -7 -341 -71 0
-38 -8 -342 -72 0
-37 -7 -75 -151 0
-38 -8 -76 -152 0
-279 -69 -7 -39 0
-280 -70 -8 -40 0
-179 -7 -39 -71 0
-180 -8 -40 -72 0
-69 -7 -41 -167 0
-70 -8 -42 -168 0
-7 -41 -71 -125 0
-8 -42 -72 -126 0
-65 -7 -43 -263 0
-66 -8 -44 -264 0
-47 -371 -7 -61 0
-48 -372 -8 -62 0
-47 -63 -7 -191 0
-48 -64 -8 -192 0
-47 -65 -131 -7 0
-48 -66 -132 -8 0
-47 -67 -101 -7 0
-48 -68 -102 -8 0
-47 -83 -69 -7 0
-48 -84 -70 -8 0
-311 -51 -7 -59 0
-312 -52 -8 -60 0
-215 -53 -7 -59 0
-216 -54 -8 -60 0
-7 -55 -59 -167 0
-8 -56 -60 -168 0
-279 -199 -9 -27 0
-280 -200 -10 -28 0
-279 -167 -9 -29 0
-280 -168 -10 -30 0
-31 -143 -359 -9 0
-32 -144 -360 -10 0
-31 -149 -239 -9 0
-32 -150 -240 -10 0
-35 -359 -119 -9 0
-36 -360 -120 -10 0
-209 -35 -9 -125 0
-210 -36 -10 -126 0
-39 -9 -107 -269 0
-40 -10 -108 -270 0
-39 -9 -219 -109 0
-40 -10 -220 -110 0
-99 -219 -9 -43 0
-100 -220 -10 -44 0
-47 -89 -359 -9 0
-48 -90 -360 -10 0
-47 -95 -159 -9 0
-48 -96 -160 -10 0
-47 -99 -119 -9 0
-48 -100 -120 -10 0
-209 -83 -55 -9 0
-210 -84 -56 -10 0
-79 -239 -9 -59 0
-80 -240 -10 -60 0
-139 -83 -9 -59 0
-140 -84 -10 -60 0
-63 -79 -159 -9 0
-64 -80 -160 -10 0
-79 -111 -69 -9 0
-80 -112 -70 -10 0
-31 -275 -11 -367 0
-32 -276 -12 -368 0
-31 -279 -11 -335 0
-32 -280 -12 -336 0
-239 -33 -271 -11 0
-240 -34 -272 -12 0
-35 -359 -199 -11 0
-36 -360 -200 -12 0
-305 -35 -203 -11 0
-306 -36 -204 -12 0
-209 -35 -251 -11 0
-210 -36 -252 -12 0
-179 -37 -341 -11 0
-180 -38 -342 -12 0
-227 -37 -11 -189 0
-228 -38 -12 -190 0
-279 -39 -11 -167 0
-280 -40 -12 -168 0
-307 -153 -41 -11 0
-308 -154 -42 -12 0
-159 -223 -41 -11 0
-160 -224 -42 -12 0
-219 -149 -11 -43 0
-220 -150 -12 -44 0
-275 -137 -11 -45 0
-276 -138 -12 -46 0
-47 -127 -11 -383 0
-48 -128 -12 -384 0
-47 -129 -311 -11 0
-48 -130 -312 -12 0
-47 -131 -263 -11 0
-48 -132 -264 -12 0
-47 -203 -135 -11 0
-48 -204 -136 -12 0
-47 -183 -137 -11 0
-48 -184 -138 -12 0
-47 -139 -167 -11 0
-48 -140 -168 -12 0
-311 -51 -119 -11 0
-312 -52 -120 -12 0
-129 -51 -11 -155 0
-130 -52 -12 -156 0
-215 -53 -119 -11 0
-216 -54 -120 -12 0
-111 -55 -11 -335 0
-112 -56 -12 -336 0
-113 -55 -265 -11 0
-114 -56 -266 -12 0
-55 -167 -11 -119 0
-56 -168 -12 -120 0
-115 -57 -11 -173 0
-116 -58 -12 -174 0
-107 -269 -11 -59 0
-108 -270 -12 -60 0
-219 -109 -11 -59 0
-220 -110 -12 -60 0
-65 -99 -329 -11 0
-66 -100 -330 -12 0
-65 -131 -11 -109 0
-66 -132 -12 -110 0
-203 -67 -101 -11 0
-204 -68 -102 -12 0
-209 -99 -69 -11 0
-210 -100 -70 -12 0
-95 -71 -287 -11 0
-96 -72 -288 -12 0
-99 -71 -179 -11 0
-100 -72 -180 -12 0
-129 -99 -11 -77 0
-130 -100 -12 -78 0
-79 -359 -89 -11 0
-80 -360 -90 -12 0
-79 -95 -159 -11 0
-80 -96 -160 -12 0
-79 -99 -119 -11 0
-80 -100 -120 -12 0
-83 -251 -89 -11 0
-84 -252 -90 -12 0
-197 -87 -89 -11 0
-198 -88 -90 -12 0
-39 -265 -379 -13 0
-40 -266 -380 -14 0
-239 -41 -335 -13 0
-240 -42 -336 -14 0
-219 -307 -43 -13 0
-220 -308 -44 -14 0
-47 -209 -199 -13 0
-48 -210 -200 -14 0
-311 -51 -167 -13 0
-312 -52 -168 -14 0
-215 -53 -167 -13 0
-216 -54 -168 -14 0
-307 -55 -153 -13 0
-308 -56 -154 -14 0
-159 -55 -223 -13 0
-160 -56 -224 -14 0
-209 -149 -59 -13 0
-210 -150 -60 -14 0
-63 -223 -139 -13 0
-64 -224 -140 -14 0
-65 -131 -307 -13 0
-66 -132 -308 -14 0
-71 -125 -251 -13 0
-72 -126 -252 -14 0
-79 -209 -119 -13 0
-80 -210 -120 -14 0
-111 -83 -335 -13 0
-112 -84 -336 -14 0
-113 -83 -265 -13 0
-114 -84 -266 -14 0
-83 -119 -167 -13 0
-84 -120 -168 -14 0
-307 -87 -109 -13 0
-308 -88 -110 -14 0
-95 -111 -167 -13 0
-96 -112 -168 -14 0
-15 -47 -275 -367 0
-16 -48 -276 -368 0
-15 -47 -279 -335 0
-16 -48 -280 -336 0
-15 -311 -51 -239 0
-16 -312 -52 -240 0
-15 -55 -207 -363 0
-16 -56 -208 -364 0
-15 -209 -55 -335 0
-16 -210 -56 -336 0
-15 -191 -59 -319 0
-16 -192 -60 -320 0
-15 -199 -239 -59 0
-16 -200 -240 -60 0
-15 -63 -175 -351 0
-16 -64 -176 -352 0
-15 -63 -287 -179 0
-16 -64 -288 -180 0
-15 -65 -175 -263 0
-16 -66 -176 -264 0
-15 -67 -271 -169 0
-16 -68 -272 -170 0
-15 -69 -167 -239 0
-16 -70 -168 -240 0
-15 -159 -71 -287 0
-16 -160 -72 -288 0
-15 -151 -303 -75 0
-16 -152 -304 -76 0
-15 -207 -155 -77 0
-16 -208 -156 -78 0
-15 -79 -143 -359 0
-16 -80 -144 -360 0
-15 -79 -149 -239 0
-16 -80 -150 -240 0
-15 -83 -139 -335 0
-16 -84 -140 -336 0
-15 -83 -143 -251 0
-16 -84 -144 -252 0
-15 -197 -143 -87 0
-16 -198 -144 -88 0
-15 -179 -143 -89 0
-16 -180 -144 -90 0
-15 -95 -127 -383 0
-16 -96 -128 -384 0
-15 -129 -95 -311 0
-16 -130 -96 -312 0
-15 -95 -263 -131 0
-16 -96 -264 -132 0
-15 -95 -135 -203 0
-16 -96 -136 -204 0
-15 -95 -183 -137 0
-16 -96 -184 -138 0
-15 -95 -167 -139 0
-16 -96 -168 -140 0
-15 -129 -103 -207 0
-16 -130 -104 -208 0
-15 -111 -119 -335 0
-16 -112 -120 -336 0
-15 -113 -119 -303 0
-16 -114 -120 -304 0
-63 -17 -239 -287 0
-64 -18 -240 -288 0
-199 -17 -359 -71 0
-200 -18 -360 -72 0
-17 -305 -71 -203 0
-18 -306 -72 -204 0
-17 -251 -71 -209 0
-18 -252 -72 -210 0
-17 -341 -75 -189 0
-18 -342 -76 -190 0
-79 -17 -179 -359 0
-80 -18 -180 -360 0
-17 -83 -179 -251 0
-18 -84 -180 -252 0
-17 -83 -181 -233 0
-18 -84 -182 -234 0
-17 -179 -197 -87 0
-18 -180 -198 -88 0
-17 -167 -89 -279 0
-18 -168 -90 -280 0
-95 -17 -159 -287 0
-96 -18 -160 -288 0
-17 -103 -233 -155 0
-18 -104 -234 -156 0
-17 -149 -107 -269 0
-18 -150 -108 -270 0
-111 -17 -143 -335 0
-112 -18 -144 -336 0
-143 -17 -303 -113 0
-144 -18 -304 -114 0
-143 -17 -119 -239 0
-144 -18 -120 -240 0
-17 -179 -149 -119 0
-18 -180 -150 -120 0
-17 -251 -139 -125 0
-18 -252 -140 -126 0
-127 -17 -143 -191 0
-128 -18 -144 -192 0
-143 -17 -131 -175 0
-144 -18 -132 -176 0
-65 -19 -329 -299 0
-66 -20 -330 -300 0
-19 -69 -265 -379 0
-20 -70 -266 -380 0
-79 -289 -19 -231 0
-80 -290 -20 -232 0
-19 -359 -199 -89 0
-20 -360 -200 -90 0
-305 -19 -89 -203 0
-306 -20 -90 -204 0
-209 -19 -89 -251 0
-210 -20 -90 -252 0
-95 -19 -191 -319 0
-96 -20 -192 -320 0
-95 -19 -199 -239 0
-96 -20 -200 -240 0
-19 -179 -107 -269 0
-20 -180 -108 -270 0
-279 -19 -119 -167 0
-280 -20 -120 -168 0
-127 -19 -159 -319 0
-128 -20 -160 -320 0
-19 -153 -139 -307 0
-20 -154 -140 -308 0
-159 -19 -223 -139 0
-160 -20 -224 -140 0
-143 -19 -149 -359 0
-144 -20 -150 -360 0
-259 -21 -87 -285 0
-260 -22 -88 -286 0
-95 -263 -21 -239 0
-96 -264 -22 -240 0
-21 -103 -219 -285 0
-22 -104 -220 -286 0
-263 -21 -215 -107 0
-264 -22 -216 -108 0
-111 -209 -21 -263 0
-112 -210 -22 -264 0
-199 -263 -21 -119 0
-200 -264 -22 -120 0
-127 -263 -21 -191 0
-128 -264 -22 -192 0
-263 -21 -183 -137 0
-264 -22 -184 -138 0
-143 -179 -21 -263 0
-144 -180 -22 -264 0
-159 -175 -21 -219 0
-160 -176 -22 -220 0
-359 -23 -89 -299 0
-360 -24 -90 -300 0
-375 -23 -281 -93 0
-376 -24 -282 -94 0
-95 -275 -23 -367 0
-96 -276 -24 -368 0
-95 -279 -23 -335 0
-96 -280 -24 -336 0
-97 -293 -23 -279 0
-98 -294 -24 -280 0
-311 -259 -23 -103 0
-312 -260 -24 -104 0
-263 -23 -103 -285 0
-264 -24 -104 -286 0
-111 -23 -239 -335 0
-112 -24 -240 -336 0
-239 -113 -23 -303 0
-240 -114 -24 -304 0
-231 -115 -23 -347 0
-232 -116 -24 -348 0
-231 -289 -23 -119 0
-232 -290 -24 -120 0
-215 -23 -377 -125 0
-216 -24 -378 -126 0
-223 -23 -287 -125 0
-224 -24 -288 -126 0
-263 -131 -23 -219 0
-264 -132 -24 -220 0
-209 -23 -139 -279 0
-210 -24 -140 -280 0
-143 -199 -359 -23 0
-144 -200 -360 -24 0
-143 -305 -23 -203 0
-144 -306 -24 -204 0
-143 -209 -23 -251 0
-144 -210 -24 -252 0
-199 -149 -23 -299 0
-200 -150 -24 -300 0
-199 -259 -23 -155 0
-200 -260 -24 -156 0
-159 -23 -191 -319 0
-160 -24 -192 -320 0
-159 -199 -23 -239 0
-160 -200 -24 -240 0
-199 -209 -23 -167 0
-200 -210 -24 -168 0
-199 -23 -169 -203 0
-200 -24 -170 -204 0
-95 -363 -25 -335 0
-96 -364 -26 -336 0
-111 -279 -25 -363 0
-112 -280 -26 -364 0
-363 -25 -251 -125 0
-364 -26 -252 -126 0
-135 -25 -363 -237 0
-136 -26 -364 -238 0
-143 -233 -311 -25 0
-144 -234 -312 -26 0
-363 -153 -25 -219 0
-364 -154 -26 -220 0
-209 -167 -25 -363 0
-210 -168 -26 -364 0
-321 -275 -137 -27 0
-322 -276 -138 -28 0
-139 -379 -265 -27 0
-140 -380 -266 -28 0
-259 -153 -27 -285 0
-260 -154 -28 -286 0
-239 -167 -27 -335 0
-240 -168 -28 -336 0
-339 -169 -27 -237 0
-340 -170 -28 -238 0
-321 -229 -183 -27 0
-322 -230 -184 -28 0
-191 -223 -27 -335 0
-192 -224 -28 -336 0
-143 -359 -299 -29 0
-144 -360 -300 -30 0
-285 -329 -155 -29 0
-286 -330 -156 -30 0
-159 -275 -367 -29 0
-160 -276 -368 -30 0
-159 -279 -335 -29 0
-160 -280 -336 -30 0
-167 -265 -379 -29 0
-168 -266 -380 -30 0
-175 -263 -329 -29 0
-176 -264 -330 -30 0
-199 -249 -299 -29 0
-200 -250 -300 -30 0
-239 -209 -335 -29 0
-240 -210 -336 -30 0
-223 -279 -239 -29 0
-224 -280 -240 -30 0
-31 -179 -359 -287 0
-32 -180 -360 -288 0
-31 -275 -191 -367 0
-32 -276 -192 -368 0
-31 -279 -191 -335 0
-32 -280 -192 -336 0
-31 -215 -287 -269 0
-32 -216 -288 -270 0
-31 -259 -287 -233 0
-32 -260 -288 -234 0
-33 -339 -299 -203 0
-34 -340 -300 -204 0
-35 -341 -379 -189 0
-36 -342 -380 -190 0
-239 -35 -359 -299 0
-240 -36 -360 -300 0
-255 -35 -287 -383 0
-256 -36 -288 -384 0
-287 -35 -263 -351 0
-288 -36 -264 -352 0
-287 -341 -37 -303 0
-288 -342 -38 -304 0
-359 -39 -251 -349 0
-360 -40 -252 -350 0
-335 -321 -41 -367 0
-336 -322 -42 -368 0
-1 -5 -7 -119 0
-2 -6 -8 -120 0
-1 -5 -11 -59 0
-2 -6 -12 -60 0
-15 -1 -5 -47 0
-16 -2 -6 -48 0
-1 -5 -23 -39 0
-2 -6 -24 -40 0
-1 -7 -11 -29 0
-2 -8 -12 -30 0
-1 -7 -27 -13 0
-2 -8 -28 -14 0
-3 -9 -27 -349 0
-4 -10 -28 -350 0
-3 -9 -299 -29 0
-4 -10 -300 -30 0
-199 -3 -39 -9 0
-200 -4 -40 -10 0
-3 -149 -9 -59 0
-4 -150 -10 -60 0
-3 -69 -9 -139 0
-4 -70 -10 -140 0
-15 -3 -239 -11 0
-16 -4 -240 -12 0
-17 -3 -179 -11 0
-18 -4 -180 -12 0
-149 -3 -19 -11 0
-150 -4 -20 -12 0
-3 -21 -131 -11 0
-4 -22 -132 -12 0
-3 -23 -11 -119 0
-4 -24 -12 -120 0
-3 -99 -11 -29 0
-4 -100 -12 -30 0
-31 -3 -95 -11 0
-32 -4 -96 -12 0
-3 -35 -89 -11 0
-4 -36 -90 -12 0
-3 -83 -41 -11 0
-4 -84 -42 -12 0
-47 -3 -79 -11 0
-48 -4 -80 -12 0
-3 -51 -11 -77 0
-4 -52 -12 -78 0
-15 -3 -111 -13 0
-16 -4 -112 -14 0
-3 -69 -27 -13 0
-4 -70 -28 -14 0
-3 -41 -59 -13 0
-4 -42 -60 -14 0
-15 -17 -3 -71 0
-16 -18 -4 -72 0
-15 -3 -23 -59 0
-16 -4 -24 -60 0
-15 -3 -55 -27 0
-16 -4 -56 -28 0
-15 -49 -3 -39 0
-16 -50 -4 -40 0
-111 -5 -335 -13 0
-112 -6 -336 -14 0
-131 -5 -307 -13 0
-132 -6 -308 -14 0
-299 -5 -139 -13 0
-300 -6 -140 -14 0
-279 -5 -167 -13 0
-280 -6 -168 -14 0
-15 -35 -5 -359 0
-16 -36 -6 -360 0
-15 -5 -39 -299 0
-16 -6 -40 -300 0
-15 -5 -279 -41 0
-16 -6 -280 -42 0
-15 -5 -263 -43 0
-16 -6 -264 -44 0
-15 -47 -5 -239 0
-16 -48 -6 -240 0
-15 -53 -5 -215 0
-16 -54 -6 -216 0
-15 -209 -5 -55 0
-16 -210 -6 -56 0
-15 -5 -199 -59 0
-16 -6 -200 -60 0
-15 -63 -5 -191 0
-16 -64 -6 -192 0
-15 -179 -5 -71 0
-16 -180 -6 -72 0
-15 -83 -5 -167 0
-16 -84 -6 -168 0
-15 -159 -95 -5 0
-16 -160 -96 -6 0
-15 -5 -103 -155 0
-16 -6 -104 -156 0
-15 -113 -5 -151 0
-16 -114 -6 -152 0
-15 -149 -5 -119 0
-16 -150 -6 -120 0
-17 -359 -5 -23 0
-18 -360 -6 -24 0
-17 -251 -5 -27 0
-18 -252 -6 -28 0
-17 -35 -5 -179 0
-18 -36 -6 -180 0
-47 -17 -5 -143 0
-48 -18 -6 -144 0
-17 -5 -71 -119 0
-18 -6 -72 -120 0
-199 -19 -5 -23 0
-200 -20 -6 -24 0
-149 -19 -5 -29 0
-150 -20 -6 -30 0
-19 -5 -39 -119 0
-20 -6 -40 -120 0
-19 -5 -99 -59 0
-20 -6 -100 -60 0
-99 -5 -23 -29 0
-100 -6 -24 -30 0
-31 -95 -5 -23 0
-32 -96 -6 -24 0
-35 -5 -23 -89 0
-36 -6 -24 -90 0
-83 -5 -23 -41 0
-84 -6 -24 -42 0
-47 -79 -5 -23 0
-48 -80 -6 -24 0
-51 -5 -23 -77 0
-52 -6 -24 -78 0
-69 -5 -41 -27 0
-70 -6 -42 -28 0
-31 -47 -5 -59 0
-32 -48 -6 -60 0
-19 -359 -7 -89 0
-20 -360 -8 -90 0
-19 -299 -7 -119 0
-20 -300 -8 -120 0
-279 -19 -7 -139 0
-280 -20 -8 -140 0
-199 -19 -7 -249 0
-200 -20 -8 -250 0
-307 -21 -7 -55 0
-308 -22 -8 -56 0
-65 -21 -7 -263 0
-66 -22 -8 -264 0
-219 -21 -7 -87 0
-220 -22 -8 -88 0
-199 -21 -7 -109 0
-200 -22 -8 -110 0
-35 -359 -7 -23 0
-36 -360 -8 -24 0
-39 -7 -23 -299 0
-40 -8 -24 -300 0
-279 -41 -7 -23 0
-280 -42 -8 -24 0
-263 -7 -23 -43 0
-264 -8 -24 -44 0
-47 -239 -7 -23 0
-48 -240 -8 -24 0
-215 -53 -7 -23 0
-216 -54 -8 -24 0
-209 -55 -7 -23 0
-210 -56 -8 -24 0
-199 -7 -23 -59 0
-200 -8 -24 -60 0
-63 -191 -7 -23 0
-64 -192 -8 -24 0
-179 -7 -23 -71 0
-180 -8 -24 -72 0
-83 -7 -23 -167 0
-84 -8 -24 -168 0
-95 -159 -7 -23 0
-96 -160 -8 -24 0
-155 -7 -23 -103 0
-156 -8 -24 -104 0
-113 -7 -23 -151 0
-114 -8 -24 -152 0
-149 -7 -23 -119 0
-150 -8 -24 -120 0
-129 -7 -25 -103 0
-130 -8 -26 -104 0
-31 -7 -223 -27 0
-32 -8 -224 -28 0
-7 -41 -27 -167 0
-8 -42 -28 -168 0
-139 -7 -55 -27 0
-140 -8 -56 -28 0
-7 -125 -27 -71 0
-8 -126 -28 -72 0
-83 -7 -27 -119 0
-84 -8 -28 -120 0
-149 -7 -39 -29 0
-150 -8 -40 -30 0
-7 -119 -59 -29 0
-8 -120 -60 -30 0
-31 -35 -143 -7 0
-32 -36 -144 -8 0
-31 -47 -7 -119 0
-32 -48 -8 -120 0
-31 -111 -7 -55 0
-32 -112 -8 -56 0
-31 -79 -7 -99 0
-32 -80 -8 -100 0
-35 -7 -89 -71 0
-36 -8 -90 -72 0
-55 -83 -7 -41 0
-56 -84 -8 -42 0
-47 -51 -7 -77 0
-48 -52 -8 -78 0
-371 -309 -23 -9 0
-372 -310 -24 -10 0
-25 -299 -9 -155 0
-26 -300 -10 -156 0
-69 -9 -27 -349 0
-70 -10 -28 -350 0
-83 -299 -9 -27 0
-84 -300 -10 -28 0
-159 -223 -9 -27 0
-160 -224 -10 -28 0
-299 -9 -59 -29 0
-300 -10 -60 -30 0
-79 -239 -9 -29 0
-80 -240 -10 -30 0
-199 -119 -9 -29 0
-200 -120 -10 -30 0
-31 -47 -9 -299 0
-32 -48 -10 -300 0
-31 -239 -9 -59 0
-32 -240 -10 -60 0
-31 -79 -199 -9 0
-32 -80 -200 -10 0
-31 -175 -9 -109 0
-32 -176 -10 -110 0
-33 -203 -9 -59 0
-34 -204 -10 -60 0
-35 -179 -9 -59 0
-36 -180 -10 -60 0
-149 -35 -89 -9 0
-150 -36 -90 -10 0
-149 -39 -9 -59 0
-150 -40 -10 -60 0
-69 -39 -9 -139 0
-70 -40 -10 -140 0
-139 -41 -9 -59 0
-140 -42 -10 -60 0
-131 -9 -43 -59 0
-132 -10 -44 -60 0
-47 -119 -9 -59 0
-48 -120 -10 -60 0
-107 -53 -9 -59 0
-108 -54 -10 -60 0
-99 -69 -55 -9 0
-100 -70 -56 -10 0
-371 -309 -11 -29 0
-372 -310 -12 -30 0
-31 -127 -11 -383 0
-32 -128 -12 -384 0
-31 -137 -11 -367 0
-32 -138 -12 -368 0
-31 -143 -359 -11 0
-32 -144 -360 -12 0
-31 -167 -11 -335 0
-32 -168 -12 -336 0
-31 -175 -329 -11 0
-32 -176 -330 -12 0
-31 -191 -11 -319 0
-32 -192 -12 -320 0
-31 -311 -207 -11 0
-32 -312 -208 -12 0
-31 -227 -303 -11 0
-32 -228 -304 -12 0
-31 -299 -239 -11 0
-32 -300 -240 -12 0
-33 -339 -101 -11 0
-34 -340 -102 -12 0
-35 -359 -71 -11 0
-36 -360 -72 -12 0
-75 -35 -341 -11 0
-76 -36 -342 -12 0
-35 -299 -89 -11 0
-36 -300 -90 -12 0
-95 -35 -287 -11 0
-96 -36 -288 -12 0
-107 -35 -11 -269 0
-108 -36 -12 -270 0
-35 -251 -11 -125 0
-36 -252 -12 -126 0
-143 -35 -239 -11 0
-144 -36 -240 -12 0
-155 -35 -233 -11 0
-156 -36 -234 -12 0
-219 -35 -197 -11 0
-220 -36 -198 -12 0
-83 -37 -265 -11 0
-84 -38 -266 -12 0
-299 -39 -11 -59 0
-300 -40 -12 -60 0
-79 -39 -239 -11 0
-80 -40 -240 -12 0
-199 -39 -11 -119 0
-200 -40 -12 -120 0
-47 -41 -11 -335 0
-48 -42 -12 -336 0
-279 -55 -41 -11 0
-280 -56 -42 -12 0
-67 -41 -11 -237 0
-68 -42 -12 -238 0
-209 -83 -41 -11 0
-210 -84 -42 -12 0
-97 -195 -41 -11 0
-98 -196 -42 -12 0
-179 -41 -11 -125 0
-180 -42 -12 -126 0
-65 -219 -11 -43 0
-66 -220 -12 -44 0
-47 -53 -215 -11 0
-48 -54 -216 -12 0
-47 -209 -55 -11 0
-48 -210 -56 -12 0
-47 -199 -11 -59 0
-48 -200 -12 -60 0
-47 -63 -191 -11 0
-48 -64 -192 -12 0
-47 -179 -71 -11 0
-48 -180 -72 -12 0
-47 -83 -167 -11 0
-48 -84 -168 -12 0
-47 -95 -159 -11 0
-48 -96 -160 -12 0
-47 -155 -103 -11 0
-48 -156 -104 -12 0
-47 -113 -151 -11 0
-48 -114 -152 -12 0
-47 -149 -119 -11 0
-48 -150 -120 -12 0
-49 -99 -149 -11 0
-50 -100 -150 -12 0
-155 -51 -11 -77 0
-156 -52 -12 -78 0
-65 -55 -153 -11 0
-66 -56 -154 -12 0
-149 -69 -55 -11 0
-150 -70 -56 -12 0
-139 -83 -55 -11 0
-140 -84 -56 -12 0
-139 -69 -11 -59 0
-140 -70 -12 -60 0
-63 -95 -119 -11 0
-64 -96 -120 -12 0
-65 -87 -11 -119 0
-66 -88 -12 -120 0
-129 -39 -363 -13 0
-130 -40 -364 -14 0
-349 -39 -139 -13 0
-350 -40 -140 -14 0
-209 -39 -299 -13 0
-210 -40 -300 -14 0
-111 -41 -335 -13 0
-112 -42 -336 -14 0
-131 -307 -41 -13 0
-132 -308 -42 -14 0
-299 -41 -139 -13 0
-300 -42 -140 -14 0
-279 -167 -41 -13 0
-280 -168 -42 -14 0
-47 -83 -279 -13 0
-48 -84 -280 -14 0
-47 -111 -239 -13 0
-48 -112 -240 -14 0
-47 -209 -167 -13 0
-48 -210 -168 -14 0
-111 -51 -207 -13 0
-112 -52 -208 -14 0
-67 -55 -237 -13 0
-68 -56 -238 -14 0
-209 -83 -55 -13 0
-210 -84 -56 -14 0
-97 -195 -55 -13 0
-98 -196 -56 -14 0
-179 -55 -125 -13 0
-180 -56 -126 -14 0
-209 -69 -59 -13 0
-210 -70 -60 -14 0
-119 -167 -59 -13 0
-120 -168 -60 -14 0
-63 -95 -167 -13 0
-64 -96 -168 -14 0
-63 -111 -159 -13 0
-64 -112 -160 -14 0
-65 -87 -167 -13 0
-66 -88 -168 -14 0
-111 -143 -71 -13 0
-112 -144 -72 -14 0
-71 -125 -139 -13 0
-72 -126 -140 -14 0
-95 -111 -119 -13 0
-96 -112 -120 -14 0
-15 -373 -271 -43 0
-16 -374 -272 -44 0
-15 -183 -367 -45 0
-16 -184 -368 -46 0
-15 -47 -127 -383 0
-16 -48 -128 -384 0
-15 -47 -137 -367 0
-16 -48 -138 -368 0
-15 -47 -143 -359 0
-16 -48 -144 -360 0
-15 -47 -167 -335 0
-16 -48 -168 -336 0
-15 -47 -175 -329 0
-16 -48 -176 -330 0
-15 -47 -191 -319 0
-16 -48 -192 -320 0
-15 -47 -207 -311 0
-16 -48 -208 -312 0
-15 -47 -227 -303 0
-16 -48 -228 -304 0
-15 -47 -239 -299 0
-16 -48 -240 -300 0
-15 -51 -207 -259 0
-16 -52 -208 -260 0
-15 -143 -53 -269 0
-16 -144 -54 -270 0
-15 -53 -215 -239 0
-16 -54 -216 -240 0
-15 -79 -55 -349 0
-16 -80 -56 -350 0
-15 -83 -55 -335 0
-16 -84 -56 -336 0
-15 -279 -111 -55 0
-16 -280 -112 -56 0
-15 -143 -55 -251 0
-16 -144 -56 -252 0
-15 -55 -239 -167 0
-16 -56 -240 -168 0
-15 -69 -59 -335 0
-16 -70 -60 -336 0
-15 -79 -299 -59 0
-16 -80 -300 -60 0
-15 -119 -239 -59 0
-16 -120 -240 -60 0
-15 -63 -71 -287 0
-16 -64 -72 -288 0
-15 -63 -95 -239 0
-16 -64 -96 -240 0
-15 -63 -111 -223 0
-16 -64 -112 -224 0
-15 -63 -159 -199 0
-16 -64 -160 -200 0
-15 -65 -87 -239 0
-16 -66 -88 -240 0
-15 -65 -143 -197 0
-16 -66 -144 -198 0
-15 -111 -69 -199 0
-16 -112 -70 -200 0
-15 -179 -143 -71 0
-16 -180 -144 -72 0
-15 -79 -175 -109 0
-16 -80 -176 -110 0
-15 -83 -111 -167 0
-16 -84 -112 -168 0
-15 -149 -143 -89 0
-16 -150 -144 -90 0
-15 -95 -103 -155 0
-16 -96 -104 -156 0
-15 -113 -95 -151 0
-16 -114 -96 -152 0
-15 -95 -149 -119 0
-16 -96 -150 -120 0
-17 -51 -359 -311 0
-18 -52 -360 -312 0
-17 -359 -53 -215 0
-18 -360 -54 -216 0
-17 -359 -55 -167 0
-18 -360 -56 -168 0
-17 -179 -55 -349 0
-18 -180 -56 -350 0
-17 -359 -119 -59 0
-18 -360 -120 -60 0
-17 -349 -59 -125 0
-18 -350 -60 -126 0
-17 -305 -169 -59 0
-18 -306 -170 -60 0
-17 -179 -299 -59 0
-18 -180 -300 -60 0
-63 -17 -95 -359 0
-64 -18 -96 -360 0
-63 -17 -143 -287 0
-64 -18 -144 -288 0
-63 -17 -223 -251 0
-64 -18 -224 -252 0
-17 -359 -87 -65 0
-18 -360 -88 -66 0
-305 -17 -67 -101 0
-306 -18 -68 -102 0
-17 -251 -69 -139 0
-18 -252 -70 -140 0
-17 -341 -71 -75 0
-18 -342 -72 -76 0
-17 -71 -89 -299 0
-18 -72 -90 -300 0
-95 -17 -71 -287 0
-96 -18 -72 -288 0
-17 -71 -107 -269 0
-18 -72 -108 -270 0
-17 -71 -251 -125 0
-18 -72 -252 -126 0
-143 -17 -71 -239 0
-144 -18 -72 -240 0
-17 -71 -233 -155 0
-18 -72 -234 -156 0
-17 -197 -71 -219 0
-18 -198 -72 -220 0
-79 -17 -179 -199 0
-80 -18 -180 -200 0
-17 -83 -209 -125 0
-18 -84 -210 -126 0
-17 -83 -197 -153 0
-18 -84 -198 -154 0
-17 -131 -197 -87 0
-18 -132 -198 -88 0
-199 -17 -119 -89 0
-200 -18 -120 -90 0
-95 -17 -179 -143 0
-96 -18 -180 -144 0
-111 -17 -167 -125 0
-112 -18 -168 -126 0
-371 -19 -309 -59 0
-372 -20 -310 -60 0
-63 -19 -219 -351 0
-64 -20 -220 -352 0
-63 -19 -223 -349 0
-64 -20 -224 -350 0
-65 -19 -329 -219 0
-66 -20 -330 -220 0
-339 -19 -67 -169 0
-340 -20 -68 -170 0
-129 -19 -69 -363 0
-130 -20 -70 -364 0
-19 -69 -139 -349 0
-20 -70 -140 -350 0
-209 -19 -69 -299 0
-210 -20 -70 -300 0
-19 -359 -71 -119 0
-20 -360 -72 -120 0
-349 -19 -71 -125 0
-350 -20 -72 -126 0
-305 -19 -71 -169 0
-306 -20 -72 -170 0
-19 -71 -179 -299 0
-20 -72 -180 -300 0
-311 -19 -119 -77 0
-312 -20 -120 -78 0
-129 -19 -299 -77 0
-130 -20 -300 -78 0
-79 -19 -359 -89 0
-80 -20 -360 -90 0
-79 -19 -119 -299 0
-80 -20 -120 -300 0
-79 -19 -279 -139 0
-80 -20 -280 -140 0
-79 -19 -199 -249 0
-80 -20 -200 -250 0
-279 -19 -83 -119 0
-280 -20 -84 -120 0
-263 -19 -87 -119 0
-264 -20 -88 -120 0
-95 -19 -287 -89 0
-96 -20 -288 -90 0
-19 -89 -107 -269 0
-20 -90 -108 -270 0
-19 -89 -251 -125 0
-20 -90 -252 -126 0
-143 -19 -239 -89 0
-144 -20 -240 -90 0
-19 -233 -89 -155 0
-20 -234 -90 -156 0
-19 -197 -89 -219 0
-20 -198 -90 -220 0
-95 -19 -119 -239 0
-96 -20 -120 -240 0
-215 -19 -119 -107 0
-216 -20 -120 -108 0
-111 -209 -19 -119 0
-112 -210 -20 -120 0
-111 -19 -199 -139 0
-112 -20 -200 -140 0
-129 -19 -181 -139 0
-130 -20 -182 -140 0
-263 -359 -21 -71 0
-264 -360 -22 -72 0
-287 -21 -71 -351 0
-288 -22 -72 -352 0
-311 -21 -263 -77 0
-312 -22 -264 -78 0
-79 -159 -21 -351 0
-80 -160 -22 -352 0
-79 -21 -263 -299 0
-80 -22 -264 -300 0
-83 -21 -153 -329 0
-84 -22 -154 -330 0
-279 -83 -21 -263 0
-280 -84 -22 -264 0
-131 -21 -87 -329 0
-132 -22 -88 -330 0
-307 -21 -87 -153 0
-308 -22 -88 -154 0
-95 -175 -21 -263 0
-96 -176 -22 -264 0
-263 -21 -119 -109 0
-264 -22 -120 -110 0
-209 -131 -21 -153 0
-210 -132 -22 -154 0
-79 -371 -309 -23 0
-80 -372 -310 -24 0
-215 -83 -23 -377 0
-216 -84 -24 -378 0
-83 -359 -23 -251 0
-84 -360 -24 -252 0
-279 -83 -23 -349 0
-280 -84 -24 -350 0
-257 -343 -85 -23 0
-258 -344 -86 -24 0
-359 -197 -23 -87 0
-360 -198 -24 -88 0
-263 -23 -329 -87 0
-264 -24 -330 -88 0
-179 -359 -23 -89 0
-180 -360 -24 -90 0
-95 -127 -23 -383 0
-96 -128 -24 -384 0
-95 -23 -137 -367 0
-96 -24 -138 -368 0
-95 -359 -143 -23 0
-96 -360 -144 -24 0
-95 -23 -335 -167 0
-96 -24 -336 -168 0
-95 -175 -23 -329 0
-96 -176 -24 -330 0
-95 -23 -191 -319 0
-96 -24 -192 -320 0
-95 -311 -23 -207 0
-96 -312 -24 -208 0
-95 -227 -23 -303 0
-96 -228 -24 -304 0
-95 -23 -239 -299 0
-96 -24 -240 -300 0
-199 -99 -23 -299 0
-200 -100 -24 -300 0
-339 -101 -23 -135 0
-340 -102 -24 -136 0
-279 -101 -23 -237 0
-280 -102 -24 -238 0
-155 -23 -103 -311 0
-156 -24 -104 -312 0
-215 -23 -107 -269 0
-216 -24 -108 -270 0
-23 -329 -119 -109 0
-24 -330 -120 -110 0
-263 -23 -219 -109 0
-264 -24 -220 -110 0
-111 -131 -23 -307 0
-112 -132 -24 -308 0
-111 -299 -23 -139 0
-112 -300 -24 -140 0
-111 -279 -23 -167 0
-112 -280 -24 -168 0
-139 -23 -119 -279 0
-140 -24 -120 -280 0
-199 -23 -249 -119 0
-200 -24 -250 -120 0
-247 -23 -185 -123 0
-248 -24 -186 -124 0
-23 -167 -251 -125 0
-24 -168 -252 -126 0
-127 -239 -23 -191 0
-128 -240 -24 -192 0
-175 -131 -23 -239 0
-176 -132 -24 -240 0
-237 -23 -167 -135 0
-238 -24 -168 -136 0
-229 -23 -137 -183 0
-230 -24 -138 -184 0
-143 -23 -233 -155 0
-144 -24 -234 -156 0
-143 -197 -23 -219 0
-144 -198 -24 -220 0
-23 -153 -219 -167 0
-24 -154 -220 -168 0
-181 -103 -25 -363 0
-182 -104 -26 -364 0
-129 -299 -25 -155 0
-130 -300 -26 -156 0
-207 -239 -25 -155 0
-208 -240 -26 -156 0
-349 -307 -27 -109 0
-350 -308 -28 -110 0
-111 -215 -377 -27 0
-112 -216 -378 -28 0
-111 -251 -359 -27 0
-112 -252 -360 -28 0
-111 -279 -27 -349 0
-112 -280 -28 -350 0
-303 -113 -27 -335 0
-304 -114 -28 -336 0
-209 -119 -27 -349 0
-210 -120 -28 -350 0
-239 -119 -27 -335 0
-240 -120 -28 -336 0
-359 -167 -27 -125 0
-360 -168 -28 -126 0
-349 -179 -27 -125 0
-350 -180 -28 -126 0
-127 -191 -27 -335 0
-128 -192 -28 -336 0
-127 -223 -27 -319 0
-128 -224 -28 -320 0
-175 -131 -27 -335 0
-176 -132 -28 -336 0
-139 -299 -27 -209 0
-140 -300 -28 -210 0
-143 -223 -287 -27 0
-144 -224 -288 -28 0
-143 -251 -279 -27 0
-144 -252 -280 -28 0
-209 -179 -251 -27 0
-210 -180 -252 -28 0
-191 -223 -239 -27 0
-192 -224 -240 -28 0
-371 -309 -119 -29 0
-372 -310 -120 -30 0
-359 -279 -125 -29 0
-360 -280 -126 -30 0
-209 -349 -139 -29 0
-210 -350 -140 -30 0
-239 -335 -139 -29 0
-240 -336 -140 -30 0
-143 -179 -359 -29 0
-144 -180 -360 -30 0
-179 -341 -151 -29 0
-180 -342 -152 -30 0
-259 -299 -155 -29 0
-260 -300 -156 -30 0
-159 -167 -335 -29 0
-160 -168 -336 -30 0
-159 -175 -329 -29 0
-160 -176 -330 -30 0
-159 -191 -319 -29 0
-160 -192 -320 -30 0
-159 -311 -207 -29 0
-160 -312 -208 -30 0
-159 -227 -303 -29 0
-160 -228 -304 -30 0
-159 -239 -299 -29 0
-160 -240 -300 -30 0
-323 -161 -179 -29 0
-324 -162 -180 -30 0
-209 -167 -299 -29 0
-210 -168 -300 -30 0
-299 -169 -203 -29 0
-300 -170 -204 -30 0
-275 -229 -183 -29 0
-276 -230 -184 -30 0
-31 -143 -359 -287 0
-32 -144 -360 -288 0
-31 -341 -151 -287 0
-32 -342 -152 -288 0
-31 -159 -219 -351 0
-32 -160 -220 -352 0
-31 -159 -223 -349 0
-32 -160 -224 -350 0
-31 -161 -323 -287 0
-32 -162 -324 -288 0
-31 -167 -223 -335 0
-32 -168 -224 -336 0
-31 -179 -287 -299 0
-32 -180 -288 -300 0
-31 -311 -191 -207 0
-32 -312 -192 -208 0
-31 -227 -191 -303 0
-32 -228 -192 -304 0
-31 -191 -239 -299 0
-32 -192 -240 -300 0
-31 -287 -207 -233 0
-32 -288 -208 -234 0
-371 -35 -309 -179 0
-372 -36 -310 -180 0
-191 -35 -359 -287 0
-192 -36 -360 -288 0
-359 -35 -197 -263 0
-360 -36 -198 -264 0
-287 -35 -197 -351 0
-288 -36 -198 -352 0
-339 -305 -35 -203 0
-340 -306 -36 -204 0
-207 -35 -359 -233 0
-208 -36 -360 -234 0
-209 -35 -251 -349 0
-210 -36 -252 -350 0
-223 -35 -251 -335 0
-224 -36 -252 -336 0
-341 -37 -265 -251 0
-342 -38 -266 -252 0
-239 -371 -309 -39 0
-240 -372 -310 -40 0
-279 -259 -39 -363 0
-280 -260 -40 -364 0
-255 -41 -335 -383 0
-256 -42 -336 -384 0
-335 -275 -41 -367 0
-336 -276 -42 -368 0
-371 -309 -279 -41 0
-372 -310 -280 -42 0
-287 -359 -41 -335 0
-288 -360 -42 -336 0
-349 -307 -41 -329 0
-350 -308 -42 -330 0
-1 -3 -21 -87 0
-2 -4 -22 -88 0
-47 -1 -3 -23 0
-48 -2 -4 -24 0
-15 -1 -95 -5 0
-16 -2 -96 -6 0
-1 -35 -5 -17 0
-2 -36 -6 -18 0
-1 -19 -5 -23 0
-2 -20 -6 -24 0
-111 -1 -7 -13 0
-112 -2 -8 -14 0
-15 -1 -7 -31 0
-16 -2 -8 -32 0
-63 -3 -5 -383 0
-64 -4 -6 -384 0
-65 -3 -5 -263 0
-66 -4 -6 -264 0
-3 -5 -67 -203 0
-4 -6 -68 -204 0
-69 -3 -5 -167 0
-70 -4 -6 -168 0
-143 -3 -5 -71 0
-144 -4 -6 -72 0
-113 -3 -5 -75 0
-114 -4 -6 -76 0
-3 -5 -103 -77 0
-4 -6 -104 -78 0
-79 -95 -3 -5 0
-80 -96 -4 -6 0
-335 -3 -7 -41 0
-336 -4 -8 -42 0
-175 -3 -7 -43 0
-176 -4 -8 -44 0
-47 -3 -95 -7 0
-48 -4 -96 -8 0
-79 -49 -3 -7 0
-80 -50 -4 -8 0
-179 -3 -35 -9 0
-180 -4 -36 -10 0
-79 -3 -39 -9 0
-80 -4 -40 -10 0
-31 -3 -191 -11 0
-32 -4 -192 -12 0
-33 -3 -101 -11 0
-34 -4 -102 -12 0
-3 -35 -71 -11 0
-4 -36 -72 -12 0
-47 -3 -39 -11 0
-48 -4 -40 -12 0
-3 -29 -167 -13 0
-4 -30 -168 -14 0
-15 -3 -223 -27 0
-16 -4 -224 -28 0
-15 -3 -95 -29 0
-16 -4 -96 -30 0
-15 -31 -3 -63 0
-16 -32 -4 -64 0
-17 -3 -27 -125 0
-18 -4 -28 -126 0
-17 -3 -71 -29 0
-18 -4 -72 -30 0
-3 -19 -25 -259 0
-4 -20 -26 -260 0
-3 -19 -59 -29 0
-4 -20 -60 -30 0
-47 -3 -23 -29 0
-48 -4 -24 -30 0
-3 -41 -27 -29 0
-4 -42 -28 -30 0
-367 -5 -7 -137 0
-368 -6 -8 -138 0
-335 -5 -7 -139 0
-336 -6 -8 -140 0
-143 -5 -7 -287 0
-144 -6 -8 -288 0
-239 -149 -5 -7 0
-240 -150 -6 -8 0
-227 -5 -7 -151 0
-228 -6 -8 -152 0
-207 -5 -7 -155 0
-208 -6 -8 -156 0
-159 -5 -7 -191 0
-160 -6 -8 -192 0
-83 -5 -279 -9 0
-84 -6 -280 -10 0
-89 -179 -5 -9 0
-90 -180 -6 -10 0
-99 -5 -119 -9 0
-100 -6 -120 -10 0
-63 -5 -11 -383 0
-64 -6 -12 -384 0
-65 -5 -263 -11 0
-66 -6 -264 -12 0
-203 -67 -5 -11 0
-204 -68 -6 -12 0
-69 -5 -167 -11 0
-70 -6 -168 -12 0
-143 -5 -71 -11 0
-144 -6 -72 -12 0
-75 -113 -5 -11 0
-76 -114 -6 -12 0
-5 -103 -11 -77 0
-6 -104 -12 -78 0
-79 -95 -5 -11 0
-80 -96 -6 -12 0
-335 -5 -55 -13 0
-336 -6 -56 -14 0
-5 -167 -59 -13 0
-6 -168 -60 -14 0
-69 -83 -5 -13 0
-70 -84 -6 -14 0
-15 -95 -5 -59 0
-16 -96 -6 -60 0
-47 -17 -5 -287 0
-48 -18 -6 -288 0
-17 -179 -5 -49 0
-18 -180 -6 -50 0
-53 -17 -5 -107 0
-54 -18 -6 -108 0
-17 -5 -71 -59 0
-18 -6 -72 -60 0
-47 -159 -19 -5 0
-48 -160 -20 -6 0
-49 -19 -5 -119 0
-50 -20 -6 -120 0
-21 -5 -263 -43 0
-22 -6 -264 -44 0
-335 -5 -23 -41 0
-336 -6 -24 -42 0
-175 -5 -23 -43 0
-176 -6 -24 -44 0
-47 -95 -5 -23 0
-48 -96 -6 -24 0
-79 -49 -5 -23 0
-80 -50 -6 -24 0
-335 -5 -39 -27 0
-336 -6 -40 -28 0
-5 -167 -41 -27 0
-6 -168 -42 -28 0
-239 -5 -39 -29 0
-240 -6 -40 -30 0
-5 -41 -139 -29 0
-6 -42 -140 -30 0
-49 -5 -59 -29 0
-50 -6 -60 -30 0
-31 -5 -39 -191 0
-32 -6 -40 -192 0
-31 -47 -63 -5 0
-32 -48 -64 -6 0
-143 -35 -5 -39 0
-144 -36 -6 -40 0
-263 -7 -9 -329 0
-264 -8 -10 -330 0
-367 -7 -137 -11 0
-368 -8 -138 -12 0
-335 -139 -7 -11 0
-336 -140 -8 -12 0
-143 -7 -287 -11 0
-144 -8 -288 -12 0
-239 -149 -7 -11 0
-240 -150 -8 -12 0
-227 -7 -11 -151 0
-228 -8 -12 -152 0
-207 -155 -7 -11 0
-208 -156 -8 -12 0
-159 -7 -191 -11 0
-160 -8 -192 -12 0
-7 -363 -103 -13 0
-8 -364 -104 -14 0
-111 -7 -223 -13 0
-112 -8 -224 -14 0
-7 -167 -119 -13 0
-8 -168 -120 -14 0
-143 -7 -125 -13 0
-144 -8 -126 -14 0
-15 -7 -87 -351 0
-16 -8 -88 -352 0
-15 -287 -7 -89 0
-16 -288 -8 -90 0
-15 -95 -7 -191 0
-16 -96 -8 -192 0
-15 -99 -159 -7 0
-16 -100 -160 -8 0
-79 -17 -7 -287 0
-80 -18 -8 -288 0
-143 -17 -7 -89 0
-144 -18 -8 -90 0
-19 -359 -7 -71 0
-20 -360 -8 -72 0
-79 -19 -159 -7 0
-80 -20 -160 -8 0
-19 -7 -87 -109 0
-20 -8 -88 -110 0
-197 -21 -7 -71 0
-198 -22 -8 -72 0
-63 -7 -23 -383 0
-64 -8 -24 -384 0
-65 -7 -23 -263 0
-66 -8 -24 -264 0
-67 -7 -23 -203 0
-68 -8 -24 -204 0
-69 -7 -23 -167 0
-70 -8 -24 -168 0
-143 -7 -23 -71 0
-144 -8 -24 -72 0
-113 -7 -23 -75 0
-114 -8 -24 -76 0
-7 -23 -103 -77 0
-8 -24 -104 -78 0
-79 -95 -7 -23 0
-80 -96 -8 -24 0
-335 -7 -27 -59 0
-336 -8 -28 -60 0
-111 -69 -7 -27 0
-112 -70 -8 -28 0
-239 -7 -59 -29 0
-240 -8 -60 -30 0
-7 -89 -71 -29 0
-8 -90 -72 -30 0
-31 -7 -191 -59 0
-32 -8 -192 -60 0
-31 -63 -127 -7 0
-32 -64 -128 -8 0
-35 -7 -55 -251 0
-36 -8 -56 -252 0
-143 -35 -7 -59 0
-144 -36 -8 -60 0
-53 -7 -39 -269 0
-54 -8 -40 -270 0
-7 -39 -59 -119 0
-8 -40 -60 -120 0
-55 -7 -41 -167 0
-56 -8 -42 -168 0
-111 -7 -41 -59 0
-112 -8 -42 -60 0
-153 -7 -55 -43 0
-154 -8 -56 -44 0
-47 -95 -7 -59 0
-48 -96 -8 -60 0
-83 -7 -55 -59 0
-84 -8 -56 -60 0
-223 -9 -319 -13 0
-224 -10 -320 -14 0
-15 -159 -9 -319 0
-16 -160 -10 -320 0
-15 -175 -9 -219 0
-16 -176 -10 -220 0
-17 -179 -149 -9 0
-18 -180 -150 -10 0
-289 -19 -115 -9 0
-290 -20 -116 -10 0
-239 -19 -119 -9 0
-240 -20 -120 -10 0
-21 -9 -219 -109 0
-22 -10 -220 -110 0
-95 -23 -9 -319 0
-96 -24 -10 -320 0
-239 -99 -23 -9 0
-240 -100 -24 -10 0
-139 -99 -9 -27 0
-140 -100 -10 -28 0
-83 -279 -9 -29 0
-84 -280 -10 -30 0
-179 -89 -9 -29 0
-180 -90 -10 -30 0
-99 -119 -9 -29 0
-100 -120 -10 -30 0
-31 -79 -9 -319 0
-32 -80 -10 -320 0
-31 -95 -119 -9 0
-32 -96 -120 -10 0
-35 -89 -119 -9 0
-36 -90 -120 -10 0
-359 -39 -9 -71 0
-360 -40 -10 -72 0
-79 -159 -39 -9 0
-80 -160 -40 -10 0
-39 -9 -87 -109 0
-40 -10 -88 -110 0
-41 -83 -9 -119 0
-42 -84 -10 -120 0
-47 -79 -119 -9 0
-48 -80 -120 -10 0
-51 -119 -9 -77 0
-52 -120 -10 -78 0
-63 -9 -59 -383 0
-64 -10 -60 -384 0
-65 -263 -9 -59 0
-66 -264 -10 -60 0
-67 -203 -9 -59 0
-68 -204 -10 -60 0
-69 -167 -9 -59 0
-70 -168 -10 -60 0
-143 -71 -9 -59 0
-144 -72 -10 -60 0
-75 -113 -9 -59 0
-76 -114 -10 -60 0
-103 -9 -59 -77 0
-104 -10 -60 -78 0
-79 -95 -9 -59 0
-80 -96 -10 -60 0
-15 -383 -11 -319 0
-16 -384 -12 -320 0
-15 -329 -11 -351 0
-16 -330 -12 -352 0
-17 -227 -341 -11 0
-18 -228 -342 -12 0
-17 -311 -233 -11 0
-18 -312 -234 -12 0
-239 -17 -287 -11 0
-240 -18 -288 -12 0
-19 -359 -179 -11 0
-20 -360 -180 -12 0
-19 -309 -185 -11 0
-20 -310 -186 -12 0
-239 -19 -199 -11 0
-240 -20 -200 -12 0
-197 -179 -21 -11 0
-198 -180 -22 -12 0
-367 -23 -137 -11 0
-368 -24 -138 -12 0
-335 -139 -23 -11 0
-336 -140 -24 -12 0
-143 -23 -287 -11 0
-144 -24 -288 -12 0
-239 -149 -23 -11 0
-240 -150 -24 -12 0
-227 -23 -11 -151 0
-228 -24 -12 -152 0
-207 -155 -23 -11 0
-208 -156 -24 -12 0
-159 -23 -191 -11 0
-160 -24 -192 -12 0
-129 -311 -25 -11 0
-130 -312 -26 -12 0
-131 -25 -11 -285 0
-132 -26 -12 -286 0
-335 -119 -11 -27 0
-336 -120 -12 -28 0
-251 -125 -11 -27 0
-252 -126 -12 -28 0
-139 -167 -11 -27 0
-140 -168 -12 -28 0
-289 -115 -11 -29 0
-290 -116 -12 -30 0
-239 -119 -11 -29 0
-240 -120 -12 -30 0
-31 -119 -191 -11 0
-32 -120 -192 -12 0
-35 -359 -99 -11 0
-36 -360 -100 -12 0
-305 -35 -101 -11 0
-306 -36 -102 -12 0
-107 -35 -215 -11 0
-108 -36 -216 -12 0
-35 -197 -11 -109 0
-36 -198 -12 -110 0
-143 -35 -119 -11 0
-144 -36 -120 -12 0
-113 -37 -151 -11 0
-114 -38 -152 -12 0
-95 -39 -11 -319 0
-96 -40 -12 -320 0
-239 -99 -39 -11 0
-240 -100 -40 -12 0
-209 -99 -41 -11 0
-210 -100 -42 -12 0
-131 -109 -11 -43 0
-132 -110 -12 -44 0
-91 -275 -11 -45 0
-92 -276 -12 -46 0
-47 -87 -11 -351 0
-48 -88 -12 -352 0
-47 -287 -89 -11 0
-48 -288 -90 -12 0
-47 -95 -191 -11 0
-48 -96 -192 -12 0
-47 -99 -159 -11 0
-48 -100 -160 -12 0
-51 -233 -89 -11 0
-52 -234 -90 -12 0
-83 -53 -377 -11 0
-84 -54 -378 -12 0
-53 -215 -89 -11 0
-54 -216 -90 -12 0
-335 -83 -55 -11 0
-336 -84 -56 -12 0
-83 -279 -11 -59 0
-84 -280 -12 -60 0
-179 -89 -11 -59 0
-180 -90 -12 -60 0
-99 -119 -11 -59 0
-100 -120 -12 -60 0
-63 -79 -11 -383 0
-64 -80 -12 -384 0
-63 -95 -127 -11 0
-64 -96 -128 -12 0
-79 -65 -11 -351 0
-80 -66 -12 -352 0
-175 -65 -87 -11 0
-176 -66 -88 -12 0
-65 -99 -11 -109 0
-66 -100 -12 -110 0
-209 -83 -69 -11 0
-210 -84 -70 -12 0
-79 -71 -287 -11 0
-80 -72 -288 -12 0
-143 -71 -89 -11 0
-144 -72 -90 -12 0
-83 -181 -11 -77 0
-84 -182 -12 -78 0
-83 -89 -11 -125 0
-84 -90 -12 -126 0
-335 -209 -23 -13 0
-336 -210 -24 -14 0
-181 -25 -363 -13 0
-182 -26 -364 -14 0
-207 -223 -25 -13 0
-208 -224 -26 -14 0
-335 -167 -27 -13 0
-336 -168 -28 -14 0
-179 -251 -27 -13 0
-180 -252 -28 -14 0
-239 -29 -167 -13 0
-240 -30 -168 -14 0
-31 -159 -223 -13 0
-32 -160 -224 -14 0
-31 -167 -191 -13 0
-32 -168 -192 -14 0
-35 -251 -139 -13 0
-36 -252 -140 -14 0
-143 -35 -223 -13 0
-144 -36 -224 -14 0
-335 -119 -41 -13 0
-336 -120 -42 -14 0
-125 -41 -251 -13 0
-126 -42 -252 -14 0
-167 -41 -139 -13 0
-168 -42 -140 -14 0
-139 -153 -43 -13 0
-140 -154 -44 -14 0
-47 -111 -335 -13 0
-48 -112 -336 -14 0
-47 -119 -223 -13 0
-48 -120 -224 -14 0
-55 -363 -103 -13 0
-56 -364 -104 -14 0
-111 -55 -223 -13 0
-112 -56 -224 -14 0
-55 -167 -119 -13 0
-56 -168 -120 -14 0
-143 -55 -125 -13 0
-144 -56 -126 -14 0
-99 -69 -279 -13 0
-100 -70 -280 -14 0
-111 -159 -69 -13 0
-112 -160 -70 -14 0
-71 -125 -119 -13 0
-72 -126 -120 -14 0
-79 -99 -223 -13 0
-80 -100 -224 -14 0
-79 -111 -139 -13 0
-80 -112 -140 -14 0
-209 -83 -99 -13 0
-210 -84 -100 -14 0
-15 -23 -319 -383 0
-16 -24 -320 -384 0
-15 -23 -329 -351 0
-16 -24 -330 -352 0
-15 -239 -27 -335 0
-16 -240 -28 -336 0
-15 -251 -287 -27 0
-16 -252 -288 -28 0
-15 -31 -191 -383 0
-16 -32 -192 -384 0
-15 -31 -199 -319 0
-16 -32 -200 -320 0
-15 -35 -287 -179 0
-16 -36 -288 -180 0
-15 -159 -39 -319 0
-16 -160 -40 -320 0
-15 -175 -39 -219 0
-16 -176 -40 -220 0
-15 -223 -167 -41 0
-16 -224 -168 -42 0
-15 -47 -139 -335 0
-16 -48 -140 -336 0
-15 -47 -143 -287 0
-16 -48 -144 -288 0
-15 -47 -149 -239 0
-16 -48 -150 -240 0
-15 -47 -227 -151 0
-16 -48 -228 -152 0
-15 -47 -207 -155 0
-16 -48 -208 -156 0
-15 -47 -159 -191 0
-16 -48 -160 -192 0
-15 -51 -143 -233 0
-16 -52 -144 -234 0
-15 -143 -53 -215 0
-16 -144 -54 -216 0
-15 -55 -223 -139 0
-16 -56 -224 -140 0
-15 -179 -143 -59 0
-16 -180 -144 -60 0
-15 -159 -149 -59 0
-16 -160 -150 -60 0
-15 -63 -119 -383 0
-16 -64 -120 -384 0
-15 -63 -127 -255 0
-16 -64 -128 -256 0
-15 -65 -119 -351 0
-16 -66 -120 -352 0
-15 -159 -69 -139 0
-16 -160 -70 -140 0
-15 -71 -287 -119 0
-16 -72 -288 -120 0
-15 -71 -223 -125 0
-16 -72 -224 -126 0
-15 -289 -79 -115 0
-16 -290 -80 -116 0
-15 -79 -119 -239 0
-16 -80 -120 -240 0
-15 -83 -111 -335 0
-16 -84 -112 -336 0
-15 -83 -119 -223 0
-16 -84 -120 -224 0
-15 -87 -351 -109 0
-16 -88 -352 -110 0
-15 -111 -87 -307 0
-16 -112 -88 -308 0
-15 -95 -119 -191 0
-16 -96 -120 -192 0
-15 -111 -119 -167 0
-16 -112 -120 -168 0
-15 -111 -143 -125 0
-16 -112 -144 -126 0
-17 -359 -27 -349 0
-18 -360 -28 -350 0
-17 -359 -299 -29 0
-18 -360 -300 -30 0
-339 -17 -305 -29 0
-340 -18 -306 -30 0
-17 -35 -341 -227 0
-18 -36 -342 -228 0
-17 -35 -311 -233 0
-18 -36 -312 -234 0
-239 -17 -35 -287 0
-240 -18 -36 -288 0
-199 -17 -359 -39 0
-200 -18 -360 -40 0
-215 -17 -39 -269 0
-216 -18 -40 -270 0
-17 -307 -197 -41 0
-18 -308 -198 -42 0
-17 -251 -41 -209 0
-18 -252 -42 -210 0
-17 -197 -263 -43 0
-18 -198 -264 -44 0
-47 -17 -179 -287 0
-48 -18 -180 -288 0
-17 -51 -233 -179 0
-18 -52 -234 -180 0
-161 -17 -323 -53 0
-162 -18 -324 -54 0
-17 -179 -53 -215 0
-18 -180 -54 -216 0
-17 -55 -251 -167 0
-18 -56 -252 -168 0
-17 -149 -359 -59 0
-18 -150 -360 -60 0
-63 -17 -143 -383 0
-64 -18 -144 -384 0
-143 -17 -351 -65 0
-144 -18 -352 -66 0
-17 -153 -251 -65 0
-18 -154 -252 -66 0
-17 -69 -359 -139 0
-18 -70 -360 -140 0
-17 -149 -69 -251 0
-18 -150 -70 -252 0
-367 -17 -71 -137 0
-368 -18 -72 -138 0
-335 -17 -71 -139 0
-336 -18 -72 -140 0
-143 -17 -71 -287 0
-144 -18 -72 -288 0
-239 -17 -149 -71 0
-240 -18 -150 -72 0
-17 -227 -71 -151 0
-18 -228 -72 -152 0
-207 -17 -71 -155 0
-208 -18 -72 -156 0
-159 -17 -71 -191 0
-160 -18 -72 -192 0
-79 -17 -143 -239 0
-80 -18 -144 -240 0
-17 -83 -251 -139 0
-18 -84 -252 -140 0
-143 -17 -83 -223 0
-144 -18 -84 -224 0
-17 -179 -149 -89 0
-18 -180 -150 -90 0
-95 -17 -143 -191 0
-96 -18 -144 -192 0
-111 -17 -287 -125 0
-112 -18 -288 -126 0
-111 -17 -143 -167 0
-112 -18 -144 -168 0
-143 -17 -159 -119 0
-144 -18 -160 -120 0
-17 -167 -139 -125 0
-18 -168 -140 -126 0
-19 -35 -359 -299 0
-20 -36 -360 -300 0
-339 -305 -19 -35 0
-340 -306 -20 -36 0
-263 -19 -39 -329 0
-264 -20 -40 -330 0
-239 -19 -53 -215 0
-240 -20 -54 -216 0
-199 -279 -19 -55 0
-200 -280 -20 -56 0
-239 -209 -19 -55 0
-240 -210 -20 -56 0
-19 -359 -179 -59 0
-20 -360 -180 -60 0
-19 -309 -185 -59 0
-20 -310 -186 -60 0
-239 -19 -199 -59 0
-240 -20 -200 -60 0
-63 -19 -191 -239 0
-64 -20 -192 -240 0
-335 -19 -69 -167 0
-336 -20 -70 -168 0
-19 -69 -179 -251 0
-20 -70 -180 -252 0
-239 -19 -71 -179 0
-240 -20 -72 -180 0
-79 -19 -159 -319 0
-80 -20 -160 -320 0
-79 -19 -175 -219 0
-80 -20 -176 -220 0
-239 -19 -83 -167 0
-240 -20 -84 -168 0
-19 -149 -359 -89 0
-20 -150 -360 -90 0
-95 -19 -149 -319 0
-96 -20 -150 -320 0
-95 -19 -159 -239 0
-96 -20 -160 -240 0
-19 -149 -99 -299 0
-20 -150 -100 -300 0
-239 -19 -103 -155 0
-240 -20 -104 -156 0
-19 -149 -107 -269 0
-20 -150 -108 -270 0
-19 -149 -263 -109 0
-20 -150 -264 -110 0
-239 -113 -19 -151 0
-240 -114 -20 -152 0
-367 -19 -119 -137 0
-368 -20 -120 -138 0
-335 -19 -119 -139 0
-336 -20 -120 -140 0
-143 -19 -119 -287 0
-144 -20 -120 -288 0
-239 -19 -149 -119 0
-240 -20 -150 -120 0
-19 -119 -227 -151 0
-20 -120 -228 -152 0
-207 -19 -119 -155 0
-208 -20 -120 -156 0
-159 -19 -119 -191 0
-160 -20 -120 -192 0
-19 -149 -131 -219 0
-20 -150 -132 -220 0
-209 -19 -149 -139 0
-210 -20 -150 -140 0
-299 -21 -329 -43 0
-300 -22 -330 -44 0
-47 -21 -263 -351 0
-48 -22 -264 -352 0
-285 -51 -21 -259 0
-286 -52 -22 -260 0
-219 -21 -329 -59 0
-220 -22 -330 -60 0
-65 -307 -21 -209 0
-66 -308 -22 -210 0
-65 -21 -263 -219 0
-66 -22 -264 -220 0
-175 -21 -87 -351 0
-176 -22 -88 -352 0
-199 -21 -87 -219 0
-200 -22 -88 -220 0
-197 -21 -89 -219 0
-198 -22 -90 -220 0
-197 -131 -21 -179 0
-198 -132 -22 -180 0
-143 -175 -21 -197 0
-144 -176 -22 -198 0
-47 -23 -319 -383 0
-48 -24 -320 -384 0
-47 -23 -329 -351 0
-48 -24 -330 -352 0
-279 -53 -23 -377 0
-280 -54 -24 -378 0
-377 -23 -55 -269 0
-378 -24 -56 -270 0
-335 -279 -23 -55 0
-336 -280 -24 -56 0
-263 -23 -329 -59 0
-264 -24 -330 -60 0
-247 -371 -23 -61 0
-248 -372 -24 -62 0
-63 -23 -239 -383 0
-64 -24 -240 -384 0
-239 -65 -23 -351 0
-240 -66 -24 -352 0
-335 -67 -23 -237 0
-336 -68 -24 -238 0
-227 -341 -23 -71 0
-228 -342 -24 -72 0
-311 -23 -233 -71 0
-312 -24 -234 -72 0
-239 -23 -287 -71 0
-240 -24 -288 -72 0
-303 -227 -23 -75 0
-304 -228 -24 -76 0
-335 -209 -83 -23 0
-336 -210 -84 -24 0
-209 -307 -23 -87 0
-210 -308 -24 -88 0
-263 -219 -23 -87 0
-264 -220 -24 -88 0
-199 -359 -23 -89 0
-200 -360 -24 -90 0
-215 -23 -89 -269 0
-216 -24 -90 -270 0
-95 -23 -191 -383 0
-96 -24 -192 -384 0
-95 -199 -23 -319 0
-96 -200 -24 -320 0
-335 -97 -195 -23 0
-336 -98 -196 -24 0
-271 -101 -23 -203 0
-272 -102 -24 -204 0
-199 -23 -107 -269 0
-200 -24 -108 -270 0
-199 -263 -23 -109 0
-200 -264 -24 -110 0
-111 -209 -23 -223 0
-112 -210 -24 -224 0
-303 -113 -23 -189 0
-304 -114 -24 -190 0
-179 -359 -23 -119 0
-180 -360 -24 -120 0
-309 -23 -185 -119 0
-310 -24 -186 -120 0
-199 -23 -239 -119 0
-200 -24 -240 -120 0
-335 -179 -23 -125 0
-336 -180 -24 -126 0
-127 -255 -23 -191 0
-128 -256 -24 -192 0
-175 -131 -23 -351 0
-176 -132 -24 -352 0
-199 -131 -23 -219 0
-200 -132 -24 -220 0
-305 -179 -23 -135 0
-306 -180 -24 -136 0
-275 -23 -137 -183 0
-276 -24 -138 -184 0
-199 -209 -23 -139 0
-200 -210 -24 -140 0
-143 -179 -23 -287 0
-144 -180 -24 -288 0
-227 -23 -189 -151 0
-228 -24 -190 -152 0
-23 -363 -155 -167 0
-24 -364 -156 -168 0
-179 -23 -251 -167 0
-180 -24 -252 -168 0
-259 -311 -25 -77 0
-260 -312 -26 -78 0
-111 -207 -25 -363 0
-112 -208 -26 -364 0
-207 -181 -223 -25 0
-208 -182 -224 -26 0
-63 -383 -27 -335 0
-64 -384 -28 -336 0
-335 -65 -27 -351 0
-336 -66 -28 -352 0
-83 -377 -27 -269 0
-84 -378 -28 -270 0
-335 -83 -279 -27 0
-336 -84 -280 -28 0
-279 -307 -87 -27 0
-280 -308 -88 -28 0
-99 -249 -27 -349 0
-100 -250 -28 -350 0
-111 -239 -27 -335 0
-112 -240 -28 -336 0
-111 -251 -287 -27 0
-112 -252 -288 -28 0
-227 -341 -27 -125 0
-228 -342 -28 -126 0
-311 -233 -27 -125 0
-312 -234 -28 -126 0
-239 -287 -27 -125 0
-240 -288 -28 -126 0
-271 -135 -27 -237 0
-272 -136 -28 -238 0
-223 -139 -27 -319 0
-224 -140 -28 -320 0
-143 -251 -239 -27 0
-144 -252 -240 -28 0
-219 -153 -27 -307 0
-220 -154 -28 -308 0
-155 -363 -27 -209 0
-156 -364 -28 -210 0
-155 -251 -233 -27 0
-156 -252 -234 -28 0
-159 -279 -223 -27 0
-160 -280 -224 -28 0
-335 -209 -167 -27 0
-336 -210 -168 -28 0
-209 -181 -311 -27 0
-210 -182 -312 -28 0
-209 -195 -293 -27 0
-210 -196 -294 -28 0
-251 -219 -197 -27 0
-252 -220 -198 -28 0
-341 -359 -75 -29 0
-342 -360 -76 -30 0
-79 -383 -319 -29 0
-80 -384 -320 -30 0
-79 -329 -351 -29 0
-80 -330 -352 -30 0
-359 -89 -299 -29 0
-360 -90 -300 -30 0
-305 -339 -89 -29 0
-306 -340 -90 -30 0
-95 -359 -287 -29 0
-96 -360 -288 -30 0
-95 -319 -299 -29 0
-96 -320 -300 -30 0
-269 -359 -107 -29 0
-270 -360 -108 -30 0
-263 -119 -329 -29 0
-264 -120 -330 -30 0
-359 -125 -251 -29 0
-360 -126 -252 -30 0
-129 -259 -311 -29 0
-130 -260 -312 -30 0
-143 -359 -239 -29 0
-144 -360 -240 -30 0
-149 -249 -299 -29 0
-150 -250 -300 -30 0
-359 -233 -155 -29 0
-360 -234 -156 -30 0
-159 -239 -319 -29 0
-160 -240 -320 -30 0
-179 -341 -227 -29 0
-180 -342 -228 -30 0
-179 -311 -233 -29 0
-180 -312 -234 -30 0
-239 -179 -287 -29 0
-240 -180 -288 -30 0
-197 -359 -219 -29 0
-198 -360 -220 -30 0
-207 -259 -239 -29 0
-208 -260 -240 -30 0
-223 -209 -319 -29 0
-224 -210 -320 -30 0
-31 -95 -319 -383 0
-32 -96 -320 -384 0
-31 -95 -329 -351 0
-32 -96 -330 -352 0
-31 -359 -119 -287 0
-32 -360 -120 -288 0
-31 -119 -299 -319 0
-32 -120 -300 -320 0
-31 -287 -335 -125 0
-32 -288 -336 -126 0
-31 -305 -135 -287 0
-32 -306 -136 -288 0
-31 -279 -139 -319 0
-32 -280 -140 -320 0
-31 -159 -263 -329 0
-32 -160 -264 -330 0
-31 -191 -239 -383 0
-32 -192 -240 -384 0
-31 -199 -249 -319 0
-32 -200 -250 -320 0
-31 -223 -239 -335 0
-32 -224 -240 -336 0
-31 -223 -287 -251 0
-32 -224 -288 -252 0
-175 -33 -373 -271 0
-176 -34 -374 -272 0
-349 -35 -359 -125 0
-350 -36 -360 -126 0
-143 -35 -319 -383 0
-144 -36 -320 -384 0
-143 -35 -329 -351 0
-144 -36 -330 -352 0
-305 -35 -359 -169 0
-306 -36 -360 -170 0
-35 -359 -179 -299 0
-36 -360 -180 -300 0
-339 -305 -35 -179 0
-340 -306 -36 -180 0
-35 -341 -299 -189 0
-36 -342 -300 -190 0
-191 -35 -287 -383 0
-192 -36 -288 -384 0
-35 -197 -329 -299 0
-36 -198 -330 -300 0
-279 -35 -215 -377 0
-280 -36 -216 -378 0
-223 -35 -287 -335 0
-224 -36 -288 -336 0
-239 -35 -287 -319 0
-240 -36 -288 -320 0
-35 -377 -251 -269 0
-36 -378 -252 -270 0
-335 -35 -279 -251 0
-336 -36 -280 -252 0
-227 -37 -379 -299 0
-228 -38 -380 -300 0
-239 -39 -319 -383 0
-240 -40 -320 -384 0
-239 -39 -329 -351 0
-240 -40 -330 -352 0
-359 -215 -41 -377 0
-360 -216 -42 -378 0
-359 -41 -251 -349 0
-360 -42 -252 -350 0
-335 -307 -41 -351 0
-336 -308 -42 -352 0
-1 -3 -99 -9 0
-2 -4 -100 -10 0
-1 -3 -11 -59 0
-2 -4 -12 -60 0
-15 -1 -3 -39 0
-16 -2 -4 -40 0
-1 -3 -35 -17 0
-2 -4 -36 -18 0
-1 -3 -23 -29 0
-2 -4 -24 -30 0
-1 -5 -7 -59 0
-2 -6 -8 -60 0
-1 -5 -11 -29 0
-2 -6 -12 -30 0
-15 -1 -5 -23 0
-16 -2 -6 -24 0
-1 -7 -23 -11 0
-2 -8 -24 -12 0
-15 -1 -19 -7 0
-16 -2 -20 -8 0
-3 -5 -299 -29 0
-4 -6 -300 -30 0
-31 -3 -5 -239 0
-32 -4 -6 -240 0
-33 -3 -5 -203 0
-34 -4 -6 -204 0
-35 -3 -5 -179 0
-36 -4 -6 -180 0
-149 -3 -5 -39 0
-150 -4 -6 -40 0
-3 -5 -41 -139 0
-4 -6 -42 -140 0
-3 -5 -131 -43 0
-4 -6 -132 -44 0
-47 -3 -5 -119 0
-48 -4 -6 -120 0
-53 -3 -5 -107 0
-54 -4 -6 -108 0
-3 -5 -99 -59 0
-4 -6 -100 -60 0
-63 -95 -3 -5 0
-64 -96 -4 -6 0
-3 -5 -71 -89 0
-4 -6 -72 -90 0
-17 -3 -359 -7 0
-18 -4 -360 -8 0
-199 -3 -19 -7 0
-200 -4 -20 -8 0
-3 -7 -23 -119 0
-4 -8 -24 -120 0
-3 -7 -25 -103 0
-4 -8 -26 -104 0
-31 -3 -79 -7 0
-32 -4 -80 -8 0
-3 -35 -7 -71 0
-4 -36 -8 -72 0
-47 -3 -7 -59 0
-48 -4 -8 -60 0
-15 -3 -199 -9 0
-16 -4 -200 -10 0
-3 -19 -99 -9 0
-4 -20 -100 -10 0
-3 -9 -59 -29 0
-4 -10 -60 -30 0
-49 -3 -39 -9 0
-50 -4 -40 -10 0
-209 -3 -11 -13 0
-210 -4 -12 -14 0
-15 -3 -119 -11 0
-16 -4 -120 -12 0
-17 -3 -89 -11 0
-18 -4 -90 -12 0
-65 -3 -21 -11 0
-66 -4 -22 -12 0
-3 -23 -11 -59 0
-4 -24 -12 -60 0
-49 -3 -11 -29 0
-50 -4 -12 -30 0
-31 -47 -3 -11 0
-32 -48 -4 -12 0
-15 -47 -3 -23 0
-16 -48 -4 -24 0
-15 -31 -3 -39 0
-16 -32 -4 -40 0
-359 -5 -7 -71 0
-360 -6 -8 -72 0
-311 -5 -7 -77 0
-312 -6 -8 -78 0
-79 -5 -7 -299 0
-80 -6 -8 -300 0
-279 -83 -5 -7 0
-280 -84 -6 -8 0
-263 -5 -7 -87 0
-264 -6 -8 -88 0
-95 -5 -7 -239 0
-96 -6 -8 -240 0
-215 -5 -7 -107 0
-216 -6 -8 -108 0
-111 -209 -5 -7 0
-112 -210 -6 -8 0
-199 -5 -7 -119 0
-200 -6 -8 -120 0
-127 -5 -7 -191 0
-128 -6 -8 -192 0
-5 -7 -137 -183 0
-6 -8 -138 -184 0
-143 -179 -5 -7 0
-144 -180 -6 -8 0
-5 -39 -9 -299 0
-6 -40 -10 -300 0
-47 -5 -199 -9 0
-48 -6 -200 -10 0
-149 -5 -9 -59 0
-150 -6 -10 -60 0
-79 -5 -119 -9 0
-80 -6 -120 -10 0
-299 -5 -11 -29 0
-300 -6 -12 -30 0
-31 -5 -239 -11 0
-32 -6 -240 -12 0
-33 -203 -5 -11 0
-34 -204 -6 -12 0
-35 -5 -179 -11 0
-36 -6 -180 -12 0
-149 -5 -39 -11 0
-150 -6 -40 -12 0
-139 -5 -41 -11 0
-140 -6 -42 -12 0
-131 -5 -11 -43 0
-132 -6 -12 -44 0
-47 -5 -119 -11 0
-48 -6 -120 -12 0
-53 -107 -5 -11 0
-54 -108 -6 -12 0
-99 -5 -11 -59 0
-100 -6 -12 -60 0
-63 -95 -5 -11 0
-64 -96 -6 -12 0
-5 -71 -89 -11 0
-6 -72 -90 -12 0
-209 -5 -27 -13 0
-210 -6 -28 -14 0
-35 -5 -125 -13 0
-36 -6 -126 -14 0
-83 -5 -55 -13 0
-84 -6 -56 -14 0
-15 -5 -23 -239 0
-16 -6 -24 -240 0
-15 -31 -5 -119 0
-16 -32 -6 -120 0
-15 -47 -79 -5 0
-16 -48 -80 -6 0
-17 -179 -5 -23 0
-18 -180 -6 -24 0
-17 -5 -27 -125 0
-18 -6 -28 -126 0
-17 -35 -5 -89 0
-18 -36 -6 -90 0
-47 -17 -5 -71 0
-48 -18 -6 -72 0
-149 -19 -5 -23 0
-150 -20 -6 -24 0
-19 -5 -99 -29 0
-20 -6 -100 -30 0
-21 -131 -5 -23 0
-22 -132 -6 -24 0
-21 -65 -5 -43 0
-22 -66 -6 -44 0
-5 -23 -25 -103 0
-6 -24 -26 -104 0
-31 -79 -5 -23 0
-32 -80 -6 -24 0
-35 -5 -23 -71 0
-36 -6 -24 -72 0
-47 -5 -23 -59 0
-48 -6 -24 -60 0
-5 -41 -27 -59 0
-6 -42 -28 -60 0
-47 -5 -55 -27 0
-48 -6 -56 -28 0
-5 -39 -59 -29 0
-6 -40 -60 -30 0
-47 -49 -5 -39 0
-48 -50 -6 -40 0
-179 -359 -7 -9 0
-180 -360 -8 -10 0
-239 -7 -9 -299 0
-240 -8 -10 -300 0
-359 -7 -11 -71 0
-360 -8 -12 -72 0
-311 -7 -11 -77 0
-312 -8 -12 -78 0
-79 -299 -7 -11 0
-80 -300 -8 -12 0
-279 -83 -7 -11 0
-280 -84 -8 -12 0
-263 -7 -11 -87 0
-264 -8 -12 -88 0
-95 -7 -239 -11 0
-96 -8 -240 -12 0
-107 -215 -7 -11 0
-108 -216 -8 -12 0
-111 -209 -7 -11 0
-112 -210 -8 -12 0
-199 -7 -11 -119 0
-200 -8 -12 -120 0
-127 -7 -191 -11 0
-128 -8 -192 -12 0
-7 -137 -11 -183 0
-8 -138 -12 -184 0
-143 -179 -7 -11 0
-144 -180 -8 -12 0
-279 -7 -55 -13 0
-280 -8 -56 -14 0
-63 -7 -223 -13 0
-64 -8 -224 -14 0
-199 -69 -7 -13 0
-200 -70 -8 -14 0
-83 -7 -167 -13 0
-84 -8 -168 -14 0
-111 -7 -139 -13 0
-112 -8 -140 -14 0
-15 -7 -41 -335 0
-16 -8 -42 -336 0
-15 -47 -7 -239 0
-16 -48 -8 -240 0
-15 -51 -7 -207 0
-16 -52 -8 -208 0
-15 -63 -159 -7 0
-16 -64 -160 -8 0
-15 -143 -7 -71 0
-16 -144 -8 -72 0
-15 -95 -7 -119 0
-16 -96 -8 -120 0
-17 -35 -359 -7 0
-18 -36 -360 -8 0
-47 -17 -179 -7 0
-48 -18 -180 -8 0
-17 -7 -71 -119 0
-18 -8 -72 -120 0
-199 -19 -7 -39 0
-200 -20 -8 -40 0
-47 -19 -149 -7 0
-48 -20 -150 -8 0
-19 -7 -59 -119 0
-20 -8 -60 -120 0
-79 -19 -7 -99 0
-80 -20 -8 -100 0
-47 -131 -21 -7 0
-48 -132 -22 -8 0
-7 -23 -299 -29 0
-8 -24 -300 -30 0
-31 -239 -7 -23 0
-32 -240 -8 -24 0
-33 -7 -23 -203 0
-34 -8 -24 -204 0
-35 -179 -7 -23 0
-36 -180 -8 -24 0
-39 -149 -7 -23 0
-40 -150 -8 -24 0
-41 -7 -23 -139 0
-42 -8 -24 -140 0
-131 -7 -23 -43 0
-132 -8 -24 -44 0
-47 -7 -23 -119 0
-48 -8 -24 -120 0
-53 -7 -23 -107 0
-54 -8 -24 -108 0
-99 -7 -23 -59 0
-100 -8 -24 -60 0
-63 -95 -7 -23 0
-64 -96 -8 -24 0
-89 -7 -23 -71 0
-90 -8 -24 -72 0
-31 -207 -7 -25 0
-32 -208 -8 -26 0
-51 -7 -25 -103 0
-52 -8 -26 -104 0
-7 -41 -27 -119 0
-8 -42 -28 -120 0
-7 -39 -119 -29 0
-8 -40 -120 -30 0
-47 -99 -7 -29 0
-48 -100 -8 -30 0
-31 -47 -95 -7 0
-32 -48 -96 -8 0
-31 -63 -79 -7 0
-32 -64 -80 -8 0
-47 -35 -7 -89 0
-48 -36 -8 -90 0
-47 -83 -7 -41 0
-48 -84 -8 -42 0
-349 -9 -139 -13 0
-350 -10 -140 -14 0
-167 -9 -299 -13 0
-168 -10 -300 -14 0
-15 -95 -9 -299 0
-16 -96 -10 -300 0
-15 -239 -119 -9 0
-16 -240 -120 -10 0
-15 -159 -199 -9 0
-16 -160 -200 -10 0
-17 -71 -9 -299 0
-18 -72 -10 -300 0
-17 -179 -119 -9 0
-18 -180 -120 -10 0
-19 -55 -9 -349 0
-20 -56 -10 -350 0
-19 -299 -9 -59 0
-20 -300 -10 -60 0
-79 -19 -199 -9 0
-80 -20 -200 -10 0
-179 -19 -89 -9 0
-180 -20 -90 -10 0
-19 -149 -119 -9 0
-20 -150 -120 -10 0
-131 -21 -119 -9 0
-132 -22 -120 -10 0
-47 -23 -9 -299 0
-48 -24 -10 -300 0
-199 -23 -9 -59 0
-200 -24 -10 -60 0
-69 -23 -9 -167 0
-70 -24 -10 -168 0
-79 -149 -23 -9 0
-80 -150 -24 -10 0
-39 -9 -27 -349 0
-40 -10 -28 -350 0
-41 -299 -9 -27 0
-42 -300 -10 -28 0
-139 -69 -9 -27 0
-140 -70 -10 -28 0
-39 -9 -299 -29 0
-40 -10 -300 -30 0
-47 -199 -9 -29 0
-48 -200 -10 -30 0
-149 -9 -59 -29 0
-150 -10 -60 -30 0
-79 -119 -9 -29 0
-80 -120 -10 -30 0
-35 -89 -99 -9 0
-36 -90 -100 -10 0
-47 -149 -39 -9 0
-48 -150 -40 -10 0
-39 -9 -59 -119 0
-40 -10 -60 -120 0
-79 -99 -39 -9 0
-80 -100 -40 -10 0
-63 -95 -9 -59 0
-64 -96 -10 -60 0
-89 -71 -9 -59 0
-90 -72 -10 -60 0
-15 -255 -11 -383 0
-16 -256 -12 -384 0
-15 -275 -11 -367 0
-16 -276 -12 -368 0
-15 -359 -287 -11 0
-16 -360 -288 -12 0
-143 -17 -359 -11 0
-144 -18 -360 -12 0
-17 -341 -151 -11 0
-18 -342 -152 -12 0
-161 -17 -323 -11 0
-162 -18 -324 -12 0
-17 -179 -299 -11 0
-18 -180 -300 -12 0
-191 -17 -287 -11 0
-192 -18 -288 -12 0
-17 -215 -11 -269 0
-18 -216 -12 -270 0
-17 -259 -233 -11 0
-18 -260 -234 -12 0
-19 -329 -11 -109 0
-20 -330 -12 -110 0
-19 -299 -119 -11 0
-20 -300 -120 -12 0
-19 -149 -249 -11 0
-20 -150 -250 -12 0
-159 -19 -239 -11 0
-160 -20 -240 -12 0
-21 -87 -329 -11 0
-22 -88 -330 -12 0
-219 -131 -21 -11 0
-220 -132 -22 -12 0
-359 -23 -11 -71 0
-360 -24 -12 -72 0
-311 -23 -11 -77 0
-312 -24 -12 -78 0
-79 -299 -23 -11 0
-80 -300 -24 -12 0
-279 -83 -23 -11 0
-280 -84 -24 -12 0
-263 -23 -11 -87 0
-264 -24 -12 -88 0
-95 -23 -239 -11 0
-96 -24 -240 -12 0
-107 -215 -23 -11 0
-108 -216 -24 -12 0
-111 -209 -23 -11 0
-112 -210 -24 -12 0
-199 -23 -11 -119 0
-200 -24 -12 -120 0
-127 -23 -191 -11 0
-128 -24 -192 -12 0
-23 -137 -11 -183 0
-24 -138 -12 -184 0
-143 -179 -23 -11 0
-144 -180 -24 -12 0
-259 -25 -11 -77 0
-260 -26 -12 -78 0
-95 -207 -25 -11 0
-96 -208 -26 -12 0
-349 -59 -11 -27 0
-350 -60 -12 -28 0
-251 -71 -11 -27 0
-252 -72 -12 -28 0
-209 -83 -11 -27 0
-210 -84 -12 -28 0
-111 -167 -11 -27 0
-112 -168 -12 -28 0
-131 -153 -11 -27 0
-132 -154 -12 -28 0
-139 -149 -11 -27 0
-140 -150 -12 -28 0
-349 -55 -11 -29 0
-350 -56 -12 -30 0
-299 -59 -11 -29 0
-300 -60 -12 -30 0
-79 -199 -11 -29 0
-80 -200 -12 -30 0
-179 -89 -11 -29 0
-180 -90 -12 -30 0
-149 -119 -11 -29 0
-150 -120 -12 -30 0
-31 -63 -239 -11 0
-32 -64 -240 -12 0
-31 -95 -159 -11 0
-32 -96 -160 -12 0
-33 -67 -203 -11 0
-34 -68 -204 -12 0
-47 -35 -359 -11 0
-48 -36 -360 -12 0
-35 -53 -11 -269 0
-36 -54 -12 -270 0
-35 -251 -55 -11 0
-36 -252 -56 -12 0
-65 -35 -197 -11 0
-66 -36 -198 -12 0
-35 -71 -179 -11 0
-36 -72 -180 -12 0
-35 -149 -89 -11 0
-36 -150 -90 -12 0
-95 -35 -143 -11 0
-96 -36 -144 -12 0
-47 -299 -39 -11 0
-48 -300 -40 -12 0
-199 -39 -11 -59 0
-200 -40 -12 -60 0
-69 -39 -11 -167 0
-70 -40 -12 -168 0
-79 -149 -39 -11 0
-80 -150 -40 -12 0
-47 -279 -41 -11 0
-48 -280 -42 -12 0
-209 -55 -41 -11 0
-210 -56 -42 -12 0
-139 -83 -41 -11 0
-140 -84 -42 -12 0
-111 -119 -41 -11 0
-112 -120 -42 -12 0
-47 -263 -11 -43 0
-48 -264 -12 -44 0
-131 -87 -11 -43 0
-132 -88 -12 -44 0
-47 -51 -207 -11 0
-48 -52 -208 -12 0
-47 -63 -159 -11 0
-48 -64 -160 -12 0
-47 -143 -71 -11 0
-48 -144 -72 -12 0
-47 -95 -119 -11 0
-48 -96 -120 -12 0
-129 -51 -11 -77 0
-130 -52 -12 -78 0
-83 -55 -11 -119 0
-84 -56 -12 -120 0
-95 -111 -55 -11 0
-96 -112 -56 -12 0
-79 -119 -11 -59 0
-80 -120 -12 -60 0
-65 -87 -11 -109 0
-66 -88 -12 -110 0
-79 -95 -99 -11 0
-80 -96 -100 -12 0
-19 -259 -363 -13 0
-20 -260 -364 -14 0
-349 -19 -279 -13 0
-350 -20 -280 -14 0
-359 -23 -125 -13 0
-360 -24 -126 -14 0
-279 -23 -167 -13 0
-280 -24 -168 -14 0
-223 -23 -239 -13 0
-224 -24 -240 -14 0
-103 -25 -363 -13 0
-104 -26 -364 -14 0
-95 -335 -27 -13 0
-96 -336 -28 -14 0
-111 -279 -27 -13 0
-112 -280 -28 -14 0
-251 -125 -27 -13 0
-252 -126 -28 -14 0
-135 -237 -27 -13 0
-136 -238 -28 -14 0
-219 -153 -27 -13 0
-220 -154 -28 -14 0
-209 -167 -27 -13 0
-210 -168 -28 -14 0
-349 -83 -29 -13 0
-350 -84 -30 -14 0
-209 -29 -139 -13 0
-210 -30 -140 -14 0
-31 -111 -223 -13 0
-32 -112 -224 -14 0
-35 -83 -251 -13 0
-36 -84 -252 -14 0
-35 -179 -125 -13 0
-36 -180 -126 -14 0
-143 -35 -167 -13 0
-144 -36 -168 -14 0
-37 -265 -75 -13 0
-38 -266 -76 -14 0
-279 -69 -39 -13 0
-280 -70 -40 -14 0
-39 -167 -119 -13 0
-40 -168 -120 -14 0
-349 -41 -59 -13 0
-350 -42 -60 -14 0
-71 -41 -251 -13 0
-72 -42 -252 -14 0
-209 -83 -41 -13 0
-210 -84 -42 -14 0
-111 -167 -41 -13 0
-112 -168 -42 -14 0
-131 -153 -41 -13 0
-132 -154 -42 -14 0
-149 -41 -139 -13 0
-150 -42 -140 -14 0
-47 -55 -335 -13 0
-48 -56 -336 -14 0
-47 -95 -167 -13 0
-48 -96 -168 -14 0
-47 -143 -125 -13 0
-48 -144 -126 -14 0
-63 -55 -223 -13 0
-64 -56 -224 -14 0
-199 -69 -55 -13 0
-200 -70 -56 -14 0
-83 -55 -167 -13 0
-84 -56 -168 -14 0
-111 -55 -139 -13 0
-112 -56 -140 -14 0
-79 -167 -59 -13 0
-80 -168 -60 -14 0
-65 -83 -153 -13 0
-66 -84 -154 -14 0
-149 -83 -69 -13 0
-150 -84 -70 -14 0
-111 -71 -125 -13 0
-112 -72 -126 -14 0
-111 -83 -119 -13 0
-112 -84 -120 -14 0
-15 -23 -255 -383 0
-16 -24 -256 -384 0
-15 -275 -23 -367 0
-16 -276 -24 -368 0
-15 -359 -23 -287 0
-16 -360 -24 -288 0
-15 -159 -27 -349 0
-16 -160 -28 -350 0
-15 -167 -27 -335 0
-16 -168 -28 -336 0
-15 -279 -223 -27 0
-16 -280 -224 -28 0
-15 -271 -27 -237 0
-16 -272 -28 -238 0
-15 -335 -139 -29 0
-16 -336 -140 -30 0
-15 -159 -299 -29 0
-16 -160 -300 -30 0
-15 -31 -127 -319 0
-16 -32 -128 -320 0
-15 -31 -143 -287 0
-16 -32 -144 -288 0
-15 -31 -191 -239 0
-16 -32 -192 -240 0
-15 -33 -135 -271 0
-16 -34 -136 -272 0
-15 -35 -95 -359 0
-16 -36 -96 -360 0
-15 -35 -143 -239 0
-16 -36 -144 -240 0
-15 -95 -39 -299 0
-16 -96 -40 -300 0
-15 -39 -239 -119 0
-16 -40 -240 -120 0
-15 -199 -159 -39 0
-16 -200 -160 -40 0
-15 -83 -41 -335 0
-16 -84 -42 -336 0
-15 -95 -279 -41 0
-16 -96 -280 -42 0
-15 -111 -239 -41 0
-16 -112 -240 -42 0
-15 -95 -263 -43 0
-16 -96 -264 -44 0
-15 -47 -359 -71 0
-16 -48 -360 -72 0
-15 -47 -311 -77 0
-16 -48 -312 -78 0
-15 -47 -79 -299 0
-16 -48 -80 -300 0
-15 -47 -83 -279 0
-16 -48 -84 -280 0
-15 -47 -87 -263 0
-16 -48 -88 -264 0
-15 -47 -95 -239 0
-16 -48 -96 -240 0
-15 -47 -215 -107 0
-16 -48 -216 -108 0
-15 -47 -111 -209 0
-16 -48 -112 -210 0
-15 -47 -119 -199 0
-16 -48 -120 -200 0
-15 -47 -127 -191 0
-16 -48 -128 -192 0
-15 -47 -183 -137 0
-16 -48 -184 -138 0
-15 -47 -179 -143 0
-16 -48 -180 -144 0
-15 -51 -103 -207 0
-16 -52 -104 -208 0
-15 -95 -53 -215 0
-16 -96 -54 -216 0
-15 -83 -55 -239 0
-16 -84 -56 -240 0
-15 -209 -95 -55 0
-16 -210 -96 -56 0
-15 -79 -239 -59 0
-16 -80 -240 -60 0
-15 -95 -199 -59 0
-16 -96 -200 -60 0
-15 -63 -95 -191 0
-16 -64 -96 -192 0
-15 -159 -63 -127 0
-16 -160 -64 -128 0
-15 -95 -71 -179 0
-16 -96 -72 -180 0
-15 -79 -179 -89 0
-16 -80 -180 -90 0
-15 -79 -149 -119 0
-16 -80 -150 -120 0
-15 -83 -95 -167 0
-16 -84 -96 -168 0
-15 -83 -143 -125 0
-16 -84 -144 -126 0
-15 -143 -119 -89 0
-16 -144 -120 -90 0
-335 -17 -359 -27 0
-336 -18 -360 -28 0
-239 -17 -359 -29 0
-240 -18 -360 -30 0
-17 -349 -251 -29 0
-18 -350 -252 -30 0
-31 -17 -359 -191 0
-32 -18 -360 -192 0
-31 -17 -197 -351 0
-32 -18 -198 -352 0
-17 -203 -305 -33 0
-18 -204 -306 -34 0
-143 -17 -35 -359 0
-144 -18 -36 -360 0
-17 -35 -341 -151 0
-18 -36 -342 -152 0
-161 -17 -35 -323 0
-162 -18 -36 -324 0
-17 -35 -179 -299 0
-18 -36 -180 -300 0
-191 -17 -35 -287 0
-192 -18 -36 -288 0
-17 -35 -215 -269 0
-18 -36 -216 -270 0
-17 -35 -233 -259 0
-18 -36 -234 -260 0
-17 -359 -39 -119 0
-18 -360 -40 -120 0
-143 -17 -39 -299 0
-144 -18 -40 -300 0
-17 -41 -107 -377 0
-18 -42 -108 -378 0
-111 -17 -359 -41 0
-112 -18 -360 -42 0
-143 -17 -279 -41 0
-144 -18 -280 -42 0
-17 -167 -41 -251 0
-18 -168 -42 -252 0
-143 -17 -263 -43 0
-144 -18 -264 -44 0
-17 -251 -153 -43 0
-18 -252 -154 -44 0
-17 -219 -197 -43 0
-18 -220 -198 -44 0
-47 -17 -95 -359 0
-48 -18 -96 -360 0
-47 -17 -143 -239 0
-48 -18 -144 -240 0
-17 -83 -53 -377 0
-18 -84 -54 -378 0
-17 -53 -107 -269 0
-18 -54 -108 -270 0
-143 -17 -53 -215 0
-144 -18 -54 -216 0
-17 -83 -359 -55 0
-18 -84 -360 -56 0
-111 -17 -55 -251 0
-112 -18 -56 -252 0
-143 -17 -55 -209 0
-144 -18 -56 -210 0
-79 -17 -359 -59 0
-80 -18 -360 -60 0
-17 -299 -89 -59 0
-18 -300 -90 -60 0
-143 -17 -199 -59 0
-144 -18 -200 -60 0
-63 -17 -143 -191 0
-64 -18 -144 -192 0
-17 -131 -197 -65 0
-18 -132 -198 -66 0
-17 -71 -311 -77 0
-18 -72 -312 -78 0
-79 -17 -71 -299 0
-80 -18 -72 -300 0
-17 -83 -71 -279 0
-18 -84 -72 -280 0
-17 -71 -87 -263 0
-18 -72 -88 -264 0
-95 -17 -71 -239 0
-96 -18 -72 -240 0
-215 -17 -71 -107 0
-216 -18 -72 -108 0
-111 -17 -71 -209 0
-112 -18 -72 -210 0
-199 -17 -71 -119 0
-200 -18 -72 -120 0
-127 -17 -71 -191 0
-128 -18 -72 -192 0
-17 -71 -137 -183 0
-18 -72 -138 -184 0
-143 -17 -179 -71 0
-144 -18 -180 -72 0
-79 -17 -239 -89 0
-80 -18 -240 -90 0
-17 -83 -179 -125 0
-18 -84 -180 -126 0
-143 -17 -83 -167 0
-144 -18 -84 -168 0
-17 -179 -119 -89 0
-18 -180 -120 -90 0
-95 -17 -143 -159 0
-96 -18 -144 -160 0
-143 -17 -103 -155 0
-144 -18 -104 -156 0
-143 -17 -151 -113 0
-144 -18 -152 -114 0
-143 -17 -149 -119 0
-144 -18 -150 -120 0
-17 -131 -153 -125 0
-18 -132 -154 -126 0
-17 -149 -139 -125 0
-18 -150 -140 -126 0
-239 -19 -35 -359 0
-240 -20 -36 -360 0
-19 -35 -251 -349 0
-20 -36 -252 -350 0
-19 -37 -379 -189 0
-20 -38 -380 -190 0
-19 -359 -39 -179 0
-20 -360 -40 -180 0
-239 -19 -39 -299 0
-240 -20 -40 -300 0
-19 -167 -41 -349 0
-20 -168 -42 -350 0
-209 -19 -41 -299 0
-210 -20 -42 -300 0
-239 -19 -279 -41 0
-240 -20 -280 -42 0
-19 -153 -43 -349 0
-20 -154 -44 -350 0
-239 -19 -263 -43 0
-240 -20 -264 -44 0
-47 -19 -139 -335 0
-48 -20 -140 -336 0
-47 -19 -159 -299 0
-48 -20 -160 -300 0
-49 -19 -149 -299 0
-50 -20 -150 -300 0
-49 -19 -199 -249 0
-50 -20 -200 -250 0
-111 -19 -55 -349 0
-112 -20 -56 -350 0
-279 -19 -55 -139 0
-280 -20 -56 -140 0
-19 -329 -59 -109 0
-20 -330 -60 -110 0
-19 -299 -119 -59 0
-20 -300 -120 -60 0
-19 -149 -249 -59 0
-20 -150 -250 -60 0
-159 -19 -239 -59 0
-160 -20 -240 -60 0
-65 -19 -299 -109 0
-66 -20 -300 -110 0
-19 -67 -139 -237 0
-20 -68 -140 -238 0
-95 -19 -69 -335 0
-96 -20 -70 -336 0
-111 -19 -69 -279 0
-112 -20 -70 -280 0
-19 -69 -251 -125 0
-20 -70 -252 -126 0
-19 -69 -135 -237 0
-20 -70 -136 -238 0
-19 -69 -153 -219 0
-20 -70 -154 -220 0
-209 -19 -69 -167 0
-210 -20 -70 -168 0
-19 -359 -71 -89 0
-20 -360 -72 -90 0
-199 -19 -71 -179 0
-200 -20 -72 -180 0
-19 -341 -89 -75 0
-20 -342 -90 -76 0
-79 -19 -95 -299 0
-80 -20 -96 -300 0
-79 -19 -119 -239 0
-80 -20 -120 -240 0
-79 -19 -159 -199 0
-80 -20 -160 -200 0
-209 -19 -83 -139 0
-210 -20 -84 -140 0
-143 -19 -199 -89 0
-144 -20 -200 -90 0
-97 -19 -139 -195 0
-98 -20 -140 -196 0
-199 -129 -19 -103 0
-200 -130 -20 -104 0
-159 -19 -175 -109 0
-160 -20 -176 -110 0
-127 -19 -119 -191 0
-128 -20 -120 -192 0
-19 -119 -137 -183 0
-20 -120 -138 -184 0
-143 -19 -119 -179 0
-144 -20 -120 -180 0
-19 -179 -139 -125 0
-20 -180 -140 -126 0
-319 -21 -39 -351 0
-320 -22 -40 -352 0
-307 -21 -41 -329 0
-308 -22 -42 -330 0
-21 -263 -329 -43 0
-22 -264 -330 -44 0
-47 -21 -191 -351 0
-48 -22 -192 -352 0
-175 -307 -21 -55 0
-176 -308 -22 -56 0
-63 -127 -21 -351 0
-64 -128 -22 -352 0
-65 -131 -21 -329 0
-66 -132 -22 -330 0
-65 -21 -155 -285 0
-66 -22 -156 -286 0
-175 -65 -21 -263 0
-176 -66 -22 -264 0
-285 -131 -21 -77 0
-286 -132 -22 -78 0
-111 -307 -21 -87 0
-112 -308 -22 -88 0
-263 -131 -21 -87 0
-264 -132 -22 -88 0
-175 -21 -87 -219 0
-176 -22 -88 -220 0
-175 -21 -199 -109 0
-176 -22 -200 -110 0
-197 -179 -21 -109 0
-198 -180 -22 -110 0
-47 -23 -255 -383 0
-48 -24 -256 -384 0
-47 -275 -23 -367 0
-48 -276 -24 -368 0
-47 -359 -23 -287 0
-48 -360 -24 -288 0
-51 -359 -23 -233 0
-52 -360 -24 -234 0
-215 -359 -53 -23 0
-216 -360 -54 -24 0
-209 -23 -55 -349 0
-210 -24 -56 -350 0
-223 -23 -55 -335 0
-224 -24 -56 -336 0
-263 -307 -23 -55 0
-264 -308 -24 -56 0
-279 -23 -55 -299 0
-280 -24 -56 -300 0
-179 -359 -23 -59 0
-180 -360 -24 -60 0
-239 -299 -23 -59 0
-240 -300 -24 -60 0
-63 -23 -191 -319 0
-64 -24 -192 -320 0
-175 -65 -23 -329 0
-176 -66 -24 -330 0
-159 -69 -23 -335 0
-160 -70 -24 -336 0
-209 -69 -23 -279 0
-210 -70 -24 -280 0
-143 -359 -23 -71 0
-144 -360 -24 -72 0
-341 -23 -71 -151 0
-342 -24 -72 -152 0
-161 -323 -23 -71 0
-162 -324 -24 -72 0
-179 -299 -23 -71 0
-180 -300 -24 -72 0
-191 -23 -287 -71 0
-192 -24 -288 -72 0
-215 -23 -71 -269 0
-216 -24 -72 -270 0
-259 -23 -233 -71 0
-260 -24 -234 -72 0
-143 -341 -23 -75 0
-144 -342 -24 -76 0
-311 -23 -155 -77 0
-312 -24 -156 -78 0
-175 -285 -23 -77 0
-176 -286 -24 -78 0
-279 -181 -23 -77 0
-280 -182 -24 -78 0
-207 -259 -23 -77 0
-208 -260 -24 -78 0
-79 -23 -139 -335 0
-80 -24 -140 -336 0
-79 -159 -23 -299 0
-80 -160 -24 -300 0
-83 -359 -23 -125 0
-84 -360 -24 -126 0
-279 -83 -23 -167 0
-280 -84 -24 -168 0
-223 -83 -23 -239 0
-224 -84 -24 -240 0
-131 -23 -329 -87 0
-132 -24 -330 -88 0
-155 -23 -87 -285 0
-156 -24 -88 -286 0
-175 -263 -23 -87 0
-176 -264 -24 -88 0
-359 -23 -89 -119 0
-360 -24 -90 -120 0
-143 -23 -89 -299 0
-144 -24 -90 -300 0
-95 -127 -23 -319 0
-96 -128 -24 -320 0
-95 -143 -23 -287 0
-96 -144 -24 -288 0
-95 -239 -23 -191 0
-96 -240 -24 -192 0
-129 -299 -23 -103 0
-130 -300 -24 -104 0
-155 -259 -23 -103 0
-156 -260 -24 -104 0
-143 -23 -107 -269 0
-144 -24 -108 -270 0
-111 -23 -239 -167 0
-112 -24 -240 -168 0
-111 -223 -23 -191 0
-112 -224 -24 -192 0
-231 -115 -23 -173 0
-232 -116 -24 -174 0
-149 -23 -249 -119 0
-150 -24 -250 -120 0
-159 -23 -239 -119 0
-160 -24 -240 -120 0
-143 -23 -251 -125 0
-144 -24 -252 -126 0
-175 -131 -23 -219 0
-176 -132 -24 -220 0
-175 -209 -23 -153 0
-176 -210 -24 -154 0
-159 -199 -23 -191 0
-160 -200 -24 -192 0
-311 -233 -71 -25 0
-312 -234 -72 -26 0
-167 -25 -363 -77 0
-168 -26 -364 -78 0
-207 -311 -25 -77 0
-208 -312 -26 -78 0
-83 -363 -25 -155 0
-84 -364 -26 -156 0
-207 -87 -25 -285 0
-208 -88 -26 -286 0
-311 -103 -25 -155 0
-312 -104 -26 -156 0
-175 -103 -25 -285 0
-176 -104 -26 -286 0
-279 -181 -103 -25 0
-280 -182 -104 -26 0
-207 -259 -103 -25 0
-208 -260 -104 -26 0
-259 -69 -363 -27 0
-260 -70 -364 -28 0
-69 -279 -27 -349 0
-70 -280 -28 -350 0
-251 -359 -71 -27 0
-252 -360 -72 -28 0
-287 -71 -27 -335 0
-288 -72 -28 -336 0
-75 -251 -341 -27 0
-76 -252 -342 -28 0
-79 -223 -27 -349 0
-80 -224 -28 -350 0
-79 -239 -27 -335 0
-80 -240 -28 -336 0
-209 -83 -27 -349 0
-210 -84 -28 -350 0
-223 -83 -27 -335 0
-224 -84 -28 -336 0
-83 -263 -27 -307 0
-84 -264 -28 -308 0
-83 -299 -279 -27 0
-84 -300 -280 -28 0
-251 -299 -89 -27 0
-252 -300 -90 -28 0
-95 -191 -27 -335 0
-96 -192 -28 -336 0
-95 -251 -287 -27 0
-96 -252 -288 -28 0
-107 -251 -27 -269 0
-108 -252 -28 -270 0
-111 -159 -27 -349 0
-112 -160 -28 -350 0
-111 -167 -27 -335 0
-112 -168 -28 -336 0
-111 -279 -223 -27 0
-112 -280 -224 -28 0
-111 -271 -27 -237 0
-112 -272 -28 -238 0
-159 -119 -27 -335 0
-160 -120 -28 -336 0
-209 -119 -27 -279 0
-210 -120 -28 -280 0
-143 -359 -27 -125 0
-144 -360 -28 -126 0
-341 -151 -27 -125 0
-342 -152 -28 -126 0
-161 -323 -27 -125 0
-162 -324 -28 -126 0
-179 -299 -27 -125 0
-180 -300 -28 -126 0
-191 -287 -27 -125 0
-192 -288 -28 -126 0
-269 -215 -27 -125 0
-270 -216 -28 -126 0
-259 -233 -27 -125 0
-260 -234 -28 -126 0
-129 -363 -27 -139 0
-130 -364 -28 -140 0
-131 -153 -27 -329 0
-132 -154 -28 -330 0
-131 -167 -27 -307 0
-132 -168 -28 -308 0
-139 -299 -167 -27 0
-140 -300 -168 -28 0
-143 -251 -223 -27 0
-144 -252 -224 -28 0
-175 -279 -153 -27 0
-176 -280 -154 -28 0
-223 -167 -239 -27 0
-224 -168 -240 -28 0
-79 -383 -255 -29 0
-80 -384 -256 -30 0
-79 -275 -367 -29 0
-80 -276 -368 -30 0
-79 -359 -287 -29 0
-80 -360 -288 -30 0
-83 -259 -363 -29 0
-84 -260 -364 -30 0
-349 -83 -279 -29 0
-350 -84 -280 -30 0
-239 -359 -89 -29 0
-240 -360 -90 -30 0
-349 -89 -251 -29 0
-350 -90 -252 -30 0
-311 -259 -103 -29 0
-312 -260 -104 -30 0
-269 -299 -107 -29 0
-270 -300 -108 -30 0
-329 -109 -219 -29 0
-330 -110 -220 -30 0
-263 -109 -299 -29 0
-264 -110 -300 -30 0
-111 -209 -335 -29 0
-112 -210 -336 -30 0
-179 -359 -119 -29 0
-180 -360 -120 -30 0
-239 -119 -299 -29 0
-240 -120 -300 -30 0
-349 -179 -125 -29 0
-350 -180 -126 -30 0
-127 -159 -383 -29 0
-128 -160 -384 -30 0
-129 -167 -363 -29 0
-130 -168 -364 -30 0
-207 -129 -311 -29 0
-208 -130 -312 -30 0
-209 -131 -307 -29 0
-210 -132 -308 -30 0
-131 -299 -219 -29 0
-132 -300 -220 -30 0
-159 -137 -367 -29 0
-160 -138 -368 -30 0
-349 -167 -139 -29 0
-350 -168 -140 -30 0
-209 -299 -139 -29 0
-210 -300 -140 -30 0
-239 -279 -139 -29 0
-240 -280 -140 -30 0
-143 -159 -359 -29 0
-144 -160 -360 -30 0
-149 -199 -299 -29 0
-150 -200 -300 -30 0
-159 -191 -299 -29 0
-160 -192 -300 -30 0
-209 -167 -279 -29 0
-210 -168 -280 -30 0
-305 -179 -169 -29 0
-306 -180 -170 -30 0
-191 -179 -287 -29 0
-192 -180 -288 -30 0
-269 -179 -215 -29 0
-270 -180 -216 -30 0
-179 -259 -233 -29 0
-180 -260 -234 -30 0
-239 -199 -249 -29 0
-240 -200 -250 -30 0
-31 -359 -89 -319 0
-32 -360 -90 -320 0
-31 -95 -255 -383 0
-32 -96 -256 -384 0
-31 -95 -367 -275 0
-32 -96 -368 -276 0
-31 -95 -359 -287 0
-32 -96 -360 -288 0
-31 -127 -191 -383 0
-32 -128 -192 -384 0
-31 -127 -255 -319 0
-32 -128 -256 -320 0
-31 -191 -137 -367 0
-32 -192 -138 -368 0
-31 -359 -143 -191 0
-32 -360 -144 -192 0
-31 -197 -143 -351 0
-32 -198 -144 -352 0
-31 -179 -159 -359 0
-32 -180 -160 -360 0
-31 -159 -239 -299 0
-32 -160 -240 -300 0
-31 -167 -191 -335 0
-32 -168 -192 -336 0
-31 -167 -287 -251 0
-32 -168 -288 -252 0
-31 -175 -191 -329 0
-32 -176 -192 -330 0
-31 -179 -239 -287 0
-32 -180 -240 -288 0
-31 -223 -271 -237 0
-32 -224 -272 -238 0
-271 -33 -339 -135 0
-272 -34 -340 -136 0
-271 -33 -279 -237 0
-272 -34 -280 -238 0
-113 -35 -341 -379 0
-114 -36 -342 -380 0
-335 -35 -359 -125 0
-336 -36 -360 -126 0
-127 -35 -287 -383 0
-128 -36 -288 -384 0
-305 -35 -359 -135 0
-306 -36 -360 -136 0
-287 -35 -137 -367 0
-288 -36 -138 -368 0
-35 -377 -139 -269 0
-36 -378 -140 -270 0
-143 -35 -255 -383 0
-144 -36 -256 -384 0
-143 -35 -367 -275 0
-144 -36 -368 -276 0
-143 -35 -359 -287 0
-144 -36 -360 -288 0
-303 -35 -341 -151 0
-304 -36 -342 -152 0
-35 -359 -167 -251 0
-36 -360 -168 -252 0
-287 -35 -167 -335 0
-288 -36 -168 -336 0
-175 -35 -287 -329 0
-176 -36 -288 -330 0
-239 -35 -359 -179 0
-240 -36 -360 -180 0
-35 -179 -251 -349 0
-36 -180 -252 -350 0
-35 -181 -233 -363 0
-36 -182 -234 -364 0
-191 -35 -287 -319 0
-192 -36 -288 -320 0
-35 -197 -263 -329 0
-36 -198 -264 -330 0
-207 -35 -311 -287 0
-208 -36 -312 -288 0
-287 -35 -303 -227 0
-288 -36 -304 -228 0
-239 -35 -287 -299 0
-240 -36 -288 -300 0
-35 -263 -251 -307 0
-36 -264 -252 -308 0
-35 -299 -279 -251 0
-36 -300 -280 -252 0
-303 -37 -151 -379 0
-304 -38 -152 -380 0
-359 -37 -151 -341 0
-360 -38 -152 -342 0
-303 -39 -379 -189 0
-304 -40 -380 -190 0
-359 -341 -39 -189 0
-360 -342 -40 -190 0
-359 -197 -39 -329 0
-360 -198 -40 -330 0
-335 -209 -39 -349 0
-336 -210 -40 -350 0
-215 -279 -39 -377 0
-216 -280 -40 -378 0
-319 -39 -219 -351 0
-320 -40 -220 -352 0
-223 -39 -319 -349 0
-224 -40 -320 -350 0
-239 -39 -255 -383 0
-240 -40 -256 -384 0
-239 -275 -39 -367 0
-240 -276 -40 -368 0
-239 -359 -39 -287 0
-240 -360 -40 -288 0
-279 -359 -39 -251 0
-280 -360 -40 -252 0
-335 -215 -41 -377 0
-336 -216 -42 -378 0
-335 -359 -41 -251 0
-336 -360 -42 -252 0
-335 -279 -41 -349 0
-336 -280 -42 -350 0
-271 -373 -43 -351 0
-272 -374 -44 -352 0
-371 -309 -329 -43 0
-372 -310 -330 -44 0
-1 -39 -9 0
-2 -40 -10 0
-1 -23 -11 0
-2 -24 -12 0
-143 -17 -3 0
-144 -18 -4 0
-79 -3 -19 0
-80 -4 -20 0
-47 -3 -23 0
-48 -4 -24 0
-5 -311 -25 0
-6 -312 -26 0
-5 -167 -27 0
-6 -168 -28 0
-5 -119 -29 0
-6 -120 -30 0
-31 -95 -5 0
-32 -96 -6 0
-35 -5 -71 0
-36 -6 -72 0
-5 -39 -59 0
-6 -40 -60 0
-5 -55 -41 0
-6 -56 -42 0
-287 -35 -7 0
-288 -36 -8 0
-159 -7 -39 0
-160 -8 -40 0
-47 -95 -7 0
-48 -96 -8 0
-47 -239 -9 0
-48 -240 -10 0
-49 -199 -9 0
-50 -200 -10 0
-55 -9 -139 0
-56 -10 -140 0
-119 -9 -59 0
-120 -10 -60 0
-89 -71 -9 0
-90 -72 -10 0
-335 -55 -11 0
-336 -56 -12 0
-239 -11 -59 0
-240 -12 -60 0
-63 -191 -11 0
-64 -192 -12 0
-175 -65 -11 0
-176 -66 -12 0
-143 -71 -11 0
-144 -72 -12 0
-79 -119 -11 0
-80 -120 -12 0
-111 -83 -11 0
-112 -84 -12 0
-69 -279 -13 0
-70 -280 -14 0
-71 -251 -13 0
-72 -252 -14 0
-83 -167 -13 0
-84 -168 -14 0
-87 -153 -13 0
-88 -154 -14 0
-15 -79 -319 0
-16 -80 -320 0
-15 -95 -191 0
-16 -96 -192 0
-17 -359 -89 0
-18 -360 -90 0
-95 -17 -287 0
-96 -18 -288 0
-17 -103 -233 0
-18 -104 -234 0
-17 -215 -107 0
-18 -216 -108 0
-17 -179 -119 0
-18 -180 -120 0
-17 -167 -125 0
-18 -168 -126 0
-111 -19 -279 0
-112 -20 -280 0
-239 -19 -119 0
-240 -20 -120 0
-207 -129 -19 0
-208 -130 -20 0
-143 -19 -179 0
-144 -20 -180 0
-21 -119 -329 0
-22 -120 -330 0
-131 -21 -263 0
-132 -22 -264 0
-127 -23 -383 0
-128 -24 -384 0
-351 -131 -23 0
-352 -132 -24 0
-143 -23 -287 0
-144 -24 -288 0
-159 -23 -239 0
-160 -24 -240 0
-223 -23 -167 0
-224 -24 -168 0
-311 -25 -155 0
-312 -26 -156 0
-335 -167 -27 0
-336 -168 -28 0
-175 -307 -27 0
-176 -308 -28 0
-239 -209 -27 0
-240 -210 -28 0
-179 -359 -29 0
-180 -360 -30 0
-191 -319 -29 0
-192 -320 -30 0
-199 -299 -29 0
-200 -300 -30 0
-209 -279 -29 0
-210 -280 -30 0
-269 -215 -29 0
-270 -216 -30 0
-263 -219 -29 0
-264 -220 -30 0
-31 -191 -383 0
-32 -192 -384 0
-239 -35 -359 0
-240 -36 -360 0
-335 -35 -251 0
-336 -36 -252 0
-271 -305 -35 0
-272 -306 -36 0
-287 -359 -39 0
-288 -360 -40 0
-311 -41 -363 0
-312 -42 -364 0
-31 -1 -159 -9 0
-32 -2 -160 -10 0
-1 -35 -9 -59 0
-2 -36 -10 -60 0
-17 -3 -359 -119 0
-18 -4 -360 -120 0
-17 -3 -251 -125 0
-18 -4 -252 -126 0
-17 -3 -197 -131 0
-18 -4 -198 -132 0
-63 -3 -19 -319 0
-64 -4 -20 -320 0
-65 -3 -19 -219 0
-66 -4 -20 -220 0
-3 -19 -67 -169 0
-4 -20 -68 -170 0
-69 -3 -19 -139 0
-70 -4 -20 -140 0
-3 -19 -71 -119 0
-4 -20 -72 -120 0
-47 -175 -3 -21 0
-48 -176 -4 -22 0
-3 -37 -23 -227 0
-4 -38 -24 -228 0
-3 -83 -23 -41 0
-4 -84 -24 -42 0
-65 -3 -23 -43 0
-66 -4 -24 -44 0
-3 -35 -25 -77 0
-4 -36 -26 -78 0
-139 -3 -27 -29 0
-140 -4 -28 -30 0
-3 -35 -41 -27 0
-4 -36 -42 -28 0
-143 -5 -27 -335 0
-144 -6 -28 -336 0
-99 -5 -299 -29 0
-100 -6 -300 -30 0
-179 -5 -107 -29 0
-180 -6 -108 -30 0
-31 -5 -311 -77 0
-32 -6 -312 -78 0
-31 -79 -5 -239 0
-32 -80 -6 -240 0
-31 -83 -5 -167 0
-32 -84 -6 -168 0
-31 -131 -5 -87 0
-32 -132 -6 -88 0
-31 -5 -119 -89 0
-32 -6 -120 -90 0
-33 -67 -5 -203 0
-34 -68 -6 -204 0
-33 -5 -71 -135 0
-34 -6 -72 -136 0
-47 -5 -39 -239 0
-48 -6 -40 -240 0
-49 -149 -5 -39 0
-50 -150 -6 -40 0
-53 -5 -39 -89 0
-54 -6 -40 -90 0
-307 -5 -41 -43 0
-308 -6 -42 -44 0
-47 -111 -5 -41 0
-48 -112 -6 -42 0
-35 -359 -7 -269 0
-36 -360 -8 -270 0
-339 -7 -39 -135 0
-340 -8 -40 -136 0
-279 -7 -39 -139 0
-280 -8 -40 -140 0
-143 -239 -7 -39 0
-144 -240 -8 -40 0
-199 -149 -7 -39 0
-200 -150 -8 -40 0
-7 -39 -189 -151 0
-8 -40 -190 -152 0
-111 -7 -41 -335 0
-112 -8 -42 -336 0
-209 -7 -41 -119 0
-210 -8 -42 -120 0
-167 -7 -41 -125 0
-168 -8 -42 -126 0
-95 -7 -43 -351 0
-96 -8 -44 -352 0
-7 -183 -91 -45 0
-8 -184 -92 -46 0
-47 -311 -7 -77 0
-48 -312 -8 -78 0
-47 -83 -7 -167 0
-48 -84 -8 -168 0
-47 -131 -7 -87 0
-48 -132 -8 -88 0
-47 -7 -89 -119 0
-48 -8 -90 -120 0
-49 -299 -7 -71 0
-50 -300 -8 -72 0
-155 -51 -7 -71 0
-156 -52 -8 -72 0
-51 -7 -103 -77 0
-52 -8 -104 -78 0
-279 -7 -55 -59 0
-280 -8 -56 -60 0
-83 -7 -55 -71 0
-84 -8 -56 -72 0
-47 -359 -215 -9 0
-48 -360 -216 -10 0
-47 -9 -219 -329 0
-48 -10 -220 -330 0
-47 -275 -229 -9 0
-48 -276 -230 -10 0
-47 -233 -9 -259 0
-48 -234 -10 -260 0
-49 -179 -9 -299 0
-50 -180 -10 -300 0
-51 -9 -155 -259 0
-52 -10 -156 -260 0
-279 -55 -9 -119 0
-280 -56 -10 -120 0
-209 -55 -9 -125 0
-210 -56 -10 -126 0
-129 -181 -55 -9 0
-130 -182 -56 -10 0
-107 -179 -9 -59 0
-108 -180 -10 -60 0
-63 -89 -239 -9 0
-64 -90 -240 -10 0
-63 -95 -159 -9 0
-64 -96 -160 -10 0
-79 -67 -271 -9 0
-80 -68 -272 -10 0
-83 -69 -9 -139 0
-84 -70 -10 -140 0
-79 -143 -71 -9 0
-80 -144 -72 -10 0
-323 -55 -377 -11 0
-324 -56 -378 -12 0
-359 -215 -11 -59 0
-360 -216 -12 -60 0
-219 -329 -11 -59 0
-220 -330 -12 -60 0
-275 -229 -11 -59 0
-276 -230 -12 -60 0
-259 -233 -11 -59 0
-260 -234 -12 -60 0
-371 -185 -11 -61 0
-372 -186 -12 -62 0
-63 -167 -11 -335 0
-64 -168 -12 -336 0
-63 -175 -263 -11 0
-64 -176 -264 -12 0
-63 -179 -239 -11 0
-64 -180 -240 -12 0
-65 -307 -153 -11 0
-66 -308 -154 -12 0
-285 -65 -11 -155 0
-286 -66 -12 -156 0
-143 -67 -271 -11 0
-144 -68 -272 -12 0
-139 -69 -11 -209 0
-140 -70 -12 -210 0
-251 -71 -11 -125 0
-252 -72 -12 -126 0
-131 -197 -71 -11 0
-132 -198 -72 -12 0
-75 -107 -341 -11 0
-76 -108 -342 -12 0
-311 -103 -11 -77 0
-312 -104 -12 -78 0
-107 -233 -11 -77 0
-108 -234 -12 -78 0
-79 -99 -299 -11 0
-80 -100 -300 -12 0
-79 -107 -179 -11 0
-80 -108 -180 -12 0
-91 -321 -83 -11 0
-92 -322 -84 -12 0
-95 -83 -223 -11 0
-96 -84 -224 -12 0
-97 -83 -11 -195 0
-98 -84 -12 -196 0
-107 -83 -11 -125 0
-108 -84 -12 -126 0
-219 -87 -89 -11 0
-220 -88 -90 -12 0
-259 -69 -363 -13 0
-260 -70 -364 -14 0
-305 -71 -237 -13 0
-306 -72 -238 -14 0
-79 -279 -167 -13 0
-80 -280 -168 -14 0
-79 -209 -179 -13 0
-80 -210 -180 -14 0
-143 -83 -335 -13 0
-144 -84 -336 -14 0
-131 -87 -307 -13 0
-132 -88 -308 -14 0
-219 -87 -139 -13 0
-220 -88 -140 -14 0
-179 -89 -139 -13 0
-180 -90 -140 -14 0
-95 -111 -335 -13 0
-96 -112 -336 -14 0
-95 -209 -119 -13 0
-96 -210 -120 -14 0
-95 -167 -125 -13 0
-96 -168 -126 -14 0
-15 -79 -303 -379 0
-16 -80 -304 -380 0
-15 -83 -251 -335 0
-16 -84 -252 -336 0
-15 -239 -215 -89 0
-16 -240 -216 -90 0
-15 -183 -91 -367 0
-16 -184 -92 -368 0
-15 -95 -167 -335 0
-16 -96 -168 -336 0
-15 -95 -175 -263 0
-16 -96 -176 -264 0
-15 -95 -239 -179 0
-16 -96 -240 -180 0
-15 -311 -143 -103 0
-16 -312 -144 -104 0
-15 -103 -207 -155 0
-16 -104 -208 -156 0
-15 -111 -335 -125 0
-16 -112 -336 -126 0
-15 -111 -143 -167 0
-16 -112 -144 -168 0
-15 -113 -143 -151 0
-16 -114 -144 -152 0
-95 -17 -359 -269 0
-96 -18 -360 -270 0
-215 -17 -103 -311 0
-216 -18 -104 -312 0
-159 -17 -119 -287 0
-160 -18 -120 -288 0
-161 -17 -119 -269 0
-162 -18 -120 -270 0
-143 -17 -335 -125 0
-144 -18 -336 -126 0
-127 -17 -143 -287 0
-128 -18 -144 -288 0
-127 -17 -179 -159 0
-128 -18 -180 -160 0
-129 -17 -179 -155 0
-130 -18 -180 -156 0
-111 -19 -363 -259 0
-112 -20 -364 -260 0
-215 -19 -359 -119 0
-216 -20 -360 -120 0
-19 -119 -329 -219 0
-20 -120 -330 -220 0
-19 -229 -119 -275 0
-20 -230 -120 -276 0
-19 -119 -233 -259 0
-20 -120 -234 -260 0
-209 -19 -251 -125 0
-210 -20 -252 -126 0
-127 -19 -191 -319 0
-128 -20 -192 -320 0
-127 -209 -19 -223 0
-128 -210 -20 -224 0
-129 -19 -181 -363 0
-130 -20 -182 -364 0
-19 -179 -131 -329 0
-20 -180 -132 -330 0
-19 -197 -131 -219 0
-20 -198 -132 -220 0
-339 -19 -135 -169 0
-340 -20 -136 -170 0
-229 -19 -179 -137 0
-230 -20 -180 -138 0
-279 -19 -167 -139 0
-280 -20 -168 -140 0
-209 -19 -179 -139 0
-210 -20 -180 -140 0
-143 -19 -159 -287 0
-144 -20 -160 -288 0
-143 -161 -19 -269 0
-144 -162 -20 -270 0
-127 -21 -263 -351 0
-128 -22 -264 -352 0
-131 -21 -251 -307 0
-132 -22 -252 -308 0
-219 -21 -139 -307 0
-220 -22 -140 -308 0
-143 -263 -21 -215 0
-144 -264 -22 -216 0
-263 -149 -21 -199 0
-264 -150 -22 -200 0
-159 -179 -21 -263 0
-160 -180 -22 -264 0
-143 -359 -23 -269 0
-144 -360 -24 -270 0
-263 -23 -153 -251 0
-264 -24 -154 -252 0
-311 -23 -233 -155 0
-312 -24 -234 -156 0
-159 -215 -359 -23 0
-160 -216 -360 -24 0
-159 -23 -329 -219 0
-160 -24 -330 -220 0
-159 -275 -229 -23 0
-160 -276 -230 -24 0
-159 -259 -23 -233 0
-160 -260 -24 -234 0
-199 -349 -23 -167 0
-200 -350 -24 -168 0
-215 -23 -251 -167 0
-216 -24 -252 -168 0
-175 -263 -197 -23 0
-176 -264 -198 -24 0
-307 -153 -25 -363 0
-308 -154 -26 -364 0
-159 -279 -25 -363 0
-160 -280 -26 -364 0
-363 -167 -25 -251 0
-364 -168 -26 -252 0
-191 -311 -207 -25 0
-192 -312 -208 -26 0
-323 -167 -377 -27 0
-324 -168 -378 -28 0
-179 -359 -279 -27 0
-180 -360 -280 -28 0
-307 -181 -27 -285 0
-308 -182 -28 -286 0
-321 -275 -183 -27 0
-322 -276 -184 -28 0
-191 -251 -27 -335 0
-192 -252 -28 -336 0
-195 -251 -293 -27 0
-196 -252 -294 -28 0
-209 -359 -215 -27 0
-210 -360 -216 -28 0
-209 -219 -329 -27 0
-210 -220 -330 -28 0
-209 -275 -229 -27 0
-210 -276 -230 -28 0
-209 -259 -233 -27 0
-210 -260 -234 -28 0
-191 -303 -379 -29 0
-192 -304 -380 -30 0
-209 -259 -363 -29 0
-210 -260 -364 -30 0
-251 -307 -219 -29 0
-252 -308 -220 -30 0
-223 -239 -335 -29 0
-224 -240 -336 -30 0
-223 -279 -251 -29 0
-224 -280 -252 -30 0
-239 -227 -303 -29 0
-240 -228 -304 -30 0
-31 -223 -287 -335 0
-32 -224 -288 -336 0
-31 -227 -303 -287 0
-32 -228 -304 -288 0
-31 -239 -287 -269 0
-32 -240 -288 -270 0
-239 -33 -305 -339 0
-240 -34 -306 -340 0
-323 -35 -377 -251 0
-324 -36 -378 -252 0
-255 -35 -359 -319 0
-256 -36 -360 -320 0
-35 -359 -311 -259 0
-36 -360 -312 -260 0
-1 -179 -9 -11 0
-2 -180 -10 -12 0
-15 -1 -79 -9 0
-16 -2 -80 -10 0
-1 -19 -9 -59 0
-2 -20 -10 -60 0
-323 -17 -3 -53 0
-324 -18 -4 -54 0
-17 -3 -59 -269 0
-18 -4 -60 -270 0
-215 -17 -3 -71 0
-216 -18 -4 -72 0
-17 -3 -179 -89 0
-18 -4 -180 -90 0
-161 -17 -3 -107 0
-162 -18 -4 -108 0
-359 -3 -19 -23 0
-360 -4 -20 -24 0
-209 -3 -19 -27 0
-210 -4 -20 -28 0
-3 -19 -179 -29 0
-4 -20 -180 -30 0
-31 -159 -3 -19 0
-32 -160 -4 -20 0
-3 -19 -39 -119 0
-4 -20 -40 -120 0
-3 -19 -43 -109 0
-4 -20 -44 -110 0
-49 -3 -19 -99 0
-50 -4 -20 -100 0
-3 -19 -89 -59 0
-4 -20 -90 -60 0
-69 -3 -19 -83 0
-70 -4 -20 -84 0
-65 -3 -21 -43 0
-66 -4 -22 -44 0
-3 -23 -59 -29 0
-4 -24 -60 -30 0
-53 -3 -35 -23 0
-54 -4 -36 -24 0
-251 -83 -5 -27 0
-252 -84 -6 -28 0
-95 -5 -223 -27 0
-96 -6 -224 -28 0
-139 -179 -5 -27 0
-140 -180 -6 -28 0
-359 -5 -39 -29 0
-360 -6 -40 -30 0
-47 -5 -239 -29 0
-48 -6 -240 -30 0
-179 -5 -59 -29 0
-180 -6 -60 -30 0
-79 -143 -5 -29 0
-80 -144 -6 -30 0
-83 -5 -139 -29 0
-84 -6 -140 -30 0
-31 -35 -5 -215 0
-32 -36 -6 -216 0
-31 -179 -5 -39 0
-32 -180 -6 -40 0
-31 -5 -167 -41 0
-32 -6 -168 -42 0
-31 -47 -5 -143 0
-32 -48 -6 -144 0
-31 -5 -55 -125 0
-32 -6 -56 -126 0
-31 -5 -119 -59 0
-32 -6 -120 -60 0
-31 -5 -71 -107 0
-32 -6 -72 -108 0
-31 -5 -103 -77 0
-32 -6 -104 -78 0
-69 -5 -39 -41 0
-70 -6 -40 -42 0
-35 -7 -377 -167 0
-36 -8 -378 -168 0
-35 -359 -7 -179 0
-36 -360 -8 -180 0
-215 -323 -35 -7 0
-216 -324 -36 -8 0
-311 -35 -7 -233 0
-312 -36 -8 -234 0
-227 -37 -7 -151 0
-228 -38 -8 -152 0
-359 -7 -39 -59 0
-360 -8 -40 -60 0
-63 -7 -39 -319 0
-64 -8 -40 -320 0
-7 -39 -71 -269 0
-8 -40 -72 -270 0
-79 -239 -7 -39 0
-80 -240 -8 -40 0
-219 -7 -39 -87 0
-220 -8 -40 -88 0
-215 -89 -7 -39 0
-216 -90 -8 -40 0
-199 -99 -7 -39 0
-200 -100 -8 -40 0
-179 -7 -39 -119 0
-180 -8 -40 -120 0
-169 -7 -39 -135 0
-170 -8 -40 -136 0
-7 -39 -139 -167 0
-8 -40 -140 -168 0
-47 -7 -41 -335 0
-48 -8 -42 -336 0
-55 -7 -41 -251 0
-56 -8 -42 -252 0
-83 -7 -41 -167 0
-84 -8 -42 -168 0
-111 -143 -7 -41 0
-112 -144 -8 -42 0
-139 -7 -41 -119 0
-140 -8 -42 -120 0
-131 -7 -43 -87 0
-132 -8 -44 -88 0
-7 -119 -43 -109 0
-8 -120 -44 -110 0
-47 -7 -55 -125 0
-48 -8 -56 -126 0
-47 -7 -59 -119 0
-48 -8 -60 -120 0
-47 -107 -7 -71 0
-48 -108 -8 -72 0
-47 -7 -103 -77 0
-48 -8 -104 -78 0
-47 -113 -9 -379 0
-48 -114 -10 -380 0
-47 -359 -119 -9 0
-48 -360 -120 -10 0
-47 -131 -9 -329 0
-48 -132 -10 -330 0
-47 -149 -9 -299 0
-48 -150 -10 -300 0
-47 -287 -159 -9 0
-48 -288 -160 -10 0
-47 -279 -167 -9 0
-48 -280 -168 -10 0
-47 -179 -9 -269 0
-48 -180 -10 -270 0
-47 -209 -9 -251 0
-48 -210 -10 -252 0
-49 -99 -9 -299 0
-50 -100 -10 -300 0
-51 -179 -9 -155 0
-52 -180 -10 -156 0
-323 -53 -9 -59 0
-324 -54 -10 -60 0
-179 -53 -9 -107 0
-180 -54 -10 -108 0
-251 -55 -9 -59 0
-252 -56 -10 -60 0
-209 -69 -55 -9 0
-210 -70 -56 -10 0
-83 -179 -55 -9 0
-84 -180 -56 -10 0
-153 -55 -9 -109 0
-154 -56 -10 -110 0
-79 -143 -9 -59 0
-80 -144 -10 -60 0
-63 -79 -119 -9 0
-64 -80 -120 -10 0
-251 -55 -377 -11 0
-252 -56 -378 -12 0
-279 -359 -55 -11 0
-280 -360 -56 -12 0
-299 -55 -11 -349 0
-300 -56 -12 -350 0
-347 -57 -11 -173 0
-348 -58 -12 -174 0
-113 -379 -11 -59 0
-114 -380 -12 -60 0
-359 -119 -11 -59 0
-360 -120 -12 -60 0
-131 -329 -11 -59 0
-132 -330 -12 -60 0
-299 -149 -11 -59 0
-300 -150 -12 -60 0
-159 -287 -11 -59 0
-160 -288 -12 -60 0
-279 -167 -11 -59 0
-280 -168 -12 -60 0
-269 -179 -11 -59 0
-270 -180 -12 -60 0
-209 -251 -11 -59 0
-210 -252 -12 -60 0
-63 -79 -359 -11 0
-64 -80 -360 -12 0
-63 -83 -11 -335 0
-64 -84 -12 -336 0
-63 -95 -287 -11 0
-64 -96 -288 -12 0
-63 -101 -271 -11 0
-64 -102 -272 -12 0
-63 -111 -251 -11 0
-64 -112 -252 -12 0
-63 -119 -239 -11 0
-64 -120 -240 -12 0
-63 -143 -215 -11 0
-64 -144 -216 -12 0
-63 -155 -207 -11 0
-64 -156 -208 -12 0
-63 -197 -175 -11 0
-64 -198 -176 -12 0
-65 -67 -373 -11 0
-66 -68 -374 -12 0
-65 -87 -11 -263 0
-66 -88 -12 -264 0
-65 -219 -11 -109 0
-66 -220 -12 -110 0
-65 -131 -197 -11 0
-66 -132 -198 -12 0
-67 -83 -11 -237 0
-68 -84 -12 -238 0
-69 -119 -11 -167 0
-70 -120 -12 -168 0
-179 -71 -89 -11 0
-180 -72 -90 -12 0
-107 -161 -71 -11 0
-108 -162 -72 -12 0
-79 -139 -83 -11 0
-80 -140 -84 -12 0
-271 -67 -335 -13 0
-272 -68 -336 -14 0
-359 -69 -167 -13 0
-360 -70 -168 -14 0
-307 -69 -219 -13 0
-308 -70 -220 -14 0
-377 -71 -125 -13 0
-378 -72 -126 -14 0
-143 -71 -335 -13 0
-144 -72 -336 -14 0
-269 -209 -71 -13 0
-270 -210 -72 -14 0
-111 -303 -75 -13 0
-112 -304 -76 -14 0
-83 -77 -363 -13 0
-84 -78 -364 -14 0
-79 -111 -239 -13 0
-80 -112 -240 -14 0
-79 -209 -139 -13 0
-80 -210 -140 -14 0
-95 -83 -223 -13 0
-96 -84 -224 -14 0
-83 -179 -139 -13 0
-84 -180 -140 -14 0
-111 -175 -87 -13 0
-112 -176 -88 -14 0
-95 -111 -143 -13 0
-96 -112 -144 -14 0
-95 -119 -139 -13 0
-96 -120 -140 -14 0
-15 -363 -335 -77 0
-16 -364 -336 -78 0
-15 -79 -229 -367 0
-16 -80 -230 -368 0
-15 -79 -359 -239 0
-16 -80 -360 -240 0
-15 -339 -79 -271 0
-16 -340 -80 -272 0
-15 -79 -279 -335 0
-16 -80 -280 -336 0
-15 -83 -143 -377 0
-16 -84 -144 -378 0
-15 -83 -167 -335 0
-16 -84 -168 -336 0
-15 -83 -223 -287 0
-16 -84 -224 -288 0
-15 -279 -83 -239 0
-16 -280 -84 -240 0
-15 -263 -175 -87 0
-16 -264 -176 -88 0
-15 -87 -239 -219 0
-16 -88 -240 -220 0
-15 -143 -89 -269 0
-16 -144 -90 -270 0
-15 -179 -239 -89 0
-16 -180 -240 -90 0
-15 -95 -101 -271 0
-16 -96 -102 -272 0
-15 -95 -111 -251 0
-16 -96 -112 -252 0
-15 -95 -119 -239 0
-16 -96 -120 -240 0
-15 -95 -143 -215 0
-16 -96 -144 -216 0
-15 -95 -207 -155 0
-16 -96 -208 -156 0
-15 -197 -95 -175 0
-16 -198 -96 -176 0
-15 -161 -143 -107 0
-16 -162 -144 -108 0
-95 -17 -167 -377 0
-96 -18 -168 -378 0
-95 -17 -179 -359 0
-96 -18 -180 -360 0
-95 -17 -323 -215 0
-96 -18 -324 -216 0
-95 -17 -311 -233 0
-96 -18 -312 -234 0
-17 -99 -179 -299 0
-18 -100 -180 -300 0
-17 -179 -103 -259 0
-18 -180 -104 -260 0
-17 -179 -219 -109 0
-18 -180 -220 -110 0
-111 -17 -251 -125 0
-112 -18 -252 -126 0
-111 -17 -167 -215 0
-112 -18 -168 -216 0
-111 -17 -179 -209 0
-112 -18 -180 -210 0
-215 -17 -151 -113 0
-216 -18 -152 -114 0
-17 -119 -209 -125 0
-18 -120 -210 -126 0
-17 -179 -139 -125 0
-18 -180 -140 -126 0
-311 -19 -359 -103 0
-312 -20 -360 -104 0
-19 -359 -215 -107 0
-20 -360 -216 -108 0
-323 -19 -107 -269 0
-324 -20 -108 -270 0
-19 -329 -219 -109 0
-20 -330 -220 -110 0
-111 -19 -359 -167 0
-112 -20 -360 -168 0
-111 -19 -219 -307 0
-112 -20 -220 -308 0
-113 -19 -359 -151 0
-114 -20 -360 -152 0
-19 -119 -131 -329 0
-20 -120 -132 -330 0
-19 -149 -119 -299 0
-20 -150 -120 -300 0
-159 -19 -119 -287 0
-160 -20 -120 -288 0
-19 -119 -179 -269 0
-20 -120 -180 -270 0
-209 -19 -119 -251 0
-210 -20 -120 -252 0
-269 -19 -139 -125 0
-270 -20 -140 -126 0
-127 -19 -159 -239 0
-128 -20 -160 -240 0
-129 -19 -233 -155 0
-130 -20 -234 -156 0
-19 -135 -169 -203 0
-20 -136 -170 -204 0
-263 -359 -21 -119 0
-264 -360 -22 -120 0
-307 -21 -251 -125 0
-308 -22 -252 -126 0
-127 -175 -21 -351 0
-128 -176 -22 -352 0
-127 -307 -21 -223 0
-128 -308 -22 -224 0
-127 -21 -263 -287 0
-128 -22 -264 -288 0
-131 -359 -23 -329 0
-132 -360 -24 -330 0
-359 -229 -23 -137 0
-360 -230 -24 -138 0
-209 -359 -23 -139 0
-210 -360 -24 -140 0
-239 -23 -139 -335 0
-240 -24 -140 -336 0
-143 -23 -377 -167 0
-144 -24 -378 -168 0
-143 -179 -359 -23 0
-144 -180 -360 -24 0
-143 -215 -323 -23 0
-144 -216 -324 -24 0
-143 -311 -23 -233 0
-144 -312 -24 -234 0
-295 -147 -23 -221 0
-296 -148 -24 -222 0
-307 -23 -153 -167 0
-308 -24 -154 -168 0
-159 -279 -23 -167 0
-160 -280 -24 -168 0
-159 -179 -23 -269 0
-160 -180 -24 -270 0
-159 -209 -23 -251 0
-160 -210 -24 -252 0
-175 -215 -197 -23 0
-176 -216 -198 -24 0
-143 -25 -363 -377 0
-144 -26 -364 -378 0
-159 -259 -311 -25 0
-160 -260 -312 -26 0
-191 -233 -207 -25 0
-192 -234 -208 -26 0
-159 -359 -377 -27 0
-160 -360 -378 -28 0
-161 -323 -377 -27 0
-162 -324 -378 -28 0
-251 -167 -377 -27 0
-252 -168 -378 -28 0
-279 -359 -167 -27 0
-280 -360 -168 -28 0
-299 -167 -27 -349 0
-300 -168 -28 -350 0
-175 -197 -377 -27 0
-176 -198 -378 -28 0
-175 -223 -27 -351 0
-176 -224 -28 -352 0
-207 -181 -27 -335 0
-208 -182 -28 -336 0
-191 -223 -287 -27 0
-192 -224 -288 -28 0
-191 -279 -239 -27 0
-192 -280 -240 -28 0
-203 -251 -27 -237 0
-204 -252 -28 -238 0
-227 -379 -189 -29 0
-228 -380 -190 -30 0
-191 -229 -367 -29 0
-192 -230 -368 -30 0
-191 -359 -239 -29 0
-192 -360 -240 -30 0
-191 -339 -271 -29 0
-192 -340 -272 -30 0
-191 -279 -335 -29 0
-192 -280 -336 -30 0
-209 -199 -349 -29 0
-210 -200 -350 -30 0
-209 -307 -219 -29 0
-210 -308 -220 -30 0
-31 -207 -351 -285 0
-32 -208 -352 -286 0
-31 -323 -215 -287 0
-32 -324 -216 -288 0
-271 -33 -335 -237 0
-272 -34 -336 -238 0
-35 -233 -363 -377 0
-36 -234 -364 -378 0
-35 -359 -279 -251 0
-36 -360 -280 -252 0
-35 -299 -251 -349 0
-36 -300 -252 -350 0
-279 -359 -39 -377 0
-280 -360 -40 -378 0
-289 -359 -39 -347 0
-290 -360 -40 -348 0
-319 -359 -41 -335 0
-320 -360 -42 -336 0
-1 -7 -33 -135 0
-2 -8 -34 -136 0
-1 -35 -7 -71 0
-2 -36 -8 -72 0
-1 -23 -9 -29 0
-2 -24 -10 -30 0
-1 -35 -11 -17 0
-2 -36 -12 -18 0
-15 -1 -27 -13 0
-16 -2 -28 -14 0
-3 -125 -251 -13 0
-4 -126 -252 -14 0
-127 -3 -223 -13 0
-128 -4 -224 -14 0
-15 -3 -67 -271 0
-16 -4 -68 -272 0
-15 -3 -143 -71 0
-16 -4 -144 -72 0
-17 -3 -299 -49 0
-18 -4 -300 -50 0
-17 -3 -51 -155 0
-18 -4 -52 -156 0
-17 -3 -53 -107 0
-18 -4 -54 -108 0
-17 -3 -55 -83 0
-18 -4 -56 -84 0
-209 -3 -19 -41 0
-210 -4 -20 -42 0
-47 -3 -19 -59 0
-48 -4 -20 -60 0
-33 -3 -23 -135 0
-34 -4 -24 -136 0
-3 -35 -23 -71 0
-4 -36 -24 -72 0
-31 -3 -103 -25 0
-32 -4 -104 -26 0
-31 -3 -55 -27 0
-32 -4 -56 -28 0
-31 -3 -39 -29 0
-32 -4 -40 -30 0
-287 -19 -5 -359 0
-288 -20 -6 -360 0
-289 -19 -5 -347 0
-290 -20 -6 -348 0
-311 -5 -23 -103 0
-312 -6 -24 -104 0
-215 -5 -23 -107 0
-216 -6 -24 -108 0
-111 -5 -23 -167 0
-112 -6 -24 -168 0
-113 -5 -23 -151 0
-114 -6 -24 -152 0
-95 -5 -103 -25 0
-96 -6 -104 -26 0
-251 -5 -71 -27 0
-252 -6 -72 -28 0
-63 -5 -239 -29 0
-64 -6 -240 -30 0
-5 -71 -89 -29 0
-6 -72 -90 -30 0
-31 -159 -5 -59 0
-32 -160 -6 -60 0
-31 -95 -63 -5 0
-32 -96 -64 -6 0
-49 -35 -5 -299 0
-50 -36 -6 -300 0
-51 -35 -5 -155 0
-52 -36 -6 -156 0
-53 -35 -5 -107 0
-54 -36 -6 -108 0
-35 -5 -55 -83 0
-36 -6 -56 -84 0
-37 -47 -227 -5 0
-38 -48 -228 -6 0
-47 -5 -39 -119 0
-48 -6 -40 -120 0
-47 -83 -5 -41 0
-48 -84 -6 -42 0
-47 -65 -5 -43 0
-48 -66 -6 -44 0
-179 -359 -7 -29 0
-180 -360 -8 -30 0
-191 -7 -239 -29 0
-192 -8 -240 -30 0
-31 -143 -7 -287 0
-32 -144 -8 -288 0
-311 -35 -7 -103 0
-312 -36 -8 -104 0
-215 -35 -7 -107 0
-216 -36 -8 -108 0
-111 -35 -7 -167 0
-112 -36 -8 -168 0
-113 -35 -7 -151 0
-114 -36 -8 -152 0
-95 -227 -37 -7 0
-96 -228 -38 -8 0
-179 -89 -7 -39 0
-180 -90 -8 -40 0
-95 -7 -39 -119 0
-96 -8 -40 -120 0
-79 -279 -7 -41 0
-80 -280 -8 -42 0
-47 -67 -7 -271 0
-48 -68 -8 -272 0
-47 -143 -7 -71 0
-48 -144 -8 -72 0
-63 -51 -7 -207 0
-64 -52 -8 -208 0
-359 -53 -7 -59 0
-360 -54 -8 -60 0
-63 -143 -53 -7 0
-64 -144 -54 -8 0
-209 -7 -55 -59 0
-210 -8 -56 -60 0
-63 -111 -7 -55 0
-64 -112 -8 -56 0
-63 -79 -7 -59 0
-64 -80 -8 -60 0
-287 -35 -359 -9 0
-288 -36 -360 -10 0
-289 -35 -9 -347 0
-290 -36 -10 -348 0
-179 -359 -39 -9 0
-180 -360 -40 -10 0
-191 -239 -39 -9 0
-192 -240 -40 -10 0
-159 -41 -279 -9 0
-160 -42 -280 -10 0
-209 -41 -167 -9 0
-210 -42 -168 -10 0
-139 -307 -9 -43 0
-140 -308 -10 -44 0
-47 -239 -119 -9 0
-48 -240 -120 -10 0
-47 -159 -127 -9 0
-48 -160 -128 -10 0
-49 -149 -119 -9 0
-50 -150 -120 -10 0
-51 -103 -9 -259 0
-52 -104 -10 -260 0
-95 -53 -359 -9 0
-96 -54 -360 -10 0
-95 -209 -55 -9 0
-96 -210 -56 -10 0
-219 -87 -9 -59 0
-220 -88 -10 -60 0
-179 -89 -9 -59 0
-180 -90 -10 -60 0
-95 -119 -9 -59 0
-96 -120 -10 -60 0
-63 -79 -9 -319 0
-64 -80 -10 -320 0
-79 -65 -9 -219 0
-80 -66 -10 -220 0
-65 -87 -9 -109 0
-66 -88 -10 -110 0
-79 -67 -169 -9 0
-80 -68 -170 -10 0
-79 -69 -9 -139 0
-80 -70 -10 -140 0
-79 -71 -9 -119 0
-80 -72 -10 -120 0
-47 -223 -11 -335 0
-48 -224 -12 -336 0
-47 -227 -303 -11 0
-48 -228 -304 -12 0
-49 -299 -199 -11 0
-50 -300 -200 -12 0
-191 -51 -207 -11 0
-192 -52 -208 -12 0
-159 -53 -359 -11 0
-160 -54 -360 -12 0
-161 -323 -53 -11 0
-162 -324 -54 -12 0
-251 -53 -167 -11 0
-252 -54 -168 -12 0
-175 -197 -53 -11 0
-176 -198 -54 -12 0
-263 -55 -153 -11 0
-264 -56 -154 -12 0
-159 -209 -55 -11 0
-160 -210 -56 -12 0
-229 -137 -11 -59 0
-230 -138 -12 -60 0
-139 -209 -11 -59 0
-140 -210 -12 -60 0
-143 -179 -11 -59 0
-144 -180 -12 -60 0
-123 -371 -11 -61 0
-124 -372 -12 -62 0
-63 -119 -11 -319 0
-64 -120 -12 -320 0
-63 -127 -191 -11 0
-64 -128 -192 -12 0
-65 -219 -119 -11 0
-66 -220 -120 -12 0
-67 -119 -169 -11 0
-68 -120 -170 -12 0
-111 -209 -69 -11 0
-112 -210 -70 -12 0
-139 -69 -119 -11 0
-140 -70 -120 -12 0
-311 -71 -11 -103 0
-312 -72 -12 -104 0
-107 -215 -71 -11 0
-108 -216 -72 -12 0
-111 -71 -11 -167 0
-112 -72 -12 -168 0
-113 -71 -11 -151 0
-114 -72 -12 -152 0
-95 -311 -11 -77 0
-96 -312 -12 -78 0
-155 -103 -11 -77 0
-156 -104 -12 -78 0
-79 -95 -239 -11 0
-80 -96 -240 -12 0
-95 -83 -167 -11 0
-96 -84 -168 -12 0
-95 -131 -87 -11 0
-96 -132 -88 -12 0
-95 -119 -89 -11 0
-96 -120 -90 -12 0
-219 -307 -59 -13 0
-220 -308 -60 -14 0
-223 -279 -59 -13 0
-224 -280 -60 -14 0
-175 -65 -307 -13 0
-176 -66 -308 -14 0
-159 -69 -279 -13 0
-160 -70 -280 -14 0
-209 -69 -167 -13 0
-210 -70 -168 -14 0
-263 -71 -153 -13 0
-264 -72 -154 -14 0
-159 -209 -71 -13 0
-160 -210 -72 -14 0
-83 -125 -251 -13 0
-84 -126 -252 -14 0
-127 -83 -223 -13 0
-128 -84 -224 -14 0
-209 -119 -89 -13 0
-210 -120 -90 -14 0
-111 -321 -91 -13 0
-112 -322 -92 -14 0
-95 -111 -223 -13 0
-96 -112 -224 -14 0
-111 -97 -195 -13 0
-112 -98 -196 -14 0
-111 -125 -107 -13 0
-112 -126 -108 -14 0
-15 -69 -239 -335 0
-16 -70 -240 -336 0
-15 -71 -223 -335 0
-16 -72 -224 -336 0
-15 -227 -71 -303 0
-16 -228 -72 -304 0
-15 -311 -191 -77 0
-16 -312 -192 -78 0
-15 -79 -359 -179 0
-16 -80 -360 -180 0
-15 -79 -191 -239 0
-16 -80 -192 -240 0
-15 -83 -181 -207 0
-16 -84 -182 -208 0
-15 -159 -239 -89 0
-16 -160 -240 -90 0
-15 -95 -143 -287 0
-16 -96 -144 -288 0
-15 -101 -135 -271 0
-16 -102 -136 -272 0
-15 -335 -107 -125 0
-16 -336 -108 -126 0
-15 -127 -287 -107 0
-16 -128 -288 -108 0
-15 -111 -251 -125 0
-16 -112 -252 -126 0
-15 -111 -127 -223 0
-16 -112 -128 -224 0
-15 -159 -127 -119 0
-16 -160 -128 -120 0
-303 -17 -341 -75 0
-304 -18 -342 -76 0
-287 -17 -311 -77 0
-288 -18 -312 -78 0
-17 -83 -233 -363 0
-18 -84 -234 -364 0
-17 -215 -89 -269 0
-18 -216 -90 -270 0
-95 -17 -191 -287 0
-96 -18 -192 -288 0
-159 -17 -359 -107 0
-160 -18 -360 -108 0
-161 -17 -323 -107 0
-162 -18 -324 -108 0
-17 -251 -167 -107 0
-18 -252 -168 -108 0
-175 -17 -197 -107 0
-176 -18 -198 -108 0
-175 -17 -179 -109 0
-176 -18 -180 -110 0
-17 -341 -151 -113 0
-18 -342 -152 -114 0
-143 -17 -359 -119 0
-144 -18 -360 -120 0
-159 -17 -179 -119 0
-160 -18 -180 -120 0
-143 -17 -251 -125 0
-144 -18 -252 -126 0
-143 -17 -131 -197 0
-144 -18 -132 -198 0
-287 -19 -359 -89 0
-288 -20 -360 -90 0
-289 -19 -89 -347 0
-290 -20 -90 -348 0
-321 -19 -279 -91 0
-322 -20 -280 -92 0
-95 -19 -255 -319 0
-96 -20 -256 -320 0
-239 -19 -99 -299 0
-240 -20 -100 -300 0
-19 -215 -107 -269 0
-20 -216 -108 -270 0
-207 -285 -19 -109 0
-208 -286 -20 -110 0
-111 -209 -19 -239 0
-112 -210 -20 -240 0
-113 -19 -379 -189 0
-114 -20 -380 -190 0
-19 -359 -119 -179 0
-20 -360 -120 -180 0
-191 -19 -119 -239 0
-192 -20 -120 -240 0
-19 -179 -251 -125 0
-20 -180 -252 -126 0
-175 -19 -131 -219 0
-176 -20 -132 -220 0
-197 -19 -179 -131 0
-198 -20 -180 -132 0
-159 -339 -19 -135 0
-160 -340 -20 -136 0
-159 -19 -279 -139 0
-160 -20 -280 -140 0
-209 -19 -167 -139 0
-210 -20 -168 -140 0
-143 -19 -159 -239 0
-144 -20 -160 -240 0
-159 -19 -149 -199 0
-160 -20 -150 -200 0
-159 -19 -151 -189 0
-160 -20 -152 -190 0
-21 -263 -329 -109 0
-22 -264 -330 -110 0
-239 -263 -21 -119 0
-240 -264 -22 -120 0
-223 -21 -263 -125 0
-224 -22 -264 -126 0
-207 -131 -21 -285 0
-208 -132 -22 -286 0
-263 -21 -135 -203 0
-264 -22 -136 -204 0
-143 -263 -21 -191 0
-144 -264 -22 -192 0
-175 -307 -21 -153 0
-176 -308 -22 -154 0
-175 -21 -155 -285 0
-176 -22 -156 -286 0
-287 -359 -23 -119 0
-288 -360 -24 -120 0
-289 -23 -347 -119 0
-290 -24 -348 -120 0
-127 -23 -255 -383 0
-128 -24 -256 -384 0
-129 -259 -23 -311 0
-130 -260 -24 -312 0
-239 -339 -23 -135 0
-240 -340 -24 -136 0
-239 -279 -23 -139 0
-240 -280 -24 -140 0
-143 -23 -223 -335 0
-144 -24 -224 -336 0
-143 -227 -23 -303 0
-144 -228 -24 -304 0
-207 -311 -23 -155 0
-208 -312 -24 -156 0
-191 -23 -335 -167 0
-192 -24 -336 -168 0
-23 -237 -203 -167 0
-24 -238 -204 -168 0
-175 -263 -23 -191 0
-176 -264 -24 -192 0
-191 -179 -23 -239 0
-192 -180 -24 -240 0
-335 -25 -363 -125 0
-336 -26 -364 -126 0
-131 -25 -363 -307 0
-132 -26 -364 -308 0
-363 -279 -25 -139 0
-364 -280 -26 -140 0
-223 -167 -25 -363 0
-224 -168 -26 -364 0
-209 -179 -25 -363 0
-210 -180 -26 -364 0
-207 -181 -25 -363 0
-208 -182 -26 -364 0
-223 -199 -27 -349 0
-224 -200 -28 -350 0
-209 -219 -27 -307 0
-210 -220 -28 -308 0
-223 -209 -279 -27 0
-224 -210 -280 -28 0
-223 -251 -215 -27 0
-224 -252 -216 -28 0
-319 -167 -335 -29 0
-320 -168 -336 -30 0
-287 -179 -359 -29 0
-288 -180 -360 -30 0
-289 -179 -347 -29 0
-290 -180 -348 -30 0
-197 -263 -329 -29 0
-198 -264 -330 -30 0
-239 -359 -215 -29 0
-240 -360 -216 -30 0
-279 -215 -251 -29 0
-280 -216 -252 -30 0
-239 -329 -219 -29 0
-240 -330 -220 -30 0
-239 -275 -229 -29 0
-240 -276 -230 -30 0
-239 -259 -233 -29 0
-240 -260 -234 -30 0
-31 -239 -255 -319 0
-32 -240 -256 -320 0
-351 -35 -359 -219 0
-352 -36 -360 -220 0
-239 -35 -359 -319 0
-240 -36 -360 -320 0
-359 -35 -309 -247 0
-360 -36 -310 -248 0
-287 -35 -359 -269 0
-288 -36 -360 -270 0
-289 -35 -347 -269 0
-290 -36 -348 -270 0
-303 -39 -379 -319 0
-304 -40 -380 -320 0
-335 -323 -41 -377 0
-336 -324 -42 -378 0
-159 -1 -7 -9 0
-160 -2 -8 -10 0
-95 -1 -7 -11 0
-96 -2 -8 -12 0
-15 -1 -63 -7 0
-16 -2 -64 -8 0
-47 -1 -7 -23 0
-48 -2 -8 -24 0
-335 -3 -41 -13 0
-336 -4 -42 -14 0
-3 -307 -43 -13 0
-4 -308 -44 -14 0
-223 -3 -55 -13 0
-224 -4 -56 -14 0
-209 -3 -59 -13 0
-210 -4 -60 -14 0
-3 -83 -167 -13 0
-4 -84 -168 -14 0
-143 -3 -125 -13 0
-144 -4 -126 -14 0
-15 -3 -19 -319 0
-16 -4 -20 -320 0
-15 -3 -23 -191 0
-16 -4 -24 -192 0
-15 -31 -3 -127 0
-16 -32 -4 -128 0
-15 -47 -3 -95 0
-16 -48 -4 -96 0
-17 -3 -19 -119 0
-18 -4 -20 -120 0
-95 -17 -3 -23 0
-96 -18 -4 -24 0
-17 -3 -83 -27 0
-18 -4 -84 -28 0
-79 -17 -3 -29 0
-80 -18 -4 -30 0
-17 -3 -35 -71 0
-18 -4 -36 -72 0
-17 -3 -43 -65 0
-18 -4 -44 -66 0
-47 -17 -3 -63 0
-48 -18 -4 -64 0
-159 -19 -5 -383 0
-160 -20 -6 -384 0
-19 -5 -359 -179 0
-20 -6 -360 -180 0
-339 -19 -5 -203 0
-340 -20 -6 -204 0
-335 -209 -19 -5 0
-336 -210 -20 -6 0
-19 -5 -329 -219 0
-20 -6 -330 -220 0
-239 -19 -5 -319 0
-240 -20 -6 -320 0
-19 -5 -311 -259 0
-20 -6 -312 -260 0
-21 -65 -5 -263 0
-22 -66 -6 -264 0
-21 -175 -131 -5 0
-22 -176 -132 -6 0
-21 -5 -167 -153 0
-22 -6 -168 -154 0
-31 -5 -23 -383 0
-32 -6 -24 -384 0
-287 -35 -5 -23 0
-288 -36 -6 -24 0
-239 -5 -23 -39 0
-240 -6 -24 -40 0
-223 -5 -23 -41 0
-224 -6 -24 -42 0
-47 -5 -23 -191 0
-48 -6 -24 -192 0
-5 -23 -55 -167 0
-6 -24 -56 -168 0
-159 -5 -23 -59 0
-160 -6 -24 -60 0
-143 -5 -23 -71 0
-144 -6 -24 -72 0
-131 -5 -23 -87 0
-132 -6 -24 -88 0
-95 -127 -5 -23 0
-96 -128 -6 -24 0
-5 -103 -25 -77 0
-6 -104 -26 -78 0
-35 -5 -27 -125 0
-36 -6 -28 -126 0
-111 -5 -41 -27 0
-112 -6 -42 -28 0
-95 -5 -55 -27 0
-96 -6 -56 -28 0
-95 -5 -39 -29 0
-96 -6 -40 -30 0
-79 -5 -59 -29 0
-80 -6 -60 -30 0
-65 -35 -5 -43 0
-66 -36 -6 -44 0
-47 -63 -35 -5 0
-48 -64 -36 -6 0
-351 -7 -153 -27 0
-352 -8 -154 -28 0
-335 -7 -27 -167 0
-336 -8 -28 -168 0
-321 -7 -27 -183 0
-322 -8 -28 -184 0
-287 -251 -7 -27 0
-288 -252 -8 -28 0
-359 -7 -71 -29 0
-360 -8 -72 -30 0
-79 -7 -319 -29 0
-80 -8 -320 -30 0
-287 -7 -89 -29 0
-288 -8 -90 -30 0
-259 -7 -103 -29 0
-260 -8 -104 -30 0
-239 -7 -119 -29 0
-240 -8 -120 -30 0
-223 -7 -139 -29 0
-224 -8 -140 -30 0
-209 -7 -167 -29 0
-210 -8 -168 -30 0
-31 -47 -7 -383 0
-32 -48 -8 -384 0
-31 -63 -7 -255 0
-32 -64 -8 -256 0
-31 -95 -7 -191 0
-32 -96 -8 -192 0
-33 -339 -7 -39 0
-34 -340 -8 -40 0
-239 -35 -7 -39 0
-240 -36 -8 -40 0
-223 -35 -7 -41 0
-224 -36 -8 -42 0
-47 -35 -7 -191 0
-48 -36 -8 -192 0
-35 -7 -55 -167 0
-36 -8 -56 -168 0
-159 -35 -7 -59 0
-160 -36 -8 -60 0
-143 -35 -7 -71 0
-144 -36 -8 -72 0
-35 -7 -131 -87 0
-36 -8 -132 -88 0
-95 -35 -127 -7 0
-96 -36 -128 -8 0
-37 -7 -39 -189 0
-38 -8 -40 -190 0
-129 -51 -7 -39 0
-130 -52 -8 -40 0
-111 -69 -7 -39 0
-112 -70 -8 -40 0
-111 -55 -7 -41 0
-112 -56 -8 -42 0
-95 -83 -7 -41 0
-96 -84 -8 -42 0
-95 -65 -7 -43 0
-96 -66 -8 -44 0
-159 -35 -9 -383 0
-160 -36 -10 -384 0
-35 -179 -359 -9 0
-36 -180 -360 -10 0
-339 -35 -9 -203 0
-340 -36 -10 -204 0
-335 -209 -35 -9 0
-336 -210 -36 -10 0
-35 -9 -219 -329 0
-36 -10 -220 -330 0
-239 -35 -9 -319 0
-240 -36 -10 -320 0
-35 -311 -9 -259 0
-36 -312 -10 -260 0
-239 -227 -37 -9 0
-240 -228 -38 -10 0
-79 -39 -9 -319 0
-80 -40 -10 -320 0
-287 -89 -39 -9 0
-288 -90 -40 -10 0
-259 -39 -9 -103 0
-260 -40 -10 -104 0
-239 -39 -9 -119 0
-240 -40 -10 -120 0
-223 -39 -9 -139 0
-224 -40 -10 -140 0
-209 -39 -9 -167 0
-210 -40 -10 -168 0
-335 -41 -9 -59 0
-336 -42 -10 -60 0
-41 -69 -279 -9 0
-42 -70 -280 -10 0
-239 -41 -83 -9 0
-240 -42 -84 -10 0
-263 -9 -43 -59 0
-264 -10 -44 -60 0
-239 -65 -9 -43 0
-240 -66 -10 -44 0
-175 -9 -43 -109 0
-176 -10 -44 -110 0
-47 -191 -9 -59 0
-48 -192 -10 -60 0
-47 -79 -159 -9 0
-48 -80 -160 -10 0
-47 -111 -9 -139 0
-48 -112 -10 -140 0
-155 -51 -9 -59 0
-156 -52 -10 -60 0
-143 -53 -9 -59 0
-144 -54 -10 -60 0
-89 -53 -119 -9 0
-90 -54 -120 -10 0
-111 -69 -9 -59 0
-112 -70 -10 -60 0
-351 -263 -11 -43 0
-352 -264 -12 -44 0
-335 -307 -11 -43 0
-336 -308 -12 -44 0
-367 -137 -11 -45 0
-368 -138 -12 -46 0
-47 -95 -11 -383 0
-48 -96 -12 -384 0
-47 -111 -11 -335 0
-48 -112 -12 -336 0
-47 -119 -11 -319 0
-48 -120 -12 -320 0
-47 -143 -287 -11 0
-48 -144 -288 -12 0
-47 -175 -263 -11 0
-48 -176 -264 -12 0
-47 -191 -255 -11 0
-48 -192 -256 -12 0
-49 -83 -11 -349 0
-50 -84 -12 -350 0
-239 -49 -149 -11 0
-240 -50 -150 -12 0
-51 -311 -11 -77 0
-52 -312 -12 -78 0
-207 -155 -51 -11 0
-208 -156 -52 -12 0
-53 -359 -11 -59 0
-54 -360 -12 -60 0
-305 -67 -53 -11 0
-306 -68 -54 -12 0
-287 -53 -71 -11 0
-288 -54 -72 -12 0
-251 -83 -53 -11 0
-252 -84 -54 -12 0
-239 -53 -89 -11 0
-240 -54 -90 -12 0
-107 -53 -215 -11 0
-108 -54 -216 -12 0
-197 -131 -53 -11 0
-198 -132 -54 -12 0
-143 -53 -191 -11 0
-144 -54 -192 -12 0
-251 -55 -11 -71 0
-252 -56 -12 -72 0
-223 -83 -55 -11 0
-224 -84 -56 -12 0
-111 -55 -191 -11 0
-112 -56 -192 -12 0
-65 -219 -11 -59 0
-66 -220 -12 -60 0
-209 -69 -11 -59 0
-210 -70 -12 -60 0
-79 -191 -11 -59 0
-80 -192 -12 -60 0
-101 -169 -11 -59 0
-102 -170 -12 -60 0
-159 -119 -11 -59 0
-160 -120 -12 -60 0
-129 -155 -11 -59 0
-130 -156 -12 -60 0
-65 -83 -153 -11 0
-66 -84 -154 -12 0
-67 -101 -135 -11 0
-68 -102 -136 -12 0
-139 -83 -69 -11 0
-140 -84 -70 -12 0
-131 -71 -11 -87 0
-132 -72 -12 -88 0
-95 -127 -71 -11 0
-96 -128 -72 -12 0
-209 -53 -359 -13 0
-210 -54 -360 -14 0
-335 -53 -251 -13 0
-336 -54 -252 -14 0
-351 -55 -153 -13 0
-352 -56 -154 -14 0
-335 -55 -167 -13 0
-336 -56 -168 -14 0
-321 -55 -183 -13 0
-322 -56 -184 -14 0
-287 -55 -251 -13 0
-288 -56 -252 -14 0
-349 -99 -59 -13 0
-350 -100 -60 -14 0
-111 -319 -59 -13 0
-112 -320 -60 -14 0
-139 -279 -59 -13 0
-140 -280 -60 -14 0
-179 -251 -59 -13 0
-180 -252 -60 -14 0
-239 -209 -59 -13 0
-240 -210 -60 -14 0
-63 -111 -255 -13 0
-64 -112 -256 -14 0
-239 -83 -69 -13 0
-240 -84 -70 -14 0
-223 -83 -71 -13 0
-224 -84 -72 -14 0
-111 -71 -191 -13 0
-112 -72 -192 -14 0
-79 -111 -159 -13 0
-80 -112 -160 -14 0
-143 -83 -125 -13 0
-144 -84 -126 -14 0
-95 -111 -127 -13 0
-96 -112 -128 -14 0
-15 -63 -191 -383 0
-16 -64 -192 -384 0
-15 -65 -175 -351 0
-16 -66 -176 -352 0
-15 -65 -219 -319 0
-16 -66 -220 -320 0
-15 -67 -169 -319 0
-16 -68 -170 -320 0
-15 -69 -139 -319 0
-16 -70 -140 -320 0
-15 -95 -71 -383 0
-16 -96 -72 -384 0
-15 -111 -71 -335 0
-16 -112 -72 -336 0
-15 -71 -119 -319 0
-16 -72 -120 -320 0
-15 -143 -71 -287 0
-16 -144 -72 -288 0
-15 -263 -175 -71 0
-16 -264 -176 -72 0
-15 -255 -71 -191 0
-16 -256 -72 -192 0
-15 -79 -379 -75 0
-16 -80 -380 -76 0
-15 -143 -233 -77 0
-16 -144 -234 -78 0
-15 -79 -287 -89 0
-16 -80 -288 -90 0
-15 -79 -103 -259 0
-16 -80 -104 -260 0
-15 -79 -223 -139 0
-16 -80 -224 -140 0
-15 -209 -79 -167 0
-16 -210 -80 -168 0
-15 -83 -111 -223 0
-16 -84 -112 -224 0
-15 -83 -167 -191 0
-16 -84 -168 -192 0
-15 -131 -87 -191 0
-16 -132 -88 -192 0
-15 -191 -119 -89 0
-16 -192 -120 -90 0
-287 -17 -71 -383 0
-288 -18 -72 -384 0
-17 -179 -379 -75 0
-18 -180 -380 -76 0
-17 -227 -341 -75 0
-18 -228 -342 -76 0
-17 -311 -233 -77 0
-18 -312 -234 -78 0
-79 -17 -143 -359 0
-80 -18 -144 -360 0
-79 -17 -179 -319 0
-80 -18 -180 -320 0
-79 -17 -239 -287 0
-80 -18 -240 -288 0
-17 -83 -377 -107 0
-18 -84 -378 -108 0
-335 -17 -83 -125 0
-336 -18 -84 -126 0
-287 -17 -83 -167 0
-288 -18 -84 -168 0
-17 -83 -279 -179 0
-18 -84 -280 -180 0
-287 -17 -131 -87 0
-288 -18 -132 -88 0
-287 -17 -119 -89 0
-288 -18 -120 -90 0
-17 -279 -89 -125 0
-18 -280 -90 -126 0
-239 -17 -179 -89 0
-240 -18 -180 -90 0
-17 -179 -229 -91 0
-18 -180 -230 -92 0
-17 -99 -199 -179 0
-18 -100 -200 -180 0
-17 -131 -197 -107 0
-18 -132 -198 -108 0
-143 -17 -191 -107 0
-144 -18 -192 -108 0
-111 -17 -191 -125 0
-112 -18 -192 -126 0
-19 -83 -265 -379 0
-20 -84 -266 -380 0
-19 -83 -377 -269 0
-20 -84 -378 -270 0
-351 -19 -87 -219 0
-352 -20 -88 -220 0
-263 -19 -87 -329 0
-264 -20 -88 -330 0
-159 -19 -89 -383 0
-160 -20 -90 -384 0
-19 -179 -359 -89 0
-20 -180 -360 -90 0
-339 -19 -89 -203 0
-340 -20 -90 -204 0
-335 -209 -19 -89 0
-336 -210 -20 -90 0
-19 -89 -219 -329 0
-20 -90 -220 -330 0
-239 -19 -89 -319 0
-240 -20 -90 -320 0
-19 -311 -89 -259 0
-20 -312 -90 -260 0
-95 -19 -119 -383 0
-96 -20 -120 -384 0
-95 -19 -159 -319 0
-96 -20 -160 -320 0
-95 -279 -19 -223 0
-96 -280 -20 -224 0
-97 -19 -279 -195 0
-98 -20 -280 -196 0
-271 -19 -101 -169 0
-272 -20 -102 -170 0
-311 -19 -103 -119 0
-312 -20 -104 -120 0
-287 -19 -119 -107 0
-288 -20 -120 -108 0
-19 -279 -107 -125 0
-20 -280 -108 -126 0
-239 -19 -179 -107 0
-240 -20 -180 -108 0
-19 -263 -131 -109 0
-20 -264 -132 -110 0
-223 -19 -119 -139 0
-224 -20 -120 -140 0
-209 -19 -119 -167 0
-210 -20 -120 -168 0
-209 -19 -139 -125 0
-210 -20 -140 -126 0
-95 -21 -263 -383 0
-96 -22 -264 -384 0
-99 -21 -329 -299 0
-100 -22 -330 -300 0
-263 -21 -103 -311 0
-264 -22 -104 -312 0
-179 -21 -329 -107 0
-180 -22 -330 -108 0
-287 -21 -263 -107 0
-288 -22 -264 -108 0
-175 -21 -319 -109 0
-176 -22 -320 -110 0
-111 -175 -307 -21 0
-112 -176 -308 -22 0
-21 -263 -153 -125 0
-22 -264 -154 -126 0
-287 -23 -107 -383 0
-288 -24 -108 -384 0
-351 -23 -329 -109 0
-352 -24 -330 -110 0
-111 -23 -223 -383 0
-112 -24 -224 -384 0
-159 -23 -119 -383 0
-160 -24 -120 -384 0
-339 -203 -23 -119 0
-340 -204 -24 -120 0
-335 -209 -23 -119 0
-336 -210 -24 -120 0
-219 -23 -329 -119 0
-220 -24 -330 -120 0
-239 -23 -119 -319 0
-240 -24 -120 -320 0
-311 -259 -23 -119 0
-312 -260 -24 -120 0
-351 -23 -153 -125 0
-352 -24 -154 -126 0
-335 -23 -167 -125 0
-336 -24 -168 -126 0
-321 -23 -183 -125 0
-322 -24 -184 -126 0
-287 -23 -251 -125 0
-288 -24 -252 -126 0
-131 -23 -307 -167 0
-132 -24 -308 -168 0
-287 -131 -197 -23 0
-288 -132 -198 -24 0
-271 -23 -203 -135 0
-272 -24 -204 -136 0
-279 -23 -139 -167 0
-280 -24 -140 -168 0
-143 -263 -175 -23 0
-144 -264 -176 -24 0
-143 -255 -23 -191 0
-144 -256 -24 -192 0
-199 -149 -23 -239 0
-200 -150 -24 -240 0
-239 -23 -189 -151 0
-240 -24 -190 -152 0
-129 -233 -359 -25 0
-130 -234 -360 -26 0
-143 -311 -207 -25 0
-144 -312 -208 -26 0
-367 -321 -137 -27 0
-368 -322 -138 -28 0
-139 -377 -27 -269 0
-140 -378 -28 -270 0
-143 -223 -27 -383 0
-144 -224 -28 -384 0
-155 -181 -363 -27 0
-156 -182 -364 -28 0
-155 -307 -27 -285 0
-156 -308 -28 -286 0
-159 -223 -27 -319 0
-160 -224 -28 -320 0
-321 -167 -27 -183 0
-322 -168 -28 -184 0
-287 -251 -167 -27 0
-288 -252 -168 -28 0
-209 -179 -279 -27 0
-210 -180 -280 -28 0
-191 -223 -255 -27 0
-192 -224 -256 -28 0
-159 -239 -383 -29 0
-160 -240 -384 -30 0
-159 -359 -287 -29 0
-160 -360 -288 -30 0
-269 -161 -359 -29 0
-270 -162 -360 -30 0
-335 -279 -167 -29 0
-336 -280 -168 -30 0
-175 -239 -329 -29 0
-176 -240 -330 -30 0
-175 -263 -319 -29 0
-176 -264 -320 -30 0
-339 -179 -203 -29 0
-340 -180 -204 -30 0
-335 -209 -179 -29 0
-336 -210 -180 -30 0
-179 -329 -219 -29 0
-180 -330 -220 -30 0
-239 -179 -319 -29 0
-240 -180 -320 -30 0
-311 -179 -259 -29 0
-312 -180 -260 -30 0
-303 -227 -189 -29 0
-304 -228 -190 -30 0
-31 -167 -335 -383 0
-32 -168 -336 -384 0
-31 -175 -263 -383 0
-32 -176 -264 -384 0
-31 -179 -239 -383 0
-32 -180 -240 -384 0
-31 -305 -287 -203 0
-32 -306 -288 -204 0
-31 -209 -223 -319 0
-32 -210 -224 -320 0
-287 -35 -215 -383 0
-288 -36 -216 -384 0
-35 -359 -329 -219 0
-36 -360 -330 -220 0
-223 -35 -251 -383 0
-224 -36 -252 -384 0
-35 -229 -359 -275 0
-36 -230 -360 -276 0
-35 -363 -233 -251 0
-36 -364 -234 -252 0
-35 -359 -233 -259 0
-36 -360 -234 -260 0
-335 -305 -35 -237 0
-336 -306 -36 -238 0
-239 -37 -303 -379 0
-240 -38 -304 -380 0
-263 -339 -373 -39 0
-264 -340 -374 -40 0
-287 -39 -383 -269 0
-288 -40 -384 -270 0
-287 -41 -335 -383 0
-288 -42 -336 -384 0
-339 -373 -329 -43 0
-340 -374 -330 -44 0
-107 -1 -3 -17 0
-108 -2 -4 -18 0
-1 -3 -19 -59 0
-2 -4 -20 -60 0
-1 -3 -21 -43 0
-2 -4 -22 -44 0
-1 -3 -35 -23 0
-2 -4 -36 -24 0
-15 -1 -35 -5 0
-16 -2 -36 -6 0
-1 -7 -11 -71 0
-2 -8 -12 -72 0
-15 -1 -7 -23 0
-16 -2 -8 -24 0
-15 -1 -19 -9 0
-16 -2 -20 -10 0
-15 -1 -11 -17 0
-16 -2 -12 -18 0
-53 -323 -3 -5 0
-54 -324 -4 -6 0
-3 -5 -55 -251 0
-4 -6 -56 -252 0
-3 -5 -179 -59 0
-4 -6 -180 -60 0
-63 -143 -3 -5 0
-64 -144 -4 -6 0
-65 -3 -5 -131 0
-66 -4 -6 -132 0
-3 -5 -71 -107 0
-4 -6 -72 -108 0
-79 -3 -5 -89 0
-80 -4 -6 -90 0
-215 -3 -35 -7 0
-216 -4 -36 -8 0
-3 -37 -7 -151 0
-4 -38 -8 -152 0
-3 -7 -39 -119 0
-4 -8 -40 -120 0
-3 -7 -43 -87 0
-4 -8 -44 -88 0
-47 -3 -7 -71 0
-48 -4 -8 -72 0
-3 -179 -9 -29 0
-4 -180 -10 -30 0
-31 -3 -119 -9 0
-32 -4 -120 -10 0
-3 -39 -9 -59 0
-4 -40 -10 -60 0
-3 -233 -25 -11 0
-4 -234 -26 -12 0
-3 -125 -11 -27 0
-4 -126 -12 -28 0
-3 -89 -11 -29 0
-4 -90 -12 -30 0
-31 -3 -71 -11 0
-32 -4 -72 -12 0
-53 -3 -35 -11 0
-54 -4 -36 -12 0
-3 -23 -251 -13 0
-4 -24 -252 -14 0
-3 -83 -27 -13 0
-4 -84 -28 -14 0
-31 -3 -55 -13 0
-32 -4 -56 -14 0
-15 -3 -143 -23 0
-16 -4 -144 -24 0
-15 -31 -3 -47 0
-16 -32 -4 -48 0
-17 -3 -23 -107 0
-18 -4 -24 -108 0
-3 -19 -23 -89 0
-4 -20 -24 -90 0
-31 -3 -19 -39 0
-32 -4 -20 -40 0
-3 -23 -39 -29 0
-4 -24 -40 -30 0
-31 -3 -35 -23 0
-32 -4 -36 -24 0
-359 -5 -7 -119 0
-360 -6 -8 -120 0
-127 -5 -7 -287 0
-128 -6 -8 -288 0
-263 -131 -5 -7 0
-264 -132 -6 -8 0
-143 -215 -5 -7 0
-144 -216 -6 -8 0
-199 -149 -5 -7 0
-200 -150 -6 -8 0
-159 -179 -5 -7 0
-160 -180 -6 -8 0
-5 -71 -9 -269 0
-6 -72 -10 -270 0
-79 -179 -5 -9 0
-80 -180 -6 -10 0
-95 -5 -119 -9 0
-96 -6 -120 -10 0
-53 -323 -5 -11 0
-54 -324 -6 -12 0
-251 -5 -55 -11 0
-252 -6 -56 -12 0
-179 -5 -11 -59 0
-180 -6 -12 -60 0
-63 -143 -5 -11 0
-64 -144 -6 -12 0
-65 -131 -5 -11 0
-66 -132 -6 -12 0
-107 -5 -71 -11 0
-108 -6 -72 -12 0
-79 -5 -89 -11 0
-80 -6 -90 -12 0
-47 -5 -251 -13 0
-48 -6 -252 -14 0
-5 -55 -125 -13 0
-6 -56 -126 -14 0
-15 -5 -41 -335 0
-16 -6 -42 -336 0
-15 -47 -5 -143 0
-16 -48 -6 -144 0
-15 -79 -5 -59 0
-16 -80 -6 -60 0
-15 -63 -5 -71 0
-16 -64 -6 -72 0
-17 -5 -39 -269 0
-18 -6 -40 -270 0
-47 -17 -5 -107 0
-48 -18 -6 -108 0
-19 -5 -39 -179 0
-20 -6 -40 -180 0
-19 -5 -41 -139 0
-20 -6 -42 -140 0
-47 -19 -5 -89 0
-48 -20 -6 -90 0
-215 -35 -5 -23 0
-216 -36 -6 -24 0
-37 -5 -23 -151 0
-38 -6 -24 -152 0
-5 -23 -39 -119 0
-6 -24 -40 -120 0
-5 -23 -43 -87 0
-6 -24 -44 -88 0
-47 -5 -23 -71 0
-48 -6 -24 -72 0
-83 -5 -41 -27 0
-84 -6 -42 -28 0
-31 -5 -359 -29 0
-32 -6 -360 -30 0
-5 -39 -89 -29 0
-6 -40 -90 -30 0
-47 -5 -59 -29 0
-48 -6 -60 -30 0
-47 -53 -35 -5 0
-48 -54 -36 -6 0
-239 -359 -7 -9 0
-240 -360 -8 -10 0
-255 -7 -9 -319 0
-256 -8 -10 -320 0
-311 -259 -7 -9 0
-312 -260 -8 -10 0
-359 -7 -11 -119 0
-360 -8 -12 -120 0
-127 -7 -287 -11 0
-128 -8 -288 -12 0
-263 -131 -7 -11 0
-264 -132 -8 -12 0
-143 -215 -7 -11 0
-144 -216 -8 -12 0
-199 -149 -7 -11 0
-200 -150 -8 -12 0
-159 -179 -7 -11 0
-160 -180 -8 -12 0
-95 -7 -251 -13 0
-96 -8 -252 -14 0
-111 -7 -167 -13 0
-112 -8 -168 -14 0
-15 -7 -303 -75 0
-16 -8 -304 -76 0
-15 -79 -7 -239 0
-16 -80 -8 -240 0
-15 -175 -7 -87 0
-16 -176 -8 -88 0
-15 -95 -143 -7 0
-16 -96 -144 -8 0
-215 -17 -7 -71 0
-216 -18 -8 -72 0
-17 -7 -89 -119 0
-18 -8 -90 -120 0
-95 -17 -7 -107 0
-96 -18 -8 -108 0
-19 -359 -7 -59 0
-20 -360 -8 -60 0
-63 -19 -7 -239 0
-64 -20 -8 -240 0
-19 -69 -7 -167 0
-20 -70 -8 -168 0
-79 -19 -7 -119 0
-80 -20 -8 -120 0
-63 -175 -21 -7 0
-64 -176 -22 -8 0
-323 -53 -7 -23 0
-324 -54 -8 -24 0
-55 -7 -23 -251 0
-56 -8 -24 -252 0
-179 -7 -23 -59 0
-180 -8 -24 -60 0
-63 -143 -7 -23 0
-64 -144 -8 -24 0
-65 -131 -7 -23 0
-66 -132 -8 -24 0
-107 -7 -23 -71 0
-108 -8 -24 -72 0
-79 -89 -7 -23 0
-80 -90 -8 -24 0
-311 -51 -7 -25 0
-312 -52 -8 -26 0
-7 -55 -27 -167 0
-8 -56 -28 -168 0
-63 -111 -7 -27 0
-64 -112 -8 -28 0
-47 -359 -7 -29 0
-48 -360 -8 -30 0
-31 -47 -7 -287 0
-32 -48 -8 -288 0
-31 -63 -95 -7 0
-32 -64 -96 -8 0
-47 -215 -35 -7 0
-48 -216 -36 -8 0
-7 -39 -43 -329 0
-8 -40 -44 -330 0
-229 -7 -39 -45 0
-230 -8 -40 -46 0
-47 -179 -7 -39 0
-48 -180 -8 -40 0
-49 -149 -7 -39 0
-50 -150 -8 -40 0
-89 -7 -39 -59 0
-90 -8 -40 -60 0
-63 -79 -7 -39 0
-64 -80 -8 -40 0
-47 -7 -41 -167 0
-48 -8 -42 -168 0
-65 -7 -43 -71 0
-66 -8 -44 -72 0
-47 -79 -7 -59 0
-48 -80 -8 -60 0
-47 -63 -7 -71 0
-48 -64 -8 -72 0
-349 -199 -9 -13 0
-350 -200 -10 -14 0
-223 -279 -9 -13 0
-224 -280 -10 -14 0
-239 -9 -251 -13 0
-240 -10 -252 -14 0
-15 -9 -139 -335 0
-16 -10 -140 -336 0
-15 -159 -239 -9 0
-16 -160 -240 -10 0
-17 -119 -9 -269 0
-18 -120 -10 -270 0
-143 -17 -179 -9 0
-144 -18 -180 -10 0
-95 -19 -359 -9 0
-96 -20 -360 -10 0
-19 -99 -9 -299 0
-20 -100 -10 -300 0
-19 -103 -9 -259 0
-20 -104 -10 -260 0
-19 -9 -219 -109 0
-20 -10 -220 -110 0
-111 -209 -19 -9 0
-112 -210 -20 -10 0
-19 -179 -119 -9 0
-20 -180 -120 -10 0
-127 -19 -159 -9 0
-128 -20 -160 -10 0
-129 -19 -9 -155 0
-130 -20 -10 -156 0
-21 -87 -9 -329 0
-22 -88 -10 -330 0
-79 -359 -23 -9 0
-80 -360 -24 -10 0
-279 -83 -23 -9 0
-280 -84 -24 -10 0
-215 -89 -23 -9 0
-216 -90 -24 -10 0
-95 -179 -23 -9 0
-96 -180 -24 -10 0
-79 -25 -9 -259 0
-80 -26 -10 -260 0
-129 -25 -103 -9 0
-130 -26 -104 -10 0
-79 -209 -9 -27 0
-80 -210 -10 -28 0
-83 -179 -9 -27 0
-84 -180 -10 -28 0
-269 -71 -9 -29 0
-270 -72 -10 -30 0
-79 -179 -9 -29 0
-80 -180 -10 -30 0
-95 -119 -9 -29 0
-96 -120 -10 -30 0
-31 -79 -159 -9 0
-32 -80 -160 -10 0
-35 -179 -71 -9 0
-36 -180 -72 -10 0
-35 -89 -9 -107 0
-36 -90 -10 -108 0
-359 -39 -9 -59 0
-360 -40 -10 -60 0
-63 -239 -39 -9 0
-64 -240 -40 -10 0
-69 -39 -9 -167 0
-70 -40 -10 -168 0
-79 -39 -9 -119 0
-80 -40 -10 -120 0
-65 -179 -9 -43 0
-66 -180 -10 -44 0
-79 -9 -43 -109 0
-80 -10 -44 -110 0
-47 -239 -9 -59 0
-48 -240 -10 -60 0
-47 -63 -179 -9 0
-48 -64 -180 -10 0
-49 -55 -9 -349 0
-50 -56 -10 -350 0
-79 -49 -99 -9 0
-80 -50 -100 -10 0
-69 -55 -9 -119 0
-70 -56 -10 -120 0
-63 -143 -9 -59 0
-64 -144 -10 -60 0
-65 -131 -9 -59 0
-66 -132 -10 -60 0
-107 -71 -9 -59 0
-108 -72 -10 -60 0
-79 -89 -9 -59 0
-80 -90 -10 -60 0
-79 -83 -69 -9 0
-80 -84 -70 -10 0
-15 -359 -11 -319 0
-16 -360 -12 -320 0
-17 -323 -215 -11 0
-18 -324 -216 -12 0
-239 -17 -11 -269 0
-240 -18 -12 -270 0
-159 -19 -359 -11 0
-160 -20 -360 -12 0
-305 -19 -169 -11 0
-306 -20 -170 -12 0
-289 -19 -11 -173 0
-290 -20 -12 -174 0
-19 -179 -11 -269 0
-20 -180 -12 -270 0
-191 -19 -239 -11 0
-192 -20 -240 -12 0
-251 -21 -153 -11 0
-252 -22 -154 -12 0
-175 -197 -21 -11 0
-176 -198 -22 -12 0
-359 -23 -11 -119 0
-360 -24 -12 -120 0
-127 -23 -287 -11 0
-128 -24 -288 -12 0
-263 -131 -23 -11 0
-264 -132 -24 -12 0
-143 -215 -23 -11 0
-144 -216 -24 -12 0
-199 -149 -23 -11 0
-200 -150 -24 -12 0
-159 -179 -23 -11 0
-160 -180 -24 -12 0
-259 -119 -25 -11 0
-260 -120 -26 -12 0
-111 -251 -11 -27 0
-112 -252 -12 -28 0
-209 -119 -11 -27 0
-210 -120 -12 -28 0
-95 -359 -11 -29 0
-96 -360 -12 -30 0
-99 -299 -11 -29 0
-100 -300 -12 -30 0
-259 -103 -11 -29 0
-260 -104 -12 -30 0
-219 -109 -11 -29 0
-220 -110 -12 -30 0
-111 -209 -11 -29 0
-112 -210 -12 -30 0
-179 -119 -11 -29 0
-180 -120 -12 -30 0
-127 -159 -11 -29 0
-128 -160 -12 -30 0
-129 -155 -11 -29 0
-130 -156 -12 -30 0
-31 -95 -287 -11 0
-32 -96 -288 -12 0
-31 -159 -119 -11 0
-32 -160 -120 -12 0
-31 -143 -127 -11 0
-32 -144 -128 -12 0
-33 -203 -101 -11 0
-34 -204 -102 -12 0
-35 -83 -377 -11 0
-36 -84 -378 -12 0
-35 -89 -11 -269 0
-36 -90 -12 -270 0
-95 -35 -215 -11 0
-96 -36 -216 -12 0
-107 -161 -35 -11 0
-108 -162 -36 -12 0
-79 -359 -39 -11 0
-80 -360 -40 -12 0
-279 -83 -39 -11 0
-280 -84 -40 -12 0
-215 -39 -89 -11 0
-216 -40 -90 -12 0
-95 -179 -39 -11 0
-96 -180 -40 -12 0
-363 -41 -11 -77 0
-364 -42 -12 -78 0
-83 -251 -41 -11 0
-84 -252 -42 -12 0
-95 -167 -41 -11 0
-96 -168 -42 -12 0
-111 -41 -11 -125 0
-112 -42 -12 -126 0
-197 -87 -11 -43 0
-198 -88 -12 -44 0
-47 -75 -303 -11 0
-48 -76 -304 -12 0
-47 -79 -239 -11 0
-48 -80 -240 -12 0
-47 -175 -87 -11 0
-48 -176 -88 -12 0
-47 -95 -143 -11 0
-48 -96 -144 -12 0
-51 -233 -11 -77 0
-52 -234 -12 -78 0
-51 -181 -83 -11 0
-52 -182 -84 -12 0
-323 -53 -71 -11 0
-324 -54 -72 -12 0
-359 -69 -55 -11 0
-360 -70 -56 -12 0
-83 -55 -11 -167 0
-84 -56 -12 -168 0
-95 -55 -11 -125 0
-96 -56 -12 -126 0
-269 -71 -11 -59 0
-270 -72 -12 -60 0
-79 -179 -11 -59 0
-80 -180 -12 -60 0
-95 -119 -11 -59 0
-96 -120 -12 -60 0
-65 -131 -87 -11 0
-66 -132 -88 -12 0
-71 -89 -11 -119 0
-72 -90 -12 -120 0
-95 -107 -71 -11 0
-96 -108 -72 -12 0
-95 -103 -11 -77 0
-96 -104 -12 -78 0
-319 -19 -335 -13 0
-320 -20 -336 -14 0
-191 -23 -335 -13 0
-192 -24 -336 -14 0
-209 -23 -279 -13 0
-210 -24 -280 -14 0
-223 -23 -251 -13 0
-224 -24 -252 -14 0
-143 -377 -27 -13 0
-144 -378 -28 -14 0
-307 -153 -27 -13 0
-308 -154 -28 -14 0
-159 -279 -27 -13 0
-160 -280 -28 -14 0
-251 -167 -27 -13 0
-252 -168 -28 -14 0
-209 -29 -167 -13 0
-210 -30 -168 -14 0
-31 -127 -335 -13 0
-32 -128 -336 -14 0
-33 -135 -237 -13 0
-34 -136 -238 -14 0
-111 -35 -377 -13 0
-112 -36 -378 -14 0
-35 -125 -251 -13 0
-36 -126 -252 -14 0
-111 -279 -39 -13 0
-112 -280 -40 -14 0
-39 -167 -139 -13 0
-40 -168 -140 -14 0
-111 -41 -251 -13 0
-112 -42 -252 -14 0
-209 -119 -41 -13 0
-210 -120 -42 -14 0
-47 -95 -335 -13 0
-48 -96 -336 -14 0
-111 -51 -181 -13 0
-112 -52 -182 -14 0
-129 -51 -139 -13 0
-130 -52 -140 -14 0
-95 -55 -251 -13 0
-96 -56 -252 -14 0
-111 -55 -167 -13 0
-112 -56 -168 -14 0
-139 -119 -59 -13 0
-140 -120 -60 -14 0
-111 -69 -139 -13 0
-112 -70 -140 -14 0
-69 -119 -125 -13 0
-70 -120 -126 -14 0
-95 -83 -167 -13 0
-96 -84 -168 -14 0
-111 -83 -125 -13 0
-112 -84 -126 -14 0
-15 -359 -23 -319 0
-16 -360 -24 -320 0
-15 -223 -27 -335 0
-16 -224 -28 -336 0
-15 -359 -191 -29 0
-16 -360 -192 -30 0
-15 -31 -175 -351 0
-16 -32 -176 -352 0
-15 -31 -191 -287 0
-16 -32 -192 -288 0
-15 -35 -239 -179 0
-16 -36 -240 -180 0
-15 -215 -35 -191 0
-16 -216 -36 -192 0
-15 -37 -151 -303 0
-16 -38 -152 -304 0
-15 -39 -139 -335 0
-16 -40 -140 -336 0
-15 -159 -39 -239 0
-16 -160 -40 -240 0
-15 -127 -43 -351 0
-16 -128 -44 -352 0
-15 -47 -359 -119 0
-16 -48 -360 -120 0
-15 -47 -127 -287 0
-16 -48 -128 -288 0
-15 -47 -131 -263 0
-16 -48 -132 -264 0
-15 -47 -143 -215 0
-16 -48 -144 -216 0
-15 -47 -149 -199 0
-16 -48 -150 -200 0
-15 -47 -179 -159 0
-16 -48 -180 -160 0
-15 -129 -51 -239 0
-16 -130 -52 -240 0
-15 -111 -55 -335 0
-16 -112 -56 -336 0
-15 -127 -55 -223 0
-16 -128 -56 -224 0
-15 -63 -127 -191 0
-16 -64 -128 -192 0
-15 -65 -131 -175 0
-16 -66 -132 -176 0
-15 -111 -69 -239 0
-16 -112 -70 -240 0
-15 -79 -95 -359 0
-16 -80 -96 -360 0
-15 -79 -99 -299 0
-16 -80 -100 -300 0
-15 -79 -219 -109 0
-16 -80 -220 -110 0
-15 -209 -79 -111 0
-16 -210 -80 -112 0
-15 -79 -119 -179 0
-16 -80 -120 -180 0
-15 -159 -79 -127 0
-16 -160 -80 -128 0
-15 -129 -79 -155 0
-16 -130 -80 -156 0
-15 -83 -95 -335 0
-16 -84 -96 -336 0
-15 -131 -143 -87 0
-16 -132 -144 -88 0
-15 -95 -159 -119 0
-16 -96 -160 -120 0
-15 -143 -95 -127 0
-16 -144 -96 -128 0
-335 -17 -377 -27 0
-336 -18 -378 -28 0
-17 -279 -377 -29 0
-18 -280 -378 -30 0
-287 -17 -359 -29 0
-288 -18 -360 -30 0
-323 -17 -35 -215 0
-324 -18 -36 -216 0
-239 -17 -35 -269 0
-240 -18 -36 -270 0
-17 -179 -359 -39 0
-18 -180 -360 -40 0
-17 -167 -41 -377 0
-18 -168 -42 -378 0
-47 -17 -179 -239 0
-48 -18 -180 -240 0
-47 -17 -191 -215 0
-48 -18 -192 -216 0
-143 -17 -323 -53 0
-144 -18 -324 -54 0
-215 -17 -55 -167 0
-216 -18 -56 -168 0
-143 -17 -59 -269 0
-144 -18 -60 -270 0
-159 -17 -215 -59 0
-160 -18 -216 -60 0
-17 -69 -119 -377 0
-18 -70 -120 -378 0
-17 -359 -71 -119 0
-18 -360 -72 -120 0
-127 -17 -71 -287 0
-128 -18 -72 -288 0
-17 -131 -71 -263 0
-18 -132 -72 -264 0
-143 -17 -71 -215 0
-144 -18 -72 -216 0
-199 -17 -149 -71 0
-200 -18 -150 -72 0
-159 -17 -179 -71 0
-160 -18 -180 -72 0
-111 -17 -83 -377 0
-112 -18 -84 -378 0
-17 -83 -251 -125 0
-18 -84 -252 -126 0
-215 -17 -131 -87 0
-216 -18 -132 -88 0
-17 -119 -89 -269 0
-18 -120 -90 -270 0
-143 -17 -179 -89 0
-144 -18 -180 -90 0
-95 -17 -223 -125 0
-96 -18 -224 -126 0
-95 -17 -127 -215 0
-96 -18 -128 -216 0
-143 -17 -107 -161 0
-144 -18 -108 -162 0
-19 -35 -279 -377 0
-20 -36 -280 -378 0
-287 -19 -35 -359 0
-288 -20 -36 -360 0
-239 -19 -359 -39 0
-240 -20 -360 -40 0
-255 -19 -39 -319 0
-256 -20 -40 -320 0
-311 -19 -39 -259 0
-312 -20 -40 -260 0
-223 -19 -359 -41 0
-224 -20 -360 -42 0
-19 -219 -329 -43 0
-20 -220 -330 -44 0
-19 -229 -275 -45 0
-20 -230 -276 -46 0
-47 -19 -359 -191 0
-48 -20 -360 -192 0
-49 -19 -199 -299 0
-50 -20 -200 -300 0
-207 -19 -51 -259 0
-208 -20 -52 -260 0
-323 -19 -53 -179 0
-324 -20 -54 -180 0
-19 -359 -55 -167 0
-20 -360 -56 -168 0
-159 -19 -359 -59 0
-160 -20 -360 -60 0
-305 -19 -169 -59 0
-306 -20 -170 -60 0
-289 -19 -59 -173 0
-290 -20 -60 -174 0
-19 -179 -59 -269 0
-20 -180 -60 -270 0
-191 -19 -239 -59 0
-192 -20 -240 -60 0
-63 -19 -159 -319 0
-64 -20 -160 -320 0
-143 -19 -69 -377 0
-144 -20 -70 -378 0
-19 -69 -153 -307 0
-20 -70 -154 -308 0
-159 -19 -69 -279 0
-160 -20 -70 -280 0
-19 -69 -167 -251 0
-20 -70 -168 -252 0
-143 -19 -359 -71 0
-144 -20 -360 -72 0
-159 -19 -71 -269 0
-160 -20 -72 -270 0
-215 -19 -71 -179 0
-216 -20 -72 -180 0
-19 -259 -155 -77 0
-20 -260 -156 -78 0
-79 -19 -139 -335 0
-80 -20 -140 -336 0
-79 -19 -159 -239 0
-80 -20 -160 -240 0
-209 -19 -83 -167 0
-210 -20 -84 -168 0
-19 -359 -87 -131 0
-20 -360 -88 -132 0
-159 -19 -87 -219 0
-160 -20 -88 -220 0
-143 -19 -89 -269 0
-144 -20 -90 -270 0
-159 -19 -215 -89 0
-160 -20 -216 -90 0
-95 -19 -127 -359 0
-96 -20 -128 -360 0
-159 -199 -19 -99 0
-160 -200 -20 -100 0
-179 -19 -101 -169 0
-180 -20 -102 -170 0
-129 -19 -103 -311 0
-130 -20 -104 -312 0
-111 -19 -239 -139 0
-112 -20 -240 -140 0
-113 -19 -119 -379 0
-114 -20 -120 -380 0
-127 -19 -119 -287 0
-128 -20 -120 -288 0
-263 -19 -119 -131 0
-264 -20 -120 -132 0
-143 -215 -19 -119 0
-144 -216 -20 -120 0
-199 -19 -149 -119 0
-200 -20 -150 -120 0
-159 -19 -119 -179 0
-160 -20 -120 -180 0
-143 -209 -19 -125 0
-144 -210 -20 -126 0
-129 -19 -179 -155 0
-130 -20 -180 -156 0
-159 -19 -135 -169 0
-160 -20 -136 -170 0
-159 -19 -167 -139 0
-160 -20 -168 -140 0
-359 -21 -39 -329 0
-360 -22 -40 -330 0
-271 -21 -373 -43 0
-272 -22 -374 -44 0
-223 -307 -21 -55 0
-224 -308 -22 -56 0
-209 -307 -21 -59 0
-210 -308 -22 -60 0
-175 -67 -21 -373 0
-176 -68 -22 -374 0
-197 -263 -21 -71 0
-198 -264 -22 -72 0
-83 -21 -167 -307 0
-84 -22 -168 -308 0
-159 -21 -87 -329 0
-160 -22 -88 -330 0
-175 -263 -21 -87 0
-176 -264 -22 -88 0
-197 -215 -21 -87 0
-198 -216 -22 -88 0
-159 -21 -263 -109 0
-160 -22 -264 -110 0
-175 -21 -219 -109 0
-176 -22 -220 -110 0
-143 -307 -21 -125 0
-144 -308 -22 -126 0
-131 -21 -153 -251 0
-132 -22 -154 -252 0
-175 -197 -131 -21 0
-176 -198 -132 -22 0
-197 -21 -167 -153 0
-198 -22 -168 -154 0
-47 -359 -23 -319 0
-48 -360 -24 -320 0
-49 -359 -23 -299 0
-50 -360 -24 -300 0
-359 -53 -23 -269 0
-360 -54 -24 -270 0
-287 -323 -53 -23 0
-288 -324 -54 -24 0
-23 -55 -251 -377 0
-24 -56 -252 -378 0
-341 -23 -55 -265 0
-342 -24 -56 -266 0
-321 -275 -23 -55 0
-322 -276 -24 -56 0
-239 -359 -23 -59 0
-240 -360 -24 -60 0
-255 -23 -59 -319 0
-256 -24 -60 -320 0
-311 -259 -23 -59 0
-312 -260 -24 -60 0
-63 -23 -239 -319 0
-64 -24 -240 -320 0
-63 -287 -23 -255 0
-64 -288 -24 -256 0
-65 -359 -23 -219 0
-66 -360 -24 -220 0
-209 -359 -69 -23 0
-210 -360 -70 -24 0
-239 -279 -69 -23 0
-240 -280 -70 -24 0
-215 -323 -23 -71 0
-216 -324 -24 -72 0
-239 -23 -71 -269 0
-240 -24 -72 -270 0
-295 -23 -73 -221 0
-296 -24 -74 -222 0
-207 -311 -23 -77 0
-208 -312 -24 -78 0
-79 -359 -23 -191 0
-80 -360 -24 -192 0
-191 -83 -23 -335 0
-192 -84 -24 -336 0
-209 -83 -23 -279 0
-210 -84 -24 -280 0
-223 -83 -23 -251 0
-224 -84 -24 -252 0
-95 -175 -23 -351 0
-96 -176 -24 -352 0
-95 -287 -23 -191 0
-96 -288 -24 -192 0
-359 -101 -23 -169 0
-360 -102 -24 -170 0
-191 -101 -23 -271 0
-192 -102 -24 -272 0
-23 -363 -103 -167 0
-24 -364 -104 -168 0
-207 -23 -233 -103 0
-208 -24 -234 -104 0
-111 -23 -335 -167 0
-112 -24 -336 -168 0
-111 -23 -191 -251 0
-112 -24 -192 -252 0
-159 -113 -23 -379 0
-160 -114 -24 -380 0
-159 -359 -23 -119 0
-160 -360 -24 -120 0
-305 -23 -169 -119 0
-306 -24 -170 -120 0
-289 -23 -119 -173 0
-290 -24 -120 -174 0
-179 -23 -119 -269 0
-180 -24 -120 -270 0
-191 -23 -239 -119 0
-192 -24 -240 -120 0
-129 -359 -23 -155 0
-130 -360 -24 -156 0
-159 -131 -23 -329 0
-160 -132 -24 -330 0
-175 -263 -131 -23 0
-176 -264 -132 -24 0
-215 -131 -197 -23 0
-216 -132 -198 -24 0
-143 -179 -23 -239 0
-144 -180 -24 -240 0
-143 -215 -23 -191 0
-144 -216 -24 -192 0
-159 -149 -23 -299 0
-160 -150 -24 -300 0
-23 -167 -265 -151 0
-24 -168 -266 -152 0
-263 -23 -153 -167 0
-264 -24 -154 -168 0
-191 -23 -207 -155 0
-192 -24 -208 -156 0
-175 -197 -23 -191 0
-176 -198 -24 -192 0
-285 -263 -25 -77 0
-286 -264 -26 -78 0
-207 -311 -103 -25 0
-208 -312 -104 -26 0
-207 -129 -259 -25 0
-208 -130 -260 -26 0
-363 -167 -25 -155 0
-364 -168 -26 -156 0
-207 -233 -25 -155 0
-208 -234 -26 -156 0
-359 -377 -27 -59 0
-360 -378 -28 -60 0
-305 -67 -377 -27 0
-306 -68 -378 -28 0
-67 -373 -27 -307 0
-68 -374 -28 -308 0
-319 -69 -27 -335 0
-320 -70 -28 -336 0
-287 -71 -377 -27 0
-288 -72 -378 -28 0
-79 -279 -27 -335 0
-80 -280 -28 -336 0
-83 -251 -377 -27 0
-84 -252 -378 -28 0
-83 -341 -265 -27 0
-84 -342 -266 -28 0
-321 -83 -27 -275 0
-322 -84 -28 -276 0
-239 -89 -27 -377 0
-240 -90 -28 -378 0
-223 -103 -363 -27 0
-224 -104 -364 -28 0
-279 -259 -103 -27 0
-280 -260 -104 -28 0
-107 -215 -377 -27 0
-108 -216 -378 -28 0
-111 -223 -27 -335 0
-112 -224 -28 -336 0
-113 -379 -27 -209 0
-114 -380 -28 -210 0
-209 -359 -119 -27 0
-210 -360 -120 -28 0
-239 -279 -119 -27 0
-240 -280 -120 -28 0
-323 -215 -27 -125 0
-324 -216 -28 -126 0
-239 -269 -27 -125 0
-240 -270 -28 -126 0
-131 -197 -377 -27 0
-132 -198 -378 -28 0
-209 -131 -329 -27 0
-210 -132 -330 -28 0
-139 -199 -27 -349 0
-140 -200 -28 -350 0
-223 -139 -279 -27 0
-224 -140 -280 -28 0
-239 -139 -251 -27 0
-240 -140 -252 -28 0
-143 -191 -377 -27 0
-144 -192 -378 -28 0
-299 -209 -149 -27 0
-300 -210 -150 -28 0
-223 -151 -265 -27 0
-224 -152 -266 -28 0
-223 -263 -153 -27 0
-224 -264 -154 -28 0
-159 -209 -287 -27 0
-160 -210 -288 -28 0
-191 -167 -27 -335 0
-192 -168 -28 -336 0
-209 -167 -27 -279 0
-210 -168 -28 -280 0
-223 -251 -167 -27 0
-224 -252 -168 -28 0
-209 -179 -27 -269 0
-210 -180 -28 -270 0
-69 -359 -377 -29 0
-70 -360 -378 -30 0
-79 -359 -319 -29 0
-80 -360 -320 -30 0
-319 -83 -335 -29 0
-320 -84 -336 -30 0
-377 -279 -89 -29 0
-378 -280 -90 -30 0
-287 -359 -89 -29 0
-288 -360 -90 -30 0
-271 -339 -101 -29 0
-272 -340 -102 -30 0
-259 -359 -103 -29 0
-260 -360 -104 -30 0
-269 -323 -107 -29 0
-270 -324 -108 -30 0
-329 -263 -109 -29 0
-330 -264 -110 -30 0
-239 -113 -379 -29 0
-240 -114 -380 -30 0
-239 -359 -119 -29 0
-240 -360 -120 -30 0
-255 -119 -319 -29 0
-256 -120 -320 -30 0
-311 -259 -119 -29 0
-312 -260 -120 -30 0
-285 -129 -263 -29 0
-286 -130 -264 -30 0
-239 -131 -329 -29 0
-240 -132 -330 -30 0
-223 -359 -139 -29 0
-224 -360 -140 -30 0
-239 -149 -299 -29 0
-240 -150 -300 -30 0
-159 -239 -287 -29 0
-160 -240 -288 -30 0
-209 -359 -167 -29 0
-210 -360 -168 -30 0
-239 -279 -167 -29 0
-240 -280 -168 -30 0
-289 -231 -173 -29 0
-290 -232 -174 -30 0
-323 -179 -215 -29 0
-324 -180 -216 -30 0
-239 -269 -179 -29 0
-240 -270 -180 -30 0
-223 -209 -279 -29 0
-224 -210 -280 -30 0
-239 -209 -251 -29 0
-240 -210 -252 -30 0
-31 -95 -359 -319 0
-32 -96 -360 -320 0
-31 -127 -255 -383 0
-32 -128 -256 -384 0
-31 -131 -263 -351 0
-32 -132 -264 -352 0
-31 -359 -159 -239 0
-32 -360 -160 -240 0
-31 -159 -255 -319 0
-32 -160 -256 -320 0
-31 -259 -159 -311 0
-32 -260 -160 -312 0
-31 -175 -263 -287 0
-32 -176 -264 -288 0
-31 -191 -239 -319 0
-32 -192 -240 -320 0
-31 -287 -191 -255 0
-32 -288 -192 -256 0
-271 -33 -339 -169 0
-272 -34 -340 -170 0
-271 -33 -305 -203 0
-272 -34 -306 -204 0
-113 -35 -359 -379 0
-114 -36 -360 -380 0
-335 -35 -377 -125 0
-336 -36 -378 -126 0
-143 -35 -359 -319 0
-144 -36 -360 -320 0
-287 -35 -167 -377 0
-288 -36 -168 -378 0
-339 -305 -35 -169 0
-340 -306 -36 -170 0
-35 -279 -179 -377 0
-36 -280 -180 -378 0
-287 -35 -359 -179 0
-288 -36 -360 -180 0
-271 -35 -197 -373 0
-272 -36 -198 -374 0
-35 -359 -215 -269 0
-36 -360 -216 -270 0
-287 -323 -35 -215 0
-288 -324 -36 -216 0
-287 -35 -311 -233 0
-288 -36 -312 -234 0
-35 -341 -265 -251 0
-36 -342 -266 -252 0
-321 -35 -251 -275 0
-322 -36 -252 -276 0
-303 -37 -379 -189 0
-304 -38 -380 -190 0
-303 -227 -37 -341 0
-304 -228 -38 -342 0
-359 -39 -377 -167 0
-360 -40 -378 -168 0
-339 -359 -39 -203 0
-340 -360 -40 -204 0
-335 -209 -359 -39 0
-336 -210 -360 -40 0
-359 -39 -329 -219 0
-360 -40 -330 -220 0
-319 -229 -39 -367 0
-320 -230 -40 -368 0
-239 -359 -39 -319 0
-240 -360 -40 -320 0
-247 -371 -309 -39 0
-248 -372 -310 -40 0
-311 -259 -359 -39 0
-312 -260 -360 -40 0
-271 -339 -39 -319 0
-272 -340 -40 -320 0
-319 -279 -39 -335 0
-320 -280 -40 -336 0
-209 -359 -41 -377 0
-210 -360 -42 -378 0
-335 -41 -251 -377 0
-336 -42 -252 -378 0
-335 -359 -279 -41 0
-336 -360 -280 -42 0
-335 -41 -299 -349 0
-336 -42 -300 -350 0
-351 -359 -329 -43 0
-352 -360 -330 -44 0
-111 -1 -3 -13 0
-112 -2 -4 -14 0
-15 -1 -3 -63 0
-16 -2 -4 -64 0
-47 -1 -3 -17 0
-48 -2 -4 -18 0
-1 -3 -19 -39 0
-2 -4 -20 -40 0
-31 -1 -3 -23 0
-32 -2 -4 -24 0
-1 -5 -119 -9 0
-2 -6 -120 -10 0
-47 -1 -5 -11 0
-48 -2 -6 -12 0
-1 -5 -23 -17 0
-2 -6 -24 -18 0
-31 -1 -7 -11 0
-32 -2 -8 -12 0
-335 -3 -5 -41 0
-336 -4 -6 -42 0
-3 -5 -263 -43 0
-4 -6 -264 -44 0
-47 -3 -5 -191 0
-48 -4 -6 -192 0
-51 -3 -5 -155 0
-52 -4 -6 -156 0
-53 -143 -3 -5 0
-54 -144 -4 -6 0
-3 -5 -119 -59 0
-4 -6 -120 -60 0
-101 -3 -5 -67 0
-102 -4 -6 -68 0
-95 -3 -5 -71 0
-96 -4 -6 -72 0
-223 -3 -7 -27 0
-224 -4 -8 -28 0
-159 -3 -7 -29 0
-160 -4 -8 -30 0
-31 -3 -127 -7 0
-32 -4 -128 -8 0
-95 -3 -35 -7 0
-96 -4 -36 -8 0
-79 -3 -7 -39 0
-80 -4 -8 -40 0
-47 -3 -63 -7 0
-48 -4 -64 -8 0
-159 -3 -23 -9 0
-160 -4 -24 -10 0
-79 -3 -9 -29 0
-80 -4 -10 -30 0
-3 -35 -9 -59 0
-4 -36 -10 -60 0
-239 -3 -19 -11 0
-240 -4 -20 -12 0
-95 -3 -23 -11 0
-96 -4 -24 -12 0
-3 -25 -11 -77 0
-4 -26 -12 -78 0
-3 -59 -11 -29 0
-4 -60 -12 -30 0
-47 -3 -35 -11 0
-48 -4 -36 -12 0
-335 -17 -3 -13 0
-336 -18 -4 -14 0
-3 -19 -139 -13 0
-4 -20 -140 -14 0
-3 -55 -27 -13 0
-4 -56 -28 -14 0
-3 -35 -41 -13 0
-4 -36 -42 -14 0
-15 -17 -3 -191 0
-16 -18 -4 -192 0
-15 -3 -63 -23 0
-16 -4 -64 -24 0
-17 -3 -19 -89 0
-18 -4 -20 -90 0
-3 -19 -39 -29 0
-4 -20 -40 -30 0
-95 -5 -7 -383 0
-96 -6 -8 -384 0
-311 -5 -7 -103 0
-312 -6 -8 -104 0
-287 -5 -7 -107 0
-288 -6 -8 -108 0
-239 -5 -7 -119 0
-240 -6 -8 -120 0
-223 -5 -7 -125 0
-224 -6 -8 -126 0
-5 -7 -203 -135 0
-6 -8 -204 -136 0
-143 -5 -7 -191 0
-144 -6 -8 -192 0
-53 -5 -359 -9 0
-54 -6 -360 -10 0
-239 -5 -9 -59 0
-240 -6 -10 -60 0
-69 -5 -167 -9 0
-70 -6 -168 -10 0
-159 -5 -71 -9 0
-160 -6 -72 -10 0
-89 -5 -119 -9 0
-90 -6 -120 -10 0
-335 -5 -41 -11 0
-336 -6 -42 -12 0
-5 -263 -11 -43 0
-6 -264 -12 -44 0
-47 -5 -191 -11 0
-48 -6 -192 -12 0
-155 -51 -5 -11 0
-156 -52 -6 -12 0
-53 -143 -5 -11 0
-54 -144 -6 -12 0
-5 -119 -11 -59 0
-6 -120 -12 -60 0
-101 -67 -5 -11 0
-102 -68 -6 -12 0
-95 -5 -71 -11 0
-96 -6 -72 -12 0
-335 -35 -5 -13 0
-336 -36 -6 -14 0
-5 -167 -41 -13 0
-6 -168 -42 -14 0
-95 -5 -55 -13 0
-96 -6 -56 -14 0
-15 -31 -5 -383 0
-16 -32 -6 -384 0
-15 -35 -5 -191 0
-16 -36 -6 -192 0
-15 -47 -95 -5 0
-16 -48 -96 -6 0
-17 -5 -359 -29 0
-18 -6 -360 -30 0
-143 -17 -35 -5 0
-144 -18 -36 -6 0
-53 -17 -5 -71 0
-54 -18 -6 -72 0
-239 -19 -5 -29 0
-240 -20 -6 -30 0
-35 -19 -5 -119 0
-36 -20 -6 -120 0
-95 -19 -5 -39 0
-96 -20 -6 -40 0
-223 -5 -23 -27 0
-224 -6 -24 -28 0
-159 -5 -23 -29 0
-160 -6 -24 -30 0
-31 -127 -5 -23 0
-32 -128 -6 -24 0
-95 -35 -5 -23 0
-96 -36 -6 -24 0
-79 -5 -23 -39 0
-80 -6 -24 -40 0
-47 -63 -5 -23 0
-48 -64 -6 -24 0
-35 -5 -83 -27 0
-36 -6 -84 -28 0
-79 -35 -5 -29 0
-80 -36 -6 -30 0
-215 -359 -7 -9 0
-216 -360 -8 -10 0
-351 -7 -9 -219 0
-352 -8 -10 -220 0
-239 -7 -9 -319 0
-240 -8 -10 -320 0
-247 -309 -7 -9 0
-248 -310 -8 -10 0
-287 -7 -9 -269 0
-288 -8 -10 -270 0
-95 -7 -11 -383 0
-96 -8 -12 -384 0
-311 -7 -11 -103 0
-312 -8 -12 -104 0
-107 -7 -287 -11 0
-108 -8 -288 -12 0
-239 -7 -11 -119 0
-240 -8 -12 -120 0
-223 -7 -11 -125 0
-224 -8 -12 -126 0
-203 -7 -11 -135 0
-204 -8 -12 -136 0
-143 -7 -191 -11 0
-144 -8 -192 -12 0
-335 -7 -71 -13 0
-336 -8 -72 -14 0
-223 -83 -7 -13 0
-224 -84 -8 -14 0
-139 -7 -119 -13 0
-140 -8 -120 -14 0
-15 -7 -59 -319 0
-16 -8 -60 -320 0
-15 -63 -7 -255 0
-16 -64 -8 -256 0
-15 -7 -191 -71 0
-16 -8 -192 -72 0
-15 -79 -159 -7 0
-16 -80 -160 -8 0
-15 -95 -127 -7 0
-16 -96 -128 -8 0
-287 -17 -53 -7 0
-288 -18 -54 -8 0
-17 -7 -55 -251 0
-18 -8 -56 -252 0
-143 -17 -7 -71 0
-144 -18 -8 -72 0
-47 -19 -7 -319 0
-48 -20 -8 -320 0
-159 -19 -7 -59 0
-160 -20 -8 -60 0
-19 -7 -71 -119 0
-20 -8 -72 -120 0
-95 -19 -7 -89 0
-96 -20 -8 -90 0
-351 -21 -7 -43 0
-352 -22 -8 -44 0
-153 -21 -7 -55 0
-154 -22 -8 -56 0
-335 -41 -7 -23 0
-336 -42 -8 -24 0
-47 -191 -7 -23 0
-48 -192 -8 -24 0
-51 -7 -23 -155 0
-52 -8 -24 -156 0
-143 -53 -7 -23 0
-144 -54 -8 -24 0
-7 -23 -59 -119 0
-8 -24 -60 -120 0
-67 -101 -7 -23 0
-68 -102 -8 -24 0
-95 -7 -23 -71 0
-96 -8 -24 -72 0
-279 -7 -39 -27 0
-280 -8 -40 -28 0
-223 -7 -41 -27 0
-224 -8 -42 -28 0
-111 -7 -55 -27 0
-112 -8 -56 -28 0
-83 -7 -27 -71 0
-84 -8 -28 -72 0
-239 -7 -39 -29 0
-240 -8 -40 -30 0
-95 -7 -59 -29 0
-96 -8 -60 -30 0
-79 -7 -71 -29 0
-80 -8 -72 -30 0
-31 -35 -7 -383 0
-32 -36 -8 -384 0
-31 -47 -127 -7 0
-32 -48 -128 -8 0
-35 -179 -7 -39 0
-36 -180 -8 -40 0
-95 -35 -53 -7 0
-96 -36 -54 -8 0
-41 -7 -39 -139 0
-42 -8 -40 -140 0
-49 -99 -7 -39 0
-50 -100 -8 -40 0
-89 -53 -7 -39 0
-90 -54 -8 -40 0
-79 -7 -39 -59 0
-80 -8 -40 -60 0
-69 -7 -55 -59 0
-70 -8 -56 -60 0
-335 -179 -9 -13 0
-336 -180 -10 -14 0
-209 -279 -9 -13 0
-210 -280 -10 -14 0
-15 -119 -9 -319 0
-16 -120 -10 -320 0
-15 -143 -239 -9 0
-16 -144 -240 -10 0
-15 -179 -191 -9 0
-16 -180 -192 -10 0
-17 -89 -359 -9 0
-18 -90 -360 -10 0
-239 -17 -9 -107 0
-240 -18 -10 -108 0
-19 -379 -9 -75 0
-20 -380 -10 -76 0
-79 -19 -9 -319 0
-80 -20 -10 -320 0
-279 -19 -83 -9 0
-280 -20 -84 -10 0
-239 -19 -89 -9 0
-240 -20 -90 -10 0
-19 -229 -9 -91 0
-20 -230 -10 -92 0
-199 -19 -99 -9 0
-200 -20 -100 -10 0
-19 -179 -9 -107 0
-20 -180 -10 -108 0
-175 -19 -9 -109 0
-176 -20 -10 -110 0
-159 -19 -119 -9 0
-160 -20 -120 -10 0
-239 -23 -9 -71 0
-240 -24 -10 -72 0
-79 -191 -23 -9 0
-80 -192 -24 -10 0
-159 -89 -23 -9 0
-160 -90 -24 -10 0
-279 -9 -27 -59 0
-280 -10 -28 -60 0
-139 -83 -9 -27 0
-140 -84 -10 -28 0
-53 -359 -9 -29 0
-54 -360 -10 -30 0
-239 -9 -59 -29 0
-240 -10 -60 -30 0
-69 -167 -9 -29 0
-70 -168 -10 -30 0
-159 -71 -9 -29 0
-160 -72 -10 -30 0
-89 -119 -9 -29 0
-90 -120 -10 -30 0
-31 -79 -127 -9 0
-32 -80 -128 -10 0
-239 -35 -53 -9 0
-240 -36 -54 -10 0
-47 -39 -9 -319 0
-48 -40 -10 -320 0
-159 -39 -9 -59 0
-160 -40 -10 -60 0
-39 -9 -71 -119 0
-40 -10 -72 -120 0
-95 -89 -39 -9 0
-96 -90 -40 -10 0
-41 -69 -119 -9 0
-42 -70 -120 -10 0
-47 -79 -95 -9 0
-48 -80 -96 -10 0
-129 -51 -9 -59 0
-130 -52 -10 -60 0
-67 -101 -9 -59 0
-68 -102 -10 -60 0
-95 -71 -9 -59 0
-96 -72 -10 -60 0
-15 -287 -11 -383 0
-16 -288 -12 -384 0
-17 -179 -359 -11 0
-18 -180 -360 -12 0
-17 -203 -305 -11 0
-18 -204 -306 -12 0
-287 -17 -215 -11 0
-288 -18 -216 -12 0
-335 -139 -19 -11 0
-336 -140 -20 -12 0
-143 -19 -11 -319 0
-144 -20 -12 -320 0
-299 -19 -149 -11 0
-300 -20 -150 -12 0
-161 -19 -11 -269 0
-162 -20 -12 -270 0
-239 -19 -179 -11 0
-240 -20 -180 -12 0
-19 -227 -11 -189 0
-20 -228 -12 -190 0
-219 -19 -197 -11 0
-220 -20 -198 -12 0
-131 -21 -263 -11 0
-132 -22 -264 -12 0
-175 -21 -191 -11 0
-176 -22 -192 -12 0
-95 -23 -11 -383 0
-96 -24 -12 -384 0
-311 -23 -11 -103 0
-312 -24 -12 -104 0
-107 -23 -287 -11 0
-108 -24 -288 -12 0
-239 -23 -11 -119 0
-240 -24 -12 -120 0
-223 -23 -11 -125 0
-224 -24 -12 -126 0
-203 -23 -11 -135 0
-204 -24 -12 -136 0
-143 -23 -191 -11 0
-144 -24 -192 -12 0
-107 -233 -25 -11 0
-108 -234 -26 -12 0
-335 -83 -11 -27 0
-336 -84 -12 -28 0
-279 -89 -11 -27 0
-280 -90 -12 -28 0
-111 -191 -11 -27 0
-112 -192 -12 -28 0
-167 -125 -11 -27 0
-168 -126 -12 -28 0
-75 -379 -11 -29 0
-76 -380 -12 -30 0
-79 -319 -11 -29 0
-80 -320 -12 -30 0
-83 -279 -11 -29 0
-84 -280 -12 -30 0
-239 -89 -11 -29 0
-240 -90 -12 -30 0
-91 -229 -11 -29 0
-92 -230 -12 -30 0
-99 -199 -11 -29 0
-100 -200 -12 -30 0
-107 -179 -11 -29 0
-108 -180 -12 -30 0
-175 -109 -11 -29 0
-176 -110 -12 -30 0
-159 -119 -11 -29 0
-160 -120 -12 -30 0
-31 -71 -11 -383 0
-32 -72 -12 -384 0
-31 -95 -191 -11 0
-32 -96 -192 -12 0
-287 -35 -71 -11 0
-288 -36 -72 -12 0
-35 -233 -11 -77 0
-36 -234 -12 -78 0
-35 -179 -89 -11 0
-36 -180 -90 -12 0
-107 -35 -143 -11 0
-108 -36 -144 -12 0
-75 -227 -37 -11 0
-76 -228 -38 -12 0
-239 -39 -11 -71 0
-240 -40 -12 -72 0
-79 -39 -191 -11 0
-80 -40 -192 -12 0
-159 -39 -89 -11 0
-160 -40 -90 -12 0
-239 -69 -41 -11 0
-240 -70 -42 -12 0
-223 -71 -41 -11 0
-224 -72 -42 -12 0
-83 -167 -41 -11 0
-84 -168 -42 -12 0
-107 -41 -11 -125 0
-108 -42 -12 -126 0
-65 -263 -11 -43 0
-66 -264 -12 -44 0
-119 -109 -11 -43 0
-120 -110 -12 -44 0
-91 -137 -11 -45 0
-92 -138 -12 -46 0
-47 -319 -11 -59 0
-48 -320 -12 -60 0
-47 -63 -255 -11 0
-48 -64 -256 -12 0
-47 -71 -191 -11 0
-48 -72 -192 -12 0
-47 -79 -159 -11 0
-48 -80 -160 -12 0
-47 -95 -127 -11 0
-48 -96 -128 -12 0
-49 -299 -11 -59 0
-50 -300 -12 -60 0
-49 -99 -119 -11 0
-50 -100 -120 -12 0
-129 -51 -89 -11 0
-130 -52 -90 -12 0
-269 -53 -11 -59 0
-270 -54 -12 -60 0
-55 -167 -11 -71 0
-56 -168 -12 -72 0
-69 -167 -11 -59 0
-70 -168 -12 -60 0
-159 -71 -11 -59 0
-160 -72 -12 -60 0
-119 -89 -11 -59 0
-120 -90 -12 -60 0
-83 -69 -119 -11 0
-84 -70 -120 -12 0
-111 -69 -89 -11 0
-112 -70 -90 -12 0
-349 -19 -299 -13 0
-350 -20 -300 -14 0
-335 -23 -167 -13 0
-336 -24 -168 -14 0
-215 -23 -251 -13 0
-216 -24 -252 -14 0
-335 -125 -27 -13 0
-336 -126 -28 -14 0
-131 -307 -27 -13 0
-132 -308 -28 -14 0
-139 -279 -27 -13 0
-140 -280 -28 -14 0
-223 -167 -27 -13 0
-224 -168 -28 -14 0
-209 -179 -27 -13 0
-210 -180 -28 -14 0
-207 -181 -27 -13 0
-208 -182 -28 -14 0
-279 -29 -125 -13 0
-280 -30 -126 -14 0
-239 -29 -139 -13 0
-240 -30 -140 -14 0
-35 -251 -107 -13 0
-36 -252 -108 -14 0
-35 -179 -139 -13 0
-36 -180 -140 -14 0
-159 -39 -139 -13 0
-160 -40 -140 -14 0
-335 -83 -41 -13 0
-336 -84 -42 -14 0
-89 -279 -41 -13 0
-90 -280 -42 -14 0
-111 -191 -41 -13 0
-112 -192 -42 -14 0
-125 -167 -41 -13 0
-126 -168 -42 -14 0
-83 -307 -43 -13 0
-84 -308 -44 -14 0
-131 -153 -43 -13 0
-132 -154 -44 -14 0
-47 -111 -167 -13 0
-48 -112 -168 -14 0
-335 -55 -71 -13 0
-336 -56 -72 -14 0
-223 -83 -55 -13 0
-224 -84 -56 -14 0
-139 -55 -119 -13 0
-140 -56 -120 -14 0
-335 -69 -59 -13 0
-336 -70 -60 -14 0
-209 -83 -59 -13 0
-210 -84 -60 -14 0
-69 -167 -89 -13 0
-70 -168 -90 -14 0
-83 -125 -107 -13 0
-84 -126 -108 -14 0
-15 -23 -287 -383 0
-16 -24 -288 -384 0
-15 -259 -25 -319 0
-16 -260 -26 -320 0
-15 -209 -27 -319 0
-16 -210 -28 -320 0
-15 -279 -239 -27 0
-16 -280 -240 -28 0
-15 -159 -383 -29 0
-16 -160 -384 -30 0
-15 -175 -329 -29 0
-16 -176 -330 -30 0
-15 -179 -319 -29 0
-16 -180 -320 -30 0
-15 -31 -143 -383 0
-16 -32 -144 -384 0
-15 -31 -159 -319 0
-16 -32 -160 -320 0
-15 -31 -191 -255 0
-16 -32 -192 -256 0
-15 -35 -143 -287 0
-16 -36 -144 -288 0
-15 -39 -119 -319 0
-16 -40 -120 -320 0
-15 -143 -39 -239 0
-16 -144 -40 -240 0
-15 -179 -39 -191 0
-16 -180 -40 -192 0
-15 -111 -41 -335 0
-16 -112 -42 -336 0
-15 -143 -223 -41 0
-16 -144 -224 -42 0
-15 -191 -167 -41 0
-16 -192 -168 -42 0
-15 -319 -43 -109 0
-16 -320 -44 -110 0
-15 -111 -43 -307 0
-16 -112 -44 -308 0
-15 -47 -95 -383 0
-16 -48 -96 -384 0
-15 -47 -103 -311 0
-16 -48 -104 -312 0
-15 -47 -287 -107 0
-16 -48 -288 -108 0
-15 -47 -119 -239 0
-16 -48 -120 -240 0
-15 -47 -223 -125 0
-16 -48 -224 -126 0
-15 -47 -135 -203 0
-16 -48 -136 -204 0
-15 -47 -143 -191 0
-16 -48 -144 -192 0
-15 -49 -99 -319 0
-16 -50 -100 -320 0
-15 -111 -55 -223 0
-16 -112 -56 -224 0
-15 -55 -191 -125 0
-16 -56 -192 -126 0
-15 -143 -55 -167 0
-16 -144 -56 -168 0
-15 -89 -59 -319 0
-16 -90 -60 -320 0
-15 -209 -111 -59 0
-16 -210 -112 -60 0
-15 -119 -191 -59 0
-16 -120 -192 -60 0
-15 -159 -143 -59 0
-16 -160 -144 -60 0
-15 -63 -95 -255 0
-16 -64 -96 -256 0
-15 -83 -69 -319 0
-16 -84 -70 -320 0
-15 -79 -359 -71 0
-16 -80 -360 -72 0
-15 -71 -191 -107 0
-16 -72 -192 -108 0
-15 -103 -191 -77 0
-16 -104 -192 -78 0
-15 -279 -79 -83 0
-16 -280 -80 -84 0
-15 -79 -239 -89 0
-16 -80 -240 -90 0
-15 -79 -229 -91 0
-16 -80 -230 -92 0
-15 -199 -79 -99 0
-16 -200 -80 -100 0
-15 -79 -179 -107 0
-16 -80 -180 -108 0
-15 -79 -159 -119 0
-16 -80 -160 -120 0
-15 -111 -119 -139 0
-16 -112 -120 -140 0
-17 -323 -377 -27 0
-18 -324 -378 -28 0
-269 -17 -359 -29 0
-270 -18 -360 -30 0
-31 -17 -215 -383 0
-32 -18 -216 -384 0
-17 -35 -359 -179 0
-18 -36 -360 -180 0
-17 -35 -305 -203 0
-18 -36 -306 -204 0
-287 -17 -35 -215 0
-288 -18 -36 -216 0
-287 -17 -179 -39 0
-288 -18 -180 -40 0
-215 -17 -39 -239 0
-216 -18 -40 -240 0
-287 -17 -167 -41 0
-288 -18 -168 -42 0
-223 -17 -215 -41 0
-224 -18 -216 -42 0
-47 -17 -143 -287 0
-48 -18 -144 -288 0
-17 -51 -233 -155 0
-18 -52 -234 -156 0
-161 -17 -53 -215 0
-162 -18 -54 -216 0
-287 -17 -55 -125 0
-288 -18 -56 -126 0
-107 -17 -359 -59 0
-108 -18 -360 -60 0
-287 -17 -119 -59 0
-288 -18 -120 -60 0
-17 -67 -305 -107 0
-18 -68 -306 -108 0
-95 -17 -71 -383 0
-96 -18 -72 -384 0
-17 -71 -103 -311 0
-18 -72 -104 -312 0
-287 -17 -71 -107 0
-288 -18 -72 -108 0
-239 -17 -71 -119 0
-240 -18 -72 -120 0
-223 -17 -71 -125 0
-224 -18 -72 -126 0
-17 -71 -203 -135 0
-18 -72 -204 -136 0
-143 -17 -71 -191 0
-144 -18 -72 -192 0
-287 -17 -103 -77 0
-288 -18 -104 -78 0
-79 -17 -179 -143 0
-80 -18 -180 -144 0
-17 -83 -251 -107 0
-18 -84 -252 -108 0
-17 -83 -179 -139 0
-18 -84 -180 -140 0
-239 -17 -89 -107 0
-240 -18 -90 -108 0
-31 -19 -359 -383 0
-32 -20 -360 -384 0
-19 -35 -359 -269 0
-20 -36 -360 -270 0
-19 -37 -379 -227 0
-20 -38 -380 -228 0
-215 -19 -359 -39 0
-216 -20 -360 -40 0
-351 -19 -39 -219 0
-352 -20 -40 -220 0
-239 -19 -39 -319 0
-240 -20 -40 -320 0
-247 -19 -309 -39 0
-248 -20 -310 -40 0
-287 -19 -39 -269 0
-288 -20 -40 -270 0
-335 -209 -19 -41 0
-336 -210 -20 -42 0
-19 -279 -41 -251 0
-20 -280 -42 -252 0
-19 -197 -329 -43 0
-20 -198 -330 -44 0
-209 -19 -43 -307 0
-210 -20 -44 -308 0
-47 -19 -159 -383 0
-48 -20 -160 -384 0
-47 -19 -175 -329 0
-48 -20 -176 -330 0
-47 -19 -179 -319 0
-48 -20 -180 -320 0
-49 -19 -179 -299 0
-50 -20 -180 -300 0
-181 -19 -51 -279 0
-182 -20 -52 -280 0
-19 -53 -179 -269 0
-20 -54 -180 -270 0
-279 -19 -55 -167 0
-280 -20 -56 -168 0
-223 -209 -19 -55 0
-224 -210 -20 -56 0
-335 -139 -19 -59 0
-336 -140 -20 -60 0
-143 -19 -59 -319 0
-144 -20 -60 -320 0
-299 -19 -149 -59 0
-300 -20 -150 -60 0
-161 -19 -59 -269 0
-162 -20 -60 -270 0
-239 -19 -179 -59 0
-240 -20 -180 -60 0
-19 -227 -59 -189 0
-20 -228 -60 -190 0
-219 -19 -197 -59 0
-220 -20 -198 -60 0
-63 -19 -159 -255 0
-64 -20 -160 -256 0
-65 -19 -131 -329 0
-66 -20 -132 -330 0
-65 -19 -179 -219 0
-66 -20 -180 -220 0
-335 -19 -69 -125 0
-336 -20 -70 -126 0
-19 -69 -131 -307 0
-20 -70 -132 -308 0
-19 -69 -279 -139 0
-20 -70 -280 -140 0
-223 -19 -69 -167 0
-224 -20 -70 -168 0
-209 -19 -69 -179 0
-210 -20 -70 -180 0
-181 -19 -69 -207 0
-182 -20 -70 -208 0
-113 -19 -379 -75 0
-114 -20 -380 -76 0
-79 -19 -119 -319 0
-80 -20 -120 -320 0
-79 -19 -143 -239 0
-80 -20 -144 -240 0
-79 -19 -191 -179 0
-80 -20 -192 -180 0
-279 -19 -83 -125 0
-280 -20 -84 -126 0
-239 -19 -83 -139 0
-240 -20 -84 -140 0
-351 -19 -87 -109 0
-352 -20 -88 -110 0
-19 -359 -89 -107 0
-20 -360 -90 -108 0
-287 -19 -119 -89 0
-288 -20 -120 -90 0
-19 -229 -137 -91 0
-20 -230 -138 -92 0
-95 -19 -159 -191 0
-96 -20 -160 -192 0
-199 -19 -149 -99 0
-200 -20 -150 -100 0
-19 -103 -119 -259 0
-20 -104 -120 -260 0
-161 -19 -179 -107 0
-162 -20 -180 -108 0
-19 -131 -219 -109 0
-20 -132 -220 -110 0
-223 -19 -119 -125 0
-224 -20 -120 -126 0
-19 -119 -203 -135 0
-20 -120 -204 -136 0
-143 -19 -119 -191 0
-144 -20 -120 -192 0
-351 -21 -39 -329 0
-352 -22 -40 -330 0
-335 -307 -21 -41 0
-336 -308 -22 -42 0
-351 -21 -263 -43 0
-352 -22 -264 -44 0
-47 -21 -239 -329 0
-48 -22 -240 -330 0
-179 -21 -329 -59 0
-180 -22 -330 -60 0
-219 -21 -263 -59 0
-220 -22 -264 -60 0
-197 -65 -21 -263 0
-198 -66 -22 -264 0
-239 -65 -21 -219 0
-240 -66 -22 -220 0
-79 -143 -21 -329 0
-80 -144 -22 -330 0
-83 -21 -329 -139 0
-84 -22 -330 -140 0
-351 -131 -21 -87 0
-352 -132 -22 -88 0
-351 -21 -119 -109 0
-352 -22 -120 -110 0
-175 -131 -21 -191 0
-176 -132 -22 -192 0
-351 -23 -43 -383 0
-352 -24 -44 -384 0
-47 -23 -287 -383 0
-48 -24 -288 -384 0
-223 -23 -55 -383 0
-224 -24 -56 -384 0
-233 -23 -55 -363 0
-234 -24 -56 -364 0
-335 -23 -55 -251 0
-336 -24 -56 -252 0
-231 -23 -57 -347 0
-232 -24 -58 -348 0
-215 -359 -23 -59 0
-216 -360 -24 -60 0
-351 -219 -23 -59 0
-352 -220 -24 -60 0
-239 -23 -59 -319 0
-240 -24 -60 -320 0
-247 -309 -23 -59 0
-248 -310 -24 -60 0
-287 -23 -59 -269 0
-288 -24 -60 -270 0
-63 -23 -191 -383 0
-64 -24 -192 -384 0
-351 -65 -197 -23 0
-352 -66 -198 -24 0
-215 -305 -67 -23 0
-216 -306 -68 -24 0
-179 -359 -23 -71 0
-180 -360 -24 -72 0
-305 -203 -23 -71 0
-306 -204 -24 -72 0
-215 -23 -287 -71 0
-216 -24 -288 -72 0
-23 -167 -363 -77 0
-24 -168 -364 -78 0
-79 -159 -23 -383 0
-80 -160 -24 -384 0
-79 -175 -23 -329 0
-80 -176 -24 -330 0
-79 -179 -23 -319 0
-80 -180 -24 -320 0
-335 -83 -23 -167 0
-336 -84 -24 -168 0
-215 -83 -23 -251 0
-216 -84 -24 -252 0
-263 -197 -23 -87 0
-264 -198 -24 -88 0
-239 -219 -23 -87 0
-240 -220 -24 -88 0
-287 -179 -23 -89 0
-288 -180 -24 -90 0
-215 -239 -23 -89 0
-216 -240 -24 -90 0
-275 -23 -91 -183 0
-276 -24 -92 -184 0
-95 -143 -23 -383 0
-96 -144 -24 -384 0
-95 -159 -23 -319 0
-96 -160 -24 -320 0
-95 -255 -23 -191 0
-96 -256 -24 -192 0
-97 -293 -23 -167 0
-98 -294 -24 -168 0
-199 -99 -23 -239 0
-200 -100 -24 -240 0
-179 -23 -103 -259 0
-180 -24 -104 -260 0
-287 -161 -23 -107 0
-288 -162 -24 -108 0
-111 -143 -23 -335 0
-112 -144 -24 -336 0
-303 -113 -23 -151 0
-304 -114 -24 -152 0
-113 -23 -265 -167 0
-114 -24 -266 -168 0
-335 -139 -23 -119 0
-336 -140 -24 -120 0
-143 -23 -119 -319 0
-144 -24 -120 -320 0
-299 -149 -23 -119 0
-300 -150 -24 -120 0
-161 -23 -119 -269 0
-162 -24 -120 -270 0
-239 -179 -23 -119 0
-240 -180 -24 -120 0
-227 -23 -119 -189 0
-228 -24 -120 -190 0
-219 -197 -23 -119 0
-220 -198 -24 -120 0
-239 -23 -169 -135 0
-240 -24 -170 -136 0
-239 -23 -139 -167 0
-240 -24 -140 -168 0
-223 -179 -23 -139 0
-224 -180 -24 -140 0
-209 -179 -23 -167 0
-210 -180 -24 -168 0
-207 -181 -23 -167 0
-208 -182 -24 -168 0
-311 -55 -25 -363 0
-312 -56 -26 -364 0
-65 -311 -25 -285 0
-66 -312 -26 -286 0
-233 -311 -25 -77 0
-234 -312 -26 -78 0
-103 -25 -363 -167 0
-104 -26 -364 -168 0
-129 -181 -279 -25 0
-130 -182 -280 -26 0
-143 -233 -207 -25 0
-144 -234 -208 -26 0
-179 -25 -155 -259 0
-180 -26 -156 -260 0
-299 -69 -27 -349 0
-300 -70 -28 -350 0
-279 -359 -71 -27 0
-280 -360 -72 -28 0
-251 -363 -27 -77 0
-252 -364 -28 -78 0
-79 -279 -27 -319 0
-80 -280 -28 -320 0
-223 -83 -27 -383 0
-224 -84 -28 -384 0
-83 -363 -233 -27 0
-84 -364 -234 -28 0
-335 -83 -251 -27 0
-336 -84 -252 -28 0
-263 -307 -87 -27 0
-264 -308 -88 -28 0
-287 -279 -89 -27 0
-288 -280 -90 -28 0
-95 -223 -27 -335 0
-96 -224 -28 -336 0
-97 -251 -293 -27 0
-98 -252 -294 -28 0
-209 -99 -27 -349 0
-210 -100 -28 -350 0
-219 -307 -27 -109 0
-220 -308 -28 -110 0
-111 -209 -27 -319 0
-112 -210 -28 -320 0
-111 -279 -239 -27 0
-112 -280 -240 -28 0
-113 -251 -265 -27 0
-114 -252 -266 -28 0
-179 -359 -27 -125 0
-180 -360 -28 -126 0
-305 -203 -27 -125 0
-306 -204 -28 -126 0
-287 -215 -27 -125 0
-288 -216 -28 -126 0
-131 -197 -27 -307 0
-132 -198 -28 -308 0
-335 -139 -179 -27 0
-336 -140 -180 -28 0
-139 -279 -27 -209 0
-140 -280 -28 -210 0
-351 -167 -153 -27 0
-352 -168 -154 -28 0
-155 -181 -311 -27 0
-156 -182 -312 -28 0
-215 -251 -167 -27 0
-216 -252 -168 -28 0
-79 -383 -287 -29 0
-80 -384 -288 -30 0
-349 -83 -299 -29 0
-350 -84 -300 -30 0
-269 -359 -89 -29 0
-270 -360 -90 -30 0
-95 -239 -383 -29 0
-96 -240 -384 -30 0
-95 -287 -319 -29 0
-96 -288 -320 -30 0
-349 -99 -251 -29 0
-350 -100 -252 -30 0
-271 -101 -319 -29 0
-272 -102 -320 -30 0
-111 -239 -335 -29 0
-112 -240 -336 -30 0
-111 -319 -251 -29 0
-112 -320 -252 -30 0
-215 -359 -119 -29 0
-216 -360 -120 -30 0
-351 -119 -219 -29 0
-352 -120 -220 -30 0
-239 -119 -319 -29 0
-240 -120 -320 -30 0
-247 -309 -119 -29 0
-248 -310 -120 -30 0
-269 -119 -287 -29 0
-270 -120 -288 -30 0
-209 -359 -125 -29 0
-210 -360 -126 -30 0
-269 -279 -125 -29 0
-270 -280 -126 -30 0
-129 -311 -233 -29 0
-130 -312 -234 -30 0
-131 -329 -219 -29 0
-132 -330 -220 -30 0
-335 -209 -139 -29 0
-336 -210 -140 -30 0
-251 -279 -139 -29 0
-252 -280 -140 -30 0
-143 -215 -319 -29 0
-144 -216 -320 -30 0
-143 -239 -287 -29 0
-144 -240 -288 -30 0
-207 -319 -155 -29 0
-208 -320 -156 -30 0
-159 -179 -383 -29 0
-160 -180 -384 -30 0
-175 -197 -319 -29 0
-176 -198 -320 -30 0
-175 -263 -239 -29 0
-176 -264 -240 -30 0
-305 -179 -203 -29 0
-306 -180 -204 -30 0
-287 -179 -215 -29 0
-288 -180 -216 -30 0
-191 -239 -255 -29 0
-192 -240 -256 -30 0
-31 -79 -359 -383 0
-32 -80 -360 -384 0
-31 -83 -335 -383 0
-32 -84 -336 -384 0
-31 -95 -287 -383 0
-32 -96 -288 -384 0
-31 -101 -271 -383 0
-32 -102 -272 -384 0
-31 -111 -251 -383 0
-32 -112 -252 -384 0
-31 -111 -287 -335 0
-32 -112 -288 -336 0
-31 -119 -239 -383 0
-32 -120 -240 -384 0
-31 -119 -287 -319 0
-32 -120 -288 -320 0
-31 -143 -215 -383 0
-32 -144 -216 -384 0
-31 -223 -153 -351 0
-32 -224 -154 -352 0
-31 -207 -155 -383 0
-32 -208 -156 -384 0
-31 -359 -159 -215 0
-32 -360 -160 -216 0
-31 -159 -239 -319 0
-32 -160 -240 -320 0
-31 -159 -247 -309 0
-32 -160 -248 -310 0
-31 -159 -287 -269 0
-32 -160 -288 -270 0
-31 -197 -175 -383 0
-32 -198 -176 -384 0
-31 -321 -183 -223 0
-32 -322 -184 -224 0
-31 -279 -223 -239 0
-32 -280 -224 -240 0
-33 -373 -135 -263 0
-34 -374 -136 -264 0
-271 -33 -169 -319 0
-272 -34 -170 -320 0
-335 -33 -203 -237 0
-336 -34 -204 -238 0
-323 -35 -377 -125 0
-324 -36 -378 -126 0
-35 -359 -131 -329 0
-36 -360 -132 -330 0
-143 -35 -287 -383 0
-144 -36 -288 -384 0
-35 -149 -359 -299 0
-36 -150 -360 -300 0
-159 -35 -383 -269 0
-160 -36 -384 -270 0
-159 -35 -359 -287 0
-160 -36 -360 -288 0
-279 -35 -359 -167 0
-280 -36 -360 -168 0
-35 -359 -179 -269 0
-36 -360 -180 -270 0
-351 -35 -197 -263 0
-352 -36 -198 -264 0
-339 -35 -203 -269 0
-340 -36 -204 -270 0
-209 -35 -359 -251 0
-210 -36 -360 -252 0
-335 -209 -35 -269 0
-336 -210 -36 -270 0
-35 -329 -219 -269 0
-36 -330 -220 -270 0
-239 -35 -319 -269 0
-240 -36 -320 -270 0
-269 -35 -311 -259 0
-270 -36 -312 -260 0
-159 -359 -39 -383 0
-160 -360 -40 -384 0
-191 -39 -319 -383 0
-192 -40 -320 -384 0
-215 -323 -359 -39 0
-216 -324 -360 -40 0
-351 -39 -329 -219 0
-352 -40 -330 -220 0
-311 -359 -39 -233 0
-312 -360 -40 -234 0
-239 -39 -287 -383 0
-240 -40 -288 -384 0
-279 -39 -265 -379 0
-280 -40 -266 -380 0
-279 -39 -377 -269 0
-280 -40 -378 -270 0
-279 -39 -299 -349 0
-280 -40 -300 -350 0
-223 -41 -335 -383 0
-224 -42 -336 -384 0
-323 -41 -251 -377 0
-324 -42 -252 -378 0
-367 -321 -275 -41 0
-368 -322 -276 -42 0
-351 -263 -43 -383 0
-352 -264 -44 -384 0
-1 -21 -9 -219 0
-2 -22 -10 -220 0
-1 -23 -9 -119 0
-2 -24 -10 -120 0
-1 -69 -9 -27 0
-2 -70 -10 -28 0
-1 -9 -59 -29 0
-2 -10 -60 -30 0
-1 -83 -11 -13 0
-2 -84 -12 -14 0
-1 -19 -11 -29 0
-2 -20 -12 -30 0
-17 -3 -359 -89 0
-18 -4 -360 -90 0
-95 -17 -3 -287 0
-96 -18 -4 -288 0
-17 -3 -103 -233 0
-18 -4 -104 -234 0
-17 -3 -215 -107 0
-18 -4 -216 -108 0
-17 -3 -119 -179 0
-18 -4 -120 -180 0
-17 -3 -167 -125 0
-18 -4 -168 -126 0
-47 -3 -19 -239 0
-48 -4 -20 -240 0
-49 -3 -19 -199 0
-50 -4 -20 -200 0
-3 -19 -55 -139 0
-4 -20 -56 -140 0
-3 -19 -119 -59 0
-4 -20 -120 -60 0
-3 -19 -71 -89 0
-4 -20 -72 -90 0
-3 -21 -39 -109 0
-4 -22 -40 -110 0
-3 -21 -87 -43 0
-4 -22 -88 -44 0
-311 -3 -23 -25 0
-312 -4 -24 -26 0
-3 -23 -27 -167 0
-4 -24 -28 -168 0
-3 -23 -39 -59 0
-4 -24 -40 -60 0
-3 -55 -23 -41 0
-4 -56 -24 -42 0
-107 -5 -377 -27 0
-108 -6 -378 -28 0
-111 -5 -27 -335 0
-112 -6 -28 -336 0
-279 -5 -119 -27 0
-280 -6 -120 -28 0
-251 -5 -27 -125 0
-252 -6 -28 -126 0
-139 -5 -27 -209 0
-140 -6 -28 -210 0
-155 -181 -5 -27 0
-156 -182 -6 -28 0
-359 -5 -71 -29 0
-360 -6 -72 -30 0
-259 -5 -77 -29 0
-260 -6 -78 -30 0
-79 -5 -239 -29 0
-80 -6 -240 -30 0
-209 -83 -5 -29 0
-210 -84 -6 -30 0
-179 -5 -89 -29 0
-180 -6 -90 -30 0
-95 -159 -5 -29 0
-96 -160 -6 -30 0
-149 -99 -5 -29 0
-150 -100 -6 -30 0
-131 -5 -109 -29 0
-132 -6 -110 -30 0
-31 -5 -55 -335 0
-32 -6 -56 -336 0
-31 -5 -239 -59 0
-32 -6 -240 -60 0
-31 -63 -5 -191 0
-32 -64 -6 -192 0
-31 -65 -5 -175 0
-32 -66 -6 -176 0
-31 -143 -5 -71 0
-32 -144 -6 -72 0
-31 -79 -5 -119 0
-32 -80 -6 -120 0
-31 -111 -83 -5 0
-32 -112 -84 -6 0
-33 -67 -5 -101 0
-34 -68 -6 -102 0
-359 -35 -5 -39 0
-360 -36 -6 -40 0
-35 -5 -41 -251 0
-36 -6 -42 -252 0
-197 -35 -5 -43 0
-198 -36 -6 -44 0
-35 -5 -89 -59 0
-36 -6 -90 -60 0
-239 -35 -359 -7 0
-240 -36 -360 -8 0
-335 -35 -7 -251 0
-336 -36 -8 -252 0
-271 -305 -35 -7 0
-272 -306 -36 -8 0
-143 -37 -7 -341 0
-144 -38 -8 -342 0
-303 -37 -7 -151 0
-304 -38 -8 -152 0
-111 -279 -7 -39 0
-112 -280 -8 -40 0
-239 -7 -39 -119 0
-240 -8 -40 -120 0
-207 -129 -7 -39 0
-208 -130 -8 -40 0
-143 -179 -7 -39 0
-144 -180 -8 -40 0
-335 -83 -7 -41 0
-336 -84 -8 -42 0
-95 -223 -7 -41 0
-96 -224 -8 -42 0
-111 -7 -41 -167 0
-112 -8 -42 -168 0
-143 -7 -41 -125 0
-144 -8 -42 -126 0
-79 -219 -7 -43 0
-80 -220 -8 -44 0
-175 -7 -43 -87 0
-176 -8 -44 -88 0
-47 -7 -55 -335 0
-48 -8 -56 -336 0
-47 -65 -175 -7 0
-48 -66 -176 -8 0
-47 -79 -7 -119 0
-48 -80 -8 -120 0
-47 -83 -111 -7 0
-48 -84 -112 -8 0
-79 -49 -99 -7 0
-80 -50 -100 -8 0
-79 -69 -7 -55 0
-80 -70 -8 -56 0
-47 -179 -359 -9 0
-48 -180 -360 -10 0
-47 -191 -9 -319 0
-48 -192 -10 -320 0
-47 -199 -9 -299 0
-48 -200 -10 -300 0
-47 -209 -279 -9 0
-48 -210 -280 -10 0
-47 -215 -9 -269 0
-48 -216 -10 -270 0
-47 -263 -9 -219 0
-48 -264 -10 -220 0
-49 -9 -139 -349 0
-50 -10 -140 -350 0
-49 -149 -9 -299 0
-50 -150 -10 -300 0
-311 -51 -119 -9 0
-312 -52 -120 -10 0
-129 -51 -9 -259 0
-130 -52 -10 -260 0
-53 -9 -107 -269 0
-54 -10 -108 -270 0
-215 -53 -119 -9 0
-216 -54 -120 -10 0
-55 -9 -119 -167 0
-56 -10 -120 -168 0
-359 -71 -9 -59 0
-360 -72 -10 -60 0
-259 -9 -59 -77 0
-260 -10 -60 -78 0
-209 -83 -9 -59 0
-210 -84 -10 -60 0
-95 -159 -9 -59 0
-96 -160 -10 -60 0
-99 -149 -9 -59 0
-100 -150 -10 -60 0
-131 -9 -59 -109 0
-132 -10 -60 -110 0
-63 -69 -223 -9 0
-64 -70 -224 -10 0
-63 -95 -119 -9 0
-64 -96 -120 -10 0
-65 -87 -9 -119 0
-66 -88 -10 -120 0
-311 -55 -363 -11 0
-312 -56 -364 -12 0
-347 -231 -57 -11 0
-348 -232 -58 -12 0
-179 -359 -11 -59 0
-180 -360 -12 -60 0
-191 -319 -11 -59 0
-192 -320 -12 -60 0
-299 -199 -11 -59 0
-300 -200 -12 -60 0
-209 -279 -11 -59 0
-210 -280 -12 -60 0
-269 -215 -11 -59 0
-270 -216 -12 -60 0
-219 -263 -11 -59 0
-220 -264 -12 -60 0
-247 -185 -11 -61 0
-248 -186 -12 -62 0
-63 -127 -11 -383 0
-64 -128 -12 -384 0
-63 -131 -11 -351 0
-64 -132 -12 -352 0
-63 -143 -287 -11 0
-64 -144 -288 -12 0
-63 -159 -239 -11 0
-64 -160 -240 -12 0
-63 -167 -223 -11 0
-64 -168 -224 -12 0
-65 -119 -329 -11 0
-66 -120 -330 -12 0
-65 -131 -263 -11 0
-66 -132 -264 -12 0
-67 -203 -135 -11 0
-68 -204 -136 -12 0
-111 -69 -239 -11 0
-112 -70 -240 -12 0
-209 -69 -119 -11 0
-210 -70 -120 -12 0
-139 -69 -167 -11 0
-140 -70 -168 -12 0
-71 -233 -11 -103 0
-72 -234 -12 -104 0
-179 -71 -11 -119 0
-180 -72 -12 -120 0
-71 -167 -11 -125 0
-72 -168 -12 -126 0
-75 -113 -151 -11 0
-76 -114 -152 -12 0
-129 -119 -11 -77 0
-130 -120 -12 -78 0
-79 -209 -83 -11 0
-80 -210 -84 -12 0
-79 -179 -89 -11 0
-80 -180 -90 -12 0
-79 -99 -149 -11 0
-80 -100 -150 -12 0
-79 -131 -11 -109 0
-80 -132 -12 -110 0
-83 -87 -153 -11 0
-84 -88 -154 -12 0
-339 -69 -237 -13 0
-340 -70 -238 -14 0
-239 -69 -335 -13 0
-240 -70 -336 -14 0
-223 -71 -287 -13 0
-224 -72 -288 -14 0
-79 -359 -125 -13 0
-80 -360 -126 -14 0
-79 -279 -139 -13 0
-80 -280 -140 -14 0
-79 -159 -223 -13 0
-80 -160 -224 -14 0
-79 -209 -167 -13 0
-80 -210 -168 -14 0
-83 -377 -107 -13 0
-84 -378 -108 -14 0
-279 -83 -119 -13 0
-280 -84 -120 -14 0
-209 -83 -139 -13 0
-210 -84 -140 -14 0
-83 -181 -155 -13 0
-84 -182 -156 -14 0
-197 -87 -125 -13 0
-198 -88 -126 -14 0
-125 -179 -89 -13 0
-126 -180 -90 -14 0
-95 -143 -125 -13 0
-96 -144 -126 -14 0
-15 -79 -359 -287 0
-16 -80 -360 -288 0
-15 -83 -223 -335 0
-16 -84 -224 -336 0
-15 -83 -287 -251 0
-16 -84 -288 -252 0
-15 -175 -87 -351 0
-16 -176 -88 -352 0
-15 -197 -87 -287 0
-16 -198 -88 -288 0
-15 -159 -359 -89 0
-16 -160 -360 -90 0
-15 -179 -287 -89 0
-16 -180 -288 -90 0
-15 -95 -131 -351 0
-16 -96 -132 -352 0
-15 -95 -159 -239 0
-16 -96 -160 -240 0
-15 -95 -167 -223 0
-16 -96 -168 -224 0
-15 -99 -159 -199 0
-16 -100 -160 -200 0
-15 -111 -159 -139 0
-16 -112 -160 -140 0
-17 -341 -89 -379 0
-18 -342 -90 -380 0
-95 -17 -359 -239 0
-96 -18 -360 -240 0
-95 -17 -251 -335 0
-96 -18 -252 -336 0
-95 -17 -305 -271 0
-96 -18 -306 -272 0
-17 -293 -251 -97 0
-18 -294 -252 -98 0
-17 -99 -359 -199 0
-18 -100 -360 -200 0
-17 -305 -101 -203 0
-18 -306 -102 -204 0
-17 -101 -251 -237 0
-18 -102 -252 -238 0
-17 -197 -103 -285 0
-18 -198 -104 -286 0
-17 -179 -107 -269 0
-18 -180 -108 -270 0
-17 -197 -219 -109 0
-18 -198 -220 -110 0
-111 -17 -359 -139 0
-112 -18 -360 -140 0
-111 -17 -167 -251 0
-112 -18 -168 -252 0
-17 -251 -119 -139 0
-18 -252 -120 -140 0
-17 -181 -155 -125 0
-18 -182 -156 -126 0
-19 -359 -107 -269 0
-20 -360 -108 -270 0
-19 -263 -329 -109 0
-20 -264 -330 -110 0
-19 -279 -307 -109 0
-20 -280 -308 -110 0
-111 -339 -19 -237 0
-112 -340 -20 -238 0
-111 -19 -239 -335 0
-112 -20 -240 -336 0
-239 -113 -19 -303 0
-240 -114 -20 -304 0
-231 -289 -19 -115 0
-232 -290 -20 -116 0
-191 -19 -119 -319 0
-192 -20 -120 -320 0
-199 -19 -119 -299 0
-200 -20 -120 -300 0
-209 -19 -119 -279 0
-210 -20 -120 -280 0
-215 -19 -119 -269 0
-216 -20 -120 -270 0
-263 -19 -119 -219 0
-264 -20 -120 -220 0
-19 -279 -179 -125 0
-20 -280 -180 -126 0
-127 -19 -191 -239 0
-128 -20 -192 -240 0
-129 -19 -311 -155 0
-130 -20 -312 -156 0
-175 -19 -239 -131 0
-176 -20 -240 -132 0
-129 -259 -21 -285 0
-130 -260 -22 -286 0
-131 -21 -373 -203 0
-132 -22 -374 -204 0
-131 -21 -329 -219 0
-132 -22 -330 -220 0
-143 -197 -21 -263 0
-144 -198 -22 -264 0
-263 -21 -167 -153 0
-264 -22 -168 -154 0
-367 -275 -23 -137 0
-368 -276 -24 -138 0
-335 -279 -23 -139 0
-336 -280 -24 -140 0
-143 -359 -23 -239 0
-144 -360 -24 -240 0
-143 -23 -251 -335 0
-144 -24 -252 -336 0
-143 -305 -23 -271 0
-144 -306 -24 -272 0
-239 -149 -23 -299 0
-240 -150 -24 -300 0
-303 -227 -23 -151 0
-304 -228 -24 -152 0
-239 -259 -23 -155 0
-240 -260 -24 -156 0
-159 -179 -359 -23 0
-160 -180 -360 -24 0
-159 -199 -23 -299 0
-160 -200 -24 -300 0
-159 -209 -23 -279 0
-160 -210 -24 -280 0
-159 -215 -23 -269 0
-160 -216 -24 -270 0
-159 -263 -23 -219 0
-160 -264 -24 -220 0
-175 -307 -23 -167 0
-176 -308 -24 -168 0
-239 -209 -23 -167 0
-240 -210 -24 -168 0
-239 -23 -169 -203 0
-240 -24 -170 -204 0
-153 -25 -363 -285 0
-154 -26 -364 -286 0
-179 -233 -25 -259 0
-180 -234 -26 -260 0
-233 -181 -25 -251 0
-234 -182 -26 -252 0
-311 -167 -363 -27 0
-312 -168 -364 -28 0
-179 -251 -359 -27 0
-180 -252 -360 -28 0
-279 -265 -27 -189 0
-280 -266 -28 -190 0
-191 -251 -287 -27 0
-192 -252 -288 -28 0
-251 -197 -263 -27 0
-252 -198 -264 -28 0
-207 -251 -233 -27 0
-208 -252 -234 -28 0
-209 -215 -27 -269 0
-210 -216 -28 -270 0
-209 -219 -263 -27 0
-210 -220 -264 -28 0
-179 -341 -379 -29 0
-180 -342 -380 -30 0
-371 -309 -185 -29 0
-372 -310 -186 -30 0
-191 -359 -287 -29 0
-192 -360 -288 -30 0
-359 -197 -263 -29 0
-360 -198 -264 -30 0
-207 -359 -233 -29 0
-208 -360 -234 -30 0
-207 -259 -311 -29 0
-208 -260 -312 -30 0
-209 -339 -237 -29 0
-210 -340 -238 -30 0
-31 -209 -319 -335 0
-32 -210 -320 -336 0
-31 -279 -223 -319 0
-32 -280 -224 -320 0
-33 -339 -373 -219 0
-34 -340 -374 -220 0
-239 -35 -341 -379 0
-240 -36 -342 -380 0
-35 -311 -363 -251 0
-36 -312 -364 -252 0
-287 -341 -39 -379 0
-288 -342 -40 -380 0
-335 -39 -299 -349 0
-336 -40 -300 -350 0
-335 -307 -39 -329 0
-336 -308 -40 -330 0
-1 -5 -25 -155 0
-2 -6 -26 -156 0
-1 -83 -5 -27 0
-2 -84 -6 -28 0
-1 -5 -59 -29 0
-2 -6 -60 -30 0
-31 -1 -5 -47 0
-32 -2 -6 -48 0
-1 -7 -17 -71 0
-2 -8 -18 -72 0
-1 -19 -7 -39 0
-2 -20 -8 -40 0
-1 -9 -139 -13 0
-2 -10 -140 -14 0
-1 -41 -11 -13 0
-2 -42 -12 -14 0
-3 -89 -359 -9 0
-4 -90 -360 -10 0
-95 -3 -239 -9 0
-96 -4 -240 -10 0
-199 -3 -99 -9 0
-200 -4 -100 -10 0
-111 -3 -9 -139 0
-112 -4 -10 -140 0
-3 -51 -311 -11 0
-4 -52 -312 -12 0
-3 -53 -215 -11 0
-4 -54 -216 -12 0
-3 -55 -11 -167 0
-4 -56 -12 -168 0
-3 -119 -11 -59 0
-4 -120 -12 -60 0
-63 -3 -95 -11 0
-64 -4 -96 -12 0
-65 -3 -87 -11 0
-66 -4 -88 -12 0
-279 -3 -39 -13 0
-280 -4 -40 -14 0
-3 -167 -41 -13 0
-4 -168 -42 -14 0
-47 -3 -83 -13 0
-48 -4 -84 -14 0
-15 -33 -3 -271 0
-16 -34 -4 -272 0
-15 -143 -3 -35 0
-16 -144 -4 -36 0
-15 -3 -79 -39 0
-16 -4 -80 -40 0
-17 -3 -359 -29 0
-18 -4 -360 -30 0
-3 -19 -279 -27 0
-4 -20 -280 -28 0
-3 -19 -119 -29 0
-4 -20 -120 -30 0
-3 -23 -25 -155 0
-4 -24 -26 -156 0
-3 -23 -83 -27 0
-4 -24 -84 -28 0
-5 -215 -377 -13 0
-6 -216 -378 -14 0
-223 -5 -335 -13 0
-224 -6 -336 -14 0
-239 -5 -279 -13 0
-240 -6 -280 -14 0
-15 -111 -5 -335 0
-16 -112 -6 -336 0
-15 -113 -5 -303 0
-16 -114 -6 -304 0
-15 -5 -119 -239 0
-16 -6 -120 -240 0
-15 -127 -5 -191 0
-16 -128 -6 -192 0
-15 -175 -131 -5 0
-16 -176 -132 -6 0
-79 -17 -5 -359 0
-80 -18 -6 -360 0
-17 -83 -5 -251 0
-18 -84 -6 -252 0
-197 -17 -5 -87 0
-198 -18 -6 -88 0
-17 -179 -5 -89 0
-18 -180 -6 -90 0
-95 -17 -5 -143 0
-96 -18 -6 -144 0
-65 -19 -5 -329 0
-66 -20 -6 -330 0
-69 -19 -5 -209 0
-70 -20 -6 -210 0
-19 -5 -71 -179 0
-20 -6 -72 -180 0
-129 -19 -5 -77 0
-130 -20 -6 -78 0
-79 -19 -5 -119 0
-80 -20 -6 -120 0
-21 -219 -5 -59 0
-22 -220 -6 -60 0
-21 -65 -131 -5 0
-22 -66 -132 -6 0
-311 -51 -5 -23 0
-312 -52 -6 -24 0
-53 -215 -5 -23 0
-54 -216 -6 -24 0
-5 -23 -59 -119 0
-6 -24 -60 -120 0
-63 -95 -5 -23 0
-64 -96 -6 -24 0
-65 -5 -23 -87 0
-66 -6 -24 -88 0
-51 -5 -25 -155 0
-52 -6 -26 -156 0
-83 -5 -55 -27 0
-84 -6 -56 -28 0
-69 -5 -27 -59 0
-70 -6 -28 -60 0
-219 -5 -43 -29 0
-220 -6 -44 -30 0
-49 -99 -5 -29 0
-50 -100 -6 -30 0
-69 -5 -55 -29 0
-70 -6 -56 -30 0
-31 -5 -223 -41 0
-32 -6 -224 -42 0
-37 -35 -5 -341 0
-38 -36 -6 -342 0
-35 -5 -39 -179 0
-36 -6 -40 -180 0
-35 -5 -41 -125 0
-36 -6 -42 -126 0
-335 -209 -19 -7 0
-336 -210 -20 -8 0
-223 -279 -19 -7 0
-224 -280 -20 -8 0
-159 -21 -7 -219 0
-160 -22 -8 -220 0
-111 -7 -23 -335 0
-112 -8 -24 -336 0
-303 -113 -7 -23 0
-304 -114 -8 -24 0
-239 -7 -23 -119 0
-240 -8 -24 -120 0
-127 -191 -7 -23 0
-128 -192 -8 -24 0
-175 -131 -7 -23 0
-176 -132 -8 -24 0
-95 -311 -7 -25 0
-96 -312 -8 -26 0
-207 -7 -25 -103 0
-208 -8 -26 -104 0
-335 -83 -7 -27 0
-336 -84 -8 -28 0
-95 -7 -27 -167 0
-96 -8 -28 -168 0
-79 -7 -239 -29 0
-80 -8 -240 -30 0
-143 -7 -89 -29 0
-144 -8 -90 -30 0
-95 -7 -119 -29 0
-96 -8 -120 -30 0
-31 -7 -287 -71 0
-32 -8 -288 -72 0
-31 -79 -159 -7 0
-32 -80 -160 -8 0
-271 -33 -67 -7 0
-272 -34 -68 -8 0
-239 -7 -39 -59 0
-240 -8 -40 -60 0
-335 -55 -7 -41 0
-336 -56 -8 -42 0
-47 -311 -51 -7 0
-48 -312 -52 -8 0
-47 -215 -53 -7 0
-48 -216 -54 -8 0
-47 -7 -55 -167 0
-48 -8 -56 -168 0
-47 -65 -7 -87 0
-48 -66 -8 -88 0
-239 -25 -311 -9 0
-240 -26 -312 -10 0
-265 -9 -27 -189 0
-266 -10 -28 -190 0
-143 -359 -9 -29 0
-144 -360 -10 -30 0
-149 -9 -299 -29 0
-150 -10 -300 -30 0
-259 -9 -155 -29 0
-260 -10 -156 -30 0
-159 -239 -9 -29 0
-160 -240 -10 -30 0
-209 -167 -9 -29 0
-210 -168 -10 -30 0
-169 -9 -203 -29 0
-170 -10 -204 -30 0
-31 -127 -9 -319 0
-32 -128 -10 -320 0
-31 -223 -9 -139 0
-32 -224 -10 -140 0
-33 -169 -135 -9 0
-34 -170 -136 -10 0
-35 -9 -107 -269 0
-36 -10 -108 -270 0
-35 -179 -119 -9 0
-36 -180 -120 -10 0
-359 -89 -39 -9 0
-360 -90 -40 -10 0
-95 -239 -39 -9 0
-96 -240 -40 -10 0
-199 -99 -39 -9 0
-200 -100 -40 -10 0
-111 -39 -9 -139 0
-112 -40 -10 -140 0
-41 -89 -9 -251 0
-42 -90 -10 -252 0
-111 -41 -119 -9 0
-112 -42 -120 -10 0
-219 -87 -9 -43 0
-220 -88 -10 -44 0
-197 -89 -9 -43 0
-198 -90 -10 -44 0
-47 -143 -89 -9 0
-48 -144 -90 -10 0
-47 -95 -119 -9 0
-48 -96 -120 -10 0
-53 -71 -9 -269 0
-54 -72 -10 -270 0
-89 -53 -9 -107 0
-90 -54 -10 -108 0
-279 -69 -55 -9 0
-280 -70 -56 -10 0
-83 -55 -9 -119 0
-84 -56 -10 -120 0
-65 -9 -59 -329 0
-66 -10 -60 -330 0
-209 -69 -9 -59 0
-210 -70 -10 -60 0
-179 -71 -9 -59 0
-180 -72 -10 -60 0
-129 -9 -59 -77 0
-130 -10 -60 -78 0
-69 -71 -9 -125 0
-70 -72 -10 -126 0
-31 -255 -11 -383 0
-32 -256 -12 -384 0
-31 -263 -11 -351 0
-32 -264 -12 -352 0
-35 -359 -179 -11 0
-36 -360 -180 -12 0
-191 -35 -287 -11 0
-192 -36 -288 -12 0
-35 -197 -263 -11 0
-36 -198 -264 -12 0
-207 -35 -233 -11 0
-208 -36 -234 -12 0
-143 -359 -39 -11 0
-144 -360 -40 -12 0
-299 -149 -39 -11 0
-300 -150 -40 -12 0
-155 -259 -39 -11 0
-156 -260 -40 -12 0
-159 -39 -239 -11 0
-160 -40 -240 -12 0
-209 -39 -11 -167 0
-210 -40 -12 -168 0
-203 -39 -169 -11 0
-204 -40 -170 -12 0
-139 -279 -41 -11 0
-140 -280 -42 -12 0
-143 -251 -41 -11 0
-144 -252 -42 -12 0
-131 -263 -11 -43 0
-132 -264 -12 -44 0
-143 -197 -11 -43 0
-144 -198 -12 -44 0
-167 -153 -11 -43 0
-168 -154 -12 -44 0
-183 -137 -11 -45 0
-184 -138 -12 -46 0
-47 -113 -303 -11 0
-48 -114 -304 -12 0
-47 -119 -239 -11 0
-48 -120 -240 -12 0
-47 -127 -191 -11 0
-48 -128 -192 -12 0
-47 -131 -175 -11 0
-48 -132 -176 -12 0
-199 -49 -119 -11 0
-200 -50 -120 -12 0
-311 -51 -103 -11 0
-312 -52 -104 -12 0
-97 -293 -55 -11 0
-98 -294 -56 -12 0
-101 -55 -11 -237 0
-102 -56 -12 -238 0
-111 -55 -11 -167 0
-112 -56 -12 -168 0
-139 -55 -11 -119 0
-140 -56 -12 -120 0
-359 -89 -11 -59 0
-360 -90 -12 -60 0
-99 -199 -11 -59 0
-100 -200 -12 -60 0
-111 -139 -11 -59 0
-112 -140 -12 -60 0
-65 -119 -11 -109 0
-66 -120 -12 -110 0
-83 -69 -279 -11 0
-84 -70 -280 -12 0
-79 -359 -71 -11 0
-80 -360 -72 -12 0
-83 -251 -71 -11 0
-84 -252 -72 -12 0
-197 -71 -11 -87 0
-198 -72 -12 -88 0
-79 -259 -11 -77 0
-80 -260 -12 -78 0
-79 -143 -89 -11 0
-80 -144 -90 -12 0
-359 -39 -251 -13 0
-360 -40 -252 -14 0
-377 -215 -41 -13 0
-378 -216 -42 -14 0
-223 -41 -335 -13 0
-224 -42 -336 -14 0
-239 -279 -41 -13 0
-240 -280 -42 -14 0
-321 -45 -183 -13 0
-322 -46 -184 -14 0
-47 -167 -335 -13 0
-48 -168 -336 -14 0
-47 -191 -223 -13 0
-48 -192 -224 -14 0
-285 -51 -153 -13 0
-286 -52 -154 -14 0
-279 -55 -139 -13 0
-280 -56 -140 -14 0
-143 -55 -251 -13 0
-144 -56 -252 -14 0
-139 -209 -59 -13 0
-140 -210 -60 -14 0
-63 -127 -223 -13 0
-64 -128 -224 -14 0
-307 -69 -109 -13 0
-308 -70 -110 -14 0
-209 -69 -119 -13 0
-210 -70 -120 -14 0
-179 -69 -125 -13 0
-180 -70 -126 -14 0
-167 -71 -125 -13 0
-168 -72 -126 -14 0
-95 -83 -335 -13 0
-96 -84 -336 -14 0
-97 -83 -293 -13 0
-98 -84 -294 -14 0
-83 -101 -237 -13 0
-84 -102 -238 -14 0
-83 -119 -139 -13 0
-84 -120 -140 -14 0
-125 -119 -89 -13 0
-126 -120 -90 -14 0
-15 -47 -255 -383 0
-16 -48 -256 -384 0
-15 -47 -263 -351 0
-16 -48 -264 -352 0
-15 -51 -287 -233 0
-16 -52 -288 -234 0
-15 -53 -215 -287 0
-16 -54 -216 -288 0
-15 -55 -191 -335 0
-16 -56 -192 -336 0
-15 -179 -287 -59 0
-16 -180 -288 -60 0
-15 -191 -239 -59 0
-16 -192 -240 -60 0
-15 -63 -159 -319 0
-16 -64 -160 -320 0
-15 -159 -69 -223 0
-16 -160 -70 -224 0
-15 -83 -287 -125 0
-16 -84 -288 -126 0
-15 -287 -119 -89 0
-16 -288 -120 -90 0
-15 -159 -143 -89 0
-16 -160 -144 -90 0
-15 -95 -111 -335 0
-16 -96 -112 -336 0
-15 -113 -95 -303 0
-16 -114 -96 -304 0
-15 -95 -175 -131 0
-16 -96 -176 -132 0
-15 -129 -159 -103 0
-16 -130 -160 -104 0
-17 -359 -55 -279 0
-18 -360 -56 -280 0
-287 -17 -55 -335 0
-288 -18 -56 -336 0
-239 -17 -359 -59 0
-240 -18 -360 -60 0
-17 -67 -305 -203 0
-18 -68 -306 -204 0
-17 -251 -69 -209 0
-18 -252 -70 -210 0
-17 -179 -359 -71 0
-18 -180 -360 -72 0
-191 -17 -71 -287 0
-192 -18 -72 -288 0
-17 -197 -71 -263 0
-18 -198 -72 -264 0
-207 -17 -71 -233 0
-208 -18 -72 -234 0
-17 -179 -259 -77 0
-18 -180 -260 -78 0
-17 -181 -251 -77 0
-18 -182 -252 -78 0
-79 -17 -159 -359 0
-80 -18 -160 -360 0
-79 -17 -179 -239 0
-80 -18 -180 -240 0
-17 -83 -167 -251 0
-18 -84 -168 -252 0
-17 -83 -179 -209 0
-18 -84 -180 -210 0
-175 -17 -197 -87 0
-176 -18 -198 -88 0
-17 -149 -89 -299 0
-18 -150 -90 -300 0
-17 -259 -89 -155 0
-18 -260 -90 -156 0
-159 -17 -239 -89 0
-160 -18 -240 -90 0
-17 -167 -89 -209 0
-18 -168 -90 -210 0
-17 -169 -89 -203 0
-18 -170 -90 -204 0
-17 -305 -101 -135 0
-18 -306 -102 -136 0
-129 -17 -359 -103 0
-130 -18 -360 -104 0
-17 -377 -107 -125 0
-18 -378 -108 -126 0
-111 -17 -335 -125 0
-112 -18 -336 -126 0
-17 -119 -279 -125 0
-18 -120 -280 -126 0
-271 -339 -19 -67 0
-272 -340 -20 -68 0
-19 -69 -359 -251 0
-20 -70 -360 -252 0
-239 -19 -359 -71 0
-240 -20 -360 -72 0
-239 -19 -259 -77 0
-240 -20 -260 -78 0
-79 -209 -19 -335 0
-80 -210 -20 -336 0
-79 -279 -19 -223 0
-80 -280 -20 -224 0
-209 -19 -83 -279 0
-210 -20 -84 -280 0
-223 -19 -83 -239 0
-224 -20 -84 -240 0
-191 -19 -287 -89 0
-192 -20 -288 -90 0
-19 -197 -263 -89 0
-20 -198 -264 -90 0
-207 -19 -233 -89 0
-208 -20 -234 -90 0
-95 -19 -287 -179 0
-96 -20 -288 -180 0
-95 -19 -191 -239 0
-96 -20 -192 -240 0
-19 -233 -103 -179 0
-20 -234 -104 -180 0
-19 -215 -179 -107 0
-20 -216 -180 -108 0
-175 -19 -219 -109 0
-176 -20 -220 -110 0
-111 -19 -167 -239 0
-112 -20 -168 -240 0
-143 -19 -359 -119 0
-144 -20 -360 -120 0
-19 -119 -155 -259 0
-20 -120 -156 -260 0
-19 -119 -169 -203 0
-20 -120 -170 -204 0
-19 -359 -139 -125 0
-20 -360 -140 -126 0
-143 -19 -251 -139 0
-144 -20 -252 -140 0
-359 -21 -71 -329 0
-360 -22 -72 -330 0
-83 -21 -263 -307 0
-84 -22 -264 -308 0
-239 -21 -87 -329 0
-240 -22 -88 -330 0
-207 -21 -103 -285 0
-208 -22 -104 -286 0
-131 -21 -167 -307 0
-132 -22 -168 -308 0
-367 -321 -83 -23 0
-368 -322 -84 -24 0
-335 -307 -23 -87 0
-336 -308 -24 -88 0
-287 -359 -23 -89 0
-288 -360 -24 -90 0
-367 -275 -23 -91 0
-368 -276 -24 -92 0
-95 -23 -255 -383 0
-96 -24 -256 -384 0
-95 -263 -23 -351 0
-96 -264 -24 -352 0
-223 -23 -377 -107 0
-224 -24 -378 -108 0
-111 -215 -23 -377 0
-112 -216 -24 -378 0
-111 -23 -223 -335 0
-112 -24 -224 -336 0
-111 -279 -23 -239 0
-112 -280 -24 -240 0
-303 -113 -227 -23 0
-304 -114 -228 -24 0
-223 -279 -23 -119 0
-224 -280 -24 -120 0
-223 -23 -251 -125 0
-224 -24 -252 -126 0
-239 -131 -23 -219 0
-240 -132 -24 -220 0
-367 -23 -137 -183 0
-368 -24 -138 -184 0
-239 -209 -23 -139 0
-240 -210 -24 -140 0
-143 -263 -197 -23 0
-144 -264 -198 -24 0
-143 -233 -23 -207 0
-144 -234 -24 -208 0
-175 -23 -153 -335 0
-176 -24 -154 -336 0
-159 -179 -23 -287 0
-160 -180 -24 -288 0
-311 -259 -119 -25 0
-312 -260 -120 -26 0
-233 -25 -363 -125 0
-234 -26 -364 -126 0
-239 -129 -311 -25 0
-240 -130 -312 -26 0
-107 -377 -27 -335 0
-108 -378 -28 -336 0
-111 -321 -27 -367 0
-112 -322 -28 -368 0
-299 -119 -27 -349 0
-300 -120 -28 -350 0
-307 -119 -329 -27 0
-308 -120 -330 -28 0
-359 -279 -27 -125 0
-360 -280 -28 -126 0
-287 -335 -27 -125 0
-288 -336 -28 -126 0
-139 -251 -359 -27 0
-140 -252 -360 -28 0
-143 -251 -27 -335 0
-144 -252 -28 -336 0
-239 -149 -27 -349 0
-240 -150 -28 -350 0
-239 -153 -27 -329 0
-240 -154 -28 -330 0
-215 -167 -377 -27 0
-216 -168 -378 -28 0
-239 -279 -167 -27 0
-240 -280 -168 -28 0
-279 -169 -27 -237 0
-280 -170 -28 -238 0
-209 -179 -359 -27 0
-210 -180 -360 -28 0
-239 -179 -251 -27 0
-240 -180 -252 -28 0
-207 -181 -363 -27 0
-208 -182 -364 -28 0
-191 -209 -27 -319 0
-192 -210 -28 -320 0
-209 -299 -199 -27 0
-210 -300 -200 -28 0
-335 -359 -125 -29 0
-336 -360 -126 -30 0
-127 -383 -319 -29 0
-128 -384 -320 -30 0
-319 -131 -351 -29 0
-320 -132 -352 -30 0
-305 -359 -135 -29 0
-306 -360 -136 -30 0
-349 -299 -139 -29 0
-350 -300 -140 -30 0
-307 -329 -139 -29 0
-308 -330 -140 -30 0
-143 -359 -287 -29 0
-144 -360 -288 -30 0
-349 -149 -279 -29 0
-350 -150 -280 -30 0
-329 -279 -153 -29 0
-330 -280 -154 -30 0
-159 -383 -255 -29 0
-160 -384 -256 -30 0
-159 -263 -351 -29 0
-160 -264 -352 -30 0
-269 -161 -323 -29 0
-270 -162 -324 -30 0
-359 -167 -251 -29 0
-360 -168 -252 -30 0
-309 -247 -185 -29 0
-310 -248 -186 -30 0
-219 -373 -203 -29 0
-220 -374 -204 -30 0
-209 -215 -377 -29 0
-210 -216 -378 -30 0
-223 -209 -335 -29 0
-224 -210 -336 -30 0
-31 -179 -287 -319 0
-32 -180 -288 -320 0
-31 -263 -191 -351 0
-32 -264 -192 -352 0
-31 -259 -207 -319 0
-32 -260 -208 -320 0
-35 -341 -359 -189 0
-36 -342 -360 -190 0
-35 -197 -359 -329 0
-36 -198 -360 -330 0
-303 -35 -341 -227 0
-304 -36 -342 -228 0
-367 -279 -321 -39 0
-368 -280 -322 -40 0
-377 -359 -41 -269 0
-378 -360 -42 -270 0
-1 -5 -167 -13 0
-2 -6 -168 -14 0
-1 -5 -71 -17 0
-2 -6 -72 -18 0
-1 -19 -5 -59 0
-2 -20 -6 -60 0
-47 -1 -5 -23 0
-48 -2 -6 -24 0
-1 -5 -41 -27 0
-2 -6 -42 -28 0
-1 -5 -39 -29 0
-2 -6 -40 -30 0
-79 -1 -7 -9 0
-80 -2 -8 -10 0
-47 -1 -7 -11 0
-48 -2 -8 -12 0
-1 -9 -11 -29 0
-2 -10 -12 -30 0
-279 -3 -55 -9 0
-280 -4 -56 -10 0
-239 -3 -9 -59 0
-240 -4 -10 -60 0
-3 -179 -71 -9 0
-4 -180 -72 -10 0
-79 -3 -159 -9 0
-80 -4 -160 -10 0
-143 -3 -89 -9 0
-144 -4 -90 -10 0
-129 -3 -103 -9 0
-130 -4 -104 -10 0
-335 -3 -11 -27 0
-336 -4 -12 -28 0
-239 -3 -11 -29 0
-240 -4 -12 -30 0
-143 -3 -35 -11 0
-144 -4 -36 -12 0
-3 -39 -11 -119 0
-4 -40 -12 -120 0
-111 -3 -41 -11 0
-112 -4 -42 -12 0
-47 -3 -95 -11 0
-48 -4 -96 -12 0
-3 -55 -83 -11 0
-4 -56 -84 -12 0
-79 -3 -11 -59 0
-80 -4 -12 -60 0
-3 -23 -167 -13 0
-4 -24 -168 -14 0
-111 -3 -27 -13 0
-112 -4 -28 -14 0
-3 -69 -39 -13 0
-4 -70 -40 -14 0
-15 -17 -3 -287 0
-16 -18 -4 -288 0
-15 -159 -3 -19 0
-16 -160 -4 -20 0
-15 -3 -95 -23 0
-16 -4 -96 -24 0
-17 -3 -23 -71 0
-18 -4 -24 -72 0
-47 -17 -3 -35 0
-48 -18 -4 -36 0
-3 -19 -23 -59 0
-4 -20 -24 -60 0
-47 -3 -19 -29 0
-48 -4 -20 -30 0
-3 -23 -41 -27 0
-4 -24 -42 -28 0
-5 -363 -155 -13 0
-6 -364 -156 -14 0
-335 -5 -167 -13 0
-336 -6 -168 -14 0
-181 -5 -311 -13 0
-182 -6 -312 -14 0
-195 -5 -293 -13 0
-196 -6 -294 -14 0
-209 -5 -279 -13 0
-210 -6 -280 -14 0
-227 -5 -265 -13 0
-228 -6 -266 -14 0
-15 -63 -5 -383 0
-16 -64 -6 -384 0
-15 -65 -5 -351 0
-16 -66 -6 -352 0
-15 -5 -71 -287 0
-16 -6 -72 -288 0
-15 -79 -5 -239 0
-16 -80 -6 -240 0
-15 -83 -5 -223 0
-16 -84 -6 -224 0
-15 -95 -5 -191 0
-16 -96 -6 -192 0
-15 -111 -5 -167 0
-16 -112 -6 -168 0
-15 -159 -5 -119 0
-16 -160 -6 -120 0
-17 -51 -5 -233 0
-18 -52 -6 -234 0
-53 -17 -5 -215 0
-54 -18 -6 -216 0
-17 -179 -5 -59 0
-18 -180 -6 -60 0
-143 -17 -5 -71 0
-144 -18 -6 -72 0
-17 -83 -5 -125 0
-18 -84 -6 -126 0
-17 -5 -119 -89 0
-18 -6 -120 -90 0
-35 -19 -5 -359 0
-36 -20 -6 -360 0
-239 -19 -5 -39 0
-240 -20 -6 -40 0
-209 -19 -5 -41 0
-210 -20 -6 -42 0
-149 -49 -19 -5 0
-150 -50 -20 -6 0
-19 -5 -119 -59 0
-20 -6 -120 -60 0
-65 -19 -5 -109 0
-66 -20 -6 -110 0
-79 -95 -19 -5 0
-80 -96 -20 -6 0
-21 -197 -35 -5 0
-22 -198 -36 -6 0
-21 -131 -5 -43 0
-22 -132 -6 -44 0
-21 -65 -5 -87 0
-22 -66 -6 -88 0
-335 -5 -23 -27 0
-336 -6 -24 -28 0
-239 -5 -23 -29 0
-240 -6 -24 -30 0
-31 -5 -23 -191 0
-32 -6 -24 -192 0
-143 -35 -5 -23 0
-144 -36 -6 -24 0
-111 -5 -23 -41 0
-112 -6 -24 -42 0
-83 -5 -23 -55 0
-84 -6 -24 -56 0
-79 -5 -23 -59 0
-80 -6 -24 -60 0
-139 -5 -27 -29 0
-140 -6 -28 -30 0
-35 -5 -89 -29 0
-36 -6 -90 -30 0
-79 -5 -39 -29 0
-80 -6 -40 -30 0
-143 -19 -359 -7 0
-144 -20 -360 -8 0
-159 -19 -7 -319 0
-160 -20 -8 -320 0
-287 -19 -7 -179 0
-288 -20 -8 -180 0
-207 -19 -7 -259 0
-208 -20 -8 -260 0
-351 -21 -7 -87 0
-352 -22 -8 -88 0
-143 -197 -21 -7 0
-144 -198 -22 -8 0
-351 -65 -7 -23 0
-352 -66 -8 -24 0
-287 -7 -23 -71 0
-288 -8 -24 -72 0
-79 -239 -7 -23 0
-80 -240 -8 -24 0
-223 -83 -7 -23 0
-224 -84 -8 -24 0
-95 -191 -7 -23 0
-96 -192 -8 -24 0
-111 -7 -23 -167 0
-112 -8 -24 -168 0
-159 -7 -23 -119 0
-160 -8 -24 -120 0
-47 -7 -27 -335 0
-48 -8 -28 -336 0
-223 -7 -55 -27 0
-224 -8 -56 -28 0
-159 -69 -7 -27 0
-160 -70 -8 -28 0
-79 -139 -7 -27 0
-80 -140 -8 -28 0
-47 -7 -239 -29 0
-48 -8 -240 -30 0
-159 -7 -59 -29 0
-160 -8 -60 -30 0
-79 -7 -119 -29 0
-80 -8 -120 -30 0
-31 -7 -39 -319 0
-32 -8 -40 -320 0
-31 -47 -7 -191 0
-32 -48 -8 -192 0
-47 -35 -143 -7 0
-48 -36 -144 -8 0
-95 -35 -7 -71 0
-96 -36 -8 -72 0
-79 -35 -7 -89 0
-80 -36 -8 -90 0
-47 -7 -39 -119 0
-48 -8 -40 -120 0
-95 -7 -39 -59 0
-96 -8 -40 -60 0
-47 -111 -7 -41 0
-48 -112 -8 -42 0
-95 -55 -7 -41 0
-96 -56 -8 -42 0
-47 -83 -7 -55 0
-48 -84 -8 -56 0
-319 -23 -9 -383 0
-320 -24 -10 -384 0
-25 -9 -219 -285 0
-26 -10 -220 -286 0
-335 -119 -9 -27 0
-336 -120 -10 -28 0
-139 -279 -9 -27 0
-140 -280 -10 -28 0
-239 -167 -9 -27 0
-240 -168 -10 -28 0
-169 -9 -27 -237 0
-170 -10 -28 -238 0
-89 -359 -9 -29 0
-90 -360 -10 -30 0
-95 -9 -319 -29 0
-96 -10 -320 -30 0
-99 -9 -299 -29 0
-100 -10 -300 -30 0
-269 -9 -107 -29 0
-270 -10 -108 -30 0
-109 -263 -9 -29 0
-110 -264 -10 -30 0
-239 -119 -9 -29 0
-240 -120 -10 -30 0
-131 -9 -219 -29 0
-132 -10 -220 -30 0
-209 -9 -139 -29 0
-210 -10 -140 -30 0
-149 -199 -9 -29 0
-150 -200 -10 -30 0
-159 -191 -9 -29 0
-160 -192 -10 -30 0
-31 -95 -239 -9 0
-32 -96 -240 -10 0
-31 -191 -119 -9 0
-32 -192 -120 -10 0
-339 -33 -67 -9 0
-340 -34 -68 -10 0
-35 -359 -9 -59 0
-36 -360 -10 -60 0
-35 -69 -9 -251 0
-36 -70 -10 -252 0
-239 -35 -71 -9 0
-240 -36 -72 -10 0
-143 -35 -119 -9 0
-144 -36 -120 -10 0
-35 -9 -139 -125 0
-36 -10 -140 -126 0
-37 -9 -75 -189 0
-38 -10 -76 -190 0
-279 -55 -39 -9 0
-280 -56 -40 -10 0
-239 -39 -9 -59 0
-240 -40 -10 -60 0
-179 -39 -9 -71 0
-180 -40 -10 -72 0
-143 -89 -39 -9 0
-144 -90 -40 -10 0
-129 -39 -9 -103 0
-130 -40 -10 -104 0
-239 -41 -55 -9 0
-240 -42 -56 -10 0
-209 -41 -9 -59 0
-210 -42 -10 -60 0
-41 -69 -167 -9 0
-42 -70 -168 -10 0
-41 -83 -9 -139 0
-42 -84 -10 -140 0
-69 -153 -9 -43 0
-70 -154 -10 -44 0
-47 -159 -9 -59 0
-48 -160 -10 -60 0
-49 -149 -9 -59 0
-50 -150 -10 -60 0
-111 -69 -55 -9 0
-112 -70 -56 -10 0
-65 -9 -59 -109 0
-66 -10 -60 -110 0
-319 -383 -11 -29 0
-320 -384 -12 -30 0
-31 -191 -11 -383 0
-32 -192 -12 -384 0
-31 -223 -11 -335 0
-32 -224 -12 -336 0
-31 -239 -11 -319 0
-32 -240 -12 -320 0
-271 -33 -203 -11 0
-272 -34 -204 -12 0
-35 -359 -119 -11 0
-36 -360 -120 -12 0
-335 -35 -11 -125 0
-336 -36 -12 -126 0
-305 -35 -135 -11 0
-306 -36 -136 -12 0
-143 -35 -287 -11 0
-144 -36 -288 -12 0
-35 -251 -167 -11 0
-36 -252 -168 -12 0
-239 -35 -179 -11 0
-240 -36 -180 -12 0
-303 -113 -37 -11 0
-304 -114 -38 -12 0
-227 -37 -151 -11 0
-228 -38 -152 -12 0
-359 -39 -89 -11 0
-360 -40 -90 -12 0
-99 -299 -39 -11 0
-100 -300 -40 -12 0
-107 -39 -11 -269 0
-108 -40 -12 -270 0
-239 -39 -11 -119 0
-240 -40 -12 -120 0
-131 -219 -39 -11 0
-132 -220 -40 -12 0
-139 -39 -11 -209 0
-140 -40 -12 -210 0
-199 -149 -39 -11 0
-200 -150 -40 -12 0
-159 -39 -191 -11 0
-160 -40 -192 -12 0
-335 -83 -41 -11 0
-336 -84 -42 -12 0
-307 -87 -41 -11 0
-308 -88 -42 -12 0
-111 -223 -41 -11 0
-112 -224 -42 -12 0
-209 -119 -41 -11 0
-210 -120 -42 -12 0
-175 -153 -41 -11 0
-176 -154 -42 -12 0
-263 -87 -11 -43 0
-264 -88 -12 -44 0
-175 -131 -11 -43 0
-176 -132 -12 -44 0
-47 -63 -11 -383 0
-48 -64 -12 -384 0
-47 -65 -11 -351 0
-48 -66 -12 -352 0
-47 -71 -287 -11 0
-48 -72 -288 -12 0
-47 -83 -223 -11 0
-48 -84 -224 -12 0
-47 -111 -167 -11 0
-48 -112 -168 -12 0
-47 -159 -119 -11 0
-48 -160 -120 -12 0
-49 -149 -119 -11 0
-50 -150 -120 -12 0
-51 -71 -233 -11 0
-52 -72 -234 -12 0
-207 -51 -11 -77 0
-208 -52 -12 -78 0
-53 -55 -377 -11 0
-54 -56 -378 -12 0
-215 -53 -71 -11 0
-216 -54 -72 -12 0
-107 -143 -53 -11 0
-108 -144 -54 -12 0
-279 -55 -11 -59 0
-280 -56 -12 -60 0
-209 -69 -55 -11 0
-210 -70 -56 -12 0
-181 -55 -11 -77 0
-182 -56 -12 -78 0
-179 -71 -11 -59 0
-180 -72 -12 -60 0
-79 -159 -11 -59 0
-80 -160 -12 -60 0
-143 -89 -11 -59 0
-144 -90 -12 -60 0
-129 -103 -11 -59 0
-130 -104 -12 -60 0
-83 -71 -11 -125 0
-84 -72 -12 -126 0
-199 -349 -39 -13 0
-200 -350 -40 -14 0
-335 -209 -39 -13 0
-336 -210 -40 -14 0
-223 -39 -319 -13 0
-224 -40 -320 -14 0
-363 -41 -155 -13 0
-364 -42 -156 -14 0
-335 -167 -41 -13 0
-336 -168 -42 -14 0
-181 -311 -41 -13 0
-182 -312 -42 -14 0
-195 -293 -41 -13 0
-196 -294 -42 -14 0
-209 -279 -41 -13 0
-210 -280 -42 -14 0
-227 -41 -265 -13 0
-228 -42 -266 -14 0
-307 -153 -43 -13 0
-308 -154 -44 -14 0
-251 -197 -43 -13 0
-252 -198 -44 -14 0
-47 -287 -125 -13 0
-48 -288 -126 -14 0
-47 -143 -251 -13 0
-48 -144 -252 -14 0
-47 -167 -223 -13 0
-48 -168 -224 -14 0
-49 -99 -349 -13 0
-50 -100 -350 -14 0
-51 -233 -125 -13 0
-52 -234 -126 -14 0
-83 -53 -377 -13 0
-84 -54 -378 -14 0
-251 -53 -107 -13 0
-252 -54 -108 -14 0
-53 -215 -125 -13 0
-54 -216 -126 -14 0
-335 -83 -55 -13 0
-336 -84 -56 -14 0
-307 -55 -87 -13 0
-308 -56 -88 -14 0
-209 -55 -119 -13 0
-210 -56 -120 -14 0
-175 -55 -153 -13 0
-176 -56 -154 -14 0
-83 -279 -59 -13 0
-84 -280 -60 -14 0
-251 -89 -59 -13 0
-252 -90 -60 -14 0
-179 -125 -59 -13 0
-180 -126 -60 -14 0
-139 -167 -59 -13 0
-140 -168 -60 -14 0
-65 -131 -153 -13 0
-66 -132 -154 -14 0
-79 -69 -223 -13 0
-80 -70 -224 -14 0
-209 -83 -69 -13 0
-210 -84 -70 -14 0
-143 -71 -125 -13 0
-144 -72 -126 -14 0
-83 -181 -77 -13 0
-84 -182 -78 -14 0
-15 -47 -191 -383 0
-16 -48 -192 -384 0
-15 -47 -223 -335 0
-16 -48 -224 -336 0
-15 -47 -239 -319 0
-16 -48 -240 -320 0
-15 -49 -199 -319 0
-16 -50 -200 -320 0
-15 -55 -139 -319 0
-16 -56 -140 -320 0
-15 -279 -159 -55 0
-16 -280 -160 -56 0
-15 -119 -59 -319 0
-16 -120 -60 -320 0
-15 -159 -239 -59 0
-16 -160 -240 -60 0
-15 -63 -95 -383 0
-16 -64 -96 -384 0
-15 -65 -95 -351 0
-16 -66 -96 -352 0
-15 -65 -175 -191 0
-16 -66 -176 -192 0
-15 -71 -89 -319 0
-16 -72 -90 -320 0
-15 -95 -71 -287 0
-16 -96 -72 -288 0
-15 -143 -71 -191 0
-16 -144 -72 -192 0
-15 -179 -159 -71 0
-16 -180 -160 -72 0
-15 -79 -95 -239 0
-16 -80 -96 -240 0
-15 -79 -119 -191 0
-16 -80 -120 -192 0
-15 -83 -95 -223 0
-16 -84 -96 -224 0
-15 -83 -111 -191 0
-16 -84 -112 -192 0
-15 -95 -111 -167 0
-16 -96 -112 -168 0
-17 -53 -377 -251 0
-18 -54 -378 -252 0
-17 -53 -359 -269 0
-18 -54 -360 -270 0
-215 -17 -55 -377 0
-216 -18 -56 -378 0
-335 -17 -55 -251 0
-336 -18 -56 -252 0
-17 -179 -359 -59 0
-18 -180 -360 -60 0
-17 -341 -59 -189 0
-18 -342 -60 -190 0
-17 -197 -329 -59 0
-18 -198 -330 -60 0
-239 -17 -287 -59 0
-240 -18 -288 -60 0
-17 -251 -279 -59 0
-18 -252 -280 -60 0
-63 -17 -191 -287 0
-64 -18 -192 -288 0
-175 -17 -287 -65 0
-176 -18 -288 -66 0
-17 -197 -263 -65 0
-18 -198 -264 -66 0
-17 -69 -359 -125 0
-18 -70 -360 -126 0
-17 -179 -69 -251 0
-18 -180 -70 -252 0
-335 -17 -71 -125 0
-336 -18 -72 -126 0
-17 -305 -71 -135 0
-18 -306 -72 -136 0
-17 -71 -251 -167 0
-18 -72 -252 -168 0
-239 -17 -179 -71 0
-240 -18 -180 -72 0
-17 -341 -75 -113 0
-18 -342 -76 -114 0
-79 -17 -119 -287 0
-80 -18 -120 -288 0
-111 -17 -83 -287 0
-112 -18 -84 -288 0
-95 -17 -89 -319 0
-96 -18 -90 -320 0
-17 -99 -89 -299 0
-18 -100 -90 -300 0
-17 -89 -107 -269 0
-18 -90 -108 -270 0
-17 -263 -89 -109 0
-18 -264 -90 -110 0
-239 -17 -119 -89 0
-240 -18 -120 -90 0
-17 -131 -89 -219 0
-18 -132 -90 -220 0
-17 -89 -139 -209 0
-18 -90 -140 -210 0
-17 -149 -199 -89 0
-18 -150 -200 -90 0
-159 -17 -191 -89 0
-160 -18 -192 -90 0
-95 -17 -179 -159 0
-96 -18 -180 -160 0
-17 -131 -179 -109 0
-18 -132 -180 -110 0
-319 -19 -59 -383 0
-320 -20 -60 -384 0
-63 -19 -239 -383 0
-64 -20 -240 -384 0
-239 -65 -19 -351 0
-240 -66 -20 -352 0
-65 -19 -263 -329 0
-66 -20 -264 -330 0
-19 -69 -199 -349 0
-20 -70 -200 -350 0
-335 -209 -19 -69 0
-336 -210 -20 -70 0
-223 -19 -69 -319 0
-224 -20 -70 -320 0
-19 -341 -71 -189 0
-20 -342 -72 -190 0
-19 -197 -71 -329 0
-20 -198 -72 -330 0
-239 -19 -71 -287 0
-240 -20 -72 -288 0
-279 -19 -71 -251 0
-280 -20 -72 -252 0
-19 -151 -379 -75 0
-20 -152 -380 -76 0
-303 -19 -75 -189 0
-304 -20 -76 -190 0
-79 -19 -143 -359 0
-80 -20 -144 -360 0
-79 -19 -287 -179 0
-80 -20 -288 -180 0
-79 -19 -207 -259 0
-80 -20 -208 -260 0
-335 -19 -83 -139 0
-336 -20 -84 -140 0
-279 -19 -83 -167 0
-280 -20 -84 -168 0
-239 -209 -19 -83 0
-240 -210 -20 -84 0
-19 -87 -131 -329 0
-20 -88 -132 -330 0
-19 -87 -139 -307 0
-20 -88 -140 -308 0
-279 -19 -87 -153 0
-280 -20 -88 -154 0
-19 -359 -119 -89 0
-20 -360 -120 -90 0
-335 -19 -89 -125 0
-336 -20 -90 -126 0
-305 -19 -135 -89 0
-306 -20 -136 -90 0
-143 -19 -287 -89 0
-144 -20 -288 -90 0
-19 -167 -89 -251 0
-20 -168 -90 -252 0
-239 -19 -179 -89 0
-240 -20 -180 -90 0
-19 -229 -183 -91 0
-20 -230 -184 -92 0
-95 -19 -119 -319 0
-96 -20 -120 -320 0
-19 -299 -99 -119 0
-20 -300 -100 -120 0
-239 -19 -149 -99 0
-240 -20 -150 -100 0
-129 -19 -103 -259 0
-130 -20 -104 -260 0
-19 -119 -107 -269 0
-20 -120 -108 -270 0
-263 -19 -119 -109 0
-264 -20 -120 -110 0
-239 -19 -131 -109 0
-240 -20 -132 -110 0
-111 -19 -223 -139 0
-112 -20 -224 -140 0
-19 -119 -131 -219 0
-20 -120 -132 -220 0
-209 -19 -119 -139 0
-210 -20 -120 -140 0
-19 -167 -179 -125 0
-20 -168 -180 -126 0
-175 -19 -153 -139 0
-176 -20 -154 -140 0
-259 -21 -329 -77 0
-260 -22 -330 -78 0
-285 -21 -311 -77 0
-286 -22 -312 -78 0
-79 -21 -219 -351 0
-80 -22 -220 -352 0
-79 -21 -239 -329 0
-80 -22 -240 -330 0
-209 -83 -21 -329 0
-210 -84 -22 -330 0
-179 -21 -89 -329 0
-180 -22 -90 -330 0
-95 -159 -21 -329 0
-96 -160 -22 -330 0
-149 -99 -21 -329 0
-150 -100 -22 -330 0
-101 -131 -21 -373 0
-102 -132 -22 -374 0
-131 -21 -329 -109 0
-132 -22 -330 -110 0
-307 -21 -139 -109 0
-308 -22 -140 -110 0
-21 -279 -153 -109 0
-22 -280 -154 -110 0
-219 -21 -153 -139 0
-220 -22 -154 -140 0
-79 -23 -319 -383 0
-80 -24 -320 -384 0
-351 -83 -23 -307 0
-352 -84 -24 -308 0
-351 -263 -23 -87 0
-352 -264 -24 -88 0
-239 -359 -23 -89 0
-240 -360 -24 -90 0
-287 -23 -89 -319 0
-288 -24 -90 -320 0
-95 -23 -223 -335 0
-96 -24 -224 -336 0
-95 -23 -239 -319 0
-96 -24 -240 -320 0
-239 -99 -23 -299 0
-240 -100 -24 -300 0
-175 -101 -23 -373 0
-176 -102 -24 -374 0
-287 -23 -233 -103 0
-288 -24 -234 -104 0
-215 -23 -287 -107 0
-216 -24 -288 -108 0
-239 -23 -107 -269 0
-240 -24 -108 -270 0
-175 -23 -329 -109 0
-176 -24 -330 -110 0
-239 -263 -23 -109 0
-240 -264 -24 -110 0
-111 -23 -363 -155 0
-112 -24 -364 -156 0
-111 -311 -181 -23 0
-112 -312 -182 -24 0
-111 -195 -293 -23 0
-112 -196 -294 -24 0
-111 -209 -23 -279 0
-112 -210 -24 -280 0
-111 -227 -23 -265 0
-112 -228 -24 -266 0
-143 -359 -23 -119 0
-144 -360 -24 -120 0
-159 -23 -119 -319 0
-160 -24 -120 -320 0
-287 -179 -23 -119 0
-288 -180 -24 -120 0
-207 -259 -23 -119 0
-208 -260 -24 -120 0
-143 -23 -335 -125 0
-144 -24 -336 -126 0
-287 -23 -167 -125 0
-288 -24 -168 -126 0
-207 -129 -23 -239 0
-208 -130 -24 -240 0
-143 -305 -23 -135 0
-144 -306 -24 -136 0
-223 -209 -23 -139 0
-224 -210 -24 -140 0
-143 -23 -251 -167 0
-144 -24 -252 -168 0
-223 -181 -23 -155 0
-224 -182 -24 -156 0
-111 -307 -27 -351 0
-112 -308 -28 -352 0
-251 -359 -119 -27 0
-252 -360 -120 -28 0
-335 -279 -119 -27 0
-336 -280 -120 -28 0
-215 -377 -27 -125 0
-216 -378 -28 -126 0
-335 -251 -27 -125 0
-336 -252 -28 -126 0
-131 -263 -27 -307 0
-132 -264 -28 -308 0
-305 -251 -135 -27 0
-306 -252 -136 -28 0
-335 -139 -27 -209 0
-336 -140 -28 -210 0
-143 -251 -287 -27 0
-144 -252 -288 -28 0
-175 -153 -27 -351 0
-176 -154 -28 -352 0
-155 -167 -363 -27 0
-156 -168 -364 -28 0
-335 -155 -181 -27 0
-336 -156 -182 -28 0
-311 -181 -167 -27 0
-312 -182 -168 -28 0
-195 -293 -167 -27 0
-196 -294 -168 -28 0
-227 -167 -265 -27 0
-228 -168 -266 -28 0
-319 -119 -383 -29 0
-320 -120 -384 -30 0
-371 -309 -123 -29 0
-372 -310 -124 -30 0
-251 -359 -139 -29 0
-252 -360 -140 -30 0
-335 -279 -139 -29 0
-336 -280 -140 -30 0
-143 -287 -319 -29 0
-144 -288 -320 -30 0
-369 -147 -221 -29 0
-370 -148 -222 -30 0
-209 -363 -155 -29 0
-210 -364 -156 -30 0
-259 -311 -155 -29 0
-260 -312 -156 -30 0
-159 -191 -383 -29 0
-160 -192 -384 -30 0
-159 -223 -335 -29 0
-160 -224 -336 -30 0
-199 -349 -167 -29 0
-200 -350 -168 -30 0
-335 -209 -167 -29 0
-336 -210 -168 -30 0
-223 -167 -319 -29 0
-224 -168 -320 -30 0
-339 -169 -203 -29 0
-340 -170 -204 -30 0
-179 -341 -189 -29 0
-180 -342 -190 -30 0
-179 -197 -329 -29 0
-180 -198 -330 -30 0
-179 -279 -251 -29 0
-180 -280 -252 -30 0
-209 -181 -311 -29 0
-210 -182 -312 -30 0
-209 -195 -293 -29 0
-210 -196 -294 -30 0
-209 -227 -265 -29 0
-210 -228 -266 -30 0
-31 -131 -351 -383 0
-32 -132 -352 -384 0
-31 -143 -287 -383 0
-32 -144 -288 -384 0
-31 -143 -359 -319 0
-32 -144 -360 -320 0
-31 -159 -239 -383 0
-32 -160 -240 -384 0
-31 -167 -223 -383 0
-32 -168 -224 -384 0
-31 -191 -223 -335 0
-32 -192 -224 -336 0
-33 -305 -359 -169 0
-34 -306 -360 -170 0
-339 -33 -179 -305 0
-340 -34 -180 -306 0
-33 -305 -251 -237 0
-34 -306 -252 -238 0
-319 -35 -179 -383 0
-320 -36 -180 -384 0
-191 -35 -359 -319 0
-192 -36 -360 -320 0
-209 -35 -359 -279 0
-210 -36 -360 -280 0
-35 -215 -377 -251 0
-36 -216 -378 -252 0
-35 -359 -263 -219 0
-36 -360 -264 -220 0
-335 -359 -39 -251 0
-336 -360 -40 -252 0
-351 -263 -39 -329 0
-352 -264 -40 -330 0
-271 -305 -359 -39 0
-272 -306 -360 -40 0
-351 -279 -307 -39 0
-352 -280 -308 -40 0
-319 -279 -41 -383 0
-320 -280 -42 -384 0
-319 -329 -43 -383 0
-320 -330 -44 -384 0
-207 -1 -7 -25 0
-208 -2 -8 -26 0
-111 -1 -7 -27 0
-112 -2 -8 -28 0
-79 -1 -7 -29 0
-80 -2 -8 -30 0
-31 -1 -63 -7 0
-32 -2 -64 -8 0
-47 -1 -35 -7 0
-48 -2 -36 -8 0
-15 -1 -159 -9 0
-16 -2 -160 -10 0
-1 -9 -17 -59 0
-2 -10 -18 -60 0
-1 -19 -39 -9 0
-2 -20 -40 -10 0
-1 -55 -11 -13 0
-2 -56 -12 -14 0
-15 -1 -11 -31 0
-16 -2 -12 -32 0
-1 -23 -11 -17 0
-2 -24 -12 -18 0
-349 -3 -99 -13 0
-350 -4 -100 -14 0
-3 -251 -107 -13 0
-4 -252 -108 -14 0
-111 -3 -223 -13 0
-112 -4 -224 -14 0
-3 -167 -125 -13 0
-4 -168 -126 -14 0
-3 -153 -131 -13 0
-4 -154 -132 -14 0
-15 -3 -53 -287 0
-16 -4 -54 -288 0
-15 -3 -55 -223 0
-16 -4 -56 -224 0
-15 -3 -159 -59 0
-16 -4 -160 -60 0
-15 -127 -3 -63 0
-16 -128 -4 -64 0
-15 -3 -95 -71 0
-16 -4 -96 -72 0
-239 -17 -3 -39 0
-240 -18 -4 -40 0
-17 -3 -167 -41 0
-18 -4 -168 -42 0
-17 -3 -131 -43 0
-18 -4 -132 -44 0
-47 -17 -3 -95 0
-48 -18 -4 -96 0
-17 -3 -51 -77 0
-18 -4 -52 -78 0
-17 -3 -53 -71 0
-18 -4 -54 -72 0
-31 -3 -19 -319 0
-32 -4 -20 -320 0
-33 -3 -19 -169 0
-34 -4 -20 -170 0
-35 -3 -19 -119 0
-36 -4 -20 -120 0
-79 -3 -19 -39 0
-80 -4 -20 -40 0
-69 -3 -19 -41 0
-70 -4 -20 -42 0
-3 -21 -27 -307 0
-4 -22 -28 -308 0
-35 -65 -3 -21 0
-36 -66 -4 -22 0
-207 -3 -23 -25 0
-208 -4 -24 -26 0
-111 -3 -23 -27 0
-112 -4 -24 -28 0
-79 -3 -23 -29 0
-80 -4 -24 -30 0
-31 -3 -63 -23 0
-32 -4 -64 -24 0
-47 -3 -35 -23 0
-48 -4 -36 -24 0
-19 -5 -359 -269 0
-20 -6 -360 -270 0
-335 -19 -5 -279 0
-336 -20 -6 -280 0
-287 -19 -5 -319 0
-288 -20 -6 -320 0
-21 -307 -5 -125 0
-22 -308 -6 -126 0
-21 -131 -5 -263 0
-22 -132 -6 -264 0
-335 -83 -5 -23 0
-336 -84 -6 -24 0
-263 -5 -23 -87 0
-264 -6 -24 -88 0
-239 -5 -23 -89 0
-240 -6 -24 -90 0
-95 -5 -23 -191 0
-96 -6 -24 -192 0
-155 -5 -23 -103 0
-156 -6 -24 -104 0
-143 -5 -23 -107 0
-144 -6 -24 -108 0
-207 -5 -71 -25 0
-208 -6 -72 -26 0
-5 -25 -155 -77 0
-6 -26 -156 -78 0
-335 -5 -55 -27 0
-336 -6 -56 -28 0
-209 -5 -27 -59 0
-210 -6 -28 -60 0
-69 -5 -119 -27 0
-70 -6 -120 -28 0
-111 -5 -71 -27 0
-112 -6 -72 -28 0
-49 -5 -299 -29 0
-50 -6 -300 -30 0
-53 -179 -5 -29 0
-54 -180 -6 -30 0
-5 -119 -59 -29 0
-6 -120 -60 -30 0
-69 -83 -5 -29 0
-70 -84 -6 -30 0
-79 -5 -71 -29 0
-80 -6 -72 -30 0
-31 -47 -5 -191 0
-32 -48 -6 -192 0
-239 -35 -5 -39 0
-240 -36 -6 -40 0
-35 -5 -167 -41 0
-36 -6 -168 -42 0
-35 -5 -131 -43 0
-36 -6 -132 -44 0
-47 -95 -35 -5 0
-48 -96 -36 -6 0
-51 -35 -5 -77 0
-52 -36 -6 -78 0
-53 -35 -5 -71 0
-54 -36 -6 -72 0
-335 -251 -7 -27 0
-336 -252 -8 -28 0
-263 -307 -7 -27 0
-264 -308 -8 -28 0
-303 -7 -265 -27 0
-304 -8 -266 -28 0
-7 -151 -379 -29 0
-8 -152 -380 -30 0
-159 -7 -319 -29 0
-160 -8 -320 -30 0
-279 -7 -167 -29 0
-280 -8 -168 -30 0
-271 -7 -169 -29 0
-272 -8 -170 -30 0
-239 -179 -7 -29 0
-240 -180 -8 -30 0
-229 -7 -183 -29 0
-230 -8 -184 -30 0
-31 -7 -119 -319 0
-32 -8 -120 -320 0
-31 -127 -7 -255 0
-32 -128 -8 -256 0
-31 -143 -7 -191 0
-32 -144 -8 -192 0
-271 -33 -101 -7 0
-272 -34 -102 -8 0
-33 -7 -169 -119 0
-34 -8 -170 -120 0
-335 -35 -7 -83 0
-336 -36 -8 -84 0
-263 -35 -7 -87 0
-264 -36 -8 -88 0
-239 -35 -7 -89 0
-240 -36 -8 -90 0
-95 -35 -7 -191 0
-96 -36 -8 -192 0
-155 -35 -7 -103 0
-156 -36 -8 -104 0
-143 -35 -7 -107 0
-144 -36 -8 -108 0
-303 -37 -7 -75 0
-304 -38 -8 -76 0
-339 -67 -7 -39 0
-340 -68 -8 -40 0
-239 -7 -39 -71 0
-240 -8 -40 -72 0
-7 -39 -75 -189 0
-8 -40 -76 -190 0
-79 -159 -7 -39 0
-80 -160 -8 -40 0
-83 -7 -39 -139 0
-84 -8 -40 -140 0
-89 -7 -39 -119 0
-90 -8 -40 -120 0
-7 -41 -71 -167 0
-8 -42 -72 -168 0
-111 -83 -7 -41 0
-112 -84 -8 -42 0
-175 -65 -7 -43 0
-176 -66 -8 -44 0
-131 -7 -43 -71 0
-132 -8 -44 -72 0
-321 -7 -55 -45 0
-322 -8 -56 -46 0
-47 -53 -7 -287 0
-48 -54 -8 -288 0
-47 -223 -7 -55 0
-48 -224 -8 -56 0
-47 -159 -7 -59 0
-48 -160 -8 -60 0
-47 -63 -127 -7 0
-48 -64 -128 -8 0
-47 -95 -7 -71 0
-48 -96 -8 -72 0
-51 -7 -71 -77 0
-52 -8 -72 -78 0
-53 -7 -55 -125 0
-54 -8 -56 -126 0
-35 -359 -9 -269 0
-36 -360 -10 -270 0
-335 -35 -279 -9 0
-336 -36 -280 -10 0
-287 -35 -9 -319 0
-288 -36 -10 -320 0
-37 -9 -379 -189 0
-38 -10 -380 -190 0
-39 -9 -379 -151 0
-40 -10 -380 -152 0
-159 -39 -9 -319 0
-160 -40 -10 -320 0
-279 -39 -9 -167 0
-280 -40 -10 -168 0
-271 -169 -39 -9 0
-272 -170 -40 -10 0
-239 -179 -39 -9 0
-240 -180 -40 -10 0
-229 -39 -9 -183 0
-230 -40 -10 -184 0
-129 -41 -9 -363 0
-130 -42 -10 -364 0
-41 -279 -9 -139 0
-42 -280 -10 -140 0
-41 -153 -9 -219 0
-42 -154 -10 -220 0
-131 -219 -9 -43 0
-132 -220 -10 -44 0
-47 -95 -9 -319 0
-48 -96 -10 -320 0
-47 -159 -119 -9 0
-48 -160 -120 -10 0
-49 -89 -9 -299 0
-50 -90 -10 -300 0
-49 -99 -199 -9 0
-50 -100 -200 -10 0
-79 -287 -53 -9 0
-80 -288 -54 -10 0
-89 -179 -53 -9 0
-90 -180 -54 -10 0
-53 -119 -9 -107 0
-54 -120 -10 -108 0
-79 -223 -55 -9 0
-80 -224 -56 -10 0
-339 -67 -9 -59 0
-340 -68 -10 -60 0
-69 -279 -9 -59 0
-70 -280 -10 -60 0
-239 -71 -9 -59 0
-240 -72 -10 -60 0
-75 -9 -59 -189 0
-76 -10 -60 -190 0
-79 -159 -9 -59 0
-80 -160 -10 -60 0
-89 -119 -9 -59 0
-90 -120 -10 -60 0
-63 -79 -127 -9 0
-64 -80 -128 -10 0
-79 -95 -71 -9 0
-80 -96 -72 -10 0
-305 -373 -11 -43 0
-306 -374 -12 -44 0
-321 -251 -11 -45 0
-322 -252 -12 -46 0
-47 -191 -11 -383 0
-48 -192 -12 -384 0
-47 -197 -11 -351 0
-48 -198 -12 -352 0
-47 -311 -207 -11 0
-48 -312 -208 -12 0
-47 -215 -287 -11 0
-48 -216 -288 -12 0
-49 -179 -299 -11 0
-50 -180 -300 -12 0
-239 -49 -199 -11 0
-240 -50 -200 -12 0
-155 -51 -311 -11 0
-156 -52 -312 -12 0
-143 -53 -287 -11 0
-144 -54 -288 -12 0
-155 -53 -233 -11 0
-156 -54 -234 -12 0
-161 -53 -215 -11 0
-162 -54 -216 -12 0
-335 -55 -11 -125 0
-336 -56 -12 -126 0
-239 -139 -55 -11 0
-240 -140 -56 -12 0
-143 -55 -223 -11 0
-144 -56 -224 -12 0
-115 -347 -57 -11 0
-116 -348 -58 -12 0
-107 -359 -11 -59 0
-108 -360 -12 -60 0
-329 -109 -11 -59 0
-330 -110 -12 -60 0
-239 -119 -11 -59 0
-240 -120 -12 -60 0
-209 -125 -11 -59 0
-210 -126 -12 -60 0
-139 -167 -11 -59 0
-140 -168 -12 -60 0
-143 -159 -11 -59 0
-144 -160 -12 -60 0
-123 -185 -11 -61 0
-124 -186 -12 -62 0
-63 -95 -11 -383 0
-64 -96 -12 -384 0
-107 -65 -197 -11 0
-108 -66 -198 -12 0
-339 -67 -89 -11 0
-340 -68 -90 -12 0
-69 -279 -89 -11 0
-70 -280 -90 -12 0
-335 -83 -71 -11 0
-336 -84 -72 -12 0
-263 -71 -11 -87 0
-264 -72 -12 -88 0
-239 -71 -89 -11 0
-240 -72 -90 -12 0
-95 -71 -191 -11 0
-96 -72 -192 -12 0
-155 -71 -11 -103 0
-156 -72 -12 -104 0
-107 -143 -71 -11 0
-108 -144 -72 -12 0
-75 -89 -11 -189 0
-76 -90 -12 -190 0
-79 -159 -89 -11 0
-80 -160 -90 -12 0
-139 -83 -89 -11 0
-140 -84 -90 -12 0
-335 -55 -251 -13 0
-336 -56 -252 -14 0
-263 -307 -55 -13 0
-264 -308 -56 -14 0
-303 -55 -265 -13 0
-304 -56 -266 -14 0
-209 -279 -59 -13 0
-210 -280 -60 -14 0
-63 -191 -223 -13 0
-64 -192 -224 -14 0
-65 -307 -153 -13 0
-66 -308 -154 -14 0
-175 -65 -223 -13 0
-176 -66 -224 -14 0
-339 -67 -139 -13 0
-340 -68 -140 -14 0
-129 -69 -363 -13 0
-130 -70 -364 -14 0
-69 -279 -139 -13 0
-70 -280 -140 -14 0
-69 -153 -219 -13 0
-70 -154 -220 -14 0
-335 -71 -125 -13 0
-336 -72 -126 -14 0
-239 -71 -139 -13 0
-240 -72 -140 -14 0
-143 -71 -223 -13 0
-144 -72 -224 -14 0
-139 -189 -75 -13 0
-140 -190 -76 -14 0
-79 -111 -279 -13 0
-80 -112 -280 -14 0
-79 -119 -223 -13 0
-80 -120 -224 -14 0
-79 -159 -139 -13 0
-80 -160 -140 -14 0
-349 -83 -99 -13 0
-350 -84 -100 -14 0
-111 -83 -223 -13 0
-112 -84 -224 -14 0
-83 -167 -125 -13 0
-84 -168 -126 -14 0
-83 -153 -131 -13 0
-84 -154 -132 -14 0
-125 -89 -139 -13 0
-126 -90 -140 -14 0
-15 -63 -287 -383 0
-16 -64 -288 -384 0
-15 -65 -263 -351 0
-16 -66 -264 -352 0
-15 -339 -67 -239 0
-16 -340 -68 -240 0
-15 -69 -223 -319 0
-16 -70 -224 -320 0
-15 -279 -69 -239 0
-16 -280 -70 -240 0
-15 -71 -191 -383 0
-16 -72 -192 -384 0
-15 -197 -71 -351 0
-16 -198 -72 -352 0
-15 -311 -71 -207 0
-16 -312 -72 -208 0
-15 -215 -71 -287 0
-16 -216 -72 -288 0
-15 -285 -175 -77 0
-16 -286 -176 -78 0
-15 -79 -151 -379 0
-16 -80 -152 -380 0
-15 -79 -159 -319 0
-16 -80 -160 -320 0
-15 -279 -79 -167 0
-16 -280 -80 -168 0
-15 -79 -271 -169 0
-16 -80 -272 -170 0
-15 -79 -239 -179 0
-16 -80 -240 -180 0
-15 -79 -229 -183 0
-16 -80 -230 -184 0
-15 -83 -143 -335 0
-16 -84 -144 -336 0
-15 -83 -167 -223 0
-16 -84 -168 -224 0
-15 -131 -87 -351 0
-16 -132 -88 -352 0
-15 -263 -143 -87 0
-16 -264 -144 -88 0
-15 -223 -87 -153 0
-16 -224 -88 -154 0
-15 -143 -239 -89 0
-16 -144 -240 -90 0
-15 -159 -191 -89 0
-16 -160 -192 -90 0
-15 -95 -119 -319 0
-16 -96 -120 -320 0
-15 -95 -127 -255 0
-16 -96 -128 -256 0
-15 -95 -143 -191 0
-16 -96 -144 -192 0
-15 -99 -111 -349 0
-16 -100 -112 -350 0
-15 -159 -99 -149 0
-16 -160 -100 -150 0
-15 -143 -103 -155 0
-16 -144 -104 -156 0
-15 -111 -251 -107 0
-16 -112 -252 -108 0
-15 -131 -159 -109 0
-16 -132 -160 -110 0
-15 -111 -153 -131 0
-16 -112 -154 -132 0
-17 -259 -359 -77 0
-18 -260 -360 -78 0
-79 -17 -359 -239 0
-80 -18 -360 -240 0
-79 -17 -287 -269 0
-80 -18 -288 -270 0
-17 -83 -359 -209 0
-18 -84 -360 -210 0
-335 -17 -83 -215 0
-336 -18 -84 -216 0
-215 -17 -87 -263 0
-216 -18 -88 -264 0
-17 -179 -359 -89 0
-18 -180 -360 -90 0
-17 -251 -89 -209 0
-18 -252 -90 -210 0
-239 -17 -215 -89 0
-240 -18 -216 -90 0
-95 -17 -159 -359 0
-96 -18 -160 -360 0
-17 -99 -149 -359 0
-18 -100 -150 -360 0
-143 -17 -287 -107 0
-144 -18 -288 -108 0
-17 -233 -107 -155 0
-18 -234 -108 -156 0
-161 -17 -215 -107 0
-162 -18 -216 -108 0
-17 -131 -359 -109 0
-18 -132 -360 -110 0
-111 -17 -143 -251 0
-112 -18 -144 -252 0
-19 -359 -89 -269 0
-20 -360 -90 -270 0
-335 -19 -279 -89 0
-336 -20 -280 -90 0
-287 -19 -89 -319 0
-288 -20 -90 -320 0
-95 -19 -239 -319 0
-96 -20 -240 -320 0
-209 -19 -99 -349 0
-210 -20 -100 -350 0
-339 -19 -101 -203 0
-340 -20 -102 -204 0
-239 -19 -103 -233 0
-240 -20 -104 -234 0
-19 -359 -179 -107 0
-20 -360 -180 -108 0
-209 -19 -251 -107 0
-210 -20 -252 -108 0
-239 -19 -215 -107 0
-240 -20 -216 -108 0
-175 -19 -351 -109 0
-176 -20 -352 -110 0
-19 -329 -179 -109 0
-20 -330 -180 -110 0
-19 -197 -263 -109 0
-20 -198 -264 -110 0
-111 -209 -19 -223 0
-112 -210 -20 -224 0
-289 -19 -115 -173 0
-290 -20 -116 -174 0
-19 -119 -379 -151 0
-20 -120 -380 -152 0
-159 -19 -119 -319 0
-160 -20 -120 -320 0
-271 -19 -119 -169 0
-272 -20 -120 -170 0
-239 -19 -119 -179 0
-240 -20 -120 -180 0
-19 -229 -119 -183 0
-20 -230 -120 -184 0
-239 -19 -167 -125 0
-240 -20 -168 -126 0
-209 -19 -179 -125 0
-210 -20 -180 -126 0
-127 -19 -159 -255 0
-128 -20 -160 -256 0
-129 -19 -363 -139 0
-130 -20 -364 -140 0
-19 -219 -153 -139 0
-20 -220 -154 -140 0
-143 -19 -159 -191 0
-144 -20 -160 -192 0
-349 -99 -21 -307 0
-350 -100 -22 -308 0
-239 -21 -351 -109 0
-240 -22 -352 -110 0
-197 -307 -21 -125 0
-198 -308 -22 -126 0
-175 -131 -21 -351 0
-176 -132 -22 -352 0
-131 -21 -179 -329 0
-132 -22 -180 -330 0
-197 -131 -21 -263 0
-198 -132 -22 -264 0
-143 -175 -21 -263 0
-144 -176 -22 -264 0
-175 -21 -223 -153 0
-176 -22 -224 -154 0
-359 -23 -119 -269 0
-360 -24 -120 -270 0
-335 -279 -23 -119 0
-336 -280 -24 -120 0
-287 -23 -119 -319 0
-288 -24 -120 -320 0
-247 -371 -23 -123 0
-248 -372 -24 -124 0
-335 -23 -251 -125 0
-336 -24 -252 -126 0
-263 -307 -23 -125 0
-264 -308 -24 -126 0
-303 -23 -265 -125 0
-304 -24 -266 -126 0
-335 -209 -23 -139 0
-336 -210 -24 -140 0
-143 -23 -191 -383 0
-144 -24 -192 -384 0
-143 -197 -23 -351 0
-144 -198 -24 -352 0
-143 -311 -23 -207 0
-144 -312 -24 -208 0
-143 -215 -23 -287 0
-144 -216 -24 -288 0
-179 -23 -379 -151 0
-180 -24 -380 -152 0
-335 -181 -23 -155 0
-336 -182 -24 -156 0
-215 -23 -233 -155 0
-216 -24 -234 -156 0
-159 -179 -23 -319 0
-160 -180 -24 -320 0
-161 -23 -377 -167 0
-162 -24 -378 -168 0
-279 -179 -23 -167 0
-280 -180 -24 -168 0
-271 -179 -23 -169 0
-272 -180 -24 -170 0
-179 -229 -23 -183 0
-180 -230 -24 -184 0
-259 -363 -25 -139 0
-260 -364 -26 -140 0
-233 -311 -25 -155 0
-234 -312 -26 -156 0
-175 -207 -25 -285 0
-176 -208 -26 -286 0
-209 -259 -181 -25 0
-210 -260 -182 -26 0
-299 -149 -27 -349 0
-300 -150 -28 -350 0
-279 -151 -379 -27 0
-280 -152 -380 -28 0
-159 -279 -27 -319 0
-160 -280 -28 -320 0
-161 -251 -377 -27 0
-162 -252 -378 -28 0
-335 -251 -167 -27 0
-336 -252 -168 -28 0
-263 -307 -167 -27 0
-264 -308 -168 -28 0
-303 -167 -265 -27 0
-304 -168 -266 -28 0
-179 -251 -279 -27 0
-180 -252 -280 -28 0
-181 -311 -233 -27 0
-182 -312 -234 -28 0
-359 -151 -379 -29 0
-360 -152 -380 -30 0
-159 -383 -319 -29 0
-160 -384 -320 -30 0
-161 -323 -359 -29 0
-162 -324 -360 -30 0
-305 -339 -169 -29 0
-306 -340 -170 -30 0
-289 -347 -173 -29 0
-290 -348 -174 -30 0
-269 -179 -359 -29 0
-270 -180 -360 -30 0
-335 -179 -279 -29 0
-336 -180 -280 -30 0
-287 -179 -319 -29 0
-288 -180 -320 -30 0
-191 -239 -383 -29 0
-192 -240 -384 -30 0
-239 -197 -351 -29 0
-240 -198 -352 -30 0
-207 -311 -239 -29 0
-208 -312 -240 -30 0
-209 -279 -251 -29 0
-210 -280 -252 -30 0
-239 -215 -287 -29 0
-240 -216 -288 -30 0
-31 -179 -319 -383 0
-32 -180 -320 -384 0
-31 -191 -287 -383 0
-32 -192 -288 -384 0
-31 -197 -287 -351 0
-32 -198 -288 -352 0
-31 -199 -299 -319 0
-32 -200 -300 -320 0
-31 -311 -207 -287 0
-32 -312 -208 -288 0
-31 -209 -279 -319 0
-32 -210 -280 -320 0
-31 -215 -319 -269 0
-32 -216 -320 -270 0
-31 -263 -219 -319 0
-32 -264 -220 -320 0
-31 -263 -307 -223 0
-32 -264 -308 -224 0
-31 -303 -223 -265 0
-32 -304 -224 -266 0
-239 -33 -339 -271 0
-240 -34 -340 -272 0
-335 -35 -279 -269 0
-336 -36 -280 -270 0
-287 -35 -319 -269 0
-288 -36 -320 -270 0
-287 -39 -319 -383 0
-288 -40 -320 -384 0
-215 -1 -7 -17 0
-216 -2 -8 -18 0
-1 -19 -7 -119 0
-2 -20 -8 -120 0
-1 -21 -7 -87 0
-2 -22 -8 -88 0
-1 -7 -23 -71 0
-2 -8 -24 -72 0
-1 -7 -55 -27 0
-2 -8 -56 -28 0
-31 -1 -7 -47 0
-32 -2 -8 -48 0
-1 -89 -9 -11 0
-2 -90 -10 -12 0
-1 -19 -9 -29 0
-2 -20 -10 -30 0
-1 -27 -11 -13 0
-2 -28 -12 -14 0
-3 -71 -377 -13 0
-4 -72 -378 -14 0
-79 -3 -279 -13 0
-80 -4 -280 -14 0
-3 -83 -251 -13 0
-4 -84 -252 -14 0
-97 -3 -195 -13 0
-98 -4 -196 -14 0
-3 -181 -103 -13 0
-4 -182 -104 -14 0
-111 -3 -167 -13 0
-112 -4 -168 -14 0
-15 -3 -37 -303 0
-16 -4 -38 -304 0
-15 -3 -39 -239 0
-16 -4 -40 -240 0
-15 -3 -175 -43 0
-16 -4 -176 -44 0
-15 -47 -3 -143 0
-16 -48 -4 -144 0
-15 -3 -111 -55 0
-16 -4 -112 -56 0
-15 -95 -3 -63 0
-16 -96 -4 -64 0
-17 -3 -251 -27 0
-18 -4 -252 -28 0
-17 -3 -179 -29 0
-18 -4 -180 -30 0
-17 -3 -35 -107 0
-18 -4 -36 -108 0
-17 -3 -39 -89 0
-18 -4 -40 -90 0
-17 -3 -83 -41 0
-18 -4 -84 -42 0
-47 -17 -3 -71 0
-48 -18 -4 -72 0
-21 -3 -19 -329 0
-22 -4 -20 -330 0
-3 -19 -23 -179 0
-4 -20 -24 -180 0
-129 -3 -19 -25 0
-130 -4 -20 -26 0
-3 -19 -89 -29 0
-4 -20 -90 -30 0
-3 -19 -39 -59 0
-4 -20 -40 -60 0
-3 -23 -55 -27 0
-4 -24 -56 -28 0
-19 -5 -379 -227 0
-20 -6 -380 -228 0
-239 -19 -5 -359 0
-240 -20 -6 -360 0
-19 -5 -263 -329 0
-20 -6 -264 -330 0
-323 -19 -5 -269 0
-324 -20 -6 -270 0
-21 -5 -119 -219 0
-22 -6 -120 -220 0
-21 -197 -131 -5 0
-22 -198 -132 -6 0
-359 -5 -23 -59 0
-360 -6 -24 -60 0
-63 -5 -23 -287 0
-64 -6 -24 -288 0
-65 -5 -23 -263 0
-66 -6 -24 -264 0
-215 -5 -23 -71 0
-216 -6 -24 -72 0
-79 -179 -5 -23 0
-80 -180 -6 -24 0
-83 -5 -23 -167 0
-84 -6 -24 -168 0
-95 -143 -5 -23 0
-96 -144 -6 -24 0
-101 -5 -23 -135 0
-102 -6 -24 -136 0
-111 -5 -23 -125 0
-112 -6 -24 -126 0
-233 -51 -5 -25 0
-234 -52 -6 -26 0
-251 -5 -41 -27 0
-252 -6 -42 -28 0
-5 -55 -27 -125 0
-6 -56 -28 -126 0
-269 -35 -5 -29 0
-270 -36 -6 -30 0
-179 -5 -39 -29 0
-180 -6 -40 -30 0
-5 -89 -59 -29 0
-6 -90 -60 -30 0
-31 -63 -5 -71 0
-32 -64 -6 -72 0
-35 -5 -39 -89 0
-36 -6 -40 -90 0
-35 -5 -83 -41 0
-36 -6 -84 -42 0
-207 -7 -363 -27 0
-208 -8 -364 -28 0
-209 -359 -7 -27 0
-210 -360 -8 -28 0
-223 -7 -27 -335 0
-224 -8 -28 -336 0
-359 -7 -119 -29 0
-360 -8 -120 -30 0
-127 -7 -319 -29 0
-128 -8 -320 -30 0
-129 -7 -311 -29 0
-130 -8 -312 -30 0
-279 -7 -139 -29 0
-280 -8 -140 -30 0
-143 -269 -7 -29 0
-144 -270 -8 -30 0
-159 -7 -239 -29 0
-160 -8 -240 -30 0
-175 -7 -219 -29 0
-176 -8 -220 -30 0
-215 -179 -7 -29 0
-216 -180 -8 -30 0
-31 -7 -87 -351 0
-32 -8 -88 -352 0
-31 -95 -7 -287 0
-32 -96 -8 -288 0
-31 -111 -7 -223 0
-32 -112 -8 -224 0
-31 -127 -7 -191 0
-32 -128 -8 -192 0
-35 -359 -7 -59 0
-36 -360 -8 -60 0
-65 -35 -7 -263 0
-66 -36 -8 -264 0
-215 -35 -7 -71 0
-216 -36 -8 -72 0
-79 -35 -7 -179 0
-80 -36 -8 -180 0
-35 -7 -83 -167 0
-36 -8 -84 -168 0
-95 -35 -143 -7 0
-96 -36 -144 -8 0
-35 -101 -7 -135 0
-36 -102 -8 -136 0
-111 -35 -7 -125 0
-112 -36 -8 -126 0
-47 -359 -7 -39 0
-48 -360 -8 -40 0
-49 -7 -39 -299 0
-50 -8 -40 -300 0
-51 -7 -39 -259 0
-52 -8 -40 -260 0
-209 -55 -7 -39 0
-210 -56 -8 -40 0
-179 -7 -39 -59 0
-180 -8 -40 -60 0
-69 -7 -39 -139 0
-70 -8 -40 -140 0
-79 -7 -39 -119 0
-80 -8 -40 -120 0
-7 -39 -87 -109 0
-8 -40 -88 -110 0
-89 -7 -39 -107 0
-90 -8 -40 -108 0
-47 -7 -41 -251 0
-48 -8 -42 -252 0
-69 -7 -41 -119 0
-70 -8 -42 -120 0
-47 -197 -7 -43 0
-48 -198 -8 -44 0
-47 -111 -7 -55 0
-48 -112 -8 -56 0
-35 -379 -9 -227 0
-36 -380 -10 -228 0
-239 -35 -359 -9 0
-240 -36 -360 -10 0
-35 -263 -9 -329 0
-36 -264 -10 -330 0
-323 -35 -9 -269 0
-324 -36 -10 -270 0
-37 -151 -9 -379 0
-38 -152 -10 -380 0
-359 -39 -9 -119 0
-360 -40 -10 -120 0
-127 -39 -9 -319 0
-128 -40 -10 -320 0
-129 -39 -9 -311 0
-130 -40 -10 -312 0
-279 -39 -9 -139 0
-280 -40 -10 -140 0
-143 -39 -9 -269 0
-144 -40 -10 -270 0
-159 -239 -39 -9 0
-160 -240 -40 -10 0
-175 -39 -9 -219 0
-176 -40 -10 -220 0
-215 -179 -39 -9 0
-216 -180 -40 -10 0
-41 -99 -9 -349 0
-42 -100 -10 -350 0
-111 -41 -279 -9 0
-112 -42 -280 -10 0
-41 -119 -9 -251 0
-42 -120 -10 -252 0
-209 -41 -9 -139 0
-210 -42 -10 -140 0
-41 -179 -167 -9 0
-42 -180 -168 -10 0
-87 -9 -43 -329 0
-88 -10 -44 -330 0
-219 -9 -43 -109 0
-220 -10 -44 -110 0
-197 -119 -9 -43 0
-198 -120 -10 -44 0
-131 -179 -9 -43 0
-132 -180 -10 -44 0
-229 -9 -91 -45 0
-230 -10 -92 -46 0
-47 -69 -9 -335 0
-48 -70 -10 -336 0
-47 -95 -179 -9 0
-48 -96 -180 -10 0
-47 -143 -119 -9 0
-48 -144 -120 -10 0
-49 -99 -149 -9 0
-50 -100 -150 -10 0
-51 -179 -9 -77 0
-52 -180 -10 -78 0
-129 -51 -103 -9 0
-130 -52 -104 -10 0
-53 -9 -59 -269 0
-54 -10 -60 -270 0
-179 -53 -71 -9 0
-180 -54 -72 -10 0
-69 -55 -9 -167 0
-70 -56 -10 -168 0
-63 -159 -9 -59 0
-64 -160 -10 -60 0
-139 -69 -9 -59 0
-140 -70 -10 -60 0
-87 -9 -59 -109 0
-88 -10 -60 -110 0
-107 -89 -9 -59 0
-108 -90 -10 -60 0
-89 -83 -69 -9 0
-90 -84 -70 -10 0
-47 -159 -359 -11 0
-48 -160 -360 -12 0
-47 -167 -11 -335 0
-48 -168 -12 -336 0
-47 -191 -287 -11 0
-48 -192 -288 -12 0
-47 -203 -271 -11 0
-48 -204 -272 -12 0
-47 -251 -223 -11 0
-48 -252 -224 -12 0
-299 -49 -149 -11 0
-300 -50 -150 -12 0
-51 -131 -11 -285 0
-52 -132 -12 -286 0
-155 -51 -233 -11 0
-156 -52 -234 -12 0
-107 -323 -53 -11 0
-108 -324 -54 -12 0
-53 -119 -11 -269 0
-54 -120 -12 -270 0
-251 -53 -11 -125 0
-252 -54 -12 -126 0
-143 -53 -215 -11 0
-144 -54 -216 -12 0
-111 -251 -55 -11 0
-112 -252 -56 -12 0
-215 -55 -11 -125 0
-216 -56 -12 -126 0
-79 -359 -11 -59 0
-80 -360 -12 -60 0
-269 -89 -11 -59 0
-270 -90 -12 -60 0
-197 -109 -11 -59 0
-198 -110 -12 -60 0
-113 -189 -11 -59 0
-114 -190 -12 -60 0
-179 -119 -11 -59 0
-180 -120 -12 -60 0
-63 -143 -127 -11 0
-64 -144 -128 -12 0
-65 -197 -87 -11 0
-66 -198 -88 -12 0
-83 -69 -179 -11 0
-84 -70 -180 -12 0
-69 -119 -11 -125 0
-70 -120 -12 -126 0
-79 -179 -71 -11 0
-80 -180 -72 -12 0
-83 -71 -11 -167 0
-84 -72 -12 -168 0
-101 -71 -11 -135 0
-102 -72 -12 -136 0
-111 -71 -11 -125 0
-112 -72 -12 -126 0
-53 -377 -251 -13 0
-54 -378 -252 -14 0
-287 -53 -335 -13 0
-288 -54 -336 -14 0
-207 -55 -363 -13 0
-208 -56 -364 -14 0
-209 -359 -55 -13 0
-210 -360 -56 -14 0
-223 -55 -335 -13 0
-224 -56 -336 -14 0
-159 -335 -59 -13 0
-160 -336 -60 -14 0
-209 -251 -59 -13 0
-210 -252 -60 -14 0
-223 -239 -59 -13 0
-224 -240 -60 -14 0
-63 -127 -335 -13 0
-64 -128 -336 -14 0
-67 -135 -237 -13 0
-68 -136 -238 -14 0
-349 -99 -69 -13 0
-350 -100 -70 -14 0
-69 -119 -251 -13 0
-70 -120 -252 -14 0
-209 -69 -139 -13 0
-210 -70 -140 -14 0
-179 -69 -167 -13 0
-180 -70 -168 -14 0
-95 -71 -335 -13 0
-96 -72 -336 -14 0
-215 -71 -125 -13 0
-216 -72 -126 -14 0
-97 -83 -195 -13 0
-98 -84 -196 -14 0
-83 -181 -103 -13 0
-84 -182 -104 -14 0
-119 -89 -139 -13 0
-120 -90 -140 -14 0
-15 -63 -255 -383 0
-16 -64 -256 -384 0
-15 -279 -69 -223 0
-16 -280 -70 -224 0
-15 -359 -159 -71 0
-16 -360 -160 -72 0
-15 -71 -335 -167 0
-16 -72 -336 -168 0
-15 -287 -71 -191 0
-16 -288 -72 -192 0
-15 -71 -271 -203 0
-16 -72 -272 -204 0
-15 -71 -223 -251 0
-16 -72 -224 -252 0
-15 -239 -75 -189 0
-16 -240 -76 -190 0
-15 -259 -159 -77 0
-16 -260 -160 -78 0
-15 -79 -359 -119 0
-16 -80 -360 -120 0
-15 -129 -79 -311 0
-16 -130 -80 -312 0
-15 -79 -279 -139 0
-16 -80 -280 -140 0
-15 -79 -143 -269 0
-16 -80 -144 -270 0
-15 -79 -159 -239 0
-16 -80 -160 -240 0
-15 -79 -175 -219 0
-16 -80 -176 -220 0
-15 -79 -215 -179 0
-16 -80 -216 -180 0
-15 -83 -239 -139 0
-16 -84 -240 -140 0
-15 -209 -83 -159 0
-16 -210 -84 -160 0
-15 -95 -359 -89 0
-16 -96 -360 -90 0
-15 -239 -119 -89 0
-16 -240 -120 -90 0
-15 -179 -159 -89 0
-16 -180 -160 -90 0
-15 -95 -111 -223 0
-16 -96 -112 -224 0
-335 -17 -71 -377 0
-336 -18 -72 -378 0
-17 -83 -167 -377 0
-18 -84 -168 -378 0
-17 -83 -197 -307 0
-18 -84 -198 -308 0
-17 -197 -87 -263 0
-18 -198 -88 -264 0
-17 -89 -139 -377 0
-18 -90 -140 -378 0
-17 -179 -89 -269 0
-18 -180 -90 -270 0
-95 -17 -191 -215 0
-96 -18 -192 -216 0
-215 -17 -103 -155 0
-216 -18 -104 -156 0
-17 -119 -107 -269 0
-18 -120 -108 -270 0
-17 -251 -107 -125 0
-18 -252 -108 -126 0
-335 -19 -359 -83 0
-336 -20 -360 -84 0
-263 -19 -359 -87 0
-264 -20 -360 -88 0
-19 -379 -89 -227 0
-20 -380 -90 -228 0
-239 -19 -359 -89 0
-240 -20 -360 -90 0
-19 -263 -89 -329 0
-20 -264 -90 -330 0
-323 -19 -89 -269 0
-324 -20 -90 -270 0
-95 -19 -359 -191 0
-96 -20 -360 -192 0
-95 -19 -239 -287 0
-96 -20 -240 -288 0
-199 -19 -99 -299 0
-200 -20 -100 -300 0
-339 -19 -101 -169 0
-340 -20 -102 -170 0
-19 -359 -103 -155 0
-20 -360 -104 -156 0
-207 -19 -103 -259 0
-208 -20 -104 -260 0
-139 -19 -377 -107 0
-140 -20 -378 -108 0
-143 -19 -359 -107 0
-144 -20 -360 -108 0
-19 -373 -135 -109 0
-20 -374 -136 -110 0
-19 -307 -153 -109 0
-20 -308 -154 -110 0
-175 -19 -263 -109 0
-176 -20 -264 -110 0
-111 -19 -139 -335 0
-112 -20 -140 -336 0
-113 -19 -227 -189 0
-114 -20 -228 -190 0
-127 -19 -119 -319 0
-128 -20 -120 -320 0
-129 -19 -119 -311 0
-130 -20 -120 -312 0
-279 -19 -119 -139 0
-280 -20 -120 -140 0
-143 -19 -119 -269 0
-144 -20 -120 -270 0
-175 -19 -119 -219 0
-176 -20 -120 -220 0
-215 -19 -119 -179 0
-216 -20 -120 -180 0
-19 -251 -139 -125 0
-20 -252 -140 -126 0
-209 -19 -167 -125 0
-210 -20 -168 -126 0
-209 -19 -153 -131 0
-210 -20 -154 -132 0
-19 -167 -179 -139 0
-20 -168 -180 -140 0
-311 -21 -103 -285 0
-312 -22 -104 -286 0
-251 -21 -107 -307 0
-252 -22 -108 -308 0
-21 -329 -219 -109 0
-22 -330 -220 -110 0
-285 -259 -21 -109 0
-286 -260 -22 -110 0
-111 -307 -21 -223 0
-112 -308 -22 -224 0
-263 -21 -119 -219 0
-264 -22 -120 -220 0
-307 -21 -167 -125 0
-308 -22 -168 -126 0
-131 -21 -135 -373 0
-132 -22 -136 -374 0
-131 -21 -153 -307 0
-132 -22 -154 -308 0
-335 -23 -377 -107 0
-336 -24 -378 -108 0
-359 -23 -329 -109 0
-360 -24 -330 -110 0
-111 -23 -287 -377 0
-112 -24 -288 -378 0
-303 -113 -341 -23 0
-304 -114 -342 -24 0
-227 -23 -379 -119 0
-228 -24 -380 -120 0
-239 -359 -23 -119 0
-240 -360 -24 -120 0
-263 -23 -329 -119 0
-264 -24 -330 -120 0
-323 -23 -119 -269 0
-324 -24 -120 -270 0
-207 -23 -363 -125 0
-208 -24 -364 -126 0
-209 -359 -23 -125 0
-210 -360 -24 -126 0
-223 -23 -335 -125 0
-224 -24 -336 -126 0
-127 -287 -23 -255 0
-128 -288 -24 -256 0
-305 -23 -203 -135 0
-306 -24 -204 -136 0
-359 -23 -139 -167 0
-360 -24 -140 -168 0
-239 -251 -23 -139 0
-240 -252 -24 -140 0
-143 -359 -159 -23 0
-144 -360 -160 -24 0
-143 -23 -335 -167 0
-144 -24 -336 -168 0
-143 -23 -271 -203 0
-144 -24 -272 -204 0
-143 -23 -223 -251 0
-144 -24 -224 -252 0
-207 -23 -233 -155 0
-208 -24 -234 -156 0
-159 -209 -23 -223 0
-160 -210 -24 -224 0
-181 -23 -233 -167 0
-182 -24 -234 -168 0
-311 -25 -363 -125 0
-312 -26 -364 -126 0
-129 -279 -25 -363 0
-130 -280 -26 -364 0
-181 -363 -25 -155 0
-182 -364 -26 -156 0
-311 -181 -167 -25 0
-312 -182 -168 -26 0
-335 -139 -359 -27 0
-336 -140 -360 -28 0
-143 -287 -27 -377 0
-144 -288 -28 -378 0
-149 -279 -27 -349 0
-150 -280 -28 -350 0
-279 -153 -27 -329 0
-280 -154 -28 -330 0
-155 -233 -27 -377 0
-156 -234 -28 -378 0
-161 -215 -377 -27 0
-162 -216 -378 -28 0
-323 -161 -251 -27 0
-324 -162 -252 -28 0
-207 -167 -363 -27 0
-208 -168 -364 -28 0
-209 -359 -167 -27 0
-210 -360 -168 -28 0
-271 -279 -169 -27 0
-272 -280 -170 -28 0
-239 -179 -279 -27 0
-240 -180 -280 -28 0
-179 -251 -27 -269 0
-180 -252 -28 -270 0
-207 -181 -311 -27 0
-208 -182 -312 -28 0
-279 -229 -183 -27 0
-280 -230 -184 -28 0
-159 -359 -319 -29 0
-160 -360 -320 -30 0
-159 -329 -351 -29 0
-160 -330 -352 -30 0
-279 -359 -167 -29 0
-280 -360 -168 -30 0
-271 -359 -169 -29 0
-272 -360 -170 -30 0
-179 -379 -227 -29 0
-180 -380 -228 -30 0
-179 -263 -329 -29 0
-180 -264 -330 -30 0
-269 -323 -179 -29 0
-270 -324 -180 -30 0
-359 -229 -183 -29 0
-360 -230 -184 -30 0
-227 -341 -189 -29 0
-228 -342 -190 -30 0
-197 -329 -219 -29 0
-198 -330 -220 -30 0
-285 -259 -197 -29 0
-286 -260 -198 -30 0
-269 -209 -251 -29 0
-270 -210 -252 -30 0
-31 -179 -359 -319 0
-32 -180 -360 -320 0
-31 -179 -329 -351 0
-32 -180 -330 -352 0
-31 -197 -263 -351 0
-32 -198 -264 -352 0
-209 -35 -359 -377 0
-210 -36 -360 -378 0
-335 -35 -215 -377 0
-336 -36 -216 -378 0
-37 -279 -265 -379 0
-38 -280 -266 -380 0
-335 -39 -377 -269 0
-336 -40 -378 -270 0
-335 -279 -359 -39 0
-336 -280 -360 -40 0
-287 -39 -329 -351 0
-288 -40 -330 -352 0
-1 -19 -5 -179 0
-2 -20 -6 -180 0
-1 -5 -23 -71 0
-2 -6 -24 -72 0
-1 -83 -7 -13 0
-2 -84 -8 -14 0
-15 -1 -7 -47 0
-16 -2 -8 -48 0
-1 -35 -7 -17 0
-2 -36 -8 -18 0
-1 -19 -7 -29 0
-2 -20 -8 -30 0
-1 -9 -11 -59 0
-2 -10 -12 -60 0
-3 -359 -71 -9 0
-4 -360 -72 -10 0
-3 -259 -9 -77 0
-4 -260 -10 -78 0
-79 -3 -239 -9 0
-80 -4 -240 -10 0
-209 -3 -83 -9 0
-210 -4 -84 -10 0
-179 -3 -89 -9 0
-180 -4 -90 -10 0
-95 -3 -159 -9 0
-96 -4 -160 -10 0
-3 -149 -99 -9 0
-4 -150 -100 -10 0
-3 -131 -9 -109 0
-4 -132 -10 -110 0
-3 -359 -39 -11 0
-4 -360 -40 -12 0
-3 -251 -41 -11 0
-4 -252 -42 -12 0
-3 -197 -11 -43 0
-4 -198 -12 -44 0
-47 -3 -143 -11 0
-48 -4 -144 -12 0
-107 -3 -53 -11 0
-108 -4 -54 -12 0
-3 -89 -11 -59 0
-4 -90 -12 -60 0
-31 -3 -223 -13 0
-32 -4 -224 -14 0
-3 -35 -125 -13 0
-4 -36 -126 -14 0
-3 -83 -41 -13 0
-4 -84 -42 -14 0
-15 -3 -311 -25 0
-16 -4 -312 -26 0
-15 -3 -167 -27 0
-16 -4 -168 -28 0
-15 -3 -119 -29 0
-16 -4 -120 -30 0
-15 -31 -3 -95 0
-16 -32 -4 -96 0
-15 -3 -35 -71 0
-16 -4 -36 -72 0
-15 -3 -39 -59 0
-16 -4 -40 -60 0
-15 -3 -55 -41 0
-16 -4 -56 -42 0
-215 -17 -3 -23 0
-216 -18 -4 -24 0
-53 -17 -3 -35 0
-54 -18 -4 -36 0
-21 -3 -19 -219 0
-22 -4 -20 -220 0
-3 -19 -23 -119 0
-4 -20 -24 -120 0
-69 -3 -19 -27 0
-70 -4 -20 -28 0
-3 -21 -23 -87 0
-4 -22 -24 -88 0
-223 -5 -287 -13 0
-224 -6 -288 -14 0
-15 -5 -359 -89 0
-16 -6 -360 -90 0
-15 -95 -5 -287 0
-16 -96 -6 -288 0
-15 -5 -103 -233 0
-16 -6 -104 -234 0
-15 -5 -215 -107 0
-16 -6 -216 -108 0
-15 -179 -5 -119 0
-16 -180 -6 -120 0
-15 -5 -167 -125 0
-16 -6 -168 -126 0
-215 -17 -5 -71 0
-216 -18 -6 -72 0
-53 -19 -5 -269 0
-54 -20 -6 -270 0
-19 -5 -179 -59 0
-20 -6 -180 -60 0
-69 -19 -5 -125 0
-70 -20 -6 -126 0
-19 -5 -71 -119 0
-20 -6 -72 -120 0
-21 -5 -71 -87 0
-22 -6 -72 -88 0
-359 -5 -23 -39 0
-360 -6 -24 -40 0
-5 -23 -41 -251 0
-6 -24 -42 -252 0
-197 -5 -23 -43 0
-198 -6 -24 -44 0
-47 -143 -5 -23 0
-48 -144 -6 -24 0
-53 -5 -23 -107 0
-54 -6 -24 -108 0
-5 -23 -89 -59 0
-6 -24 -90 -60 0
-251 -35 -5 -27 0
-252 -36 -6 -28 0
-5 -41 -27 -125 0
-6 -42 -28 -126 0
-5 -55 -27 -71 0
-6 -56 -28 -72 0
-35 -5 -179 -29 0
-36 -6 -180 -30 0
-5 -39 -119 -29 0
-6 -40 -120 -30 0
-47 -79 -5 -29 0
-48 -80 -6 -30 0
-31 -143 -35 -5 0
-32 -144 -36 -6 0
-31 -47 -5 -71 0
-32 -48 -6 -72 0
-19 -359 -7 -179 0
-20 -360 -8 -180 0
-191 -19 -7 -319 0
-192 -20 -8 -320 0
-199 -19 -7 -299 0
-200 -20 -8 -300 0
-209 -19 -7 -279 0
-210 -20 -8 -280 0
-215 -19 -7 -269 0
-216 -20 -8 -270 0
-263 -19 -7 -219 0
-264 -20 -8 -220 0
-21 -7 -329 -119 0
-22 -8 -330 -120 0
-263 -131 -21 -7 0
-264 -132 -22 -8 0
-359 -89 -7 -23 0
-360 -90 -8 -24 0
-95 -287 -7 -23 0
-96 -288 -8 -24 0
-233 -7 -23 -103 0
-234 -8 -24 -104 0
-215 -7 -23 -107 0
-216 -8 -24 -108 0
-179 -7 -23 -119 0
-180 -8 -24 -120 0
-167 -7 -23 -125 0
-168 -8 -24 -126 0
-311 -7 -25 -77 0
-312 -8 -26 -78 0
-155 -7 -25 -103 0
-156 -8 -26 -104 0
-129 -7 -25 -119 0
-130 -8 -26 -120 0
-251 -7 -27 -71 0
-252 -8 -28 -72 0
-83 -7 -27 -167 0
-84 -8 -28 -168 0
-7 -153 -27 -87 0
-8 -154 -28 -88 0
-359 -7 -59 -29 0
-360 -8 -60 -30 0
-179 -7 -71 -29 0
-180 -8 -72 -30 0
-79 -143 -7 -29 0
-80 -144 -8 -30 0
-7 -89 -119 -29 0
-8 -90 -120 -30 0
-31 -7 -55 -335 0
-32 -8 -56 -336 0
-31 -7 -239 -59 0
-32 -8 -240 -60 0
-31 -63 -7 -191 0
-32 -64 -8 -192 0
-31 -65 -175 -7 0
-32 -66 -176 -8 0
-31 -143 -7 -71 0
-32 -144 -8 -72 0
-31 -79 -7 -119 0
-32 -80 -8 -120 0
-31 -83 -111 -7 0
-32 -84 -112 -8 0
-33 -7 -55 -237 0
-34 -8 -56 -238 0
-215 -35 -53 -7 0
-216 -36 -54 -8 0
-107 -35 -7 -71 0
-108 -36 -8 -72 0
-47 -37 -7 -303 0
-48 -38 -8 -304 0
-47 -239 -7 -39 0
-48 -240 -8 -40 0
-199 -49 -7 -39 0
-200 -50 -8 -40 0
-55 -7 -39 -139 0
-56 -8 -40 -140 0
-89 -7 -39 -71 0
-90 -8 -40 -72 0
-55 -7 -41 -125 0
-56 -8 -42 -126 0
-83 -7 -41 -71 0
-84 -8 -42 -72 0
-47 -175 -7 -43 0
-48 -176 -8 -44 0
-47 -53 -7 -107 0
-48 -54 -8 -108 0
-47 -7 -89 -59 0
-48 -8 -90 -60 0
-341 -23 -9 -379 0
-342 -24 -10 -380 0
-149 -9 -27 -349 0
-150 -10 -28 -350 0
-153 -9 -27 -329 0
-154 -10 -28 -330 0
-279 -167 -9 -27 0
-280 -168 -10 -28 0
-179 -251 -9 -27 0
-180 -252 -10 -28 0
-359 -119 -9 -29 0
-360 -120 -10 -30 0
-251 -9 -139 -29 0
-252 -10 -140 -30 0
-143 -239 -9 -29 0
-144 -240 -10 -30 0
-31 -111 -279 -9 0
-32 -112 -280 -10 0
-31 -239 -119 -9 0
-32 -240 -120 -10 0
-31 -129 -207 -9 0
-32 -130 -208 -10 0
-31 -179 -143 -9 0
-32 -180 -144 -10 0
-35 -89 -9 -269 0
-36 -90 -10 -270 0
-35 -179 -9 -107 0
-36 -180 -10 -108 0
-37 -379 -9 -75 0
-38 -380 -10 -76 0
-79 -303 -37 -9 0
-80 -304 -38 -10 0
-259 -39 -9 -77 0
-260 -40 -10 -78 0
-79 -239 -39 -9 0
-80 -240 -40 -10 0
-209 -83 -39 -9 0
-210 -84 -40 -10 0
-179 -89 -39 -9 0
-180 -90 -40 -10 0
-95 -159 -39 -9 0
-96 -160 -40 -10 0
-99 -149 -39 -9 0
-100 -150 -40 -10 0
-131 -39 -9 -109 0
-132 -40 -10 -110 0
-279 -41 -71 -9 0
-280 -42 -72 -10 0
-41 -179 -83 -9 0
-42 -180 -84 -10 0
-65 -9 -43 -329 0
-66 -10 -44 -330 0
-79 -175 -9 -43 0
-80 -176 -10 -44 0
-47 -359 -9 -59 0
-48 -360 -10 -60 0
-47 -179 -71 -9 0
-48 -180 -72 -10 0
-47 -79 -143 -9 0
-48 -80 -144 -10 0
-47 -89 -119 -9 0
-48 -90 -120 -10 0
-49 -299 -9 -59 0
-50 -300 -10 -60 0
-51 -9 -59 -259 0
-52 -10 -60 -260 0
-129 -51 -9 -77 0
-130 -52 -10 -78 0
-209 -55 -9 -59 0
-210 -56 -10 -60 0
-69 -55 -9 -139 0
-70 -56 -10 -140 0
-79 -111 -55 -9 0
-80 -112 -56 -10 0
-69 -9 -59 -125 0
-70 -10 -60 -126 0
-71 -9 -59 -119 0
-72 -10 -60 -120 0
-63 -79 -95 -9 0
-64 -80 -96 -10 0
-341 -379 -11 -29 0
-342 -380 -12 -30 0
-31 -359 -239 -11 0
-32 -360 -240 -12 0
-31 -251 -11 -335 0
-32 -252 -12 -336 0
-31 -305 -271 -11 0
-32 -306 -272 -12 0
-33 -203 -305 -11 0
-34 -204 -306 -12 0
-33 -251 -11 -237 0
-34 -252 -12 -238 0
-323 -161 -35 -11 0
-324 -162 -36 -12 0
-35 -179 -11 -269 0
-36 -180 -12 -270 0
-143 -37 -303 -11 0
-144 -38 -304 -12 0
-359 -39 -11 -119 0
-360 -40 -12 -120 0
-139 -251 -39 -11 0
-140 -252 -40 -12 0
-143 -39 -239 -11 0
-144 -40 -240 -12 0
-107 -41 -11 -377 0
-108 -42 -12 -378 0
-111 -41 -11 -335 0
-112 -42 -12 -336 0
-279 -119 -41 -11 0
-280 -120 -42 -12 0
-251 -41 -11 -125 0
-252 -42 -12 -126 0
-139 -41 -11 -209 0
-140 -42 -12 -210 0
-155 -181 -41 -11 0
-156 -182 -42 -12 0
-131 -197 -11 -43 0
-132 -198 -12 -44 0
-143 -175 -11 -43 0
-144 -176 -12 -44 0
-47 -359 -89 -11 0
-48 -360 -90 -12 0
-47 -95 -287 -11 0
-48 -96 -288 -12 0
-47 -103 -233 -11 0
-48 -104 -234 -12 0
-47 -107 -215 -11 0
-48 -108 -216 -12 0
-47 -179 -119 -11 0
-48 -180 -120 -12 0
-47 -167 -11 -125 0
-48 -168 -12 -126 0
-49 -299 -89 -11 0
-50 -300 -90 -12 0
-51 -89 -11 -259 0
-52 -90 -12 -260 0
-107 -161 -53 -11 0
-108 -162 -54 -12 0
-83 -251 -55 -11 0
-84 -252 -56 -12 0
-209 -55 -89 -11 0
-210 -56 -90 -12 0
-111 -143 -55 -11 0
-112 -144 -56 -12 0
-359 -71 -11 -59 0
-360 -72 -12 -60 0
-259 -77 -11 -59 0
-260 -78 -12 -60 0
-79 -239 -11 -59 0
-80 -240 -12 -60 0
-209 -83 -11 -59 0
-210 -84 -12 -60 0
-95 -159 -11 -59 0
-96 -160 -12 -60 0
-131 -109 -11 -59 0
-132 -110 -12 -60 0
-63 -71 -287 -11 0
-64 -72 -288 -12 0
-63 -159 -89 -11 0
-64 -160 -90 -12 0
-63 -95 -143 -11 0
-64 -96 -144 -12 0
-65 -71 -11 -263 0
-66 -72 -12 -264 0
-139 -69 -89 -11 0
-140 -70 -90 -12 0
-79 -119 -89 -11 0
-80 -120 -90 -12 0
-87 -89 -11 -109 0
-88 -90 -12 -110 0
-303 -37 -335 -13 0
-304 -38 -336 -14 0
-339 -39 -237 -13 0
-340 -40 -238 -14 0
-239 -39 -335 -13 0
-240 -40 -336 -14 0
-223 -287 -41 -13 0
-224 -288 -42 -14 0
-175 -335 -43 -13 0
-176 -336 -44 -14 0
-47 -359 -139 -13 0
-48 -360 -140 -14 0
-47 -143 -335 -13 0
-48 -144 -336 -14 0
-47 -167 -251 -13 0
-48 -168 -252 -14 0
-49 -299 -139 -13 0
-50 -300 -140 -14 0
-51 -259 -139 -13 0
-52 -260 -140 -14 0
-55 -377 -107 -13 0
-56 -378 -108 -14 0
-111 -55 -335 -13 0
-112 -56 -336 -14 0
-55 -125 -251 -13 0
-56 -126 -252 -14 0
-209 -55 -139 -13 0
-210 -56 -140 -14 0
-181 -55 -155 -13 0
-182 -56 -156 -14 0
-209 -125 -59 -13 0
-210 -126 -60 -14 0
-139 -179 -59 -13 0
-140 -180 -60 -14 0
-63 -95 -335 -13 0
-64 -96 -336 -14 0
-63 -111 -223 -13 0
-64 -112 -224 -14 0
-63 -159 -139 -13 0
-64 -160 -140 -14 0
-67 -101 -237 -13 0
-68 -102 -238 -14 0
-69 -119 -167 -13 0
-70 -120 -168 -14 0
-83 -71 -377 -13 0
-84 -72 -378 -14 0
-79 -83 -279 -13 0
-80 -84 -280 -14 0
-79 -119 -139 -13 0
-80 -120 -140 -14 0
-209 -83 -89 -13 0
-210 -84 -90 -14 0
-111 -83 -143 -13 0
-112 -84 -144 -14 0
-87 -109 -139 -13 0
-88 -110 -140 -14 0
-139 -89 -107 -13 0
-140 -90 -108 -14 0
-95 -111 -125 -13 0
-96 -112 -126 -14 0
-15 -275 -367 -45 0
-16 -276 -368 -46 0
-15 -47 -359 -239 0
-16 -48 -360 -240 0
-15 -47 -251 -335 0
-16 -48 -252 -336 0
-15 -47 -305 -271 0
-16 -48 -306 -272 0
-15 -49 -239 -299 0
-16 -50 -240 -300 0
-15 -311 -51 -207 0
-16 -312 -52 -208 0
-15 -51 -239 -259 0
-16 -52 -240 -260 0
-15 -55 -335 -167 0
-16 -56 -336 -168 0
-15 -307 -175 -55 0
-16 -308 -176 -56 0
-15 -209 -55 -239 0
-16 -210 -56 -240 0
-15 -143 -359 -59 0
-16 -144 -360 -60 0
-15 -159 -287 -59 0
-16 -160 -288 -60 0
-15 -179 -239 -59 0
-16 -180 -240 -60 0
-15 -63 -127 -383 0
-16 -64 -128 -384 0
-15 -63 -131 -351 0
-16 -64 -132 -352 0
-15 -63 -143 -287 0
-16 -64 -144 -288 0
-15 -63 -159 -239 0
-16 -64 -160 -240 0
-15 -63 -167 -223 0
-16 -64 -168 -224 0
-15 -65 -143 -263 0
-16 -66 -144 -264 0
-15 -65 -175 -197 0
-16 -66 -176 -198 0
-15 -69 -119 -335 0
-16 -70 -120 -336 0
-15 -69 -239 -139 0
-16 -70 -240 -140 0
-15 -111 -71 -377 0
-16 -112 -72 -378 0
-15 -215 -143 -71 0
-16 -216 -144 -72 0
-15 -113 -303 -75 0
-16 -114 -304 -76 0
-15 -79 -111 -279 0
-16 -80 -112 -280 0
-15 -129 -79 -207 0
-16 -130 -80 -208 0
-15 -79 -143 -179 0
-16 -80 -144 -180 0
-15 -83 -111 -251 0
-16 -84 -112 -252 0
-15 -83 -143 -167 0
-16 -84 -144 -168 0
-15 -95 -87 -351 0
-16 -96 -88 -352 0
-15 -87 -239 -109 0
-16 -88 -240 -110 0
-15 -239 -89 -107 0
-16 -240 -90 -108 0
-15 -95 -103 -233 0
-16 -96 -104 -234 0
-15 -95 -215 -107 0
-16 -96 -216 -108 0
-15 -95 -119 -179 0
-16 -96 -120 -180 0
-15 -95 -167 -125 0
-16 -96 -168 -126 0
-15 -97 -111 -195 0
-16 -98 -112 -196 0
-15 -143 -101 -135 0
-16 -144 -102 -136 0
-15 -111 -181 -103 0
-16 -112 -182 -104 0
-17 -55 -377 -251 0
-18 -56 -378 -252 0
-17 -377 -59 -209 0
-18 -378 -60 -210 0
-17 -359 -215 -59 0
-18 -360 -216 -60 0
-63 -17 -215 -287 0
-64 -18 -216 -288 0
-17 -215 -263 -65 0
-18 -216 -264 -66 0
-161 -17 -323 -71 0
-162 -18 -324 -72 0
-17 -179 -71 -269 0
-18 -180 -72 -270 0
-79 -17 -179 -215 0
-80 -18 -180 -216 0
-17 -83 -377 -125 0
-18 -84 -378 -126 0
-215 -17 -83 -167 0
-216 -18 -84 -168 0
-17 -359 -119 -89 0
-18 -360 -120 -90 0
-17 -251 -89 -139 0
-18 -252 -90 -140 0
-143 -17 -239 -89 0
-144 -18 -240 -90 0
-95 -17 -111 -377 0
-96 -18 -112 -378 0
-95 -17 -143 -215 0
-96 -18 -144 -216 0
-215 -17 -101 -135 0
-216 -18 -102 -136 0
-111 -17 -215 -125 0
-112 -18 -216 -126 0
-19 -341 -379 -59 0
-20 -342 -380 -60 0
-371 -19 -309 -61 0
-372 -20 -310 -62 0
-63 -19 -359 -287 0
-64 -20 -360 -288 0
-65 -19 -359 -263 0
-66 -20 -360 -264 0
-339 -19 -69 -237 0
-340 -20 -70 -238 0
-239 -19 -69 -335 0
-240 -20 -70 -336 0
-209 -19 -71 -377 0
-210 -20 -72 -378 0
-215 -19 -359 -71 0
-216 -20 -360 -72 0
-19 -379 -75 -189 0
-20 -380 -76 -190 0
-19 -259 -233 -77 0
-20 -260 -234 -78 0
-79 -19 -359 -179 0
-80 -20 -360 -180 0
-79 -19 -191 -319 0
-80 -20 -192 -320 0
-79 -19 -199 -299 0
-80 -20 -200 -300 0
-79 -209 -19 -279 0
-80 -210 -20 -280 0
-79 -19 -215 -269 0
-80 -20 -216 -270 0
-79 -19 -263 -219 0
-80 -20 -264 -220 0
-19 -359 -83 -167 0
-20 -360 -84 -168 0
-209 -19 -83 -251 0
-210 -20 -84 -252 0
-159 -19 -87 -351 0
-160 -20 -88 -352 0
-323 -161 -19 -89 0
-324 -162 -20 -90 0
-19 -179 -89 -269 0
-20 -180 -90 -270 0
-95 -19 -143 -359 0
-96 -20 -144 -360 0
-95 -19 -159 -287 0
-96 -20 -160 -288 0
-95 -19 -239 -179 0
-96 -20 -240 -180 0
-97 -19 -195 -209 0
-98 -20 -196 -210 0
-19 -99 -139 -349 0
-20 -100 -140 -350 0
-359 -19 -101 -135 0
-360 -20 -102 -136 0
-19 -103 -155 -259 0
-20 -104 -156 -260 0
-209 -19 -181 -103 0
-210 -20 -182 -104 0
-19 -329 -131 -109 0
-20 -330 -132 -110 0
-19 -197 -179 -109 0
-20 -198 -180 -110 0
-111 -19 -359 -125 0
-112 -20 -360 -126 0
-111 -19 -279 -139 0
-112 -20 -280 -140 0
-111 -19 -159 -223 0
-112 -20 -160 -224 0
-111 -209 -19 -167 0
-112 -210 -20 -168 0
-113 -19 -179 -189 0
-114 -20 -180 -190 0
-19 -251 -119 -139 0
-20 -252 -120 -140 0
-143 -19 -119 -239 0
-144 -20 -120 -240 0
-127 -19 -159 -191 0
-128 -20 -160 -192 0
-155 -19 -181 -139 0
-156 -20 -182 -140 0
-307 -21 -71 -377 0
-308 -22 -72 -378 0
-79 -21 -263 -329 0
-80 -22 -264 -330 0
-79 -307 -21 -279 0
-80 -308 -22 -280 0
-83 -21 -251 -307 0
-84 -22 -252 -308 0
-21 -87 -373 -203 0
-22 -88 -374 -204 0
-21 -87 -329 -219 0
-22 -88 -330 -220 0
-97 -195 -21 -307 0
-98 -196 -22 -308 0
-181 -21 -103 -307 0
-182 -22 -104 -308 0
-159 -21 -351 -109 0
-160 -22 -352 -110 0
-111 -307 -21 -167 0
-112 -308 -22 -168 0
-197 -21 -119 -219 0
-198 -22 -120 -220 0
-79 -341 -23 -379 0
-80 -342 -24 -380 0
-311 -83 -23 -363 0
-312 -84 -24 -364 0
-287 -23 -87 -351 0
-288 -24 -88 -352 0
-359 -23 -89 -269 0
-360 -24 -90 -270 0
-95 -359 -23 -239 0
-96 -360 -24 -240 0
-95 -23 -251 -335 0
-96 -24 -252 -336 0
-95 -305 -23 -271 0
-96 -306 -24 -272 0
-311 -23 -233 -103 0
-312 -24 -234 -104 0
-215 -323 -23 -107 0
-216 -324 -24 -108 0
-359 -197 -23 -109 0
-360 -198 -24 -110 0
-111 -287 -23 -223 0
-112 -288 -24 -224 0
-113 -359 -23 -189 0
-114 -360 -24 -190 0
-191 -23 -119 -319 0
-192 -24 -120 -320 0
-209 -23 -119 -279 0
-210 -24 -120 -280 0
-215 -23 -119 -269 0
-216 -24 -120 -270 0
-263 -219 -23 -119 0
-264 -220 -24 -120 0
-377 -23 -167 -125 0
-378 -24 -168 -126 0
-215 -23 -251 -125 0
-216 -24 -252 -126 0
-127 -179 -23 -319 0
-128 -180 -24 -320 0
-127 -287 -23 -191 0
-128 -288 -24 -192 0
-129 -179 -23 -311 0
-130 -180 -24 -312 0
-321 -23 -137 -167 0
-322 -24 -138 -168 0
-279 -179 -23 -139 0
-280 -180 -24 -140 0
-143 -161 -323 -23 0
-144 -162 -324 -24 0
-143 -179 -23 -269 0
-144 -180 -24 -270 0
-159 -179 -23 -239 0
-160 -180 -24 -240 0
-175 -179 -23 -219 0
-176 -180 -24 -220 0
-131 -233 -25 -285 0
-132 -234 -26 -286 0
-197 -25 -155 -285 0
-198 -26 -156 -286 0
-159 -259 -207 -25 0
-160 -260 -208 -26 0
-107 -323 -377 -27 0
-108 -324 -378 -28 0
-111 -311 -363 -27 0
-112 -312 -364 -28 0
-119 -377 -27 -269 0
-120 -378 -28 -270 0
-279 -359 -119 -27 0
-280 -360 -120 -28 0
-251 -377 -27 -125 0
-252 -378 -28 -126 0
-127 -279 -27 -319 0
-128 -280 -28 -320 0
-129 -279 -27 -311 0
-130 -280 -28 -312 0
-321 -251 -137 -27 0
-322 -252 -138 -28 0
-139 -339 -27 -237 0
-140 -340 -28 -238 0
-239 -139 -27 -335 0
-240 -140 -28 -336 0
-143 -215 -377 -27 0
-144 -216 -378 -28 0
-143 -279 -27 -269 0
-144 -280 -28 -270 0
-203 -373 -153 -27 0
-204 -374 -154 -28 0
-219 -153 -27 -329 0
-220 -154 -28 -330 0
-159 -209 -27 -335 0
-160 -210 -28 -336 0
-159 -279 -239 -27 0
-160 -280 -240 -28 0
-223 -167 -287 -27 0
-224 -168 -288 -28 0
-175 -219 -279 -27 0
-176 -220 -280 -28 0
-279 -179 -215 -27 0
-280 -180 -216 -28 0
-251 -181 -233 -27 0
-252 -182 -234 -28 0
-191 -251 -223 -27 0
-192 -252 -224 -28 0
-341 -119 -379 -29 0
-342 -120 -380 -30 0
-127 -359 -319 -29 0
-128 -360 -320 -30 0
-129 -359 -311 -29 0
-130 -360 -312 -30 0
-305 -339 -135 -29 0
-306 -340 -136 -30 0
-269 -377 -139 -29 0
-270 -378 -140 -30 0
-359 -279 -139 -29 0
-360 -280 -140 -30 0
-143 -269 -359 -29 0
-144 -270 -360 -30 0
-159 -359 -239 -29 0
-160 -360 -240 -30 0
-159 -335 -251 -29 0
-160 -336 -252 -30 0
-159 -305 -271 -29 0
-160 -306 -272 -30 0
-339 -167 -237 -29 0
-340 -168 -238 -30 0
-239 -167 -335 -29 0
-240 -168 -336 -30 0
-175 -359 -219 -29 0
-176 -360 -220 -30 0
-209 -179 -377 -29 0
-210 -180 -378 -30 0
-179 -359 -215 -29 0
-180 -360 -216 -30 0
-191 -239 -287 -29 0
-192 -240 -288 -30 0
-239 -271 -203 -29 0
-240 -272 -204 -30 0
-223 -209 -287 -29 0
-224 -210 -288 -30 0
-223 -239 -251 -29 0
-224 -240 -252 -30 0
-31 -373 -135 -351 0
-32 -374 -136 -352 0
-31 -307 -153 -351 0
-32 -308 -154 -352 0
-31 -159 -359 -287 0
-32 -160 -360 -288 0
-31 -167 -287 -335 0
-32 -168 -288 -336 0
-31 -359 -191 -239 0
-32 -360 -192 -240 0
-31 -191 -251 -335 0
-32 -192 -252 -336 0
-31 -305 -191 -271 0
-32 -306 -192 -272 0
-31 -287 -271 -203 0
-32 -288 -272 -204 0
-31 -207 -223 -363 0
-32 -208 -224 -364 0
-31 -209 -359 -223 0
-32 -210 -360 -224 0
-35 -341 -179 -379 0
-36 -342 -180 -380 0
-35 -197 -377 -307 0
-36 -198 -378 -308 0
-35 -379 -227 -269 0
-36 -380 -228 -270 0
-239 -35 -359 -269 0
-240 -36 -360 -270 0
-35 -263 -329 -269 0
-36 -264 -330 -270 0
-303 -37 -265 -335 0
-304 -38 -266 -336 0
-227 -359 -39 -379 0
-228 -360 -40 -380 0
-239 -341 -39 -379 0
-240 -342 -40 -380 0
-255 -39 -319 -383 0
-256 -40 -320 -384 0
-263 -359 -39 -329 0
-264 -360 -40 -330 0
-279 -39 -363 -311 0
-280 -40 -364 -312 0
-341 -279 -41 -379 0
-342 -280 -42 -380 0
-287 -41 -335 -377 0
-288 -42 -336 -378 0
-341 -379 -329 -43 0
-342 -380 -330 -44 0
