c nonrepetitive king spiral:23 colours 8 base<=6 lazy<=22
p cnf 435 43838
1 2 3 4 5 6 7 8 0
-1 -2 0
-1 -3 0
-1 -4 0
-1 -5 0
-1 -6 0
-1 -7 0
-1 -8 0
-2 -3 0
-2 -4 0
-2 -5 0
-2 -6 0
-2 -7 0
-2 -8 0
-3 -4 0
-3 -5 0
-3 -6 0
-3 -7 0
-3 -8 0
-4 -5 0
-4 -6 0
-4 -7 0
-4 -8 0
-5 -6 0
-5 -7 0
-5 -8 0
-6 -7 0
-6 -8 0
-7 -8 0
9 10 11 12 13 14 15 16 0
-9 -10 0
-9 -11 0
-9 -12 0
-9 -13 0
-9 -14 0
-9 -15 0
-9 -16 0
-10 -11 0
-10 -12 0
-10 -13 0
-10 -14 0
-10 -15 0
-10 -16 0
-11 -12 0
-11 -13 0
-11 -14 0
-11 -15 0
-11 -16 0
-12 -13 0
-12 -14 0
-12 -15 0
-12 -16 0
-13 -14 0
-13 -15 0
-13 -16 0
-14 -15 0
-14 -16 0
-15 -16 0
17 18 19 20 21 22 23 24 0
-17 -18 0
-17 -19 0
-17 -20 0
-17 -21 0
-17 -22 0
-17 -23 0
-17 -24 0
-18 -19 0
-18 -20 0
-18 -21 0
-18 -22 0
-18 -23 0
-18 -24 0
-19 -20 0
-19 -21 0
-19 -22 0
-19 -23 0
-19 -24 0
-20 -21 0
-20 -22 0
-20 -23 0
-20 -24 0
-21 -22 0
-21 -23 0
-21 -24 0
-22 -23 0
-22 -24 0
-23 -24 0
25 26 27 28 29 30 31 32 0
-25 -26 0
-25 -27 0
-25 -28 0
-25 -29 0
-25 -30 0
-25 -31 0
-25 -32 0
-26 -27 0
-26 -28 0
-26 -29 0
-26 -30 0
-26 -31 0
-26 -32 0
-27 -28 0
-27 -29 0
-27 -30 0
-27 -31 0
-27 -32 0
-28 -29 0
-28 -30 0
-28 -31 0
-28 -32 0
-29 -30 0
-29 -31 0
-29 -32 0
-30 -31 0
-30 -32 0
-31 -32 0
33 34 35 36 37 38 39 40 0
-33 -34 0
-33 -35 0
-33 -36 0
-33 -37 0
-33 -38 0
-33 -39 0
-33 -40 0
-34 -35 0
-34 -36 0
-34 -37 0
-34 -38 0
-34 -39 0
-34 -40 0
-35 -36 0
-35 -37 0
-35 -38 0
-35 -39 0
-35 -40 0
-36 -37 0
-36 -38 0
-36 -39 0
-36 -40 0
-37 -38 0
-37 -39 0
-37 -40 0
-38 -39 0
-38 -40 0
-39 -40 0
41 42 43 44 45 46 47 48 0
-41 -42 0
-41 -43 0
-41 -44 0
-41 -45 0
-41 -46 0
-41 -47 0
-41 -48 0
-42 -43 0
-42 -44 0
-42 -45 0
-42 -46 0
-42 -47 0
-42 -48 0
-43 -44 0
-43 -45 0
-43 -46 0
-43 -47 0
-43 -48 0
-44 -45 0
-44 -46 0
-44 -47 0
-44 -48 0
-45 -46 0
-45 -47 0
-45 -48 0
-46 -47 0
-46 -48 0
-47 -48 0
49 50 51 52 53 54 55 56 0
-49 -50 0
-49 -51 0
-49 -52 0
-49 -53 0
-49 -54 0
-49 -55 0
-49 -56 0
-50 -51 0
-50 -52 0
-50 -53 0
-50 -54 0
-50 -55 0
-50 -56 0
-51 -52 0
-51 -53 0
-51 -54 0
-51 -55 0
-51 -56 0
-52 -53 0
-52 -54 0
-52 -55 0
-52 -56 0
-53 -54 0
-53 -55 0
-53 -56 0
-54 -55 0
-54 -56 0
-55 -56 0
57 58 59 60 61 62 63 64 0
-57 -58 0
-57 -59 0
-57 -60 0
-57 -61 0
-57 -62 0
-57 -63 0
-57 -64 0
-58 -59 0
-58 -60 0
-58 -61 0
-58 -62 0
-58 -63 0
-58 -64 0
-59 -60 0
-59 -61 0
-59 -62 0
-59 -63 0
-59 -64 0
-60 -61 0
-60 -62 0
-60 -63 0
-60 -64 0
-61 -62 0
-61 -63 0
-61 -64 0
-62 -63 0
-62 -64 0
-63 -64 0
65 66 67 68 69 70 71 72 0
-65 -66 0
-65 -67 0
-65 -68 0
-65 -69 0
-65 -70 0
-65 -71 0
-65 -72 0
-66 -67 0
-66 -68 0
-66 -69 0
-66 -70 0
-66 -71 0
-66 -72 0
-67 -68 0
-67 -69 0
-67 -70 0
-67 -71 0
-67 -72 0
-68 -69 0
-68 -70 0
-68 -71 0
-68 -72 0
-69 -70 0
-69 -71 0
-69 -72 0
-70 -71 0
-70 -72 0
-71 -72 0
73 74 75 76 77 78 79 80 0
-73 -74 0
-73 -75 0
-73 -76 0
-73 -77 0
-73 -78 0
-73 -79 0
-73 -80 0
-74 -75 0
-74 -76 0
-74 -77 0
-74 -78 0
-74 -79 0
-74 -80 0
-75 -76 0
-75 -77 0
-75 -78 0
-75 -79 0
-75 -80 0
-76 -77 0
-76 -78 0
-76 -79 0
-76 -80 0
-77 -78 0
-77 -79 0
-77 -80 0
-78 -79 0
-78 -80 0
-79 -80 0
81 82 83 84 85 86 87 88 0
-81 -82 0
-81 -83 0
-81 -84 0
-81 -85 0
-81 -86 0
-81 -87 0
-81 -88 0
-82 -83 0
-82 -84 0
-82 -85 0
-82 -86 0
-82 -87 0
-82 -88 0
-83 -84 0
-83 -85 0
-83 -86 0
-83 -87 0
-83 -88 0
-84 -85 0
-84 -86 0
-84 -87 0
-84 -88 0
-85 -86 0
-85 -87 0
-85 -88 0
-86 -87 0
-86 -88 0
-87 -88 0
89 90 91 92 93 94 95 96 0
-89 -90 0
-89 -91 0
-89 -92 0
-89 -93 0
-89 -94 0
-89 -95 0
-89 -96 0
-90 -91 0
-90 -92 0
-90 -93 0
-90 -94 0
-90 -95 0
-90 -96 0
-91 -92 0
-91 -93 0
-91 -94 0
-91 -95 0
-91 -96 0
-92 -93 0
-92 -94 0
-92 -95 0
-92 -96 0
-93 -94 0
-93 -95 0
-93 -96 0
-94 -95 0
-94 -96 0
-95 -96 0
97 98 99 100 101 102 103 104 0
-97 -98 0
-97 -99 0
-97 -100 0
-97 -101 0
-97 -102 0
-97 -103 0
-97 -104 0
-98 -99 0
-98 -100 0
-98 -101 0
-98 -102 0
-98 -103 0
-98 -104 0
-99 -100 0
-99 -101 0
-99 -102 0
-99 -103 0
-99 -104 0
-100 -101 0
-100 -102 0
-100 -103 0
-100 -104 0
-101 -102 0
-101 -103 0
-101 -104 0
-102 -103 0
-102 -104 0
-103 -104 0
105 106 107 108 109 110 111 112 0
-105 -106 0
-105 -107 0
-105 -108 0
-105 -109 0
-105 -110 0
-105 -111 0
-105 -112 0
-106 -107 0
-106 -108 0
-106 -109 0
-106 -110 0
-106 -111 0
-106 -112 0
-107 -108 0
-107 -109 0
-107 -110 0
-107 -111 0
-107 -112 0
-108 -109 0
-108 -110 0
-108 -111 0
-108 -112 0
-109 -110 0
-109 -111 0
-109 -112 0
-110 -111 0
-110 -112 0
-111 -112 0
113 114 115 116 117 118 119 120 0
-113 -114 0
-113 -115 0
-113 -116 0
-113 -117 0
-113 -118 0
-113 -119 0
-113 -120 0
-114 -115 0
-114 -116 0
-114 -117 0
-114 -118 0
-114 -119 0
-114 -120 0
-115 -116 0
-115 -117 0
-115 -118 0
-115 -119 0
-115 -120 0
-116 -117 0
-116 -118 0
-116 -119 0
-116 -120 0
-117 -118 0
-117 -119 0
-117 -120 0
-118 -119 0
-118 -120 0
-119 -120 0
121 122 123 124 125 126 127 128 0
-121 -122 0
-121 -123 0
-121 -124 0
-121 -125 0
-121 -126 0
-121 -127 0
-121 -128 0
-122 -123 0
-122 -124 0
-122 -125 0
-122 -126 0
-122 -127 0
-122 -128 0
-123 -124 0
-123 -125 0
-123 -126 0
-123 -127 0
-123 -128 0
-124 -125 0
-124 -126 0
-124 -127 0
-124 -128 0
-125 -126 0
-125 -127 0
-125 -128 0
-126 -127 0
-126 -128 0
-127 -128 0
129 130 131 132 133 134 135 136 0
-129 -130 0
-129 -131 0
-129 -132 0
-129 -133 0
-129 -134 0
-129 -135 0
-129 -136 0
-130 -131 0
-130 -132 0
-130 -133 0
-130 -134 0
-130 -135 0
-130 -136 0
-131 -132 0
-131 -133 0
-131 -134 0
-131 -135 0
-131 -136 0
-132 -133 0
-132 -134 0
-132 -135 0
-132 -136 0
-133 -134 0
-133 -135 0
-133 -136 0
-134 -135 0
-134 -136 0
-135 -136 0
137 138 139 140 141 142 143 144 0
-137 -138 0
-137 -139 0
-137 -140 0
-137 -141 0
-137 -142 0
-137 -143 0
-137 -144 0
-138 -139 0
-138 -140 0
-138 -141 0
-138 -142 0
-138 -143 0
-138 -144 0
-139 -140 0
-139 -141 0
-139 -142 0
-139 -143 0
-139 -144 0
-140 -141 0
-140 -142 0
-140 -143 0
-140 -144 0
-141 -142 0
-141 -143 0
-141 -144 0
-142 -143 0
-142 -144 0
-143 -144 0
145 146 147 148 149 150 151 152 0
-145 -146 0
-145 -147 0
-145 -148 0
-145 -149 0
-145 -150 0
-145 -151 0
-145 -152 0
-146 -147 0
-146 -148 0
-146 -149 0
-146 -150 0
-146 -151 0
-146 -152 0
-147 -148 0
-147 -149 0
-147 -150 0
-147 -151 0
-147 -152 0
-148 -149 0
-148 -150 0
-148 -151 0
-148 -152 0
-149 -150 0
-149 -151 0
-149 -152 0
-150 -151 0
-150 -152 0
-151 -152 0
153 154 155 156 157 158 159 160 0
-153 -154 0
-153 -155 0
-153 -156 0
-153 -157 0
-153 -158 0
-153 -159 0
-153 -160 0
-154 -155 0
-154 -156 0
-154 -157 0
-154 -158 0
-154 -159 0
-154 -160 0
-155 -156 0
-155 -157 0
-155 -158 0
-155 -159 0
-155 -160 0
-156 -157 0
-156 -158 0
-156 -159 0
-156 -160 0
-157 -158 0
-157 -159 0
-157 -160 0
-158 -159 0
-158 -160 0
-159 -160 0
161 162 163 164 165 166 167 168 0
-161 -162 0
-161 -163 0
-161 -164 0
-161 -165 0
-161 -166 0
-161 -167 0
-161 -168 0
-162 -163 0
-162 -164 0
-162 -165 0
-162 -166 0
-162 -167 0
-162 -168 0
-163 -164 0
-163 -165 0
-163 -166 0
-163 -167 0
-163 -168 0
-164 -165 0
-164 -166 0
-164 -167 0
-164 -168 0
-165 -166 0
-165 -167 0
-165 -168 0
-166 -167 0
-166 -168 0
-167 -168 0
169 170 171 172 173 174 175 176 0
-169 -170 0
-169 -171 0
-169 -172 0
-169 -173 0
-169 -174 0
-169 -175 0
-169 -176 0
-170 -171 0
-170 -172 0
-170 -173 0
-170 -174 0
-170 -175 0
-170 -176 0
-171 -172 0
-171 -173 0
-171 -174 0
-171 -175 0
-171 -176 0
-172 -173 0
-172 -174 0
-172 -175 0
-172 -176 0
-173 -174 0
-173 -175 0
-173 -176 0
-174 -175 0
-174 -176 0
-175 -176 0
177 178 179 180 181 182 183 184 0
-177 -178 0
-177 -179 0
-177 -180 0
-177 -181 0
-177 -182 0
-177 -183 0
-177 -184 0
-178 -179 0
-178 -180 0
-178 -181 0
-178 -182 0
-178 -183 0
-178 -184 0
-179 -180 0
-179 -181 0
-179 -182 0
-179 -183 0
-179 -184 0
-180 -181 0
-180 -182 0
-180 -183 0
-180 -184 0
-181 -182 0
-181 -183 0
-181 -184 0
-182 -183 0
-182 -184 0
-183 -184 0
-1 -17 0
-2 -18 0
-3 -19 0
-4 -20 0
-5 -21 0
-6 -22 0
-7 -23 0
-8 -24 0
-1 -9 185 0
-2 -10 185 0
-3 -11 185 0
-4 -12 185 0
-5 -13 185 0
-6 -14 185 0
-7 -15 185 0
-8 -16 185 0
-17 -25 186 0
-18 -26 186 0
-19 -27 186 0
-20 -28 186 0
-21 -29 186 0
-22 -30 186 0
-23 -31 186 0
-24 -32 186 0
-185 -186 0
-1 -25 187 0
-2 -26 187 0
-3 -27 187 0
-4 -28 187 0
-5 -29 187 0
-6 -30 187 0
-7 -31 187 0
-8 -32 187 0
-17 -57 188 0
-18 -58 188 0
-19 -59 188 0
-20 -60 188 0
-21 -61 188 0
-22 -62 188 0
-23 -63 188 0
-24 -64 188 0
-9 -41 189 0
-10 -42 189 0
-11 -43 189 0
-12 -44 189 0
-13 -45 189 0
-14 -46 189 0
-15 -47 189 0
-16 -48 189 0
-187 -188 -189 0
-9 -113 190 0
-10 -114 190 0
-11 -115 190 0
-12 -116 190 0
-13 -117 190 0
-14 -118 190 0
-15 -119 190 0
-16 -120 190 0
-187 -188 -190 0
-9 -49 191 0
-10 -50 191 0
-11 -51 191 0
-12 -52 191 0
-13 -53 191 0
-14 -54 191 0
-15 -55 191 0
-16 -56 191 0
-187 -188 -191 0
-9 -105 192 0
-10 -106 192 0
-11 -107 192 0
-12 -108 192 0
-13 -109 192 0
-14 -110 192 0
-15 -111 192 0
-16 -112 192 0
-187 -188 -192 0
-9 -121 193 0
-10 -122 193 0
-11 -123 193 0
-12 -124 193 0
-13 -125 193 0
-14 -126 193 0
-15 -127 193 0
-16 -128 193 0
-187 -188 -193 0
-9 -65 194 0
-10 -66 194 0
-11 -67 194 0
-12 -68 194 0
-13 -69 194 0
-14 -70 194 0
-15 -71 194 0
-16 -72 194 0
-187 -188 -194 0
-17 -41 195 0
-18 -42 195 0
-19 -43 195 0
-20 -44 195 0
-21 -45 195 0
-22 -46 195 0
-23 -47 195 0
-24 -48 195 0
-9 -33 196 0
-10 -34 196 0
-11 -35 196 0
-12 -36 196 0
-13 -37 196 0
-14 -38 196 0
-15 -39 196 0
-16 -40 196 0
-187 -195 -196 0
-187 -195 -191 0
-9 -81 197 0
-10 -82 197 0
-11 -83 197 0
-12 -84 197 0
-13 -85 197 0
-14 -86 197 0
-15 -87 197 0
-16 -88 197 0
-187 -195 -197 0
-9 -89 198 0
-10 -90 198 0
-11 -91 198 0
-12 -92 198 0
-13 -93 198 0
-14 -94 198 0
-15 -95 198 0
-16 -96 198 0
-187 -195 -198 0
-9 -57 199 0
-10 -58 199 0
-11 -59 199 0
-12 -60 199 0
-13 -61 199 0
-14 -62 199 0
-15 -63 199 0
-16 -64 199 0
-187 -195 -199 0
-9 -73 200 0
-10 -74 200 0
-11 -75 200 0
-12 -76 200 0
-13 -77 200 0
-14 -78 200 0
-15 -79 200 0
-16 -80 200 0
-187 -195 -200 0
-17 -49 201 0
-18 -50 201 0
-19 -51 201 0
-20 -52 201 0
-21 -53 201 0
-22 -54 201 0
-23 -55 201 0
-24 -56 201 0
-187 -201 -189 0
-187 -201 -192 0
-187 -201 -198 0
-9 -97 202 0
-10 -98 202 0
-11 -99 202 0
-12 -100 202 0
-13 -101 202 0
-14 -102 202 0
-15 -103 202 0
-16 -104 202 0
-187 -201 -202 0
-187 -201 -190 0
-187 -201 -199 0
-187 -201 -197 0
-17 -65 203 0
-18 -66 203 0
-19 -67 203 0
-20 -68 203 0
-21 -69 203 0
-22 -70 203 0
-23 -71 203 0
-24 -72 203 0
-187 -203 -193 0
-187 -203 -199 0
-187 -203 -190 0
-17 -33 204 0
-18 -34 204 0
-19 -35 204 0
-20 -36 204 0
-21 -37 204 0
-22 -38 204 0
-23 -39 204 0
-24 -40 204 0
-187 -204 -189 0
-187 -204 -200 0
-187 -204 -197 0
-185 -204 0
-1 -33 205 0
-2 -34 205 0
-3 -35 205 0
-4 -36 205 0
-5 -37 205 0
-6 -38 205 0
-7 -39 205 0
-8 -40 205 0
-9 -25 206 0
-10 -26 206 0
-11 -27 206 0
-12 -28 206 0
-13 -29 206 0
-14 -30 206 0
-15 -31 206 0
-16 -32 206 0
-205 -195 -206 0
-205 -195 -191 0
-205 -195 -197 0
-205 -195 -198 0
-205 -195 -199 0
-205 -195 -200 0
-17 -73 207 0
-18 -74 207 0
-19 -75 207 0
-20 -76 207 0
-21 -77 207 0
-22 -78 207 0
-23 -79 207 0
-24 -80 207 0
-205 -207 -197 0
-9 -129 208 0
-10 -130 208 0
-11 -131 208 0
-12 -132 208 0
-13 -133 208 0
-14 -134 208 0
-15 -135 208 0
-16 -136 208 0
-205 -207 -208 0
-9 -137 209 0
-10 -138 209 0
-11 -139 209 0
-12 -140 209 0
-13 -141 209 0
-14 -142 209 0
-15 -143 209 0
-16 -144 209 0
-205 -207 -209 0
-205 -207 -189 0
-17 -81 210 0
-18 -82 210 0
-19 -83 210 0
-20 -84 210 0
-21 -85 210 0
-22 -86 210 0
-23 -87 210 0
-24 -88 210 0
-205 -210 -189 0
-205 -210 -200 0
-205 -210 -198 0
-205 -210 -209 0
-9 -145 211 0
-10 -146 211 0
-11 -147 211 0
-12 -148 211 0
-13 -149 211 0
-14 -150 211 0
-15 -151 211 0
-16 -152 211 0
-205 -210 -211 0
-205 -210 -191 0
-205 -210 -208 0
-205 -186 -199 0
-205 -186 -189 0
-205 -186 -191 0
-205 -186 -194 0
-185 -195 0
-1 -41 212 0
-2 -42 212 0
-3 -43 212 0
-4 -44 212 0
-5 -45 212 0
-6 -46 212 0
-7 -47 212 0
-8 -48 212 0
-212 -186 -199 0
-212 -186 -191 0
-212 -186 -194 0
-212 -186 -196 0
-212 -204 -200 0
-212 -204 -197 0
-212 -204 -206 0
-212 -201 -206 0
-212 -201 -192 0
-212 -201 -198 0
-212 -201 -202 0
-212 -201 -190 0
-212 -201 -199 0
-212 -201 -197 0
-212 -210 -196 0
-212 -210 -200 0
-212 -210 -198 0
-212 -210 -209 0
-212 -210 -211 0
-212 -210 -191 0
-212 -210 -208 0
-17 -89 213 0
-18 -90 213 0
-19 -91 213 0
-20 -92 213 0
-21 -93 213 0
-22 -94 213 0
-23 -95 213 0
-24 -96 213 0
-212 -213 -191 0
-212 -213 -197 0
-212 -213 -202 0
-212 -213 -211 0
-9 -153 214 0
-10 -154 214 0
-11 -155 214 0
-12 -156 214 0
-13 -157 214 0
-14 -158 214 0
-15 -159 214 0
-16 -160 214 0
-212 -213 -214 0
-212 -213 -192 0
-212 -213 -209 0
-212 -188 -206 0
-212 -188 -190 0
-212 -188 -191 0
-212 -188 -192 0
-212 -188 -193 0
-212 -188 -194 0
-212 -207 -196 0
-212 -207 -197 0
-212 -207 -208 0
-212 -207 -209 0
-1 -65 215 0
-2 -66 215 0
-3 -67 215 0
-4 -68 215 0
-5 -69 215 0
-6 -70 215 0
-7 -71 215 0
-8 -72 215 0
-215 -186 0
-17 -9 216 0
-18 -10 216 0
-19 -11 216 0
-20 -12 216 0
-21 -13 216 0
-22 -14 216 0
-23 -15 216 0
-24 -16 216 0
-65 -33 217 0
-66 -34 217 0
-67 -35 217 0
-68 -36 217 0
-69 -37 217 0
-70 -38 217 0
-71 -39 217 0
-72 -40 217 0
-187 -216 -217 0
-65 -41 218 0
-66 -42 218 0
-67 -43 218 0
-68 -44 218 0
-69 -45 218 0
-70 -46 218 0
-71 -47 218 0
-72 -48 218 0
-187 -216 -218 0
-187 -188 -218 0
-65 -113 219 0
-66 -114 219 0
-67 -115 219 0
-68 -116 219 0
-69 -117 219 0
-70 -118 219 0
-71 -119 219 0
-72 -120 219 0
-187 -188 -219 0
-65 -49 220 0
-66 -50 220 0
-67 -51 220 0
-68 -52 220 0
-69 -53 220 0
-70 -54 220 0
-71 -55 220 0
-72 -56 220 0
-187 -188 -220 0
-65 -105 221 0
-66 -106 221 0
-67 -107 221 0
-68 -108 221 0
-69 -109 221 0
-70 -110 221 0
-71 -111 221 0
-72 -112 221 0
-187 -188 -221 0
-65 -121 222 0
-66 -122 222 0
-67 -123 222 0
-68 -124 222 0
-69 -125 222 0
-70 -126 222 0
-71 -127 222 0
-72 -128 222 0
-187 -188 -222 0
-187 -195 -194 0
-187 -195 -217 0
-187 -195 -220 0
-65 -81 223 0
-66 -82 223 0
-67 -83 223 0
-68 -84 223 0
-69 -85 223 0
-70 -86 223 0
-71 -87 223 0
-72 -88 223 0
-187 -195 -223 0
-65 -89 224 0
-66 -90 224 0
-67 -91 224 0
-68 -92 224 0
-69 -93 224 0
-70 -94 224 0
-71 -95 224 0
-72 -96 224 0
-187 -195 -224 0
-65 -57 225 0
-66 -58 225 0
-67 -59 225 0
-68 -60 225 0
-69 -61 225 0
-70 -62 225 0
-71 -63 225 0
-72 -64 225 0
-187 -195 -225 0
-65 -73 226 0
-66 -74 226 0
-67 -75 226 0
-68 -76 226 0
-69 -77 226 0
-70 -78 226 0
-71 -79 226 0
-72 -80 226 0
-187 -195 -226 0
-187 -201 -218 0
-187 -201 -221 0
-187 -201 -224 0
-65 -97 227 0
-66 -98 227 0
-67 -99 227 0
-68 -100 227 0
-69 -101 227 0
-70 -102 227 0
-71 -103 227 0
-72 -104 227 0
-187 -201 -227 0
-187 -201 -219 0
-187 -201 -225 0
-187 -201 -223 0
-187 -204 -194 0
-187 -204 -218 0
-187 -204 -226 0
-187 -204 -223 0
-17 -121 228 0
-18 -122 228 0
-19 -123 228 0
-20 -124 228 0
-21 -125 228 0
-22 -126 228 0
-23 -127 228 0
-24 -128 228 0
-215 -228 0
-1 -121 229 0
-2 -122 229 0
-3 -123 229 0
-4 -124 229 0
-5 -125 229 0
-6 -126 229 0
-7 -127 229 0
-8 -128 229 0
-65 -25 230 0
-66 -26 230 0
-67 -27 230 0
-68 -28 230 0
-69 -29 230 0
-70 -30 230 0
-71 -31 230 0
-72 -32 230 0
-229 -188 -230 0
-229 -188 -218 0
-229 -188 -219 0
-229 -188 -220 0
-229 -188 -221 0
-17 -113 231 0
-18 -114 231 0
-19 -115 231 0
-20 -116 231 0
-21 -117 231 0
-22 -118 231 0
-23 -119 231 0
-24 -120 231 0
-229 -231 -220 0
-229 -231 -225 0
-229 -231 -221 0
-65 -177 232 0
-66 -178 232 0
-67 -179 232 0
-68 -180 232 0
-69 -181 232 0
-70 -182 232 0
-71 -183 232 0
-72 -184 232 0
-229 -231 -232 0
-215 -188 0
-1 -57 233 0
-2 -58 233 0
-3 -59 233 0
-4 -60 233 0
-5 -61 233 0
-6 -62 233 0
-7 -63 233 0
-8 -64 233 0
-233 -186 -194 0
-233 -186 -218 0
-233 -186 -220 0
-233 -186 -217 0
-233 -195 -194 0
-233 -195 -230 0
-233 -195 -217 0
-233 -195 -220 0
-233 -195 -223 0
-233 -195 -224 0
-233 -195 -226 0
-233 -231 -220 0
-233 -231 -221 0
-233 -231 -232 0
-233 -231 -222 0
-233 -201 -230 0
-233 -201 -218 0
-233 -201 -221 0
-233 -201 -224 0
-233 -201 -227 0
-233 -201 -219 0
-233 -201 -223 0
-17 -105 234 0
-18 -106 234 0
-19 -107 234 0
-20 -108 234 0
-21 -109 234 0
-22 -110 234 0
-23 -111 234 0
-24 -112 234 0
-233 -234 -220 0
-233 -234 -224 0
-233 -234 -232 0
-233 -234 -227 0
-65 -169 235 0
-66 -170 235 0
-67 -171 235 0
-68 -172 235 0
-69 -173 235 0
-70 -174 235 0
-71 -175 235 0
-72 -176 235 0
-233 -234 -235 0
-233 -234 -219 0
-233 -228 -219 0
-215 -231 0
-1 -113 236 0
-2 -114 236 0
-3 -115 236 0
-4 -116 236 0
-5 -117 236 0
-6 -118 236 0
-7 -119 236 0
-8 -120 236 0
-236 -201 -230 0
-236 -201 -218 0
-236 -201 -221 0
-236 -201 -224 0
-236 -201 -227 0
-236 -201 -225 0
-236 -201 -223 0
-236 -188 -230 0
-236 -188 -218 0
-236 -188 -220 0
-236 -188 -221 0
-236 -188 -222 0
-236 -234 -220 0
-236 -234 -225 0
-236 -234 -224 0
-236 -234 -232 0
-236 -234 -227 0
-236 -234 -235 0
-17 -177 237 0
-18 -178 237 0
-19 -179 237 0
-20 -180 237 0
-21 -181 237 0
-22 -182 237 0
-23 -183 237 0
-24 -184 237 0
-236 -237 -227 0
-236 -237 -221 0
-236 -237 -235 0
-236 -228 -225 0
-187 -216 0
-25 -41 238 0
-26 -42 238 0
-27 -43 238 0
-28 -44 238 0
-29 -45 238 0
-30 -46 238 0
-31 -47 238 0
-32 -48 238 0
-185 -204 -238 0
-25 -73 239 0
-26 -74 239 0
-27 -75 239 0
-28 -76 239 0
-29 -77 239 0
-30 -78 239 0
-31 -79 239 0
-32 -80 239 0
-185 -204 -239 0
-25 -81 240 0
-26 -82 240 0
-27 -83 240 0
-28 -84 240 0
-29 -85 240 0
-30 -86 240 0
-31 -87 240 0
-32 -88 240 0
-185 -204 -240 0
-25 -33 241 0
-26 -34 241 0
-27 -35 241 0
-28 -36 241 0
-29 -37 241 0
-30 -38 241 0
-31 -39 241 0
-32 -40 241 0
-185 -195 -241 0
-25 -49 242 0
-26 -50 242 0
-27 -51 242 0
-28 -52 242 0
-29 -53 242 0
-30 -54 242 0
-31 -55 242 0
-32 -56 242 0
-185 -195 -242 0
-185 -195 -240 0
-25 -89 243 0
-26 -90 243 0
-27 -91 243 0
-28 -92 243 0
-29 -93 243 0
-30 -94 243 0
-31 -95 243 0
-32 -96 243 0
-185 -195 -243 0
-25 -57 244 0
-26 -58 244 0
-27 -59 244 0
-28 -60 244 0
-29 -61 244 0
-30 -62 244 0
-31 -63 244 0
-32 -64 244 0
-185 -195 -244 0
-185 -195 -239 0
-187 -188 0
-233 -195 -206 0
-233 -195 -241 0
-233 -195 -242 0
-233 -195 -240 0
-233 -195 -243 0
-233 -195 -239 0
-233 -231 -242 0
-233 -231 -230 0
-25 -105 245 0
-26 -106 245 0
-27 -107 245 0
-28 -108 245 0
-29 -109 245 0
-30 -110 245 0
-31 -111 245 0
-32 -112 245 0
-233 -231 -245 0
-25 -177 246 0
-26 -178 246 0
-27 -179 246 0
-28 -180 246 0
-29 -181 246 0
-30 -182 246 0
-31 -183 246 0
-32 -184 246 0
-233 -231 -246 0
-25 -121 247 0
-26 -122 247 0
-27 -123 247 0
-28 -124 247 0
-29 -125 247 0
-30 -126 247 0
-31 -127 247 0
-32 -128 247 0
-233 -231 -247 0
-233 -201 -238 0
-233 -201 -245 0
-233 -201 -243 0
-25 -97 248 0
-26 -98 248 0
-27 -99 248 0
-28 -100 248 0
-29 -101 248 0
-30 -102 248 0
-31 -103 248 0
-32 -104 248 0
-233 -201 -248 0
-25 -113 249 0
-26 -114 249 0
-27 -115 249 0
-28 -116 249 0
-29 -117 249 0
-30 -118 249 0
-31 -119 249 0
-32 -120 249 0
-233 -201 -249 0
-233 -201 -240 0
-233 -234 -242 0
-233 -234 -243 0
-233 -234 -246 0
-233 -234 -248 0
-25 -169 250 0
-26 -170 250 0
-27 -171 250 0
-28 -172 250 0
-29 -173 250 0
-30 -174 250 0
-31 -175 250 0
-32 -176 250 0
-233 -234 -250 0
-233 -234 -249 0
-233 -228 -230 0
-233 -228 -249 0
-233 -203 -247 0
-233 -203 -249 0
-187 -195 0
-212 -216 -241 0
-212 -204 -206 0
-212 -204 -239 0
-212 -204 -240 0
-212 -201 -245 0
-212 -201 -243 0
-212 -201 -248 0
-212 -201 -249 0
-212 -201 -244 0
-212 -201 -240 0
-212 -210 -241 0
-212 -210 -239 0
-212 -210 -243 0
-25 -137 251 0
-26 -138 251 0
-27 -139 251 0
-28 -140 251 0
-29 -141 251 0
-30 -142 251 0
-31 -143 251 0
-32 -144 251 0
-212 -210 -251 0
-25 -145 252 0
-26 -146 252 0
-27 -147 252 0
-28 -148 252 0
-29 -149 252 0
-30 -150 252 0
-31 -151 252 0
-32 -152 252 0
-212 -210 -252 0
-212 -210 -242 0
-25 -129 253 0
-26 -130 253 0
-27 -131 253 0
-28 -132 253 0
-29 -133 253 0
-30 -134 253 0
-31 -135 253 0
-32 -136 253 0
-212 -210 -253 0
-212 -213 -242 0
-212 -213 -240 0
-212 -213 -248 0
-212 -213 -252 0
-25 -153 254 0
-26 -154 254 0
-27 -155 254 0
-28 -156 254 0
-29 -157 254 0
-30 -158 254 0
-31 -159 254 0
-32 -160 254 0
-212 -213 -254 0
-212 -213 -245 0
-212 -213 -251 0
-212 -188 -249 0
-212 -188 -242 0
-212 -188 -245 0
-212 -188 -247 0
-212 -188 -230 0
-212 -207 -241 0
-212 -207 -240 0
-212 -207 -253 0
-212 -207 -251 0
-187 -201 0
-1 -49 255 0
-2 -50 255 0
-3 -51 255 0
-4 -52 255 0
-5 -53 255 0
-6 -54 255 0
-7 -55 255 0
-8 -56 255 0
-255 -195 -206 0
-255 -195 -241 0
-255 -195 -240 0
-255 -195 -243 0
-255 -195 -244 0
-255 -195 -239 0
-255 -234 -244 0
-255 -234 -243 0
-255 -234 -246 0
-255 -234 -248 0
-255 -234 -250 0
-255 -234 -249 0
-255 -213 -238 0
-255 -213 -240 0
-255 -213 -248 0
-255 -213 -252 0
-255 -213 -254 0
-255 -213 -245 0
-255 -213 -251 0
-17 -97 256 0
-18 -98 256 0
-19 -99 256 0
-20 -100 256 0
-21 -101 256 0
-22 -102 256 0
-23 -103 256 0
-24 -104 256 0
-255 -256 -243 0
-255 -256 -250 0
-255 -256 -254 0
-25 -161 257 0
-26 -162 257 0
-27 -163 257 0
-28 -164 257 0
-29 -165 257 0
-30 -166 257 0
-31 -167 257 0
-32 -168 257 0
-255 -256 -257 0
-255 -256 -246 0
-255 -256 -245 0
-255 -256 -252 0
-255 -231 -244 0
-255 -231 -230 0
-255 -231 -245 0
-255 -231 -246 0
-255 -231 -247 0
-255 -188 -238 0
-255 -188 -249 0
-255 -188 -245 0
-255 -188 -247 0
-255 -188 -230 0
-255 -210 -241 0
-255 -210 -238 0
-255 -210 -239 0
-255 -210 -243 0
-255 -210 -251 0
-255 -210 -252 0
-255 -210 -253 0
-187 -203 0
-215 -228 -244 0
-215 -228 -249 0
-215 -188 -238 0
-215 -188 -249 0
-215 -188 -242 0
-215 -188 -245 0
-215 -188 -247 0
-215 -231 -242 0
-215 -231 -244 0
-215 -231 -245 0
-215 -231 -246 0
-215 -231 -247 0
-187 -204 0
-205 -216 -238 0
-205 -195 -206 0
-205 -195 -242 0
-205 -195 -240 0
-205 -195 -243 0
-205 -195 -244 0
-205 -195 -239 0
-205 -207 -240 0
-205 -207 -253 0
-205 -207 -251 0
-205 -207 -238 0
-205 -210 -238 0
-205 -210 -239 0
-205 -210 -243 0
-205 -210 -251 0
-205 -210 -252 0
-205 -210 -242 0
-205 -210 -253 0
-233 -186 0
-57 -33 258 0
-58 -34 258 0
-59 -35 258 0
-60 -36 258 0
-61 -37 258 0
-62 -38 258 0
-63 -39 258 0
-64 -40 258 0
-187 -216 -258 0
-57 -41 259 0
-58 -42 259 0
-59 -43 259 0
-60 -44 259 0
-61 -45 259 0
-62 -46 259 0
-63 -47 259 0
-64 -48 259 0
-187 -216 -259 0
-187 -195 -199 0
-187 -195 -258 0
-57 -49 260 0
-58 -50 260 0
-59 -51 260 0
-60 -52 260 0
-61 -53 260 0
-62 -54 260 0
-63 -55 260 0
-64 -56 260 0
-187 -195 -260 0
-57 -81 261 0
-58 -82 261 0
-59 -83 261 0
-60 -84 261 0
-61 -85 261 0
-62 -86 261 0
-63 -87 261 0
-64 -88 261 0
-187 -195 -261 0
-57 -89 262 0
-58 -90 262 0
-59 -91 262 0
-60 -92 262 0
-61 -93 262 0
-62 -94 262 0
-63 -95 262 0
-64 -96 262 0
-187 -195 -262 0
-57 -73 263 0
-58 -74 263 0
-59 -75 263 0
-60 -76 263 0
-61 -77 263 0
-62 -78 263 0
-63 -79 263 0
-64 -80 263 0
-187 -195 -263 0
-187 -201 -259 0
-57 -105 264 0
-58 -106 264 0
-59 -107 264 0
-60 -108 264 0
-61 -109 264 0
-62 -110 264 0
-63 -111 264 0
-64 -112 264 0
-187 -201 -264 0
-187 -201 -262 0
-57 -97 265 0
-58 -98 265 0
-59 -99 265 0
-60 -100 265 0
-61 -101 265 0
-62 -102 265 0
-63 -103 265 0
-64 -104 265 0
-187 -201 -265 0
-57 -113 266 0
-58 -114 266 0
-59 -115 266 0
-60 -116 266 0
-61 -117 266 0
-62 -118 266 0
-63 -119 266 0
-64 -120 266 0
-187 -201 -266 0
-187 -201 -261 0
-57 -121 267 0
-58 -122 267 0
-59 -123 267 0
-60 -124 267 0
-61 -125 267 0
-62 -126 267 0
-63 -127 267 0
-64 -128 267 0
-187 -203 -267 0
-187 -203 -266 0
-187 -204 -199 0
-187 -204 -259 0
-187 -204 -263 0
-187 -204 -261 0
-233 -195 0
-212 -216 -244 0
-212 -216 -258 0
-212 -186 -199 0
-212 -186 -260 0
-212 -186 -225 0
-212 -186 -258 0
-212 -204 -199 0
-212 -204 -263 0
-212 -204 -261 0
-212 -204 -244 0
-212 -201 -244 0
-212 -201 -264 0
-212 -201 -262 0
-212 -201 -265 0
-212 -201 -266 0
-212 -201 -261 0
-212 -210 -258 0
-212 -210 -263 0
-212 -210 -262 0
-57 -137 268 0
-58 -138 268 0
-59 -139 268 0
-60 -140 268 0
-61 -141 268 0
-62 -142 268 0
-63 -143 268 0
-64 -144 268 0
-212 -210 -268 0
-57 -145 269 0
-58 -146 269 0
-59 -147 269 0
-60 -148 269 0
-61 -149 269 0
-62 -150 269 0
-63 -151 269 0
-64 -152 269 0
-212 -210 -269 0
-212 -210 -260 0
-57 -129 270 0
-58 -130 270 0
-59 -131 270 0
-60 -132 270 0
-61 -133 270 0
-62 -134 270 0
-63 -135 270 0
-64 -136 270 0
-212 -210 -270 0
-212 -213 -260 0
-212 -213 -261 0
-212 -213 -265 0
-212 -213 -269 0
-57 -153 271 0
-58 -154 271 0
-59 -155 271 0
-60 -156 271 0
-61 -157 271 0
-62 -158 271 0
-63 -159 271 0
-64 -160 271 0
-212 -213 -271 0
-212 -213 -264 0
-212 -213 -268 0
-212 -207 -258 0
-212 -207 -261 0
-212 -207 -270 0
-212 -207 -268 0
-233 -231 0
-236 -201 -244 0
-236 -201 -259 0
-236 -201 -264 0
-236 -201 -262 0
-236 -201 -265 0
-236 -201 -261 0
-236 -203 -244 0
-236 -203 -267 0
-236 -234 -260 0
-236 -234 -262 0
-57 -177 272 0
-58 -178 272 0
-59 -179 272 0
-60 -180 272 0
-61 -181 272 0
-62 -182 272 0
-63 -183 272 0
-64 -184 272 0
-236 -234 -272 0
-236 -234 -265 0
-57 -169 273 0
-58 -170 273 0
-59 -171 273 0
-60 -172 273 0
-61 -173 273 0
-62 -174 273 0
-63 -175 273 0
-64 -176 273 0
-236 -234 -273 0
-236 -237 -265 0
-236 -237 -264 0
-236 -237 -273 0
-236 -228 -225 0
-233 -201 0
-255 -186 -199 0
-255 -186 -259 0
-255 -186 -225 0
-255 -186 -258 0
-255 -195 -199 0
-255 -195 -244 0
-255 -195 -258 0
-255 -195 -261 0
-255 -195 -262 0
-255 -195 -263 0
-255 -234 -262 0
-255 -234 -272 0
-255 -234 -265 0
-255 -234 -273 0
-255 -234 -266 0
-255 -213 -259 0
-255 -213 -261 0
-255 -213 -265 0
-255 -213 -269 0
-255 -213 -271 0
-255 -213 -264 0
-255 -213 -268 0
-255 -256 -262 0
-255 -256 -273 0
-255 -256 -271 0
-57 -161 274 0
-58 -162 274 0
-59 -163 274 0
-60 -164 274 0
-61 -165 274 0
-62 -166 274 0
-63 -167 274 0
-64 -168 274 0
-255 -256 -274 0
-255 -256 -272 0
-255 -256 -264 0
-255 -256 -269 0
-255 -231 -225 0
-255 -231 -264 0
-255 -231 -272 0
-255 -231 -267 0
-255 -210 -258 0
-255 -210 -259 0
-255 -210 -263 0
-255 -210 -262 0
-255 -210 -268 0
-255 -210 -269 0
-255 -210 -270 0
-233 -234 0
-1 -105 275 0
-2 -106 275 0
-3 -107 275 0
-4 -108 275 0
-5 -109 275 0
-6 -110 275 0
-7 -111 275 0
-8 -112 275 0
-275 -201 -244 0
-275 -201 -259 0
-275 -201 -262 0
-275 -201 -265 0
-275 -201 -266 0
-275 -201 -261 0
-275 -213 -259 0
-275 -213 -260 0
-275 -213 -261 0
-275 -213 -265 0
-275 -213 -269 0
-275 -213 -271 0
-275 -213 -268 0
-275 -237 -265 0
-275 -237 -266 0
-275 -237 -273 0
-275 -256 -260 0
-275 -256 -262 0
-275 -256 -273 0
-275 -256 -271 0
-275 -256 -274 0
-275 -256 -272 0
-275 -256 -269 0
-17 -169 276 0
-18 -170 276 0
-19 -171 276 0
-20 -172 276 0
-21 -173 276 0
-22 -174 276 0
-23 -175 276 0
-24 -176 276 0
-275 -276 -265 0
-275 -276 -271 0
-275 -276 -274 0
-275 -276 -272 0
-275 -231 -260 0
-275 -231 -225 0
-275 -231 -272 0
-275 -231 -267 0
-233 -228 0
-229 -203 -244 0
-229 -203 -266 0
-229 -231 -260 0
-229 -231 -225 0
-229 -231 -264 0
-229 -231 -272 0
-233 -203 0
-215 -186 -199 0
-215 -186 -259 0
-215 -186 -260 0
-215 -186 -258 0
-215 -228 -266 0
-215 -231 -260 0
-215 -231 -264 0
-215 -231 -272 0
-215 -231 -267 0
-1 -9 0
-2 -10 0
-3 -11 0
-4 -12 0
-5 -13 0
-6 -14 0
-7 -15 0
-8 -16 0
-187 -216 0
-1 -17 277 0
-2 -18 277 0
-3 -19 277 0
-4 -20 277 0
-5 -21 277 0
-6 -22 277 0
-7 -23 277 0
-8 -24 277 0
-277 -194 -247 0
-277 -194 -244 0
-277 -194 -249 0
-277 -199 -238 0
-277 -199 -249 0
-277 -199 -242 0
-277 -199 -245 0
-277 -199 -247 0
-277 -199 -230 0
-187 -199 0
-233 -216 -230 0
-233 -189 -241 0
-233 -189 -242 0
-233 -189 -240 0
-233 -189 -243 0
-233 -189 -239 0
-233 -190 -242 0
-233 -190 -230 0
-233 -190 -245 0
-233 -190 -246 0
-233 -190 -247 0
-233 -191 -238 0
-233 -191 -245 0
-233 -191 -243 0
-233 -191 -248 0
-233 -191 -249 0
-233 -191 -240 0
-233 -192 -242 0
-233 -192 -243 0
-233 -192 -246 0
-233 -192 -248 0
-233 -192 -250 0
-233 -192 -249 0
-233 -193 -230 0
-233 -193 -249 0
-233 -194 -186 0
-233 -194 -247 0
-233 -194 -249 0
-187 -189 0
-212 -196 -239 0
-212 -196 -240 0
-212 -191 -245 0
-212 -191 -243 0
-212 -191 -248 0
-212 -191 -249 0
-212 -191 -244 0
-212 -191 -240 0
-212 -197 -241 0
-212 -197 -239 0
-212 -197 -243 0
-212 -197 -251 0
-212 -197 -252 0
-212 -197 -242 0
-212 -197 -253 0
-212 -198 -242 0
-212 -198 -240 0
-212 -198 -248 0
-212 -198 -252 0
-212 -198 -254 0
-212 -198 -245 0
-212 -198 -251 0
-212 -199 -186 0
-212 -199 -249 0
-212 -199 -242 0
-212 -199 -245 0
-212 -199 -247 0
-212 -199 -230 0
-212 -200 -241 0
-212 -200 -240 0
-212 -200 -253 0
-212 -200 -251 0
-187 -191 0
-255 -189 -241 0
-255 -189 -240 0
-255 -189 -243 0
-255 -189 -244 0
-255 -189 -239 0
-255 -192 -244 0
-255 -192 -243 0
-255 -192 -246 0
-255 -192 -248 0
-255 -192 -250 0
-255 -192 -249 0
-255 -198 -238 0
-255 -198 -240 0
-255 -198 -248 0
-255 -198 -252 0
-255 -198 -254 0
-255 -198 -245 0
-255 -198 -251 0
-255 -202 -243 0
-255 -202 -250 0
-255 -202 -254 0
-255 -202 -257 0
-255 -202 -246 0
-255 -202 -245 0
-255 -202 -252 0
-255 -190 -244 0
-255 -190 -230 0
-255 -190 -245 0
-255 -190 -246 0
-255 -190 -247 0
-255 -199 -186 0
-255 -199 -238 0
-255 -199 -249 0
-255 -199 -245 0
-255 -199 -247 0
-255 -199 -230 0
-255 -197 -241 0
-255 -197 -238 0
-255 -197 -239 0
-255 -197 -243 0
-255 -197 -251 0
-255 -197 -252 0
-255 -197 -253 0
-187 -194 0
-215 -216 -244 0
-215 -193 -244 0
-215 -193 -249 0
-215 -199 -186 0
-215 -199 -238 0
-215 -199 -249 0
-215 -199 -242 0
-215 -199 -245 0
-215 -199 -247 0
-215 -190 -242 0
-215 -190 -244 0
-215 -190 -245 0
-215 -190 -246 0
-215 -190 -247 0
-187 -196 0
-205 -189 -242 0
-205 -189 -240 0
-205 -189 -243 0
-205 -189 -244 0
-205 -189 -239 0
-205 -200 -240 0
-205 -200 -253 0
-205 -200 -251 0
-205 -200 -238 0
-205 -197 -238 0
-205 -197 -239 0
-205 -197 -243 0
-205 -197 -251 0
-205 -197 -252 0
-205 -197 -242 0
-205 -197 -253 0
-205 -189 0
-212 -206 -204 0
-212 -206 -258 0
-33 -49 278 0
-34 -50 278 0
-35 -51 278 0
-36 -52 278 0
-37 -53 278 0
-38 -54 278 0
-39 -55 278 0
-40 -56 278 0
-212 -206 -278 0
-212 -206 -217 0
-212 -191 -241 0
-33 -105 279 0
-34 -106 279 0
-35 -107 279 0
-36 -108 279 0
-37 -109 279 0
-38 -110 279 0
-39 -111 279 0
-40 -112 279 0
-212 -191 -279 0
-33 -89 280 0
-34 -90 280 0
-35 -91 280 0
-36 -92 280 0
-37 -93 280 0
-38 -94 280 0
-39 -95 280 0
-40 -96 280 0
-212 -191 -280 0
-33 -97 281 0
-34 -98 281 0
-35 -99 281 0
-36 -100 281 0
-37 -101 281 0
-38 -102 281 0
-39 -103 281 0
-40 -104 281 0
-212 -191 -281 0
-33 -113 282 0
-34 -114 282 0
-35 -115 282 0
-36 -116 282 0
-37 -117 282 0
-38 -118 282 0
-39 -119 282 0
-40 -120 282 0
-212 -191 -282 0
-212 -191 -258 0
-33 -81 283 0
-34 -82 283 0
-35 -83 283 0
-36 -84 283 0
-37 -85 283 0
-38 -86 283 0
-39 -87 283 0
-40 -88 283 0
-212 -191 -283 0
-33 -73 284 0
-34 -74 284 0
-35 -75 284 0
-36 -76 284 0
-37 -77 284 0
-38 -78 284 0
-39 -79 284 0
-40 -80 284 0
-212 -197 -284 0
-212 -197 -280 0
-33 -137 285 0
-34 -138 285 0
-35 -139 285 0
-36 -140 285 0
-37 -141 285 0
-38 -142 285 0
-39 -143 285 0
-40 -144 285 0
-212 -197 -285 0
-33 -145 286 0
-34 -146 286 0
-35 -147 286 0
-36 -148 286 0
-37 -149 286 0
-38 -150 286 0
-39 -151 286 0
-40 -152 286 0
-212 -197 -286 0
-212 -197 -278 0
-33 -129 287 0
-34 -130 287 0
-35 -131 287 0
-36 -132 287 0
-37 -133 287 0
-38 -134 287 0
-39 -135 287 0
-40 -136 287 0
-212 -197 -287 0
-212 -198 -278 0
-212 -198 -283 0
-212 -198 -281 0
-212 -198 -286 0
-33 -153 288 0
-34 -154 288 0
-35 -155 288 0
-36 -156 288 0
-37 -157 288 0
-38 -158 288 0
-39 -159 288 0
-40 -160 288 0
-212 -198 -288 0
-212 -198 -279 0
-212 -198 -285 0
-212 -199 -204 0
-212 -199 -241 0
-212 -199 -282 0
-212 -199 -278 0
-212 -199 -279 0
-33 -121 289 0
-34 -122 289 0
-35 -123 289 0
-36 -124 289 0
-37 -125 289 0
-38 -126 289 0
-39 -127 289 0
-40 -128 289 0
-212 -199 -289 0
-212 -199 -217 0
-212 -200 -283 0
-212 -200 -287 0
-212 -200 -285 0
-205 -200 0
-1 -73 290 0
-2 -74 290 0
-3 -75 290 0
-4 -76 290 0
-5 -77 290 0
-6 -78 290 0
-7 -79 290 0
-8 -80 290 0
-33 -41 291 0
-34 -42 291 0
-35 -43 291 0
-36 -44 291 0
-37 -45 291 0
-38 -46 291 0
-39 -47 291 0
-40 -48 291 0
-290 -197 -291 0
-290 -197 -280 0
-290 -197 -285 0
-290 -197 -286 0
-290 -197 -278 0
-290 -197 -287 0
-290 -208 -285 0
-290 -208 -283 0
-290 -209 -283 0
-290 -209 -287 0
-290 -209 -286 0
-290 -209 -280 0
-290 -189 -241 0
-290 -189 -278 0
-290 -189 -283 0
-290 -189 -280 0
-290 -189 -258 0
-205 -197 0
-1 -81 292 0
-2 -82 292 0
-3 -83 292 0
-4 -84 292 0
-5 -85 292 0
-6 -86 292 0
-7 -87 292 0
-8 -88 292 0
-292 -189 -241 0
-292 -189 -278 0
-292 -189 -280 0
-292 -189 -258 0
-292 -189 -284 0
-292 -200 -287 0
-292 -200 -285 0
-292 -200 -291 0
-292 -198 -291 0
-292 -198 -278 0
-292 -198 -281 0
-292 -198 -286 0
-292 -198 -288 0
-292 -198 -279 0
-292 -198 -285 0
-292 -209 -284 0
-292 -209 -287 0
-292 -209 -286 0
-292 -209 -280 0
-292 -211 -280 0
-292 -211 -285 0
-292 -211 -288 0
-292 -211 -281 0
-292 -191 -241 0
-292 -191 -291 0
-292 -191 -279 0
-292 -191 -280 0
-292 -191 -281 0
-292 -191 -282 0
-292 -191 -258 0
-292 -208 -284 0
-292 -208 -285 0
-205 -206 0
-187 -216 -217 0
-187 -216 -258 0
-187 -199 -204 0
-187 -199 -291 0
-187 -199 -282 0
-187 -199 -278 0
-187 -199 -279 0
-187 -199 -289 0
-187 -199 -217 0
-187 -189 -278 0
-187 -189 -283 0
-187 -189 -280 0
-187 -189 -258 0
-187 -189 -284 0
-187 -191 -291 0
-187 -191 -279 0
-187 -191 -280 0
-187 -191 -281 0
-187 -191 -282 0
-187 -191 -258 0
-187 -191 -283 0
-187 -194 -204 0
-187 -194 -289 0
-187 -194 -258 0
-187 -194 -282 0
-212 -206 0
-187 -216 -218 0
-187 -216 -259 0
-187 -199 -195 0
-41 -113 293 0
-42 -114 293 0
-43 -115 293 0
-44 -116 293 0
-45 -117 293 0
-46 -118 293 0
-47 -119 293 0
-48 -120 293 0
-187 -199 -293 0
-41 -49 294 0
-42 -50 294 0
-43 -51 294 0
-44 -52 294 0
-45 -53 294 0
-46 -54 294 0
-47 -55 294 0
-48 -56 294 0
-187 -199 -294 0
-41 -105 295 0
-42 -106 295 0
-43 -107 295 0
-44 -108 295 0
-45 -109 295 0
-46 -110 295 0
-47 -111 295 0
-48 -112 295 0
-187 -199 -295 0
-41 -121 296 0
-42 -122 296 0
-43 -123 296 0
-44 -124 296 0
-45 -125 296 0
-46 -126 296 0
-47 -127 296 0
-48 -128 296 0
-187 -199 -296 0
-187 -199 -218 0
-187 -191 -295 0
-41 -89 297 0
-42 -90 297 0
-43 -91 297 0
-44 -92 297 0
-45 -93 297 0
-46 -94 297 0
-47 -95 297 0
-48 -96 297 0
-187 -191 -297 0
-41 -97 298 0
-42 -98 298 0
-43 -99 298 0
-44 -100 298 0
-45 -101 298 0
-46 -102 298 0
-47 -103 298 0
-48 -104 298 0
-187 -191 -298 0
-187 -191 -293 0
-187 -191 -259 0
-41 -81 299 0
-42 -82 299 0
-43 -83 299 0
-44 -84 299 0
-45 -85 299 0
-46 -86 299 0
-47 -87 299 0
-48 -88 299 0
-187 -191 -299 0
-187 -194 -195 0
-187 -194 -296 0
-187 -194 -259 0
-187 -194 -293 0
-41 -73 300 0
-42 -74 300 0
-43 -75 300 0
-44 -76 300 0
-45 -77 300 0
-46 -78 300 0
-47 -79 300 0
-48 -80 300 0
-187 -196 -300 0
-187 -196 -299 0
-212 -196 0
-205 -200 -299 0
-41 -129 301 0
-42 -130 301 0
-43 -131 301 0
-44 -132 301 0
-45 -133 301 0
-46 -134 301 0
-47 -135 301 0
-48 -136 301 0
-205 -200 -301 0
-41 -137 302 0
-42 -138 302 0
-43 -139 302 0
-44 -140 302 0
-45 -141 302 0
-46 -142 302 0
-47 -143 302 0
-48 -144 302 0
-205 -200 -302 0
-205 -197 -300 0
-205 -197 -297 0
-205 -197 -302 0
-41 -145 303 0
-42 -146 303 0
-43 -147 303 0
-44 -148 303 0
-45 -149 303 0
-46 -150 303 0
-47 -151 303 0
-48 -152 303 0
-205 -197 -303 0
-205 -197 -294 0
-205 -197 -301 0
-205 -206 -195 0
-205 -206 -259 0
-205 -206 -294 0
-205 -206 -218 0
-212 -191 0
-255 -206 -195 0
-255 -206 -259 0
-255 -206 -218 0
-255 -206 -291 0
-255 -192 -259 0
-255 -192 -297 0
-41 -177 304 0
-42 -178 304 0
-43 -179 304 0
-44 -180 304 0
-45 -181 304 0
-46 -182 304 0
-47 -183 304 0
-48 -184 304 0
-255 -192 -304 0
-255 -192 -298 0
-41 -169 305 0
-42 -170 305 0
-43 -171 305 0
-44 -172 305 0
-45 -173 305 0
-46 -174 305 0
-47 -175 305 0
-48 -176 305 0
-255 -192 -305 0
-255 -192 -293 0
-255 -198 -299 0
-255 -198 -298 0
-255 -198 -303 0
-41 -153 306 0
-42 -154 306 0
-43 -155 306 0
-44 -156 306 0
-45 -157 306 0
-46 -158 306 0
-47 -159 306 0
-48 -160 306 0
-255 -198 -306 0
-255 -198 -295 0
-255 -198 -302 0
-255 -202 -297 0
-255 -202 -305 0
-255 -202 -306 0
-41 -161 307 0
-42 -162 307 0
-43 -163 307 0
-44 -164 307 0
-45 -165 307 0
-46 -166 307 0
-47 -167 307 0
-48 -168 307 0
-255 -202 -307 0
-255 -202 -304 0
-255 -202 -295 0
-255 -202 -303 0
-255 -190 -259 0
-255 -190 -218 0
-255 -190 -295 0
-255 -190 -304 0
-255 -190 -296 0
-255 -199 -195 0
-255 -199 -238 0
-255 -199 -293 0
-255 -199 -295 0
-255 -199 -296 0
-255 -199 -218 0
-255 -197 -291 0
-255 -197 -300 0
-255 -197 -297 0
-255 -197 -302 0
-255 -197 -303 0
-255 -197 -301 0
-212 -197 0
-292 -196 -300 0
-292 -196 -238 0
-292 -200 -291 0
-292 -200 -301 0
-292 -200 -302 0
-292 -198 -294 0
-292 -198 -298 0
-292 -198 -303 0
-292 -198 -306 0
-292 -198 -295 0
-292 -198 -302 0
-292 -209 -300 0
-292 -209 -301 0
-292 -209 -303 0
-292 -209 -297 0
-292 -211 -297 0
-292 -211 -302 0
-292 -211 -306 0
-292 -211 -298 0
-292 -191 -238 0
-292 -191 -295 0
-292 -191 -297 0
-292 -191 -298 0
-292 -191 -293 0
-292 -191 -259 0
-292 -208 -300 0
-292 -208 -302 0
-212 -198 0
-1 -89 308 0
-2 -90 308 0
-3 -91 308 0
-4 -92 308 0
-5 -93 308 0
-6 -94 308 0
-7 -95 308 0
-8 -96 308 0
-308 -191 -238 0
-308 -191 -295 0
-308 -191 -298 0
-308 -191 -293 0
-308 -191 -259 0
-308 -191 -299 0
-308 -197 -291 0
-308 -197 -300 0
-308 -197 -302 0
-308 -197 -303 0
-308 -197 -294 0
-308 -197 -301 0
-308 -202 -294 0
-308 -202 -305 0
-308 -202 -306 0
-308 -202 -307 0
-308 -202 -304 0
-308 -202 -295 0
-308 -202 -303 0
-308 -211 -299 0
-308 -211 -302 0
-308 -211 -306 0
-308 -211 -298 0
-308 -214 -298 0
-308 -214 -303 0
-308 -214 -307 0
-308 -214 -305 0
-308 -192 -294 0
-308 -192 -259 0
-308 -192 -304 0
-308 -192 -298 0
-308 -192 -305 0
-308 -192 -293 0
-308 -209 -300 0
-308 -209 -299 0
-308 -209 -301 0
-308 -209 -303 0
-212 -199 0
-233 -216 -218 0
-233 -216 -238 0
-233 -206 -195 0
-233 -206 -294 0
-233 -206 -218 0
-233 -206 -291 0
-233 -190 -294 0
-233 -190 -218 0
-233 -190 -295 0
-233 -190 -304 0
-233 -190 -296 0
-233 -191 -238 0
-233 -191 -295 0
-233 -191 -297 0
-233 -191 -298 0
-233 -191 -293 0
-233 -191 -299 0
-233 -192 -294 0
-233 -192 -297 0
-233 -192 -304 0
-233 -192 -298 0
-233 -192 -305 0
-233 -192 -293 0
-233 -193 -218 0
-233 -193 -293 0
-233 -194 -195 0
-233 -194 -238 0
-233 -194 -296 0
-233 -194 -293 0
-212 -200 0
-290 -196 -299 0
-290 -196 -238 0
-290 -197 -291 0
-290 -197 -297 0
-290 -197 -302 0
-290 -197 -303 0
-290 -197 -294 0
-290 -197 -301 0
-290 -208 -302 0
-290 -208 -299 0
-290 -209 -299 0
-290 -209 -301 0
-290 -209 -303 0
-290 -209 -297 0
-277 -194 0
-215 -206 -188 0
-215 -206 -195 0
-215 -206 -201 0
-215 -206 -204 0
-215 -193 -188 0
-215 -193 -231 0
-215 -199 -186 0
-215 -199 -195 0
-215 -199 -231 0
-215 -199 -201 0
-215 -199 -234 0
-215 -199 -228 0
-215 -190 -201 0
-215 -190 -188 0
-215 -190 -234 0
-215 -190 -237 0
-215 -190 -228 0
-277 -206 0
-187 -199 -195 0
-187 -199 -231 0
-187 -199 -201 0
-187 -199 -234 0
-187 -199 -228 0
-187 -199 -203 0
-187 -189 -204 0
-187 -189 -201 0
-187 -189 -210 0
-187 -189 -213 0
-187 -189 -188 0
-187 -189 -207 0
-187 -191 -195 0
-187 -191 -234 0
-187 -191 -213 0
-187 -191 -256 0
-187 -191 -231 0
-187 -191 -188 0
-187 -191 -210 0
-187 -194 -228 0
-187 -194 -188 0
-187 -194 -231 0
-187 -196 -195 0
-187 -196 -207 0
-187 -196 -210 0
-277 -199 0
-233 -206 -195 0
-233 -206 -201 0
-233 -206 -203 0
-233 -206 -204 0
-233 -189 -186 0
-233 -189 -204 0
-233 -189 -201 0
-233 -189 -210 0
-233 -189 -213 0
-233 -189 -207 0
-233 -190 -201 0
-233 -190 -203 0
-233 -190 -234 0
-233 -190 -237 0
-233 -190 -228 0
-233 -191 -186 0
-233 -191 -195 0
-233 -191 -234 0
-233 -191 -213 0
-233 -191 -256 0
-233 -191 -231 0
-233 -191 -210 0
-233 -192 -201 0
-233 -192 -213 0
-233 -192 -237 0
-233 -192 -256 0
-233 -192 -276 0
-233 -192 -231 0
-233 -193 -203 0
-233 -193 -231 0
-233 -194 -186 0
-233 -194 -228 0
-233 -194 -231 0
-1 -25 0
-2 -26 0
-3 -27 0
-4 -28 0
-5 -29 0
-6 -30 0
-7 -31 0
-8 -32 0
-185 -241 0
-205 -238 -191 0
-205 -238 -197 0
-205 -238 -198 0
-205 -238 -199 0
-205 -238 -200 0
-205 -239 -197 0
-205 -239 -208 0
-205 -239 -209 0
-205 -239 -189 0
-205 -240 -189 0
-205 -240 -200 0
-205 -240 -198 0
-205 -240 -209 0
-205 -240 -211 0
-205 -240 -191 0
-205 -240 -208 0
-185 -238 0
-212 -241 -200 0
-212 -241 -197 0
-212 -242 -192 0
-212 -242 -198 0
-212 -242 -202 0
-212 -242 -190 0
-212 -242 -199 0
-212 -242 -197 0
-212 -240 -196 0
-212 -240 -200 0
-212 -240 -198 0
-212 -240 -209 0
-212 -240 -211 0
-212 -240 -191 0
-212 -240 -208 0
-212 -243 -191 0
-212 -243 -197 0
-212 -243 -202 0
-212 -243 -211 0
-212 -243 -214 0
-212 -243 -192 0
-212 -243 -209 0
-212 -244 -216 0
-212 -244 -190 0
-212 -244 -191 0
-212 -244 -192 0
-212 -244 -193 0
-212 -244 -194 0
-212 -239 -196 0
-212 -239 -197 0
-212 -239 -208 0
-212 -239 -209 0
-185 -186 0
-277 -230 -193 0
-277 -230 -199 0
-277 -230 -190 0
-277 -244 -189 0
-277 -244 -190 0
-277 -244 -191 0
-277 -244 -192 0
-277 -244 -193 0
-277 -244 -194 0
-277 -206 0
-185 -241 -195 0
-185 -241 -207 0
-185 -241 -210 0
-185 -238 -204 0
-185 -238 -201 0
-185 -238 -210 0
-185 -238 -213 0
-185 -238 -188 0
-185 -238 -207 0
-277 -230 0
-215 -247 -188 0
-215 -247 -231 0
-215 -244 -195 0
-215 -244 -231 0
-215 -244 -201 0
-215 -244 -234 0
-215 -244 -228 0
-215 -249 -201 0
-215 -249 -188 0
-215 -249 -234 0
-215 -249 -237 0
-215 -249 -228 0
-277 -244 0
-233 -238 -216 0
-233 -238 -204 0
-233 -238 -201 0
-233 -238 -210 0
-233 -238 -213 0
-233 -238 -207 0
-233 -249 -201 0
-233 -249 -203 0
-233 -249 -234 0
-233 -249 -237 0
-233 -249 -228 0
-233 -242 -195 0
-233 -242 -234 0
-233 -242 -213 0
-233 -242 -256 0
-233 -242 -231 0
-233 -242 -210 0
-233 -245 -201 0
-233 -245 -213 0
-233 -245 -237 0
-233 -245 -256 0
-233 -245 -276 0
-233 -245 -231 0
-233 -247 -203 0
-233 -247 -231 0
-233 -230 -228 0
-233 -230 -231 0
-233 -186 0
-277 -206 -258 0
-277 -206 -259 0
-277 -230 -267 0
-277 -230 -266 0
-233 -238 0
-212 -206 -258 0
-212 -206 -188 0
-212 -241 -199 0
-212 -241 -263 0
-212 -241 -261 0
-212 -242 -264 0
-212 -242 -262 0
-212 -242 -265 0
-212 -242 -266 0
-212 -242 -261 0
-212 -240 -258 0
-212 -240 -263 0
-212 -240 -262 0
-212 -240 -268 0
-212 -240 -269 0
-212 -240 -260 0
-212 -240 -270 0
-212 -243 -260 0
-212 -243 -261 0
-212 -243 -265 0
-212 -243 -269 0
-212 -243 -271 0
-212 -243 -264 0
-212 -243 -268 0
-212 -239 -258 0
-212 -239 -261 0
-212 -239 -270 0
-212 -239 -268 0
-233 -249 0
-236 -242 -259 0
-236 -242 -264 0
-236 -242 -262 0
-236 -242 -265 0
-236 -242 -261 0
-236 -230 -188 0
-236 -230 -267 0
-236 -245 -260 0
-236 -245 -262 0
-236 -245 -272 0
-236 -245 -265 0
-236 -245 -273 0
-236 -246 -265 0
-236 -246 -264 0
-236 -246 -273 0
-236 -247 -225 0
-233 -242 0
-255 -238 -199 0
-255 -238 -258 0
-255 -238 -261 0
-255 -238 -262 0
-255 -238 -263 0
-255 -245 -262 0
-255 -245 -272 0
-255 -245 -265 0
-255 -245 -273 0
-255 -245 -266 0
-255 -243 -259 0
-255 -243 -261 0
-255 -243 -265 0
-255 -243 -269 0
-255 -243 -271 0
-255 -243 -264 0
-255 -243 -268 0
-255 -248 -262 0
-255 -248 -273 0
-255 -248 -271 0
-255 -248 -274 0
-255 -248 -272 0
-255 -248 -264 0
-255 -248 -269 0
-255 -249 -225 0
-255 -249 -264 0
-255 -249 -272 0
-255 -249 -267 0
-255 -240 -258 0
-255 -240 -259 0
-255 -240 -263 0
-255 -240 -262 0
-255 -240 -268 0
-255 -240 -269 0
-255 -240 -270 0
-233 -245 0
-275 -242 -259 0
-275 -242 -262 0
-275 -242 -265 0
-275 -242 -266 0
-275 -242 -261 0
-275 -243 -259 0
-275 -243 -260 0
-275 -243 -261 0
-275 -243 -265 0
-275 -243 -269 0
-275 -243 -271 0
-275 -243 -268 0
-275 -246 -265 0
-275 -246 -266 0
-275 -246 -273 0
-275 -248 -260 0
-275 -248 -262 0
-275 -248 -273 0
-275 -248 -271 0
-275 -248 -274 0
-275 -248 -272 0
-275 -248 -269 0
-275 -250 -265 0
-275 -250 -271 0
-275 -250 -274 0
-275 -250 -272 0
-275 -249 -260 0
-275 -249 -225 0
-275 -249 -272 0
-275 -249 -267 0
-233 -247 0
-229 -230 -188 0
-229 -230 -266 0
-229 -249 -260 0
-229 -249 -225 0
-229 -249 -264 0
-229 -249 -272 0
-233 -230 0
-215 -186 -199 0
-215 -247 -266 0
-215 -249 -260 0
-215 -249 -264 0
-215 -249 -272 0
-215 -249 -267 0
-212 -206 0
-185 -241 -300 0
-185 -241 -299 0
-185 -186 -218 0
-185 -186 -259 0
-212 -241 0
-205 -206 -195 0
-205 -239 -299 0
-205 -239 -301 0
-205 -239 -302 0
-205 -240 -300 0
-205 -240 -297 0
-205 -240 -302 0
-205 -240 -303 0
-205 -240 -294 0
-205 -240 -301 0
-212 -242 0
-255 -245 -259 0
-255 -245 -297 0
-255 -245 -304 0
-255 -245 -298 0
-255 -245 -305 0
-255 -245 -293 0
-255 -243 -299 0
-255 -243 -298 0
-255 -243 -303 0
-255 -243 -306 0
-255 -243 -295 0
-255 -243 -302 0
-255 -248 -297 0
-255 -248 -305 0
-255 -248 -306 0
-255 -248 -307 0
-255 -248 -304 0
-255 -248 -295 0
-255 -248 -303 0
-255 -249 -259 0
-255 -249 -218 0
-255 -249 -295 0
-255 -249 -304 0
-255 -249 -296 0
-255 -244 -195 0
-255 -244 -293 0
-255 -244 -295 0
-255 -244 -296 0
-255 -244 -218 0
-255 -240 -291 0
-255 -240 -300 0
-255 -240 -297 0
-255 -240 -302 0
-255 -240 -303 0
-255 -240 -301 0
-212 -240 0
-292 -241 -189 0
-292 -241 -300 0
-292 -239 -291 0
-292 -239 -301 0
-292 -239 -302 0
-292 -243 -294 0
-292 -243 -298 0
-292 -243 -303 0
-292 -243 -306 0
-292 -243 -295 0
-292 -243 -302 0
-292 -251 -300 0
-292 -251 -301 0
-292 -251 -303 0
-292 -251 -297 0
-292 -252 -297 0
-292 -252 -302 0
-292 -252 -306 0
-292 -252 -298 0
-292 -242 -295 0
-292 -242 -297 0
-292 -242 -298 0
-292 -242 -293 0
-292 -242 -259 0
-292 -253 -300 0
-292 -253 -302 0
-212 -243 0
-308 -242 -295 0
-308 -242 -298 0
-308 -242 -293 0
-308 -242 -259 0
-308 -242 -299 0
-308 -240 -291 0
-308 -240 -300 0
-308 -240 -302 0
-308 -240 -303 0
-308 -240 -294 0
-308 -240 -301 0
-308 -248 -294 0
-308 -248 -305 0
-308 -248 -306 0
-308 -248 -307 0
-308 -248 -304 0
-308 -248 -295 0
-308 -248 -303 0
-308 -252 -299 0
-308 -252 -302 0
-308 -252 -306 0
-308 -252 -298 0
-308 -254 -298 0
-308 -254 -303 0
-308 -254 -307 0
-308 -254 -305 0
-308 -245 -294 0
-308 -245 -259 0
-308 -245 -304 0
-308 -245 -298 0
-308 -245 -305 0
-308 -245 -293 0
-308 -251 -300 0
-308 -251 -299 0
-308 -251 -301 0
-308 -251 -303 0
-212 -244 0
-233 -186 -189 0
-233 -186 -218 0
-233 -249 -294 0
-233 -249 -218 0
-233 -249 -295 0
-233 -249 -304 0
-233 -249 -296 0
-233 -242 -295 0
-233 -242 -297 0
-233 -242 -298 0
-233 -242 -293 0
-233 -242 -299 0
-233 -245 -294 0
-233 -245 -297 0
-233 -245 -304 0
-233 -245 -298 0
-233 -245 -305 0
-233 -245 -293 0
-233 -247 -218 0
-233 -247 -293 0
-233 -230 -195 0
-233 -230 -296 0
-233 -230 -293 0
-212 -239 0
-290 -241 -189 0
-290 -241 -299 0
-290 -240 -291 0
-290 -240 -297 0
-290 -240 -302 0
-290 -240 -303 0
-290 -240 -294 0
-290 -240 -301 0
-290 -253 -302 0
-290 -253 -299 0
-290 -251 -299 0
-290 -251 -301 0
-290 -251 -303 0
-290 -251 -297 0
-255 -238 0
-212 -206 -278 0
-212 -206 -201 0
-212 -241 -191 0
-49 -73 309 0
-50 -74 309 0
-51 -75 309 0
-52 -76 309 0
-53 -77 309 0
-54 -78 309 0
-55 -79 309 0
-56 -80 309 0
-212 -241 -309 0
-49 -81 310 0
-50 -82 310 0
-51 -83 310 0
-52 -84 310 0
-53 -85 310 0
-54 -86 310 0
-55 -87 310 0
-56 -88 310 0
-212 -241 -310 0
-212 -240 -278 0
-212 -240 -309 0
-49 -89 311 0
-50 -90 311 0
-51 -91 311 0
-52 -92 311 0
-53 -93 311 0
-54 -94 311 0
-55 -95 311 0
-56 -96 311 0
-212 -240 -311 0
-49 -137 312 0
-50 -138 312 0
-51 -139 312 0
-52 -140 312 0
-53 -141 312 0
-54 -142 312 0
-55 -143 312 0
-56 -144 312 0
-212 -240 -312 0
-49 -145 313 0
-50 -146 313 0
-51 -147 313 0
-52 -148 313 0
-53 -149 313 0
-54 -150 313 0
-55 -151 313 0
-56 -152 313 0
-212 -240 -313 0
-49 -129 314 0
-50 -130 314 0
-51 -131 314 0
-52 -132 314 0
-53 -133 314 0
-54 -134 314 0
-55 -135 314 0
-56 -136 314 0
-212 -240 -314 0
-212 -243 -310 0
-49 -97 315 0
-50 -98 315 0
-51 -99 315 0
-52 -100 315 0
-53 -101 315 0
-54 -102 315 0
-55 -103 315 0
-56 -104 315 0
-212 -243 -315 0
-212 -243 -313 0
-49 -153 316 0
-50 -154 316 0
-51 -155 316 0
-52 -156 316 0
-53 -157 316 0
-54 -158 316 0
-55 -159 316 0
-56 -160 316 0
-212 -243 -316 0
-49 -105 317 0
-50 -106 317 0
-51 -107 317 0
-52 -108 317 0
-53 -109 317 0
-54 -110 317 0
-55 -111 317 0
-56 -112 317 0
-212 -243 -317 0
-212 -243 -312 0
-212 -244 -201 0
-49 -113 318 0
-50 -114 318 0
-51 -115 318 0
-52 -116 318 0
-53 -117 318 0
-54 -118 318 0
-55 -119 318 0
-56 -120 318 0
-212 -244 -318 0
-212 -244 -317 0
-49 -121 319 0
-50 -122 319 0
-51 -123 319 0
-52 -124 319 0
-53 -125 319 0
-54 -126 319 0
-55 -127 319 0
-56 -128 319 0
-212 -244 -319 0
-212 -244 -220 0
-212 -239 -278 0
-212 -239 -310 0
-212 -239 -314 0
-212 -239 -312 0
-255 -245 0
-275 -244 -201 0
-275 -244 -294 0
-275 -244 -318 0
-275 -244 -319 0
-275 -244 -220 0
-275 -243 -294 0
-275 -243 -310 0
-275 -243 -315 0
-275 -243 -313 0
-275 -243 -316 0
-275 -243 -312 0
-275 -246 -315 0
-275 -246 -318 0
-49 -169 320 0
-50 -170 320 0
-51 -171 320 0
-52 -172 320 0
-53 -173 320 0
-54 -174 320 0
-55 -175 320 0
-56 -176 320 0
-275 -246 -320 0
-275 -248 -311 0
-275 -248 -320 0
-275 -248 -316 0
-49 -161 321 0
-50 -162 321 0
-51 -163 321 0
-52 -164 321 0
-53 -165 321 0
-54 -166 321 0
-55 -167 321 0
-56 -168 321 0
-275 -248 -321 0
-49 -177 322 0
-50 -178 322 0
-51 -179 322 0
-52 -180 322 0
-53 -181 322 0
-54 -182 322 0
-55 -183 322 0
-56 -184 322 0
-275 -248 -322 0
-275 -248 -313 0
-275 -250 -315 0
-275 -250 -316 0
-275 -250 -321 0
-275 -250 -322 0
-275 -249 -260 0
-275 -249 -220 0
-275 -249 -322 0
-275 -249 -319 0
-255 -243 0
-308 -238 -191 0
-308 -238 -278 0
-308 -238 -310 0
-308 -238 -260 0
-308 -238 -309 0
-308 -240 -278 0
-308 -240 -294 0
-308 -240 -309 0
-308 -240 -312 0
-308 -240 -313 0
-308 -240 -314 0
-308 -248 -320 0
-308 -248 -316 0
-308 -248 -321 0
-308 -248 -322 0
-308 -248 -317 0
-308 -248 -313 0
-308 -252 -310 0
-308 -252 -312 0
-308 -252 -316 0
-308 -252 -315 0
-308 -254 -315 0
-308 -254 -313 0
-308 -254 -321 0
-308 -254 -320 0
-308 -245 -260 0
-308 -245 -322 0
-308 -245 -315 0
-308 -245 -320 0
-308 -245 -318 0
-308 -251 -309 0
-308 -251 -310 0
-308 -251 -314 0
-308 -251 -313 0
-255 -248 0
-1 -97 323 0
-2 -98 323 0
-3 -99 323 0
-4 -100 323 0
-5 -101 323 0
-6 -102 323 0
-7 -103 323 0
-8 -104 323 0
-323 -243 -294 0
-323 -243 -310 0
-323 -243 -313 0
-323 -243 -316 0
-323 -243 -317 0
-323 -243 -312 0
-323 -250 -317 0
-323 -250 -316 0
-323 -250 -321 0
-323 -250 -322 0
-323 -254 -311 0
-323 -254 -313 0
-323 -254 -321 0
-323 -254 -320 0
-323 -257 -316 0
-323 -257 -320 0
-323 -246 -317 0
-323 -246 -318 0
-323 -246 -320 0
-323 -245 -260 0
-323 -245 -311 0
-323 -245 -322 0
-323 -245 -320 0
-323 -245 -318 0
-323 -252 -310 0
-323 -252 -311 0
-323 -252 -312 0
-323 -252 -316 0
-255 -249 0
-236 -244 -201 0
-236 -244 -294 0
-236 -244 -317 0
-236 -244 -319 0
-236 -244 -220 0
-236 -230 -201 0
-236 -230 -319 0
-236 -230 -260 0
-236 -245 -260 0
-236 -245 -311 0
-236 -245 -322 0
-236 -245 -315 0
-236 -245 -320 0
-236 -246 -315 0
-236 -246 -317 0
-236 -246 -320 0
-236 -247 -260 0
-236 -247 -220 0
-255 -244 0
-233 -186 -191 0
-233 -186 -220 0
-233 -238 -191 0
-233 -238 -278 0
-233 -238 -310 0
-233 -238 -311 0
-233 -238 -309 0
-233 -249 -220 0
-233 -249 -317 0
-233 -249 -322 0
-233 -249 -319 0
-233 -245 -311 0
-233 -245 -322 0
-233 -245 -315 0
-233 -245 -320 0
-233 -245 -318 0
-233 -247 -220 0
-233 -247 -318 0
-233 -230 -201 0
-233 -230 -319 0
-233 -230 -318 0
-255 -240 0
-292 -241 -191 0
-292 -241 -294 0
-292 -241 -309 0
-292 -238 -191 0
-292 -238 -278 0
-292 -238 -311 0
-292 -238 -260 0
-292 -238 -309 0
-292 -239 -278 0
-292 -239 -314 0
-292 -239 -312 0
-292 -239 -294 0
-292 -243 -294 0
-292 -243 -315 0
-292 -243 -313 0
-292 -243 -316 0
-292 -243 -317 0
-292 -243 -312 0
-292 -251 -309 0
-292 -251 -314 0
-292 -251 -313 0
-292 -251 -311 0
-292 -252 -311 0
-292 -252 -312 0
-292 -252 -316 0
-292 -252 -315 0
-292 -253 -309 0
-292 -253 -312 0
-215 -186 0
-277 -206 -217 0
-277 -206 -218 0
-277 -244 -218 0
-277 -244 -219 0
-277 -244 -220 0
-277 -244 -221 0
-277 -244 -222 0
-215 -247 0
-229 -244 -203 0
-229 -244 -218 0
-229 -244 -219 0
-229 -244 -220 0
-229 -244 -221 0
-229 -249 -220 0
-229 -249 -225 0
-229 -249 -221 0
-229 -249 -232 0
-215 -244 0
-233 -186 -194 0
-233 -238 -194 0
-233 -238 -217 0
-233 -238 -220 0
-233 -238 -223 0
-233 -238 -224 0
-233 -238 -226 0
-233 -249 -220 0
-233 -249 -221 0
-233 -249 -232 0
-233 -249 -222 0
-233 -242 -218 0
-233 -242 -221 0
-233 -242 -224 0
-233 -242 -227 0
-233 -242 -219 0
-233 -242 -223 0
-233 -245 -220 0
-233 -245 -224 0
-233 -245 -232 0
-233 -245 -227 0
-233 -245 -235 0
-233 -245 -219 0
-233 -247 -219 0
-215 -249 0
-236 -242 -218 0
-236 -242 -221 0
-236 -242 -224 0
-236 -242 -227 0
-236 -242 -225 0
-236 -242 -223 0
-236 -244 -203 0
-236 -244 -218 0
-236 -244 -220 0
-236 -244 -221 0
-236 -244 -222 0
-236 -245 -220 0
-236 -245 -225 0
-236 -245 -224 0
-236 -245 -232 0
-236 -245 -227 0
-236 -245 -235 0
-236 -246 -227 0
-236 -246 -221 0
-236 -246 -235 0
-236 -247 -225 0
-205 -206 0
-185 -238 -278 0
-185 -238 -283 0
-185 -238 -280 0
-185 -238 -258 0
-185 -238 -284 0
-185 -186 -217 0
-185 -186 -258 0
-205 -238 0
-212 -206 -204 0
-212 -242 -279 0
-212 -242 -280 0
-212 -242 -281 0
-212 -242 -282 0
-212 -242 -258 0
-212 -242 -283 0
-212 -240 -284 0
-212 -240 -280 0
-212 -240 -285 0
-212 -240 -286 0
-212 -240 -278 0
-212 -240 -287 0
-212 -243 -278 0
-212 -243 -283 0
-212 -243 -281 0
-212 -243 -286 0
-212 -243 -288 0
-212 -243 -279 0
-212 -243 -285 0
-212 -244 -204 0
-212 -244 -282 0
-212 -244 -278 0
-212 -244 -279 0
-212 -244 -289 0
-212 -244 -217 0
-212 -239 -283 0
-212 -239 -287 0
-212 -239 -285 0
-205 -239 0
-290 -240 -291 0
-290 -240 -280 0
-290 -240 -285 0
-290 -240 -286 0
-290 -240 -278 0
-290 -240 -287 0
-290 -253 -285 0
-290 -253 -283 0
-290 -251 -283 0
-290 -251 -287 0
-290 -251 -286 0
-290 -251 -280 0
-290 -238 -196 0
-290 -238 -278 0
-290 -238 -283 0
-290 -238 -280 0
-290 -238 -258 0
-205 -240 0
-292 -238 -196 0
-292 -238 -278 0
-292 -238 -280 0
-292 -238 -258 0
-292 -238 -284 0
-292 -239 -287 0
-292 -239 -285 0
-292 -239 -291 0
-292 -243 -291 0
-292 -243 -278 0
-292 -243 -281 0
-292 -243 -286 0
-292 -243 -288 0
-292 -243 -279 0
-292 -243 -285 0
-292 -251 -284 0
-292 -251 -287 0
-292 -251 -286 0
-292 -251 -280 0
-292 -252 -280 0
-292 -252 -285 0
-292 -252 -288 0
-292 -252 -281 0
-292 -242 -291 0
-292 -242 -279 0
-292 -242 -280 0
-292 -242 -281 0
-292 -242 -282 0
-292 -242 -258 0
-292 -253 -284 0
-292 -253 -285 0
-216 -215 0
-194 -187 -188 0
-194 -187 -195 0
-194 -187 -201 0
-194 -187 -204 0
-194 -229 -188 0
-194 -229 -231 0
-194 -233 -186 0
-194 -233 -195 0
-194 -233 -231 0
-194 -233 -201 0
-194 -233 -234 0
-194 -233 -228 0
-194 -236 -201 0
-194 -236 -188 0
-194 -236 -234 0
-194 -236 -237 0
-194 -236 -228 0
-216 -187 0
-206 -233 -195 0
-206 -233 -231 0
-206 -233 -201 0
-206 -233 -234 0
-206 -233 -228 0
-206 -233 -203 0
-206 -212 -204 0
-206 -212 -201 0
-206 -212 -210 0
-206 -212 -213 0
-206 -212 -188 0
-206 -212 -207 0
-206 -255 -195 0
-206 -255 -234 0
-206 -255 -213 0
-206 -255 -256 0
-206 -255 -231 0
-206 -255 -188 0
-206 -255 -210 0
-206 -215 -228 0
-206 -215 -188 0
-206 -215 -231 0
-206 -205 -195 0
-206 -205 -207 0
-206 -205 -210 0
-216 -233 0
-199 -187 -195 0
-199 -187 -201 0
-199 -187 -203 0
-199 -187 -204 0
-199 -212 -186 0
-199 -212 -204 0
-199 -212 -201 0
-199 -212 -210 0
-199 -212 -213 0
-199 -212 -207 0
-199 -236 -201 0
-199 -236 -203 0
-199 -236 -234 0
-199 -236 -237 0
-199 -236 -228 0
-199 -255 -186 0
-199 -255 -195 0
-199 -255 -234 0
-199 -255 -213 0
-199 -255 -256 0
-199 -255 -231 0
-199 -255 -210 0
-199 -275 -201 0
-199 -275 -213 0
-199 -275 -237 0
-199 -275 -256 0
-199 -275 -276 0
-199 -275 -231 0
-199 -229 -203 0
-199 -229 -231 0
-199 -215 -186 0
-199 -215 -228 0
-199 -215 -231 0
-206 -277 0
-216 -215 -247 0
-216 -215 -244 0
-216 -215 -249 0
-216 -233 -238 0
-216 -233 -249 0
-216 -233 -242 0
-216 -233 -245 0
-216 -233 -247 0
-216 -233 -230 0
-206 -233 0
-199 -277 -230 0
-199 -212 -241 0
-199 -212 -242 0
-199 -212 -240 0
-199 -212 -243 0
-199 -212 -239 0
-199 -236 -242 0
-199 -236 -230 0
-199 -236 -245 0
-199 -236 -246 0
-199 -236 -247 0
-199 -255 -238 0
-199 -255 -245 0
-199 -255 -243 0
-199 -255 -248 0
-199 -255 -249 0
-199 -255 -240 0
-199 -275 -242 0
-199 -275 -243 0
-199 -275 -246 0
-199 -275 -248 0
-199 -275 -250 0
-199 -275 -249 0
-199 -229 -230 0
-199 -229 -249 0
-199 -215 -186 0
-199 -215 -247 0
-199 -215 -249 0
-206 -212 0
-189 -205 -239 0
-189 -205 -240 0
-189 -255 -245 0
-189 -255 -243 0
-189 -255 -248 0
-189 -255 -249 0
-189 -255 -244 0
-189 -255 -240 0
-189 -292 -241 0
-189 -292 -239 0
-189 -292 -243 0
-189 -292 -251 0
-189 -292 -252 0
-189 -292 -242 0
-189 -292 -253 0
-189 -308 -242 0
-189 -308 -240 0
-189 -308 -248 0
-189 -308 -252 0
-189 -308 -254 0
-189 -308 -245 0
-189 -308 -251 0
-189 -233 -186 0
-189 -233 -249 0
-189 -233 -242 0
-189 -233 -245 0
-189 -233 -247 0
-189 -233 -230 0
-189 -290 -241 0
-189 -290 -240 0
-189 -290 -253 0
-189 -290 -251 0
-206 -255 0
-191 -212 -241 0
-191 -212 -240 0
-191 -212 -243 0
-191 -212 -244 0
-191 -212 -239 0
-191 -275 -244 0
-191 -275 -243 0
-191 -275 -246 0
-191 -275 -248 0
-191 -275 -250 0
-191 -275 -249 0
-191 -308 -238 0
-191 -308 -240 0
-191 -308 -248 0
-191 -308 -252 0
-191 -308 -254 0
-191 -308 -245 0
-191 -308 -251 0
-191 -323 -243 0
-191 -323 -250 0
-191 -323 -254 0
-191 -323 -257 0
-191 -323 -246 0
-191 -323 -245 0
-191 -323 -252 0
-191 -236 -244 0
-191 -236 -230 0
-191 -236 -245 0
-191 -236 -246 0
-191 -236 -247 0
-191 -233 -186 0
-191 -233 -238 0
-191 -233 -249 0
-191 -233 -245 0
-191 -233 -247 0
-191 -233 -230 0
-191 -292 -241 0
-191 -292 -238 0
-191 -292 -239 0
-191 -292 -243 0
-191 -292 -251 0
-191 -292 -252 0
-191 -292 -253 0
-206 -215 0
-194 -277 -244 0
-194 -229 -244 0
-194 -229 -249 0
-194 -233 -186 0
-194 -233 -238 0
-194 -233 -249 0
-194 -233 -242 0
-194 -233 -245 0
-194 -233 -247 0
-194 -236 -242 0
-194 -236 -244 0
-194 -236 -245 0
-194 -236 -246 0
-194 -236 -247 0
-206 -205 0
-196 -212 -242 0
-196 -212 -240 0
-196 -212 -243 0
-196 -212 -244 0
-196 -212 -239 0
-196 -290 -240 0
-196 -290 -253 0
-196 -290 -251 0
-196 -290 -238 0
-196 -292 -238 0
-196 -292 -239 0
-196 -292 -243 0
-196 -292 -251 0
-196 -292 -252 0
-196 -292 -242 0
-196 -292 -253 0
-9 -25 0
-10 -26 0
-11 -27 0
-12 -28 0
-13 -29 0
-14 -30 0
-15 -31 0
-16 -32 0
-185 -186 0
-216 -230 -229 0
-216 -230 -233 0
-216 -230 -236 0
-216 -244 -212 0
-216 -244 -236 0
-216 -244 -255 0
-216 -244 -275 0
-216 -244 -229 0
-216 -244 -215 0
-216 -230 0
-194 -247 -188 0
-194 -247 -231 0
-194 -244 -195 0
-194 -244 -231 0
-194 -244 -201 0
-194 -244 -234 0
-194 -244 -228 0
-194 -249 -201 0
-194 -249 -188 0
-194 -249 -234 0
-194 -249 -237 0
-194 -249 -228 0
-216 -244 0
-199 -238 -204 0
-199 -238 -201 0
-199 -238 -210 0
-199 -238 -213 0
-199 -238 -207 0
-199 -249 -201 0
-199 -249 -203 0
-199 -249 -234 0
-199 -249 -237 0
-199 -249 -228 0
-199 -242 -195 0
-199 -242 -234 0
-199 -242 -213 0
-199 -242 -256 0
-199 -242 -231 0
-199 -242 -210 0
-199 -245 -201 0
-199 -245 -213 0
-199 -245 -237 0
-199 -245 -256 0
-199 -245 -276 0
-199 -245 -231 0
-199 -247 -203 0
-199 -247 -231 0
-199 -230 -228 0
-199 -230 -231 0
-199 -186 0
-216 -230 -267 0
-216 -230 -266 0
-199 -238 0
-189 -241 -263 0
-189 -241 -261 0
-189 -242 -264 0
-189 -242 -262 0
-189 -242 -265 0
-189 -242 -266 0
-189 -242 -261 0
-189 -240 -258 0
-189 -240 -263 0
-189 -240 -262 0
-189 -240 -268 0
-189 -240 -269 0
-189 -240 -260 0
-189 -240 -270 0
-189 -243 -260 0
-189 -243 -261 0
-189 -243 -265 0
-189 -243 -269 0
-189 -243 -271 0
-189 -243 -264 0
-189 -243 -268 0
-189 -239 -258 0
-189 -239 -261 0
-189 -239 -270 0
-189 -239 -268 0
-199 -249 0
-190 -242 -259 0
-190 -242 -264 0
-190 -242 -262 0
-190 -242 -265 0
-190 -242 -261 0
-190 -230 -188 0
-190 -230 -267 0
-190 -245 -260 0
-190 -245 -262 0
-190 -245 -272 0
-190 -245 -265 0
-190 -245 -273 0
-190 -246 -265 0
-190 -246 -264 0
-190 -246 -273 0
-190 -247 -225 0
-199 -242 0
-191 -238 -258 0
-191 -238 -261 0
-191 -238 -262 0
-191 -238 -263 0
-191 -245 -262 0
-191 -245 -272 0
-191 -245 -265 0
-191 -245 -273 0
-191 -245 -266 0
-191 -243 -259 0
-191 -243 -261 0
-191 -243 -265 0
-191 -243 -269 0
-191 -243 -271 0
-191 -243 -264 0
-191 -243 -268 0
-191 -248 -262 0
-191 -248 -273 0
-191 -248 -271 0
-191 -248 -274 0
-191 -248 -272 0
-191 -248 -264 0
-191 -248 -269 0
-191 -249 -225 0
-191 -249 -264 0
-191 -249 -272 0
-191 -249 -267 0
-191 -240 -258 0
-191 -240 -259 0
-191 -240 -263 0
-191 -240 -262 0
-191 -240 -268 0
-191 -240 -269 0
-191 -240 -270 0
-199 -245 0
-192 -242 -259 0
-192 -242 -262 0
-192 -242 -265 0
-192 -242 -266 0
-192 -242 -261 0
-192 -243 -259 0
-192 -243 -260 0
-192 -243 -261 0
-192 -243 -265 0
-192 -243 -269 0
-192 -243 -271 0
-192 -243 -268 0
-192 -246 -265 0
-192 -246 -266 0
-192 -246 -273 0
-192 -248 -260 0
-192 -248 -262 0
-192 -248 -273 0
-192 -248 -271 0
-192 -248 -274 0
-192 -248 -272 0
-192 -248 -269 0
-192 -250 -265 0
-192 -250 -271 0
-192 -250 -274 0
-192 -250 -272 0
-192 -249 -260 0
-192 -249 -225 0
-192 -249 -272 0
-192 -249 -267 0
-199 -247 0
-193 -230 -188 0
-193 -230 -266 0
-193 -249 -260 0
-193 -249 -225 0
-193 -249 -264 0
-193 -249 -272 0
-199 -230 0
-194 -247 -266 0
-194 -249 -260 0
-194 -249 -264 0
-194 -249 -272 0
-194 -249 -267 0
-189 -241 0
-196 -239 -299 0
-196 -239 -301 0
-196 -239 -302 0
-196 -240 -300 0
-196 -240 -297 0
-196 -240 -302 0
-196 -240 -303 0
-196 -240 -294 0
-196 -240 -301 0
-189 -242 0
-191 -245 -259 0
-191 -245 -297 0
-191 -245 -304 0
-191 -245 -298 0
-191 -245 -305 0
-191 -245 -293 0
-191 -243 -299 0
-191 -243 -298 0
-191 -243 -303 0
-191 -243 -306 0
-191 -243 -295 0
-191 -243 -302 0
-191 -248 -297 0
-191 -248 -305 0
-191 -248 -306 0
-191 -248 -307 0
-191 -248 -304 0
-191 -248 -295 0
-191 -248 -303 0
-191 -249 -259 0
-191 -249 -218 0
-191 -249 -295 0
-191 -249 -304 0
-191 -249 -296 0
-191 -244 -195 0
-191 -244 -293 0
-191 -244 -295 0
-191 -244 -296 0
-191 -244 -218 0
-191 -240 -291 0
-191 -240 -300 0
-191 -240 -297 0
-191 -240 -302 0
-191 -240 -303 0
-191 -240 -301 0
-189 -240 0
-197 -241 -300 0
-197 -239 -291 0
-197 -239 -301 0
-197 -239 -302 0
-197 -243 -294 0
-197 -243 -298 0
-197 -243 -303 0
-197 -243 -306 0
-197 -243 -295 0
-197 -243 -302 0
-197 -251 -300 0
-197 -251 -301 0
-197 -251 -303 0
-197 -251 -297 0
-197 -252 -297 0
-197 -252 -302 0
-197 -252 -306 0
-197 -252 -298 0
-197 -242 -295 0
-197 -242 -297 0
-197 -242 -298 0
-197 -242 -293 0
-197 -242 -259 0
-197 -253 -300 0
-197 -253 -302 0
-189 -243 0
-198 -242 -295 0
-198 -242 -298 0
-198 -242 -293 0
-198 -242 -259 0
-198 -242 -299 0
-198 -240 -291 0
-198 -240 -300 0
-198 -240 -302 0
-198 -240 -303 0
-198 -240 -294 0
-198 -240 -301 0
-198 -248 -294 0
-198 -248 -305 0
-198 -248 -306 0
-198 -248 -307 0
-198 -248 -304 0
-198 -248 -295 0
-198 -248 -303 0
-198 -252 -299 0
-198 -252 -302 0
-198 -252 -306 0
-198 -252 -298 0
-198 -254 -298 0
-198 -254 -303 0
-198 -254 -307 0
-198 -254 -305 0
-198 -245 -294 0
-198 -245 -259 0
-198 -245 -304 0
-198 -245 -298 0
-198 -245 -305 0
-198 -245 -293 0
-198 -251 -300 0
-198 -251 -299 0
-198 -251 -301 0
-198 -251 -303 0
-189 -244 0
-199 -186 -218 0
-199 -249 -294 0
-199 -249 -218 0
-199 -249 -295 0
-199 -249 -304 0
-199 -249 -296 0
-199 -242 -295 0
-199 -242 -297 0
-199 -242 -298 0
-199 -242 -293 0
-199 -242 -299 0
-199 -245 -294 0
-199 -245 -297 0
-199 -245 -304 0
-199 -245 -298 0
-199 -245 -305 0
-199 -245 -293 0
-199 -247 -218 0
-199 -247 -293 0
-199 -230 -195 0
-199 -230 -296 0
-199 -230 -293 0
-189 -239 0
-200 -241 -299 0
-200 -240 -291 0
-200 -240 -297 0
-200 -240 -302 0
-200 -240 -303 0
-200 -240 -294 0
-200 -240 -301 0
-200 -253 -302 0
-200 -253 -299 0
-200 -251 -299 0
-200 -251 -301 0
-200 -251 -303 0
-200 -251 -297 0
-191 -238 0
-189 -241 -309 0
-189 -241 -310 0
-189 -240 -278 0
-189 -240 -309 0
-189 -240 -311 0
-189 -240 -312 0
-189 -240 -313 0
-189 -240 -314 0
-189 -243 -310 0
-189 -243 -315 0
-189 -243 -313 0
-189 -243 -316 0
-189 -243 -317 0
-189 -243 -312 0
-189 -244 -201 0
-189 -244 -318 0
-189 -244 -317 0
-189 -244 -319 0
-189 -244 -220 0
-189 -239 -278 0
-189 -239 -310 0
-189 -239 -314 0
-189 -239 -312 0
-191 -245 0
-192 -244 -201 0
-192 -244 -294 0
-192 -244 -318 0
-192 -244 -319 0
-192 -244 -220 0
-192 -243 -294 0
-192 -243 -310 0
-192 -243 -315 0
-192 -243 -313 0
-192 -243 -316 0
-192 -243 -312 0
-192 -246 -315 0
-192 -246 -318 0
-192 -246 -320 0
-192 -248 -311 0
-192 -248 -320 0
-192 -248 -316 0
-192 -248 -321 0
-192 -248 -322 0
-192 -248 -313 0
-192 -250 -315 0
-192 -250 -316 0
-192 -250 -321 0
-192 -250 -322 0
-192 -249 -260 0
-192 -249 -220 0
-192 -249 -322 0
-192 -249 -319 0
-191 -243 0
-198 -238 -278 0
-198 -238 -310 0
-198 -238 -260 0
-198 -238 -309 0
-198 -240 -278 0
-198 -240 -294 0
-198 -240 -309 0
-198 -240 -312 0
-198 -240 -313 0
-198 -240 -314 0
-198 -248 -320 0
-198 -248 -316 0
-198 -248 -321 0
-198 -248 -322 0
-198 -248 -317 0
-198 -248 -313 0
-198 -252 -310 0
-198 -252 -312 0
-198 -252 -316 0
-198 -252 -315 0
-198 -254 -315 0
-198 -254 -313 0
-198 -254 -321 0
-198 -254 -320 0
-198 -245 -260 0
-198 -245 -322 0
-198 -245 -315 0
-198 -245 -320 0
-198 -245 -318 0
-198 -251 -309 0
-198 -251 -310 0
-198 -251 -314 0
-198 -251 -313 0
-191 -248 0
-202 -243 -294 0
-202 -243 -310 0
-202 -243 -313 0
-202 -243 -316 0
-202 -243 -317 0
-202 -243 -312 0
-202 -250 -317 0
-202 -250 -316 0
-202 -250 -321 0
-202 -250 -322 0
-202 -254 -311 0
-202 -254 -313 0
-202 -254 -321 0
-202 -254 -320 0
-202 -257 -316 0
-202 -257 -320 0
-202 -246 -317 0
-202 -246 -318 0
-202 -246 -320 0
-202 -245 -260 0
-202 -245 -311 0
-202 -245 -322 0
-202 -245 -320 0
-202 -245 -318 0
-202 -252 -310 0
-202 -252 -311 0
-202 -252 -312 0
-202 -252 -316 0
-191 -249 0
-190 -244 -201 0
-190 -244 -294 0
-190 -244 -317 0
-190 -244 -319 0
-190 -244 -220 0
-190 -230 -201 0
-190 -230 -319 0
-190 -230 -260 0
-190 -245 -260 0
-190 -245 -311 0
-190 -245 -322 0
-190 -245 -315 0
-190 -245 -320 0
-190 -246 -315 0
-190 -246 -317 0
-190 -246 -320 0
-190 -247 -260 0
-190 -247 -220 0
-191 -244 0
-199 -186 -220 0
-199 -238 -278 0
-199 -238 -310 0
-199 -238 -311 0
-199 -238 -309 0
-199 -249 -220 0
-199 -249 -317 0
-199 -249 -322 0
-199 -249 -319 0
-199 -245 -311 0
-199 -245 -322 0
-199 -245 -315 0
-199 -245 -320 0
-199 -245 -318 0
-199 -247 -220 0
-199 -247 -318 0
-199 -230 -201 0
-199 -230 -319 0
-199 -230 -318 0
-191 -240 0
-197 -241 -294 0
-197 -241 -309 0
-197 -238 -278 0
-197 -238 -311 0
-197 -238 -260 0
-197 -238 -309 0
-197 -239 -278 0
-197 -239 -314 0
-197 -239 -312 0
-197 -239 -294 0
-197 -243 -294 0
-197 -243 -315 0
-197 -243 -313 0
-197 -243 -316 0
-197 -243 -317 0
-197 -243 -312 0
-197 -251 -309 0
-197 -251 -314 0
-197 -251 -313 0
-197 -251 -311 0
-197 -252 -311 0
-197 -252 -312 0
-197 -252 -316 0
-197 -252 -315 0
-197 -253 -309 0
-197 -253 -312 0
-194 -186 0
-216 -244 -218 0
-216 -244 -219 0
-216 -244 -220 0
-216 -244 -221 0
-216 -244 -222 0
-194 -247 0
-193 -244 -203 0
-193 -244 -218 0
-193 -244 -219 0
-193 -244 -220 0
-193 -244 -221 0
-193 -249 -220 0
-193 -249 -225 0
-193 -249 -221 0
-193 -249 -232 0
-194 -244 0
-199 -238 -217 0
-199 -238 -220 0
-199 -238 -223 0
-199 -238 -224 0
-199 -238 -226 0
-199 -249 -220 0
-199 -249 -221 0
-199 -249 -232 0
-199 -249 -222 0
-199 -242 -218 0
-199 -242 -221 0
-199 -242 -224 0
-199 -242 -227 0
-199 -242 -219 0
-199 -242 -223 0
-199 -245 -220 0
-199 -245 -224 0
-199 -245 -232 0
-199 -245 -227 0
-199 -245 -235 0
-199 -245 -219 0
-199 -247 -219 0
-194 -249 0
-190 -242 -218 0
-190 -242 -221 0
-190 -242 -224 0
-190 -242 -227 0
-190 -242 -225 0
-190 -242 -223 0
-190 -244 -203 0
-190 -244 -218 0
-190 -244 -220 0
-190 -244 -221 0
-190 -244 -222 0
-190 -245 -220 0
-190 -245 -225 0
-190 -245 -224 0
-190 -245 -232 0
-190 -245 -227 0
-190 -245 -235 0
-190 -246 -227 0
-190 -246 -221 0
-190 -246 -235 0
-190 -247 -225 0
-196 -238 0
-189 -242 -279 0
-189 -242 -280 0
-189 -242 -281 0
-189 -242 -282 0
-189 -242 -258 0
-189 -242 -283 0
-189 -240 -284 0
-189 -240 -280 0
-189 -240 -285 0
-189 -240 -286 0
-189 -240 -278 0
-189 -240 -287 0
-189 -243 -278 0
-189 -243 -283 0
-189 -243 -281 0
-189 -243 -286 0
-189 -243 -288 0
-189 -243 -279 0
-189 -243 -285 0
-189 -244 -204 0
-189 -244 -282 0
-189 -244 -278 0
-189 -244 -279 0
-189 -244 -289 0
-189 -244 -217 0
-189 -239 -283 0
-189 -239 -287 0
-189 -239 -285 0
-196 -239 0
-200 -240 -291 0
-200 -240 -280 0
-200 -240 -285 0
-200 -240 -286 0
-200 -240 -278 0
-200 -240 -287 0
-200 -253 -285 0
-200 -253 -283 0
-200 -251 -283 0
-200 -251 -287 0
-200 -251 -286 0
-200 -251 -280 0
-200 -238 -278 0
-200 -238 -283 0
-200 -238 -280 0
-200 -238 -258 0
-196 -240 0
-197 -238 -278 0
-197 -238 -280 0
-197 -238 -258 0
-197 -238 -284 0
-197 -239 -287 0
-197 -239 -285 0
-197 -239 -291 0
-197 -243 -291 0
-197 -243 -278 0
-197 -243 -281 0
-197 -243 -286 0
-197 -243 -288 0
-197 -243 -279 0
-197 -243 -285 0
-197 -251 -284 0
-197 -251 -287 0
-197 -251 -286 0
-197 -251 -280 0
-197 -252 -280 0
-197 -252 -285 0
-197 -252 -288 0
-197 -252 -281 0
-197 -242 -291 0
-197 -242 -279 0
-197 -242 -280 0
-197 -242 -281 0
-197 -242 -282 0
-197 -242 -258 0
-197 -253 -284 0
-197 -253 -285 0
-9 -33 0
-10 -34 0
-11 -35 0
-12 -36 0
-13 -37 0
-14 -38 0
-15 -39 0
-16 -40 0
-189 -241 0
-206 -205 -195 0
-206 -204 -218 0
-206 -204 -259 0
-206 -258 -195 0
-206 -258 -293 0
-206 -258 -294 0
-206 -258 -295 0
-206 -258 -296 0
-206 -258 -218 0
-206 -278 -295 0
-206 -278 -297 0
-206 -278 -298 0
-206 -278 -293 0
-206 -278 -259 0
-206 -278 -299 0
-206 -217 -195 0
-206 -217 -296 0
-206 -217 -259 0
-206 -217 -293 0
-189 -278 0
-191 -241 -195 0
-191 -241 -259 0
-191 -241 -218 0
-191 -279 -259 0
-191 -279 -297 0
-191 -279 -304 0
-191 -279 -298 0
-191 -279 -305 0
-191 -279 -293 0
-191 -280 -299 0
-191 -280 -298 0
-191 -280 -303 0
-191 -280 -306 0
-191 -280 -295 0
-191 -280 -302 0
-191 -281 -297 0
-191 -281 -305 0
-191 -281 -306 0
-191 -281 -307 0
-191 -281 -304 0
-191 -281 -295 0
-191 -281 -303 0
-191 -282 -259 0
-191 -282 -218 0
-191 -282 -295 0
-191 -282 -304 0
-191 -282 -296 0
-191 -258 -195 0
-191 -258 -238 0
-191 -258 -293 0
-191 -258 -295 0
-191 -258 -296 0
-191 -258 -218 0
-191 -283 -300 0
-191 -283 -297 0
-191 -283 -302 0
-191 -283 -303 0
-191 -283 -301 0
-189 -283 0
-197 -284 -301 0
-197 -284 -302 0
-197 -280 -294 0
-197 -280 -298 0
-197 -280 -303 0
-197 -280 -306 0
-197 -280 -295 0
-197 -280 -302 0
-197 -285 -300 0
-197 -285 -301 0
-197 -285 -303 0
-197 -285 -297 0
-197 -286 -297 0
-197 -286 -302 0
-197 -286 -306 0
-197 -286 -298 0
-197 -278 -238 0
-197 -278 -295 0
-197 -278 -297 0
-197 -278 -298 0
-197 -278 -293 0
-197 -278 -259 0
-197 -287 -300 0
-197 -287 -302 0
-189 -280 0
-198 -278 -238 0
-198 -278 -295 0
-198 -278 -298 0
-198 -278 -293 0
-198 -278 -259 0
-198 -278 -299 0
-198 -283 -300 0
-198 -283 -302 0
-198 -283 -303 0
-198 -283 -294 0
-198 -283 -301 0
-198 -281 -294 0
-198 -281 -305 0
-198 -281 -306 0
-198 -281 -307 0
-198 -281 -304 0
-198 -281 -295 0
-198 -281 -303 0
-198 -286 -299 0
-198 -286 -302 0
-198 -286 -306 0
-198 -286 -298 0
-198 -288 -298 0
-198 -288 -303 0
-198 -288 -307 0
-198 -288 -305 0
-198 -279 -294 0
-198 -279 -259 0
-198 -279 -304 0
-198 -279 -298 0
-198 -279 -305 0
-198 -279 -293 0
-198 -285 -300 0
-198 -285 -299 0
-198 -285 -301 0
-198 -285 -303 0
-189 -258 0
-199 -204 -218 0
-199 -204 -238 0
-199 -241 -195 0
-199 -241 -294 0
-199 -241 -218 0
-199 -282 -294 0
-199 -282 -218 0
-199 -282 -295 0
-199 -282 -304 0
-199 -282 -296 0
-199 -278 -238 0
-199 -278 -295 0
-199 -278 -297 0
-199 -278 -298 0
-199 -278 -293 0
-199 -278 -299 0
-199 -279 -294 0
-199 -279 -297 0
-199 -279 -304 0
-199 -279 -298 0
-199 -279 -305 0
-199 -279 -293 0
-199 -289 -218 0
-199 -289 -293 0
-199 -217 -195 0
-199 -217 -238 0
-199 -217 -296 0
-199 -217 -293 0
-189 -284 0
-200 -283 -297 0
-200 -283 -302 0
-200 -283 -303 0
-200 -283 -294 0
-200 -283 -301 0
-200 -287 -302 0
-200 -287 -299 0
-200 -285 -299 0
-200 -285 -301 0
-200 -285 -303 0
-200 -285 -297 0
-200 -283 0
-197 -291 -239 0
-197 -291 -309 0
-73 -89 324 0
-74 -90 324 0
-75 -91 324 0
-76 -92 324 0
-77 -93 324 0
-78 -94 324 0
-79 -95 324 0
-80 -96 324 0
-197 -291 -324 0
-197 -291 -263 0
-197 -280 -300 0
-197 -280 -309 0
-73 -97 325 0
-74 -98 325 0
-75 -99 325 0
-76 -100 325 0
-77 -101 325 0
-78 -102 325 0
-79 -103 325 0
-80 -104 325 0
-197 -280 -325 0
-73 -145 326 0
-74 -146 326 0
-75 -147 326 0
-76 -148 326 0
-77 -149 326 0
-78 -150 326 0
-79 -151 326 0
-80 -152 326 0
-197 -280 -326 0
-73 -153 327 0
-74 -154 327 0
-75 -155 327 0
-76 -156 327 0
-77 -157 327 0
-78 -158 327 0
-79 -159 327 0
-80 -160 327 0
-197 -280 -327 0
-73 -105 328 0
-74 -106 328 0
-75 -107 328 0
-76 -108 328 0
-77 -109 328 0
-78 -110 328 0
-79 -111 328 0
-80 -112 328 0
-197 -280 -328 0
-73 -137 329 0
-74 -138 329 0
-75 -139 329 0
-76 -140 329 0
-77 -141 329 0
-78 -142 329 0
-79 -143 329 0
-80 -144 329 0
-197 -280 -329 0
-73 -129 330 0
-74 -130 330 0
-75 -131 330 0
-76 -132 330 0
-77 -133 330 0
-78 -134 330 0
-79 -135 330 0
-80 -136 330 0
-197 -285 -330 0
-197 -285 -326 0
-197 -285 -324 0
-197 -286 -324 0
-197 -286 -329 0
-197 -286 -327 0
-197 -286 -325 0
-197 -278 -239 0
-197 -278 -300 0
-197 -278 -328 0
-197 -278 -324 0
-197 -278 -325 0
-73 -113 331 0
-74 -114 331 0
-75 -115 331 0
-76 -116 331 0
-77 -117 331 0
-78 -118 331 0
-79 -119 331 0
-80 -120 331 0
-197 -278 -331 0
-197 -278 -263 0
-197 -287 -329 0
-200 -287 0
-73 -81 332 0
-74 -82 332 0
-75 -83 332 0
-76 -84 332 0
-77 -85 332 0
-78 -86 332 0
-79 -87 332 0
-80 -88 332 0
-208 -285 -332 0
-208 -285 -326 0
-208 -285 -324 0
-208 -283 -300 0
-208 -283 -324 0
-208 -283 -329 0
-208 -283 -326 0
-208 -283 -309 0
-200 -285 0
-209 -283 -300 0
-209 -283 -324 0
-209 -283 -326 0
-209 -283 -309 0
-209 -283 -330 0
-209 -287 -332 0
-209 -286 -332 0
-209 -286 -324 0
-209 -286 -327 0
-209 -286 -325 0
-209 -280 -300 0
-209 -280 -309 0
-209 -280 -332 0
-209 -280 -325 0
-209 -280 -326 0
-209 -280 -327 0
-209 -280 -328 0
-200 -291 0
-189 -241 -207 0
-189 -241 -263 0
-189 -241 -309 0
-189 -241 -226 0
-189 -278 -239 0
-189 -278 -328 0
-189 -278 -324 0
-189 -278 -325 0
-189 -278 -331 0
-189 -278 -263 0
-189 -278 -332 0
-189 -283 -324 0
-189 -283 -329 0
-189 -283 -326 0
-189 -283 -309 0
-189 -283 -330 0
-189 -280 -309 0
-189 -280 -332 0
-189 -280 -325 0
-189 -280 -326 0
-189 -280 -327 0
-189 -280 -328 0
-189 -280 -329 0
-189 -258 -207 0
-189 -258 -239 0
-189 -258 -331 0
-189 -258 -309 0
-189 -258 -328 0
-73 -121 333 0
-74 -122 333 0
-75 -123 333 0
-76 -124 333 0
-77 -125 333 0
-78 -126 333 0
-79 -127 333 0
-80 -128 333 0
-189 -258 -333 0
-189 -258 -226 0
-197 -291 0
-189 -241 -210 0
-189 -241 -261 0
-189 -241 -310 0
-189 -241 -223 0
-189 -278 -240 0
-81 -105 334 0
-82 -106 334 0
-83 -107 334 0
-84 -108 334 0
-85 -109 334 0
-86 -110 334 0
-87 -111 334 0
-88 -112 334 0
-189 -278 -334 0
-81 -89 335 0
-82 -90 335 0
-83 -91 335 0
-84 -92 335 0
-85 -93 335 0
-86 -94 335 0
-87 -95 335 0
-88 -96 335 0
-189 -278 -335 0
-81 -97 336 0
-82 -98 336 0
-83 -99 336 0
-84 -100 336 0
-85 -101 336 0
-86 -102 336 0
-87 -103 336 0
-88 -104 336 0
-189 -278 -336 0
-81 -113 337 0
-82 -114 337 0
-83 -115 337 0
-84 -116 337 0
-85 -117 337 0
-86 -118 337 0
-87 -119 337 0
-88 -120 337 0
-189 -278 -337 0
-189 -278 -261 0
-189 -280 -310 0
-189 -280 -336 0
-81 -145 338 0
-82 -146 338 0
-83 -147 338 0
-84 -148 338 0
-85 -149 338 0
-86 -150 338 0
-87 -151 338 0
-88 -152 338 0
-189 -280 -338 0
-81 -153 339 0
-82 -154 339 0
-83 -155 339 0
-84 -156 339 0
-85 -157 339 0
-86 -158 339 0
-87 -159 339 0
-88 -160 339 0
-189 -280 -339 0
-189 -280 -334 0
-81 -137 340 0
-82 -138 340 0
-83 -139 340 0
-84 -140 340 0
-85 -141 340 0
-86 -142 340 0
-87 -143 340 0
-88 -144 340 0
-189 -280 -340 0
-189 -258 -210 0
-189 -258 -240 0
-189 -258 -337 0
-189 -258 -310 0
-189 -258 -334 0
-81 -121 341 0
-82 -122 341 0
-83 -123 341 0
-84 -124 341 0
-85 -125 341 0
-86 -126 341 0
-87 -127 341 0
-88 -128 341 0
-189 -258 -341 0
-189 -258 -223 0
-81 -129 342 0
-82 -130 342 0
-83 -131 342 0
-84 -132 342 0
-85 -133 342 0
-86 -134 342 0
-87 -135 342 0
-88 -136 342 0
-189 -284 -342 0
-189 -284 -340 0
-197 -284 0
-200 -287 -340 0
-200 -285 -342 0
-200 -285 -338 0
-200 -285 -335 0
-200 -291 -240 0
-200 -291 -310 0
-200 -291 -335 0
-200 -291 -261 0
-197 -280 0
-198 -291 -240 0
-198 -291 -310 0
-198 -291 -261 0
-198 -291 -332 0
-198 -278 -240 0
-198 -278 -299 0
-198 -278 -334 0
-198 -278 -336 0
-198 -278 -337 0
-198 -278 -261 0
-198 -281 -310 0
-81 -169 343 0
-82 -170 343 0
-83 -171 343 0
-84 -172 343 0
-85 -173 343 0
-86 -174 343 0
-87 -175 343 0
-88 -176 343 0
-198 -281 -343 0
-198 -281 -339 0
-81 -161 344 0
-82 -162 344 0
-83 -163 344 0
-84 -164 344 0
-85 -165 344 0
-86 -166 344 0
-87 -167 344 0
-88 -168 344 0
-198 -281 -344 0
-81 -177 345 0
-82 -178 345 0
-83 -179 345 0
-84 -180 345 0
-85 -181 345 0
-86 -182 345 0
-87 -183 345 0
-88 -184 345 0
-198 -281 -345 0
-198 -281 -334 0
-198 -281 -338 0
-198 -286 -340 0
-198 -286 -339 0
-198 -286 -336 0
-198 -288 -336 0
-198 -288 -338 0
-198 -288 -344 0
-198 -288 -343 0
-198 -279 -310 0
-198 -279 -261 0
-198 -279 -345 0
-198 -279 -336 0
-198 -279 -343 0
-198 -279 -337 0
-198 -285 -332 0
-198 -285 -342 0
-198 -285 -338 0
-197 -285 0
-209 -284 -342 0
-209 -284 -299 0
-209 -287 -332 0
-209 -286 -335 0
-209 -286 -339 0
-209 -286 -336 0
-209 -280 -299 0
-209 -280 -310 0
-209 -280 -336 0
-209 -280 -338 0
-209 -280 -339 0
-209 -280 -334 0
-197 -286 0
-211 -280 -299 0
-211 -280 -310 0
-211 -280 -336 0
-211 -280 -339 0
-211 -280 -334 0
-211 -280 -340 0
-211 -285 -332 0
-211 -285 -342 0
-211 -285 -335 0
-211 -288 -335 0
-211 -288 -336 0
-211 -288 -344 0
-211 -288 -343 0
-211 -281 -310 0
-211 -281 -335 0
-211 -281 -343 0
-211 -281 -339 0
-211 -281 -344 0
-211 -281 -345 0
-211 -281 -334 0
-197 -278 0
-191 -241 -210 0
-191 -241 -261 0
-191 -241 -299 0
-191 -241 -223 0
-191 -291 -240 0
-191 -291 -335 0
-191 -291 -261 0
-191 -291 -332 0
-191 -279 -261 0
-191 -279 -335 0
-191 -279 -345 0
-191 -279 -336 0
-191 -279 -343 0
-191 -279 -337 0
-191 -280 -299 0
-191 -280 -336 0
-191 -280 -338 0
-191 -280 -339 0
-191 -280 -334 0
-191 -280 -340 0
-191 -281 -335 0
-191 -281 -343 0
-191 -281 -339 0
-191 -281 -344 0
-191 -281 -345 0
-191 -281 -334 0
-191 -281 -338 0
-191 -282 -261 0
-191 -282 -223 0
-191 -282 -334 0
-191 -282 -345 0
-191 -282 -341 0
-191 -258 -210 0
-191 -258 -240 0
-191 -258 -299 0
-191 -258 -337 0
-191 -258 -334 0
-191 -258 -341 0
-191 -258 -223 0
-197 -287 0
-208 -284 -340 0
-208 -284 -299 0
-208 -285 -332 0
-208 -285 -338 0
-208 -285 -335 0
-185 -204 -230 0
-185 -204 -244 0
-206 -204 0
-216 -217 -247 0
-216 -217 -244 0
-216 -217 -249 0
-216 -258 -238 0
-216 -258 -249 0
-216 -258 -242 0
-216 -258 -245 0
-216 -258 -247 0
-216 -258 -230 0
-206 -258 0
-199 -204 -230 0
-199 -291 -242 0
-199 -291 -240 0
-199 -291 -243 0
-199 -291 -239 0
-199 -282 -242 0
-199 -282 -230 0
-199 -282 -245 0
-199 -282 -246 0
-199 -282 -247 0
-199 -278 -238 0
-199 -278 -245 0
-199 -278 -243 0
-199 -278 -248 0
-199 -278 -249 0
-199 -278 -240 0
-199 -279 -242 0
-199 -279 -243 0
-199 -279 -246 0
-199 -279 -248 0
-199 -279 -250 0
-199 -279 -249 0
-199 -289 -230 0
-199 -289 -249 0
-199 -217 -186 0
-199 -217 -247 0
-199 -217 -249 0
-206 -291 0
-189 -278 -245 0
-189 -278 -243 0
-189 -278 -248 0
-189 -278 -249 0
-189 -278 -244 0
-189 -278 -240 0
-189 -283 -239 0
-189 -283 -243 0
-189 -283 -251 0
-189 -283 -252 0
-189 -283 -242 0
-189 -283 -253 0
-189 -280 -242 0
-189 -280 -240 0
-189 -280 -248 0
-189 -280 -252 0
-189 -280 -254 0
-189 -280 -245 0
-189 -280 -251 0
-189 -258 -186 0
-189 -258 -249 0
-189 -258 -242 0
-189 -258 -245 0
-189 -258 -247 0
-189 -258 -230 0
-189 -284 -240 0
-189 -284 -253 0
-189 -284 -251 0
-206 -278 0
-191 -291 -240 0
-191 -291 -243 0
-191 -291 -244 0
-191 -291 -239 0
-191 -279 -244 0
-191 -279 -243 0
-191 -279 -246 0
-191 -279 -248 0
-191 -279 -250 0
-191 -279 -249 0
-191 -280 -238 0
-191 -280 -240 0
-191 -280 -248 0
-191 -280 -252 0
-191 -280 -254 0
-191 -280 -245 0
-191 -280 -251 0
-191 -281 -243 0
-191 -281 -250 0
-191 -281 -254 0
-191 -281 -257 0
-191 -281 -246 0
-191 -281 -245 0
-191 -281 -252 0
-191 -282 -244 0
-191 -282 -230 0
-191 -282 -245 0
-191 -282 -246 0
-191 -282 -247 0
-191 -258 -186 0
-191 -258 -238 0
-191 -258 -249 0
-191 -258 -245 0
-191 -258 -247 0
-191 -258 -230 0
-191 -283 -238 0
-191 -283 -239 0
-191 -283 -243 0
-191 -283 -251 0
-191 -283 -252 0
-191 -283 -253 0
-206 -217 0
-194 -204 -244 0
-194 -289 -244 0
-194 -289 -249 0
-194 -258 -186 0
-194 -258 -238 0
-194 -258 -249 0
-194 -258 -242 0
-194 -258 -245 0
-194 -258 -247 0
-194 -282 -242 0
-194 -282 -244 0
-194 -282 -245 0
-194 -282 -246 0
-194 -282 -247 0
-9 -41 0
-10 -42 0
-11 -43 0
-12 -44 0
-13 -45 0
-14 -46 0
-15 -47 0
-16 -48 0
-185 -195 -230 0
-185 -195 -244 0
-206 -195 0
-216 -218 -247 0
-216 -218 -244 0
-216 -218 -249 0
-216 -259 -249 0
-216 -259 -242 0
-216 -259 -245 0
-216 -259 -247 0
-216 -259 -230 0
-206 -259 0
-199 -195 -230 0
-199 -293 -242 0
-199 -293 -230 0
-199 -293 -245 0
-199 -293 -246 0
-199 -293 -247 0
-199 -294 -245 0
-199 -294 -243 0
-199 -294 -248 0
-199 -294 -249 0
-199 -294 -240 0
-199 -295 -242 0
-199 -295 -243 0
-199 -295 -246 0
-199 -295 -248 0
-199 -295 -250 0
-199 -295 -249 0
-199 -296 -230 0
-199 -296 -249 0
-199 -218 -186 0
-199 -218 -247 0
-199 -218 -249 0
-206 -294 0
-191 -295 -244 0
-191 -295 -243 0
-191 -295 -246 0
-191 -295 -248 0
-191 -295 -250 0
-191 -295 -249 0
-191 -297 -240 0
-191 -297 -248 0
-191 -297 -252 0
-191 -297 -254 0
-191 -297 -245 0
-191 -297 -251 0
-191 -298 -243 0
-191 -298 -250 0
-191 -298 -254 0
-191 -298 -257 0
-191 -298 -246 0
-191 -298 -245 0
-191 -298 -252 0
-191 -293 -244 0
-191 -293 -230 0
-191 -293 -245 0
-191 -293 -246 0
-191 -293 -247 0
-191 -259 -186 0
-191 -259 -249 0
-191 -259 -245 0
-191 -259 -247 0
-191 -259 -230 0
-191 -299 -241 0
-191 -299 -239 0
-191 -299 -243 0
-191 -299 -251 0
-191 -299 -252 0
-191 -299 -253 0
-206 -218 0
-194 -195 -244 0
-194 -296 -244 0
-194 -296 -249 0
-194 -259 -186 0
-194 -259 -249 0
-194 -259 -242 0
-194 -259 -245 0
-194 -259 -247 0
-194 -293 -242 0
-194 -293 -244 0
-194 -293 -245 0
-194 -293 -246 0
-194 -293 -247 0
-206 -291 0
-196 -300 -240 0
-196 -300 -253 0
-196 -300 -251 0
-196 -299 -239 0
-196 -299 -243 0
-196 -299 -251 0
-196 -299 -252 0
-196 -299 -242 0
-196 -299 -253 0
-196 -300 0
-200 -299 -280 0
-200 -299 -285 0
-200 -299 -286 0
-200 -299 -278 0
-200 -299 -287 0
-200 -301 -285 0
-200 -301 -283 0
-200 -302 -283 0
-200 -302 -287 0
-200 -302 -286 0
-200 -302 -280 0
-196 -299 0
-197 -300 -287 0
-197 -300 -285 0
-197 -297 -278 0
-197 -297 -281 0
-197 -297 -286 0
-197 -297 -288 0
-197 -297 -279 0
-197 -297 -285 0
-197 -302 -284 0
-197 -302 -287 0
-197 -302 -286 0
-197 -302 -280 0
-197 -303 -280 0
-197 -303 -285 0
-197 -303 -288 0
-197 -303 -281 0
-197 -294 -241 0
-197 -294 -279 0
-197 -294 -280 0
-197 -294 -281 0
-197 -294 -282 0
-197 -294 -258 0
-197 -301 -284 0
-197 -301 -285 0
-196 -238 0
-206 -212 -204 0
-206 -195 -217 0
-206 -195 -258 0
-206 -259 -204 0
-206 -259 -282 0
-206 -259 -278 0
-206 -259 -279 0
-206 -259 -289 0
-206 -259 -217 0
-206 -294 -279 0
-206 -294 -280 0
-206 -294 -281 0
-206 -294 -282 0
-206 -294 -258 0
-206 -294 -283 0
-206 -218 -204 0
-206 -218 -289 0
-206 -218 -258 0
-206 -218 -282 0
-191 -238 0
-206 -212 -201 0
-206 -195 -220 0
-206 -195 -260 0
-206 -259 -201 0
-206 -259 -318 0
-206 -259 -317 0
-206 -259 -319 0
-206 -259 -220 0
-206 -218 -201 0
-206 -218 -319 0
-206 -218 -260 0
-206 -218 -318 0
-206 -291 -309 0
-206 -291 -310 0
-191 -295 0
-192 -259 -201 0
-192 -259 -242 0
-192 -259 -318 0
-192 -259 -319 0
-192 -259 -220 0
-192 -297 -310 0
-192 -297 -315 0
-192 -297 -313 0
-192 -297 -316 0
-192 -297 -312 0
-192 -304 -315 0
-192 -304 -318 0
-192 -304 -320 0
-192 -298 -311 0
-192 -298 -320 0
-192 -298 -316 0
-192 -298 -321 0
-192 -298 -322 0
-192 -298 -313 0
-192 -305 -315 0
-192 -305 -316 0
-192 -305 -321 0
-192 -305 -322 0
-192 -293 -260 0
-192 -293 -220 0
-192 -293 -322 0
-192 -293 -319 0
-191 -297 0
-198 -299 -278 0
-198 -299 -309 0
-198 -299 -312 0
-198 -299 -313 0
-198 -299 -314 0
-198 -298 -320 0
-198 -298 -316 0
-198 -298 -321 0
-198 -298 -322 0
-198 -298 -317 0
-198 -298 -313 0
-198 -303 -310 0
-198 -303 -312 0
-198 -303 -316 0
-198 -303 -315 0
-198 -306 -315 0
-198 -306 -313 0
-198 -306 -321 0
-198 -306 -320 0
-198 -295 -260 0
-198 -295 -322 0
-198 -295 -315 0
-198 -295 -320 0
-198 -295 -318 0
-198 -302 -309 0
-198 -302 -310 0
-198 -302 -314 0
-198 -302 -313 0
-191 -298 0
-202 -297 -310 0
-202 -297 -313 0
-202 -297 -316 0
-202 -297 -317 0
-202 -297 -312 0
-202 -305 -317 0
-202 -305 -316 0
-202 -305 -321 0
-202 -305 -322 0
-202 -306 -311 0
-202 -306 -313 0
-202 -306 -321 0
-202 -306 -320 0
-202 -307 -316 0
-202 -307 -320 0
-202 -304 -317 0
-202 -304 -318 0
-202 -304 -320 0
-202 -295 -260 0
-202 -295 -311 0
-202 -295 -322 0
-202 -295 -320 0
-202 -295 -318 0
-202 -303 -310 0
-202 -303 -311 0
-202 -303 -312 0
-202 -303 -316 0
-191 -293 0
-190 -259 -201 0
-190 -259 -242 0
-190 -259 -317 0
-190 -259 -319 0
-190 -259 -220 0
-190 -218 -201 0
-190 -218 -242 0
-190 -218 -319 0
-190 -218 -260 0
-190 -295 -260 0
-190 -295 -311 0
-190 -295 -322 0
-190 -295 -315 0
-190 -295 -320 0
-190 -304 -315 0
-190 -304 -317 0
-190 -304 -320 0
-190 -296 -260 0
-190 -296 -220 0
-191 -259 0
-199 -195 -220 0
-199 -195 -242 0
-199 -238 -201 0
-199 -238 -220 0
-199 -238 -278 0
-199 -293 -220 0
-199 -293 -317 0
-199 -293 -322 0
-199 -293 -319 0
-199 -295 -311 0
-199 -295 -322 0
-199 -295 -315 0
-199 -295 -320 0
-199 -295 -318 0
-199 -296 -220 0
-199 -296 -318 0
-199 -218 -201 0
-199 -218 -242 0
-199 -218 -319 0
-199 -218 -318 0
-191 -299 0
-197 -291 -309 0
-197 -291 -242 0
-197 -300 -278 0
-197 -300 -314 0
-197 -300 -312 0
-197 -297 -315 0
-197 -297 -313 0
-197 -297 -316 0
-197 -297 -317 0
-197 -297 -312 0
-197 -302 -309 0
-197 -302 -314 0
-197 -302 -313 0
-197 -302 -311 0
-197 -303 -311 0
-197 -303 -312 0
-197 -303 -316 0
-197 -303 -315 0
-197 -301 -309 0
-197 -301 -312 0
-197 -291 0
-196 -300 -342 0
-196 -300 -340 0
-196 -238 -210 0
-196 -238 -261 0
-196 -238 -310 0
-196 -238 -223 0
-197 -300 0
-200 -291 -240 0
-200 -301 -340 0
-200 -302 -342 0
-200 -302 -338 0
-200 -302 -335 0
-197 -297 0
-198 -294 -240 0
-198 -294 -334 0
-198 -294 -336 0
-198 -294 -337 0
-198 -294 -261 0
-198 -298 -310 0
-198 -298 -343 0
-198 -298 -339 0
-198 -298 -344 0
-198 -298 -345 0
-198 -298 -334 0
-198 -298 -338 0
-198 -303 -340 0
-198 -303 -339 0
-198 -303 -336 0
-198 -306 -336 0
-198 -306 -338 0
-198 -306 -344 0
-198 -306 -343 0
-198 -295 -310 0
-198 -295 -261 0
-198 -295 -345 0
-198 -295 -336 0
-198 -295 -343 0
-198 -295 -337 0
-198 -302 -332 0
-198 -302 -342 0
-198 -302 -338 0
-197 -302 0
-209 -300 -283 0
-209 -300 -342 0
-209 -301 -332 0
-209 -303 -335 0
-209 -303 -339 0
-209 -303 -336 0
-209 -297 -310 0
-209 -297 -336 0
-209 -297 -338 0
-209 -297 -339 0
-209 -297 -334 0
-197 -303 0
-211 -297 -310 0
-211 -297 -336 0
-211 -297 -339 0
-211 -297 -334 0
-211 -297 -340 0
-211 -302 -332 0
-211 -302 -342 0
-211 -302 -335 0
-211 -306 -335 0
-211 -306 -336 0
-211 -306 -344 0
-211 -306 -343 0
-211 -298 -310 0
-211 -298 -335 0
-211 -298 -343 0
-211 -298 -339 0
-211 -298 -344 0
-211 -298 -345 0
-211 -298 -334 0
-197 -294 0
-191 -238 -210 0
-191 -238 -261 0
-191 -238 -223 0
-191 -238 -283 0
-191 -295 -261 0
-191 -295 -335 0
-191 -295 -345 0
-191 -295 -336 0
-191 -295 -343 0
-191 -295 -337 0
-191 -297 -336 0
-191 -297 -338 0
-191 -297 -339 0
-191 -297 -334 0
-191 -297 -340 0
-191 -298 -335 0
-191 -298 -343 0
-191 -298 -339 0
-191 -298 -344 0
-191 -298 -345 0
-191 -298 -334 0
-191 -298 -338 0
-191 -293 -261 0
-191 -293 -223 0
-191 -293 -334 0
-191 -293 -345 0
-191 -293 -341 0
-191 -259 -210 0
-191 -259 -240 0
-191 -259 -337 0
-191 -259 -334 0
-191 -259 -341 0
-191 -259 -223 0
-197 -301 0
-208 -300 -283 0
-208 -300 -340 0
-208 -302 -332 0
-208 -302 -338 0
-208 -302 -335 0
-198 -294 0
-191 -238 -213 0
-191 -238 -262 0
-191 -238 -224 0
-191 -238 -280 0
-191 -295 -262 0
-89 -177 346 0
-90 -178 346 0
-91 -179 346 0
-92 -180 346 0
-93 -181 346 0
-94 -182 346 0
-95 -183 346 0
-96 -184 346 0
-191 -295 -346 0
-89 -97 347 0
-90 -98 347 0
-91 -99 347 0
-92 -100 347 0
-93 -101 347 0
-94 -102 347 0
-95 -103 347 0
-96 -104 347 0
-191 -295 -347 0
-89 -169 348 0
-90 -170 348 0
-91 -171 348 0
-92 -172 348 0
-93 -173 348 0
-94 -174 348 0
-95 -175 348 0
-96 -176 348 0
-191 -295 -348 0
-89 -113 349 0
-90 -114 349 0
-91 -115 349 0
-92 -116 349 0
-93 -117 349 0
-94 -118 349 0
-95 -119 349 0
-96 -120 349 0
-191 -295 -349 0
-191 -298 -348 0
-89 -153 350 0
-90 -154 350 0
-91 -155 350 0
-92 -156 350 0
-93 -157 350 0
-94 -158 350 0
-95 -159 350 0
-96 -160 350 0
-191 -298 -350 0
-89 -161 351 0
-90 -162 351 0
-91 -163 351 0
-92 -164 351 0
-93 -165 351 0
-94 -166 351 0
-95 -167 351 0
-96 -168 351 0
-191 -298 -351 0
-191 -298 -346 0
-89 -105 352 0
-90 -106 352 0
-91 -107 352 0
-92 -108 352 0
-93 -109 352 0
-94 -110 352 0
-95 -111 352 0
-96 -112 352 0
-191 -298 -352 0
-89 -145 353 0
-90 -146 353 0
-91 -147 353 0
-92 -148 353 0
-93 -149 353 0
-94 -150 353 0
-95 -151 353 0
-96 -152 353 0
-191 -298 -353 0
-191 -293 -262 0
-191 -293 -224 0
-191 -293 -352 0
-191 -293 -346 0
-89 -121 354 0
-90 -122 354 0
-91 -123 354 0
-92 -124 354 0
-93 -125 354 0
-94 -126 354 0
-95 -127 354 0
-96 -128 354 0
-191 -293 -354 0
-191 -259 -213 0
-191 -259 -243 0
-191 -259 -349 0
-191 -259 -352 0
-191 -259 -354 0
-191 -259 -224 0
-191 -299 -280 0
-191 -299 -324 0
-89 -137 355 0
-90 -138 355 0
-91 -139 355 0
-92 -140 355 0
-93 -141 355 0
-94 -142 355 0
-95 -143 355 0
-96 -144 355 0
-191 -299 -355 0
-191 -299 -353 0
-89 -129 356 0
-90 -130 356 0
-91 -131 356 0
-92 -132 356 0
-93 -133 356 0
-94 -134 356 0
-95 -135 356 0
-96 -136 356 0
-191 -299 -356 0
-198 -299 0
-197 -291 -324 0
-197 -291 -243 0
-197 -300 -280 0
-197 -300 -356 0
-197 -300 -355 0
-197 -302 -324 0
-197 -302 -356 0
-197 -302 -353 0
-197 -303 -355 0
-197 -303 -350 0
-197 -303 -347 0
-197 -294 -243 0
-197 -294 -352 0
-197 -294 -347 0
-197 -294 -349 0
-197 -294 -262 0
-197 -301 -324 0
-197 -301 -355 0
-198 -298 0
-202 -294 -243 0
-202 -294 -352 0
-202 -294 -349 0
-202 -294 -262 0
-202 -294 -335 0
-202 -305 -352 0
-202 -305 -350 0
-202 -305 -351 0
-202 -305 -346 0
-202 -306 -353 0
-202 -306 -351 0
-202 -306 -348 0
-202 -307 -350 0
-202 -307 -348 0
-202 -304 -352 0
-202 -304 -349 0
-202 -304 -348 0
-202 -295 -311 0
-202 -295 -262 0
-202 -295 -346 0
-202 -295 -348 0
-202 -295 -349 0
-202 -303 -335 0
-202 -303 -355 0
-202 -303 -350 0
-198 -303 0
-211 -299 -280 0
-211 -299 -324 0
-211 -299 -355 0
-211 -299 -311 0
-211 -299 -356 0
-211 -302 -324 0
-211 -302 -335 0
-211 -302 -356 0
-211 -306 -347 0
-211 -306 -351 0
-211 -306 -348 0
-211 -298 -311 0
-211 -298 -348 0
-211 -298 -350 0
-211 -298 -351 0
-211 -298 -346 0
-211 -298 -352 0
-198 -306 0
-214 -298 -311 0
-214 -298 -348 0
-214 -298 -351 0
-214 -298 -346 0
-214 -298 -352 0
-214 -298 -353 0
-214 -303 -335 0
-214 -303 -355 0
-214 -303 -347 0
-214 -307 -347 0
-214 -307 -348 0
-214 -305 -347 0
-214 -305 -352 0
-214 -305 -351 0
-214 -305 -346 0
-198 -295 0
-192 -294 -243 0
-192 -294 -347 0
-192 -294 -349 0
-192 -294 -262 0
-192 -294 -335 0
-192 -259 -213 0
-192 -259 -243 0
-192 -259 -349 0
-192 -259 -311 0
-192 -259 -354 0
-192 -259 -224 0
-192 -304 -347 0
-192 -304 -349 0
-192 -304 -348 0
-192 -298 -311 0
-192 -298 -348 0
-192 -298 -350 0
-192 -298 -351 0
-192 -298 -346 0
-192 -298 -353 0
-192 -305 -347 0
-192 -305 -350 0
-192 -305 -351 0
-192 -305 -346 0
-192 -293 -311 0
-192 -293 -262 0
-192 -293 -224 0
-192 -293 -346 0
-192 -293 -354 0
-198 -302 0
-209 -300 -280 0
-209 -300 -335 0
-209 -300 -356 0
-209 -299 -280 0
-209 -299 -324 0
-209 -299 -353 0
-209 -299 -311 0
-209 -299 -356 0
-209 -301 -324 0
-209 -301 -335 0
-209 -303 -335 0
-209 -303 -350 0
-209 -303 -347 0
-199 -195 0
-216 -212 -244 0
-216 -218 -244 0
-216 -218 -267 0
-216 -218 -266 0
-216 -238 -260 0
-216 -238 -225 0
-216 -238 -258 0
-199 -238 0
-206 -212 -188 0
-206 -195 -225 0
-206 -294 -264 0
-206 -294 -262 0
-206 -294 -265 0
-206 -294 -266 0
-206 -294 -261 0
-206 -218 -188 0
-206 -218 -267 0
-206 -218 -266 0
-206 -291 -263 0
-206 -291 -261 0
-199 -293 0
-190 -294 -244 0
-190 -294 -264 0
-190 -294 -262 0
-190 -294 -265 0
-190 -294 -261 0
-190 -218 -188 0
-190 -218 -244 0
-190 -218 -267 0
-190 -295 -260 0
-190 -295 -262 0
-190 -295 -272 0
-190 -295 -265 0
-190 -295 -273 0
-190 -304 -265 0
-190 -304 -264 0
-190 -304 -273 0
-190 -296 -225 0
-199 -294 0
-191 -238 -188 0
-191 -238 -225 0
-191 -238 -258 0
-191 -295 -262 0
-191 -295 -272 0
-191 -295 -265 0
-191 -295 -273 0
-191 -295 -266 0
-191 -297 -261 0
-191 -297 -265 0
-191 -297 -269 0
-191 -297 -271 0
-191 -297 -264 0
-191 -297 -268 0
-191 -298 -262 0
-191 -298 -273 0
-191 -298 -271 0
-191 -298 -274 0
-191 -298 -272 0
-191 -298 -264 0
-191 -298 -269 0
-191 -293 -225 0
-191 -293 -264 0
-191 -293 -272 0
-191 -293 -267 0
-191 -299 -258 0
-191 -299 -263 0
-191 -299 -262 0
-191 -299 -268 0
-191 -299 -269 0
-191 -299 -270 0
-199 -295 0
-192 -294 -244 0
-192 -294 -262 0
-192 -294 -265 0
-192 -294 -266 0
-192 -294 -261 0
-192 -297 -260 0
-192 -297 -261 0
-192 -297 -265 0
-192 -297 -269 0
-192 -297 -271 0
-192 -297 -268 0
-192 -304 -265 0
-192 -304 -266 0
-192 -304 -273 0
-192 -298 -260 0
-192 -298 -262 0
-192 -298 -273 0
-192 -298 -271 0
-192 -298 -274 0
-192 -298 -272 0
-192 -298 -269 0
-192 -305 -265 0
-192 -305 -271 0
-192 -305 -274 0
-192 -305 -272 0
-192 -293 -260 0
-192 -293 -225 0
-192 -293 -272 0
-192 -293 -267 0
-199 -296 0
-193 -218 -188 0
-193 -218 -244 0
-193 -218 -266 0
-193 -293 -260 0
-193 -293 -225 0
-193 -293 -264 0
-193 -293 -272 0
-199 -218 0
-194 -195 -244 0
-194 -238 -188 0
-194 -238 -260 0
-194 -238 -258 0
-194 -296 -266 0
-194 -293 -260 0
-194 -293 -264 0
-194 -293 -272 0
-194 -293 -267 0
-200 -291 0
-196 -299 -324 0
-196 -299 -329 0
-196 -299 -326 0
-196 -299 -309 0
-196 -299 -330 0
-196 -238 -207 0
-196 -238 -263 0
-196 -238 -309 0
-196 -238 -226 0
-200 -299 0
-197 -291 -239 0
-197 -297 -309 0
-197 -297 -325 0
-197 -297 -326 0
-197 -297 -327 0
-197 -297 -328 0
-197 -297 -329 0
-197 -302 -330 0
-197 -302 -326 0
-197 -302 -324 0
-197 -303 -324 0
-197 -303 -329 0
-197 -303 -327 0
-197 -303 -325 0
-197 -294 -239 0
-197 -294 -328 0
-197 -294 -324 0
-197 -294 -325 0
-197 -294 -331 0
-197 -294 -263 0
-197 -301 -329 0
-200 -301 0
-208 -302 -332 0
-208 -302 -326 0
-208 -302 -324 0
-208 -299 -284 0
-208 -299 -324 0
-208 -299 -329 0
-208 -299 -326 0
-208 -299 -309 0
-200 -302 0
-209 -299 -284 0
-209 -299 -324 0
-209 -299 -326 0
-209 -299 -309 0
-209 -299 -330 0
-209 -301 -332 0
-209 -303 -332 0
-209 -303 -324 0
-209 -303 -327 0
-209 -303 -325 0
-209 -297 -309 0
-209 -297 -332 0
-209 -297 -325 0
-209 -297 -326 0
-209 -297 -327 0
-209 -297 -328 0
-9 -17 0
-10 -18 0
-11 -19 0
-12 -20 0
-13 -21 0
-14 -22 0
-15 -23 0
-16 -24 0
-185 -186 0
-206 -188 -212 0
-206 -188 -236 0
-206 -188 -255 0
-206 -188 -275 0
-206 -188 -229 0
-206 -188 -215 0
-206 -195 -205 0
-206 -195 -255 0
-206 -195 -292 0
-206 -195 -308 0
-206 -195 -233 0
-206 -195 -290 0
-206 -201 -212 0
-206 -201 -275 0
-206 -201 -308 0
-206 -201 -323 0
-206 -201 -236 0
-206 -201 -233 0
-206 -201 -292 0
-206 -203 -229 0
-206 -203 -233 0
-206 -203 -236 0
-206 -204 -212 0
-206 -204 -290 0
-206 -204 -292 0
-194 -186 0
-206 -188 -218 0
-206 -188 -219 0
-206 -188 -220 0
-206 -188 -221 0
-206 -188 -222 0
-206 -195 -217 0
-206 -195 -220 0
-206 -195 -223 0
-206 -195 -224 0
-206 -195 -225 0
-206 -195 -226 0
-206 -201 -218 0
-206 -201 -221 0
-206 -201 -224 0
-206 -201 -227 0
-206 -201 -219 0
-206 -201 -225 0
-206 -201 -223 0
-206 -204 -218 0
-206 -204 -226 0
-206 -204 -223 0
-194 -228 0
-193 -188 -230 0
-193 -188 -218 0
-193 -188 -219 0
-193 -188 -220 0
-193 -188 -221 0
-193 -231 -220 0
-193 -231 -225 0
-193 -231 -221 0
-193 -231 -232 0
-194 -188 0
-199 -186 -218 0
-199 -186 -220 0
-199 -186 -217 0
-199 -195 -230 0
-199 -195 -217 0
-199 -195 -220 0
-199 -195 -223 0
-199 -195 -224 0
-199 -195 -226 0
-199 -231 -220 0
-199 -231 -221 0
-199 -231 -232 0
-199 -231 -222 0
-199 -201 -230 0
-199 -201 -218 0
-199 -201 -221 0
-199 -201 -224 0
-199 -201 -227 0
-199 -201 -219 0
-199 -201 -223 0
-199 -234 -220 0
-199 -234 -224 0
-199 -234 -232 0
-199 -234 -227 0
-199 -234 -235 0
-199 -234 -219 0
-199 -228 -219 0
-194 -231 0
-190 -201 -230 0
-190 -201 -218 0
-190 -201 -221 0
-190 -201 -224 0
-190 -201 -227 0
-190 -201 -225 0
-190 -201 -223 0
-190 -188 -230 0
-190 -188 -218 0
-190 -188 -220 0
-190 -188 -221 0
-190 -188 -222 0
-190 -234 -220 0
-190 -234 -225 0
-190 -234 -224 0
-190 -234 -232 0
-190 -234 -227 0
-190 -234 -235 0
-190 -237 -227 0
-190 -237 -221 0
-190 -237 -235 0
-190 -228 -225 0
-206 -188 0
-199 -195 -241 0
-199 -195 -242 0
-199 -195 -240 0
-199 -195 -243 0
-199 -195 -239 0
-199 -231 -242 0
-199 -231 -230 0
-199 -231 -245 0
-199 -231 -246 0
-199 -231 -247 0
-199 -201 -238 0
-199 -201 -245 0
-199 -201 -243 0
-199 -201 -248 0
-199 -201 -249 0
-199 -201 -240 0
-199 -234 -242 0
-199 -234 -243 0
-199 -234 -246 0
-199 -234 -248 0
-199 -234 -250 0
-199 -234 -249 0
-199 -228 -230 0
-199 -228 -249 0
-199 -203 -247 0
-199 -203 -249 0
-206 -195 0
-189 -204 -239 0
-189 -204 -240 0
-189 -201 -245 0
-189 -201 -243 0
-189 -201 -248 0
-189 -201 -249 0
-189 -201 -244 0
-189 -201 -240 0
-189 -210 -241 0
-189 -210 -239 0
-189 -210 -243 0
-189 -210 -251 0
-189 -210 -252 0
-189 -210 -242 0
-189 -210 -253 0
-189 -213 -242 0
-189 -213 -240 0
-189 -213 -248 0
-189 -213 -252 0
-189 -213 -254 0
-189 -213 -245 0
-189 -213 -251 0
-189 -188 -249 0
-189 -188 -242 0
-189 -188 -245 0
-189 -188 -247 0
-189 -188 -230 0
-189 -207 -241 0
-189 -207 -240 0
-189 -207 -253 0
-189 -207 -251 0
-206 -201 0
-191 -195 -241 0
-191 -195 -240 0
-191 -195 -243 0
-191 -195 -244 0
-191 -195 -239 0
-191 -234 -244 0
-191 -234 -243 0
-191 -234 -246 0
-191 -234 -248 0
-191 -234 -250 0
-191 -234 -249 0
-191 -213 -238 0
-191 -213 -240 0
-191 -213 -248 0
-191 -213 -252 0
-191 -213 -254 0
-191 -213 -245 0
-191 -213 -251 0
-191 -256 -243 0
-191 -256 -250 0
-191 -256 -254 0
-191 -256 -257 0
-191 -256 -246 0
-191 -256 -245 0
-191 -256 -252 0
-191 -231 -244 0
-191 -231 -230 0
-191 -231 -245 0
-191 -231 -246 0
-191 -231 -247 0
-191 -188 -238 0
-191 -188 -249 0
-191 -188 -245 0
-191 -188 -247 0
-191 -188 -230 0
-191 -210 -241 0
-191 -210 -238 0
-191 -210 -239 0
-191 -210 -243 0
-191 -210 -251 0
-191 -210 -252 0
-191 -210 -253 0
-206 -203 0
-194 -228 -244 0
-194 -228 -249 0
-194 -188 -238 0
-194 -188 -249 0
-194 -188 -242 0
-194 -188 -245 0
-194 -188 -247 0
-194 -231 -242 0
-194 -231 -244 0
-194 -231 -245 0
-194 -231 -246 0
-194 -231 -247 0
-206 -204 0
-196 -195 -242 0
-196 -195 -240 0
-196 -195 -243 0
-196 -195 -244 0
-196 -195 -239 0
-196 -207 -240 0
-196 -207 -253 0
-196 -207 -251 0
-196 -207 -238 0
-196 -210 -238 0
-196 -210 -239 0
-196 -210 -243 0
-196 -210 -251 0
-196 -210 -252 0
-196 -210 -242 0
-196 -210 -253 0
-199 -186 0
-206 -195 -258 0
-206 -195 -260 0
-206 -195 -261 0
-206 -195 -262 0
-206 -195 -263 0
-206 -201 -259 0
-206 -201 -264 0
-206 -201 -262 0
-206 -201 -265 0
-206 -201 -266 0
-206 -201 -261 0
-206 -203 -267 0
-206 -203 -266 0
-206 -204 -259 0
-206 -204 -263 0
-206 -204 -261 0
-199 -195 0
-189 -186 -260 0
-189 -186 -225 0
-189 -186 -258 0
-189 -204 -263 0
-189 -204 -261 0
-189 -204 -244 0
-189 -201 -244 0
-189 -201 -264 0
-189 -201 -262 0
-189 -201 -265 0
-189 -201 -266 0
-189 -201 -261 0
-189 -210 -258 0
-189 -210 -263 0
-189 -210 -262 0
-189 -210 -268 0
-189 -210 -269 0
-189 -210 -260 0
-189 -210 -270 0
-189 -213 -260 0
-189 -213 -261 0
-189 -213 -265 0
-189 -213 -269 0
-189 -213 -271 0
-189 -213 -264 0
-189 -213 -268 0
-189 -207 -258 0
-189 -207 -261 0
-189 -207 -270 0
-189 -207 -268 0
-199 -231 0
-190 -201 -244 0
-190 -201 -259 0
-190 -201 -264 0
-190 -201 -262 0
-190 -201 -265 0
-190 -201 -261 0
-190 -203 -244 0
-190 -203 -267 0
-190 -234 -260 0
-190 -234 -262 0
-190 -234 -272 0
-190 -234 -265 0
-190 -234 -273 0
-190 -237 -265 0
-190 -237 -264 0
-190 -237 -273 0
-190 -228 -225 0
-199 -201 0
-191 -186 -259 0
-191 -186 -225 0
-191 -186 -258 0
-191 -195 -244 0
-191 -195 -258 0
-191 -195 -261 0
-191 -195 -262 0
-191 -195 -263 0
-191 -234 -262 0
-191 -234 -272 0
-191 -234 -265 0
-191 -234 -273 0
-191 -234 -266 0
-191 -213 -259 0
-191 -213 -261 0
-191 -213 -265 0
-191 -213 -269 0
-191 -213 -271 0
-191 -213 -264 0
-191 -213 -268 0
-191 -256 -262 0
-191 -256 -273 0
-191 -256 -271 0
-191 -256 -274 0
-191 -256 -272 0
-191 -256 -264 0
-191 -256 -269 0
-191 -231 -225 0
-191 -231 -264 0
-191 -231 -272 0
-191 -231 -267 0
-191 -210 -258 0
-191 -210 -259 0
-191 -210 -263 0
-191 -210 -262 0
-191 -210 -268 0
-191 -210 -269 0
-191 -210 -270 0
-199 -234 0
-192 -201 -244 0
-192 -201 -259 0
-192 -201 -262 0
-192 -201 -265 0
-192 -201 -266 0
-192 -201 -261 0
-192 -213 -259 0
-192 -213 -260 0
-192 -213 -261 0
-192 -213 -265 0
-192 -213 -269 0
-192 -213 -271 0
-192 -213 -268 0
-192 -237 -265 0
-192 -237 -266 0
-192 -237 -273 0
-192 -256 -260 0
-192 -256 -262 0
-192 -256 -273 0
-192 -256 -271 0
-192 -256 -274 0
-192 -256 -272 0
-192 -256 -269 0
-192 -276 -265 0
-192 -276 -271 0
-192 -276 -274 0
-192 -276 -272 0
-192 -231 -260 0
-192 -231 -225 0
-192 -231 -272 0
-192 -231 -267 0
-199 -228 0
-193 -203 -244 0
-193 -203 -266 0
-193 -231 -260 0
-193 -231 -225 0
-193 -231 -264 0
-193 -231 -272 0
-199 -203 0
-194 -186 -259 0
-194 -186 -260 0
-194 -186 -258 0
-194 -228 -266 0
-194 -231 -260 0
-194 -231 -264 0
-194 -231 -272 0
-194 -231 -267 0
-216 -187 0
-186 -233 -189 0
-186 -233 -190 0
-186 -233 -191 0
-186 -233 -192 0
-186 -233 -193 0
-186 -233 -194 0
-186 -212 -196 0
-186 -212 -191 0
-186 -212 -197 0
-186 -212 -198 0
-186 -212 -199 0
-186 -212 -200 0
-186 -255 -189 0
-186 -255 -192 0
-186 -255 -198 0
-186 -255 -202 0
-186 -255 -190 0
-186 -255 -199 0
-186 -255 -197 0
-186 -215 -193 0
-186 -215 -199 0
-186 -215 -190 0
-186 -205 -189 0
-186 -205 -200 0
-186 -205 -197 0
-216 -205 0
-204 -212 -206 0
-204 -212 -191 0
-204 -212 -197 0
-204 -212 -198 0
-204 -212 -199 0
-204 -212 -200 0
-204 -290 -197 0
-204 -290 -208 0
-204 -290 -209 0
-204 -290 -189 0
-204 -292 -189 0
-204 -292 -200 0
-204 -292 -198 0
-204 -292 -209 0
-204 -292 -211 0
-204 -292 -191 0
-204 -292 -208 0
-204 -187 -199 0
-204 -187 -189 0
-204 -187 -191 0
-204 -187 -194 0
-216 -212 0
-195 -187 -199 0
-195 -187 -191 0
-195 -187 -194 0
-195 -187 -196 0
-195 -205 -200 0
-195 -205 -197 0
-195 -205 -206 0
-195 -255 -206 0
-195 -255 -192 0
-195 -255 -198 0
-195 -255 -202 0
-195 -255 -190 0
-195 -255 -199 0
-195 -255 -197 0
-195 -292 -196 0
-195 -292 -200 0
-195 -292 -198 0
-195 -292 -209 0
-195 -292 -211 0
-195 -292 -191 0
-195 -292 -208 0
-195 -308 -191 0
-195 -308 -197 0
-195 -308 -202 0
-195 -308 -211 0
-195 -308 -214 0
-195 -308 -192 0
-195 -308 -209 0
-195 -233 -206 0
-195 -233 -190 0
-195 -233 -191 0
-195 -233 -192 0
-195 -233 -193 0
-195 -233 -194 0
-195 -290 -196 0
-195 -290 -197 0
-195 -290 -208 0
-195 -290 -209 0
-216 -205 -238 0
-216 -205 -239 0
-216 -205 -240 0
-216 -212 -241 0
-216 -212 -242 0
-216 -212 -240 0
-216 -212 -243 0
-216 -212 -244 0
-216 -212 -239 0
-186 -233 0
-188 -212 -241 0
-188 -212 -242 0
-188 -212 -240 0
-188 -212 -243 0
-188 -212 -239 0
-188 -236 -242 0
-188 -236 -230 0
-188 -236 -245 0
-188 -236 -246 0
-188 -236 -247 0
-188 -255 -238 0
-188 -255 -245 0
-188 -255 -243 0
-188 -255 -248 0
-188 -255 -249 0
-188 -255 -240 0
-188 -275 -242 0
-188 -275 -243 0
-188 -275 -246 0
-188 -275 -248 0
-188 -275 -250 0
-188 -275 -249 0
-188 -229 -230 0
-188 -229 -249 0
-188 -215 -247 0
-188 -215 -249 0
-186 -212 0
-195 -185 -241 0
-195 -205 -239 0
-195 -205 -240 0
-195 -255 -245 0
-195 -255 -243 0
-195 -255 -248 0
-195 -255 -249 0
-195 -255 -244 0
-195 -255 -240 0
-195 -292 -241 0
-195 -292 -239 0
-195 -292 -243 0
-195 -292 -251 0
-195 -292 -252 0
-195 -292 -242 0
-195 -292 -253 0
-195 -308 -242 0
-195 -308 -240 0
-195 -308 -248 0
-195 -308 -252 0
-195 -308 -254 0
-195 -308 -245 0
-195 -308 -251 0
-195 -233 -249 0
-195 -233 -242 0
-195 -233 -245 0
-195 -233 -247 0
-195 -233 -230 0
-195 -290 -241 0
-195 -290 -240 0
-195 -290 -253 0
-195 -290 -251 0
-186 -255 0
-201 -212 -241 0
-201 -212 -240 0
-201 -212 -243 0
-201 -212 -244 0
-201 -212 -239 0
-201 -275 -244 0
-201 -275 -243 0
-201 -275 -246 0
-201 -275 -248 0
-201 -275 -250 0
-201 -275 -249 0
-201 -308 -238 0
-201 -308 -240 0
-201 -308 -248 0
-201 -308 -252 0
-201 -308 -254 0
-201 -308 -245 0
-201 -308 -251 0
-201 -323 -243 0
-201 -323 -250 0
-201 -323 -254 0
-201 -323 -257 0
-201 -323 -246 0
-201 -323 -245 0
-201 -323 -252 0
-201 -236 -244 0
-201 -236 -230 0
-201 -236 -245 0
-201 -236 -246 0
-201 -236 -247 0
-201 -233 -238 0
-201 -233 -249 0
-201 -233 -245 0
-201 -233 -247 0
-201 -233 -230 0
-201 -292 -241 0
-201 -292 -238 0
-201 -292 -239 0
-201 -292 -243 0
-201 -292 -251 0
-201 -292 -252 0
-201 -292 -253 0
-186 -215 0
-203 -229 -244 0
-203 -229 -249 0
-203 -233 -238 0
-203 -233 -249 0
-203 -233 -242 0
-203 -233 -245 0
-203 -233 -247 0
-203 -236 -242 0
-203 -236 -244 0
-203 -236 -245 0
-203 -236 -246 0
-203 -236 -247 0
-186 -205 0
-204 -185 -238 0
-204 -212 -242 0
-204 -212 -240 0
-204 -212 -243 0
-204 -212 -244 0
-204 -212 -239 0
-204 -290 -240 0
-204 -290 -253 0
-204 -290 -251 0
-204 -290 -238 0
-204 -292 -238 0
-204 -292 -239 0
-204 -292 -243 0
-204 -292 -251 0
-204 -292 -252 0
-204 -292 -242 0
-204 -292 -253 0
-277 -206 0
-186 -199 -212 0
-186 -199 -236 0
-186 -199 -255 0
-186 -199 -275 0
-186 -199 -229 0
-186 -199 -215 0
-186 -189 -205 0
-186 -189 -255 0
-186 -189 -292 0
-186 -189 -308 0
-186 -189 -233 0
-186 -189 -290 0
-186 -191 -212 0
-186 -191 -275 0
-186 -191 -308 0
-186 -191 -323 0
-186 -191 -236 0
-186 -191 -233 0
-186 -191 -292 0
-186 -194 -229 0
-186 -194 -233 0
-186 -194 -236 0
-186 -196 -212 0
-186 -196 -290 0
-186 -196 -292 0
-186 -199 0
-188 -189 -241 0
-188 -189 -242 0
-188 -189 -240 0
-188 -189 -243 0
-188 -189 -239 0
-188 -190 -242 0
-188 -190 -230 0
-188 -190 -245 0
-188 -190 -246 0
-188 -190 -247 0
-188 -191 -238 0
-188 -191 -245 0
-188 -191 -243 0
-188 -191 -248 0
-188 -191 -249 0
-188 -191 -240 0
-188 -192 -242 0
-188 -192 -243 0
-188 -192 -246 0
-188 -192 -248 0
-188 -192 -250 0
-188 -192 -249 0
-188 -193 -230 0
-188 -193 -249 0
-188 -194 -247 0
-188 -194 -249 0
-186 -189 0
-195 -196 -239 0
-195 -196 -240 0
-195 -191 -245 0
-195 -191 -243 0
-195 -191 -248 0
-195 -191 -249 0
-195 -191 -244 0
-195 -191 -240 0
-195 -197 -241 0
-195 -197 -239 0
-195 -197 -243 0
-195 -197 -251 0
-195 -197 -252 0
-195 -197 -242 0
-195 -197 -253 0
-195 -198 -242 0
-195 -198 -240 0
-195 -198 -248 0
-195 -198 -252 0
-195 -198 -254 0
-195 -198 -245 0
-195 -198 -251 0
-195 -199 -249 0
-195 -199 -242 0
-195 -199 -245 0
-195 -199 -247 0
-195 -199 -230 0
-195 -200 -241 0
-195 -200 -240 0
-195 -200 -253 0
-195 -200 -251 0
-186 -191 0
-201 -189 -241 0
-201 -189 -240 0
-201 -189 -243 0
-201 -189 -244 0
-201 -189 -239 0
-201 -192 -244 0
-201 -192 -243 0
-201 -192 -246 0
-201 -192 -248 0
-201 -192 -250 0
-201 -192 -249 0
-201 -198 -238 0
-201 -198 -240 0
-201 -198 -248 0
-201 -198 -252 0
-201 -198 -254 0
-201 -198 -245 0
-201 -198 -251 0
-201 -202 -243 0
-201 -202 -250 0
-201 -202 -254 0
-201 -202 -257 0
-201 -202 -246 0
-201 -202 -245 0
-201 -202 -252 0
-201 -190 -244 0
-201 -190 -230 0
-201 -190 -245 0
-201 -190 -246 0
-201 -190 -247 0
-201 -199 -238 0
-201 -199 -249 0
-201 -199 -245 0
-201 -199 -247 0
-201 -199 -230 0
-201 -197 -241 0
-201 -197 -238 0
-201 -197 -239 0
-201 -197 -243 0
-201 -197 -251 0
-201 -197 -252 0
-201 -197 -253 0
-186 -194 0
-203 -193 -244 0
-203 -193 -249 0
-203 -199 -238 0
-203 -199 -249 0
-203 -199 -242 0
-203 -199 -245 0
-203 -199 -247 0
-203 -190 -242 0
-203 -190 -244 0
-203 -190 -245 0
-203 -190 -246 0
-203 -190 -247 0
-186 -196 0
-204 -189 -242 0
-204 -189 -240 0
-204 -189 -243 0
-204 -189 -244 0
-204 -189 -239 0
-204 -200 -240 0
-204 -200 -253 0
-204 -200 -251 0
-204 -200 -238 0
-204 -197 -238 0
-204 -197 -239 0
-204 -197 -243 0
-204 -197 -251 0
-204 -197 -252 0
-204 -197 -242 0
-204 -197 -253 0
-204 -189 0
-195 -206 -258 0
-195 -206 -278 0
-195 -206 -217 0
-195 -191 -241 0
-195 -191 -279 0
-195 -191 -280 0
-195 -191 -281 0
-195 -191 -282 0
-195 -191 -258 0
-195 -191 -283 0
-195 -197 -284 0
-195 -197 -280 0
-195 -197 -285 0
-195 -197 -286 0
-195 -197 -278 0
-195 -197 -287 0
-195 -198 -278 0
-195 -198 -283 0
-195 -198 -281 0
-195 -198 -286 0
-195 -198 -288 0
-195 -198 -279 0
-195 -198 -285 0
-195 -199 -241 0
-195 -199 -282 0
-195 -199 -278 0
-195 -199 -279 0
-195 -199 -289 0
-195 -199 -217 0
-195 -200 -283 0
-195 -200 -287 0
-195 -200 -285 0
-204 -200 0
-207 -197 -291 0
-207 -197 -280 0
-207 -197 -285 0
-207 -197 -286 0
-207 -197 -278 0
-207 -197 -287 0
-207 -208 -285 0
-207 -208 -283 0
-207 -209 -283 0
-207 -209 -287 0
-207 -209 -286 0
-207 -209 -280 0
-207 -189 -241 0
-207 -189 -278 0
-207 -189 -283 0
-207 -189 -280 0
-207 -189 -258 0
-204 -197 0
-210 -189 -241 0
-210 -189 -278 0
-210 -189 -280 0
-210 -189 -258 0
-210 -189 -284 0
-210 -200 -287 0
-210 -200 -285 0
-210 -200 -291 0
-210 -198 -291 0
-210 -198 -278 0
-210 -198 -281 0
-210 -198 -286 0
-210 -198 -288 0
-210 -198 -279 0
-210 -198 -285 0
-210 -209 -284 0
-210 -209 -287 0
-210 -209 -286 0
-210 -209 -280 0
-210 -211 -280 0
-210 -211 -285 0
-210 -211 -288 0
-210 -211 -281 0
-210 -191 -241 0
-210 -191 -291 0
-210 -191 -279 0
-210 -191 -280 0
-210 -191 -281 0
-210 -191 -282 0
-210 -191 -258 0
-210 -208 -284 0
-210 -208 -285 0
-204 -206 0
-186 -199 -291 0
-186 -199 -282 0
-186 -199 -278 0
-186 -199 -279 0
-186 -199 -289 0
-186 -199 -217 0
-186 -189 -278 0
-186 -189 -283 0
-186 -189 -280 0
-186 -189 -258 0
-186 -189 -284 0
-186 -191 -291 0
-186 -191 -279 0
-186 -191 -280 0
-186 -191 -281 0
-186 -191 -282 0
-186 -191 -258 0
-186 -191 -283 0
-186 -194 -289 0
-186 -194 -258 0
-186 -194 -282 0
-195 -206 0
-186 -199 -293 0
-186 -199 -294 0
-186 -199 -295 0
-186 -199 -296 0
-186 -199 -218 0
-186 -191 -295 0
-186 -191 -297 0
-186 -191 -298 0
-186 -191 -293 0
-186 -191 -259 0
-186 -191 -299 0
-186 -194 -296 0
-186 -194 -259 0
-186 -194 -293 0
-186 -196 -300 0
-186 -196 -299 0
-195 -196 0
-204 -200 -299 0
-204 -200 -301 0
-204 -200 -302 0
-204 -197 -300 0
-204 -197 -297 0
-204 -197 -302 0
-204 -197 -303 0
-204 -197 -294 0
-204 -197 -301 0
-204 -206 -259 0
-204 -206 -294 0
-204 -206 -218 0
-195 -191 0
-201 -206 -259 0
-201 -206 -218 0
-201 -206 -291 0
-201 -192 -259 0
-201 -192 -297 0
-201 -192 -304 0
-201 -192 -298 0
-201 -192 -305 0
-201 -192 -293 0
-201 -198 -299 0
-201 -198 -298 0
-201 -198 -303 0
-201 -198 -306 0
-201 -198 -295 0
-201 -198 -302 0
-201 -202 -297 0
-201 -202 -305 0
-201 -202 -306 0
-201 -202 -307 0
-201 -202 -304 0
-201 -202 -295 0
-201 -202 -303 0
-201 -190 -259 0
-201 -190 -218 0
-201 -190 -295 0
-201 -190 -304 0
-201 -190 -296 0
-201 -199 -238 0
-201 -199 -293 0
-201 -199 -295 0
-201 -199 -296 0
-201 -199 -218 0
-201 -197 -291 0
-201 -197 -300 0
-201 -197 -297 0
-201 -197 -302 0
-201 -197 -303 0
-201 -197 -301 0
-195 -197 0
-210 -196 -300 0
-210 -196 -238 0
-210 -200 -291 0
-210 -200 -301 0
-210 -200 -302 0
-210 -198 -294 0
-210 -198 -298 0
-210 -198 -303 0
-210 -198 -306 0
-210 -198 -295 0
-210 -198 -302 0
-210 -209 -300 0
-210 -209 -301 0
-210 -209 -303 0
-210 -209 -297 0
-210 -211 -297 0
-210 -211 -302 0
-210 -211 -306 0
-210 -211 -298 0
-210 -191 -238 0
-210 -191 -295 0
-210 -191 -297 0
-210 -191 -298 0
-210 -191 -293 0
-210 -191 -259 0
-210 -208 -300 0
-210 -208 -302 0
-195 -198 0
-213 -191 -238 0
-213 -191 -295 0
-213 -191 -298 0
-213 -191 -293 0
-213 -191 -259 0
-213 -191 -299 0
-213 -197 -291 0
-213 -197 -300 0
-213 -197 -302 0
-213 -197 -303 0
-213 -197 -294 0
-213 -197 -301 0
-213 -202 -294 0
-213 -202 -305 0
-213 -202 -306 0
-213 -202 -307 0
-213 -202 -304 0
-213 -202 -295 0
-213 -202 -303 0
-213 -211 -299 0
-213 -211 -302 0
-213 -211 -306 0
-213 -211 -298 0
-213 -214 -298 0
-213 -214 -303 0
-213 -214 -307 0
-213 -214 -305 0
-213 -192 -294 0
-213 -192 -259 0
-213 -192 -304 0
-213 -192 -298 0
-213 -192 -305 0
-213 -192 -293 0
-213 -209 -300 0
-213 -209 -299 0
-213 -209 -301 0
-213 -209 -303 0
-195 -199 0
-188 -206 -294 0
-188 -206 -218 0
-188 -206 -291 0
-188 -190 -294 0
-188 -190 -218 0
-188 -190 -295 0
-188 -190 -304 0
-188 -190 -296 0
-188 -191 -238 0
-188 -191 -295 0
-188 -191 -297 0
-188 -191 -298 0
-188 -191 -293 0
-188 -191 -299 0
-188 -192 -294 0
-188 -192 -297 0
-188 -192 -304 0
-188 -192 -298 0
-188 -192 -305 0
-188 -192 -293 0
-188 -193 -218 0
-188 -193 -293 0
-188 -194 -238 0
-188 -194 -296 0
-188 -194 -293 0
-195 -200 0
-207 -196 -299 0
-207 -196 -238 0
-207 -197 -291 0
-207 -197 -297 0
-207 -197 -302 0
-207 -197 -303 0
-207 -197 -294 0
-207 -197 -301 0
-207 -208 -302 0
-207 -208 -299 0
-207 -209 -299 0
-207 -209 -301 0
-207 -209 -303 0
-207 -209 -297 0
-17 -65 0
-18 -66 0
-19 -67 0
-20 -68 0
-21 -69 0
-22 -70 0
-23 -71 0
-24 -72 0
-277 -194 -241 0
-277 -194 -238 0
-216 -217 -238 0
-216 -217 -239 0
-216 -217 -240 0
-216 -218 -241 0
-216 -218 -242 0
-216 -218 -240 0
-216 -218 -243 0
-216 -218 -244 0
-216 -218 -239 0
-186 -225 0
-188 -218 -241 0
-188 -218 -242 0
-188 -218 -240 0
-188 -218 -243 0
-188 -218 -239 0
-188 -219 -242 0
-188 -219 -245 0
-188 -219 -246 0
-188 -219 -247 0
-188 -220 -238 0
-188 -220 -245 0
-188 -220 -243 0
-188 -220 -248 0
-188 -220 -249 0
-188 -220 -240 0
-188 -221 -242 0
-188 -221 -243 0
-188 -221 -246 0
-188 -221 -248 0
-188 -221 -250 0
-188 -221 -249 0
-188 -222 -249 0
-186 -218 0
-195 -194 -241 0
-195 -217 -239 0
-195 -217 -240 0
-195 -220 -245 0
-195 -220 -243 0
-195 -220 -248 0
-195 -220 -249 0
-195 -220 -244 0
-195 -220 -240 0
-195 -223 -241 0
-195 -223 -239 0
-195 -223 -243 0
-195 -223 -251 0
-195 -223 -252 0
-195 -223 -242 0
-195 -223 -253 0
-195 -224 -242 0
-195 -224 -240 0
-195 -224 -248 0
-195 -224 -252 0
-195 -224 -254 0
-195 -224 -245 0
-195 -224 -251 0
-195 -225 -249 0
-195 -225 -242 0
-195 -225 -245 0
-195 -225 -247 0
-195 -226 -241 0
-195 -226 -240 0
-195 -226 -253 0
-195 -226 -251 0
-186 -220 0
-201 -218 -241 0
-201 -218 -240 0
-201 -218 -243 0
-201 -218 -244 0
-201 -218 -239 0
-201 -221 -244 0
-201 -221 -243 0
-201 -221 -246 0
-201 -221 -248 0
-201 -221 -250 0
-201 -221 -249 0
-201 -224 -238 0
-201 -224 -240 0
-201 -224 -248 0
-201 -224 -252 0
-201 -224 -254 0
-201 -224 -245 0
-201 -224 -251 0
-201 -227 -243 0
-201 -227 -250 0
-201 -227 -254 0
-201 -227 -257 0
-201 -227 -246 0
-201 -227 -245 0
-201 -227 -252 0
-201 -219 -244 0
-201 -219 -245 0
-201 -219 -246 0
-201 -219 -247 0
-201 -225 -238 0
-201 -225 -249 0
-201 -225 -245 0
-201 -225 -247 0
-201 -223 -241 0
-201 -223 -238 0
-201 -223 -239 0
-201 -223 -243 0
-201 -223 -251 0
-201 -223 -252 0
-201 -223 -253 0
-186 -217 0
-204 -194 -238 0
-204 -218 -242 0
-204 -218 -240 0
-204 -218 -243 0
-204 -218 -244 0
-204 -218 -239 0
-204 -226 -240 0
-204 -226 -253 0
-204 -226 -251 0
-204 -226 -238 0
-204 -223 -238 0
-204 -223 -239 0
-204 -223 -243 0
-204 -223 -251 0
-204 -223 -252 0
-204 -223 -242 0
-204 -223 -253 0
-228 -225 0
-188 -230 -296 0
-188 -230 -319 0
-188 -230 -289 0
-188 -218 -247 0
-188 -218 -289 0
-188 -218 -319 0
-188 -218 -341 0
-188 -218 -354 0
-188 -218 -333 0
-188 -219 -319 0
-121 -105 357 0
-122 -106 357 0
-123 -107 357 0
-124 -108 357 0
-125 -109 357 0
-126 -110 357 0
-127 -111 357 0
-128 -112 357 0
-188 -219 -357 0
-121 -177 358 0
-122 -178 358 0
-123 -179 358 0
-124 -180 358 0
-125 -181 358 0
-126 -182 358 0
-127 -183 358 0
-128 -184 358 0
-188 -219 -358 0
-188 -220 -247 0
-188 -220 -296 0
-188 -220 -357 0
-188 -220 -354 0
-121 -97 359 0
-122 -98 359 0
-123 -99 359 0
-124 -100 359 0
-125 -101 359 0
-126 -102 359 0
-127 -103 359 0
-128 -104 359 0
-188 -220 -359 0
-121 -113 360 0
-122 -114 360 0
-123 -115 360 0
-124 -116 360 0
-125 -117 360 0
-126 -118 360 0
-127 -119 360 0
-128 -120 360 0
-188 -220 -360 0
-188 -220 -341 0
-188 -221 -319 0
-188 -221 -354 0
-188 -221 -358 0
-188 -221 -359 0
-121 -169 361 0
-122 -170 361 0
-123 -171 361 0
-124 -172 361 0
-125 -173 361 0
-126 -174 361 0
-127 -175 361 0
-128 -176 361 0
-188 -221 -361 0
-188 -221 -360 0
-228 -219 0
-231 -220 -247 0
-231 -220 -296 0
-231 -220 -357 0
-231 -220 -354 0
-231 -220 -359 0
-231 -220 -267 0
-231 -220 -341 0
-231 -225 -247 0
-231 -225 -296 0
-231 -225 -319 0
-231 -225 -357 0
-231 -221 -319 0
-231 -221 -267 0
-231 -221 -354 0
-231 -221 -358 0
-231 -221 -359 0
-231 -221 -361 0
-231 -232 -359 0
-231 -232 -357 0
-231 -232 -361 0
-188 -230 0
-186 -194 -258 0
-186 -194 -259 0
-186 -218 -258 0
-186 -218 -260 0
-186 -218 -261 0
-186 -218 -262 0
-186 -218 -263 0
-186 -220 -259 0
-186 -220 -264 0
-186 -220 -262 0
-186 -220 -265 0
-186 -220 -266 0
-186 -220 -261 0
-186 -217 -259 0
-186 -217 -263 0
-186 -217 -261 0
-188 -218 0
-195 -194 -244 0
-195 -194 -258 0
-195 -230 -260 0
-195 -230 -258 0
-195 -217 -263 0
-195 -217 -261 0
-195 -217 -244 0
-195 -220 -244 0
-195 -220 -264 0
-195 -220 -262 0
-195 -220 -265 0
-195 -220 -266 0
-195 -220 -261 0
-195 -223 -258 0
-195 -223 -263 0
-195 -223 -262 0
-195 -223 -268 0
-195 -223 -269 0
-195 -223 -260 0
-195 -223 -270 0
-195 -224 -260 0
-195 -224 -261 0
-195 -224 -265 0
-195 -224 -269 0
-195 -224 -271 0
-195 -224 -264 0
-195 -224 -268 0
-195 -226 -258 0
-195 -226 -261 0
-195 -226 -270 0
-195 -226 -268 0
-188 -219 0
-231 -220 -244 0
-231 -220 -259 0
-231 -220 -264 0
-231 -220 -262 0
-231 -220 -265 0
-231 -220 -261 0
-231 -221 -260 0
-231 -221 -262 0
-231 -221 -272 0
-231 -221 -265 0
-231 -221 -273 0
-231 -232 -265 0
-231 -232 -264 0
-231 -232 -273 0
-188 -220 0
-201 -230 -259 0
-201 -230 -258 0
-201 -218 -244 0
-201 -218 -258 0
-201 -218 -261 0
-201 -218 -262 0
-201 -218 -263 0
-201 -221 -262 0
-201 -221 -272 0
-201 -221 -265 0
-201 -221 -273 0
-201 -221 -266 0
-201 -224 -259 0
-201 -224 -261 0
-201 -224 -265 0
-201 -224 -269 0
-201 -224 -271 0
-201 -224 -264 0
-201 -224 -268 0
-201 -227 -262 0
-201 -227 -273 0
-201 -227 -271 0
-201 -227 -274 0
-201 -227 -272 0
-201 -227 -264 0
-201 -227 -269 0
-201 -219 -264 0
-201 -219 -272 0
-201 -219 -267 0
-201 -223 -258 0
-201 -223 -259 0
-201 -223 -263 0
-201 -223 -262 0
-201 -223 -268 0
-201 -223 -269 0
-201 -223 -270 0
-188 -221 0
-234 -220 -244 0
-234 -220 -259 0
-234 -220 -262 0
-234 -220 -265 0
-234 -220 -266 0
-234 -220 -261 0
-234 -224 -259 0
-234 -224 -260 0
-234 -224 -261 0
-234 -224 -265 0
-234 -224 -269 0
-234 -224 -271 0
-234 -224 -268 0
-234 -232 -265 0
-234 -232 -266 0
-234 -232 -273 0
-234 -227 -260 0
-234 -227 -262 0
-234 -227 -273 0
-234 -227 -271 0
-234 -227 -274 0
-234 -227 -272 0
-234 -227 -269 0
-234 -235 -265 0
-234 -235 -271 0
-234 -235 -274 0
-234 -235 -272 0
-234 -219 -260 0
-234 -219 -272 0
-234 -219 -267 0
-188 -222 0
-228 -219 -260 0
-228 -219 -264 0
-228 -219 -272 0
-231 -220 0
-201 -230 -266 0
-201 -230 -293 0
-201 -230 -282 0
-201 -218 -249 0
-201 -218 -282 0
-201 -218 -337 0
-201 -218 -349 0
-201 -218 -266 0
-201 -218 -331 0
-201 -221 -266 0
-201 -221 -349 0
-113 -177 362 0
-114 -178 362 0
-115 -179 362 0
-116 -180 362 0
-117 -181 362 0
-118 -182 362 0
-119 -183 362 0
-120 -184 362 0
-201 -221 -362 0
-113 -97 363 0
-114 -98 363 0
-115 -99 363 0
-116 -100 363 0
-117 -101 363 0
-118 -102 363 0
-119 -103 363 0
-120 -104 363 0
-201 -221 -363 0
-113 -169 364 0
-114 -170 364 0
-115 -171 364 0
-116 -172 364 0
-117 -173 364 0
-118 -174 364 0
-119 -175 364 0
-120 -176 364 0
-201 -221 -364 0
-201 -224 -293 0
-201 -224 -337 0
-201 -224 -363 0
-113 -145 365 0
-114 -146 365 0
-115 -147 365 0
-116 -148 365 0
-117 -149 365 0
-118 -150 365 0
-119 -151 365 0
-120 -152 365 0
-201 -224 -365 0
-113 -153 366 0
-114 -154 366 0
-115 -155 366 0
-116 -156 366 0
-117 -157 366 0
-118 -158 366 0
-119 -159 366 0
-120 -160 366 0
-201 -224 -366 0
-113 -105 367 0
-114 -106 367 0
-115 -107 367 0
-116 -108 367 0
-117 -109 367 0
-118 -110 367 0
-119 -111 367 0
-120 -112 367 0
-201 -224 -367 0
-113 -137 368 0
-114 -138 368 0
-115 -139 368 0
-116 -140 368 0
-117 -141 368 0
-118 -142 368 0
-119 -143 368 0
-120 -144 368 0
-201 -224 -368 0
-201 -227 -349 0
-201 -227 -364 0
-201 -227 -366 0
-113 -161 369 0
-114 -162 369 0
-115 -163 369 0
-116 -164 369 0
-117 -165 369 0
-118 -166 369 0
-119 -167 369 0
-120 -168 369 0
-201 -227 -369 0
-201 -227 -362 0
-201 -227 -367 0
-201 -227 -365 0
-201 -225 -249 0
-201 -225 -293 0
-201 -225 -367 0
-201 -225 -360 0
-201 -223 -282 0
-201 -223 -293 0
-201 -223 -331 0
-201 -223 -349 0
-201 -223 -368 0
-201 -223 -365 0
-113 -129 370 0
-114 -130 370 0
-115 -131 370 0
-116 -132 370 0
-117 -133 370 0
-118 -134 370 0
-119 -135 370 0
-120 -136 370 0
-201 -223 -370 0
-231 -225 0
-188 -230 -293 0
-188 -230 -318 0
-188 -230 -282 0
-188 -218 -249 0
-188 -218 -282 0
-188 -218 -318 0
-188 -218 -337 0
-188 -218 -349 0
-188 -218 -331 0
-188 -220 -249 0
-188 -220 -293 0
-188 -220 -367 0
-188 -220 -349 0
-188 -220 -363 0
-188 -220 -337 0
-188 -221 -318 0
-188 -221 -349 0
-188 -221 -362 0
-188 -221 -363 0
-188 -221 -364 0
-231 -221 0
-234 -220 -249 0
-234 -220 -293 0
-234 -220 -349 0
-234 -220 -363 0
-234 -220 -266 0
-234 -220 -337 0
-234 -225 -249 0
-234 -225 -293 0
-234 -225 -318 0
-234 -225 -360 0
-234 -224 -293 0
-234 -224 -318 0
-234 -224 -337 0
-234 -224 -363 0
-234 -224 -365 0
-234 -224 -366 0
-234 -224 -368 0
-234 -232 -363 0
-234 -232 -364 0
-234 -227 -318 0
-234 -227 -349 0
-234 -227 -364 0
-234 -227 -366 0
-234 -227 -369 0
-234 -227 -362 0
-234 -227 -365 0
-234 -235 -363 0
-234 -235 -366 0
-234 -235 -369 0
-234 -235 -362 0
-231 -232 0
-237 -227 -318 0
-237 -227 -349 0
-237 -227 -364 0
-237 -227 -366 0
-237 -227 -369 0
-237 -227 -367 0
-237 -227 -365 0
-237 -221 -318 0
-237 -221 -266 0
-237 -221 -349 0
-237 -221 -363 0
-237 -221 -364 0
-237 -235 -363 0
-237 -235 -367 0
-237 -235 -366 0
-237 -235 -369 0
-231 -222 0
-228 -225 -249 0
-228 -225 -293 0
-228 -225 -318 0
-228 -225 -367 0
-17 -25 0
-18 -26 0
-19 -27 0
-20 -28 0
-21 -29 0
-22 -30 0
-23 -31 0
-24 -32 0
-216 -241 -212 0
-216 -241 -290 0
-216 -241 -292 0
-216 -238 -205 0
-216 -238 -255 0
-216 -238 -292 0
-216 -238 -308 0
-216 -238 -233 0
-216 -238 -290 0
-216 -241 0
-204 -238 -191 0
-204 -238 -197 0
-204 -238 -198 0
-204 -238 -199 0
-204 -238 -200 0
-204 -239 -197 0
-204 -239 -208 0
-204 -239 -209 0
-204 -239 -189 0
-204 -240 -189 0
-204 -240 -200 0
-204 -240 -198 0
-204 -240 -209 0
-204 -240 -211 0
-204 -240 -191 0
-204 -240 -208 0
-216 -238 0
-195 -241 -200 0
-195 -241 -197 0
-195 -242 -192 0
-195 -242 -198 0
-195 -242 -202 0
-195 -242 -190 0
-195 -242 -199 0
-195 -242 -197 0
-195 -240 -196 0
-195 -240 -200 0
-195 -240 -198 0
-195 -240 -209 0
-195 -240 -211 0
-195 -240 -191 0
-195 -240 -208 0
-195 -243 -191 0
-195 -243 -197 0
-195 -243 -202 0
-195 -243 -211 0
-195 -243 -214 0
-195 -243 -192 0
-195 -243 -209 0
-195 -244 -190 0
-195 -244 -191 0
-195 -244 -192 0
-195 -244 -193 0
-195 -244 -194 0
-195 -239 -196 0
-195 -239 -197 0
-195 -239 -208 0
-195 -239 -209 0
-188 -238 0
-195 -206 -258 0
-195 -241 -263 0
-195 -241 -261 0
-195 -242 -264 0
-195 -242 -262 0
-195 -242 -265 0
-195 -242 -266 0
-195 -242 -261 0
-195 -240 -258 0
-195 -240 -263 0
-195 -240 -262 0
-195 -240 -268 0
-195 -240 -269 0
-195 -240 -260 0
-195 -240 -270 0
-195 -243 -260 0
-195 -243 -261 0
-195 -243 -265 0
-195 -243 -269 0
-195 -243 -271 0
-195 -243 -264 0
-195 -243 -268 0
-195 -239 -258 0
-195 -239 -261 0
-195 -239 -270 0
-195 -239 -268 0
-188 -249 0
-231 -242 -259 0
-231 -242 -264 0
-231 -242 -262 0
-231 -242 -265 0
-231 -242 -261 0
-231 -230 -267 0
-231 -245 -260 0
-231 -245 -262 0
-231 -245 -272 0
-231 -245 -265 0
-231 -245 -273 0
-231 -246 -265 0
-231 -246 -264 0
-231 -246 -273 0
-231 -247 -225 0
-188 -242 0
-201 -238 -258 0
-201 -238 -261 0
-201 -238 -262 0
-201 -238 -263 0
-201 -245 -262 0
-201 -245 -272 0
-201 -245 -265 0
-201 -245 -273 0
-201 -245 -266 0
-201 -243 -259 0
-201 -243 -261 0
-201 -243 -265 0
-201 -243 -269 0
-201 -243 -271 0
-201 -243 -264 0
-201 -243 -268 0
-201 -248 -262 0
-201 -248 -273 0
-201 -248 -271 0
-201 -248 -274 0
-201 -248 -272 0
-201 -248 -264 0
-201 -248 -269 0
-201 -249 -225 0
-201 -249 -264 0
-201 -249 -272 0
-201 -249 -267 0
-201 -240 -258 0
-201 -240 -259 0
-201 -240 -263 0
-201 -240 -262 0
-201 -240 -268 0
-201 -240 -269 0
-201 -240 -270 0
-188 -245 0
-234 -242 -259 0
-234 -242 -262 0
-234 -242 -265 0
-234 -242 -266 0
-234 -242 -261 0
-234 -243 -259 0
-234 -243 -260 0
-234 -243 -261 0
-234 -243 -265 0
-234 -243 -269 0
-234 -243 -271 0
-234 -243 -268 0
-234 -246 -265 0
-234 -246 -266 0
-234 -246 -273 0
-234 -248 -260 0
-234 -248 -262 0
-234 -248 -273 0
-234 -248 -271 0
-234 -248 -274 0
-234 -248 -272 0
-234 -248 -269 0
-234 -250 -265 0
-234 -250 -271 0
-234 -250 -274 0
-234 -250 -272 0
-234 -249 -260 0
-234 -249 -225 0
-234 -249 -272 0
-234 -249 -267 0
-188 -247 0
-228 -230 -266 0
-228 -249 -260 0
-228 -249 -225 0
-228 -249 -264 0
-228 -249 -272 0
-188 -230 0
-203 -247 -266 0
-203 -249 -260 0
-203 -249 -264 0
-203 -249 -272 0
-203 -249 -267 0
-216 -241 -300 0
-216 -241 -299 0
-195 -241 0
-204 -239 -299 0
-204 -239 -301 0
-204 -239 -302 0
-204 -240 -300 0
-204 -240 -297 0
-204 -240 -302 0
-204 -240 -303 0
-204 -240 -294 0
-204 -240 -301 0
-195 -242 0
-201 -245 -259 0
-201 -245 -297 0
-201 -245 -304 0
-201 -245 -298 0
-201 -245 -305 0
-201 -245 -293 0
-201 -243 -299 0
-201 -243 -298 0
-201 -243 -303 0
-201 -243 -306 0
-201 -243 -295 0
-201 -243 -302 0
-201 -248 -297 0
-201 -248 -305 0
-201 -248 -306 0
-201 -248 -307 0
-201 -248 -304 0
-201 -248 -295 0
-201 -248 -303 0
-201 -249 -259 0
-201 -249 -218 0
-201 -249 -295 0
-201 -249 -304 0
-201 -249 -296 0
-201 -244 -293 0
-201 -244 -295 0
-201 -244 -296 0
-201 -244 -218 0
-201 -240 -291 0
-201 -240 -300 0
-201 -240 -297 0
-201 -240 -302 0
-201 -240 -303 0
-201 -240 -301 0
-195 -240 0
-210 -241 -300 0
-210 -239 -291 0
-210 -239 -301 0
-210 -239 -302 0
-210 -243 -294 0
-210 -243 -298 0
-210 -243 -303 0
-210 -243 -306 0
-210 -243 -295 0
-210 -243 -302 0
-210 -251 -300 0
-210 -251 -301 0
-210 -251 -303 0
-210 -251 -297 0
-210 -252 -297 0
-210 -252 -302 0
-210 -252 -306 0
-210 -252 -298 0
-210 -242 -295 0
-210 -242 -297 0
-210 -242 -298 0
-210 -242 -293 0
-210 -242 -259 0
-210 -253 -300 0
-210 -253 -302 0
-195 -243 0
-213 -242 -295 0
-213 -242 -298 0
-213 -242 -293 0
-213 -242 -259 0
-213 -242 -299 0
-213 -240 -291 0
-213 -240 -300 0
-213 -240 -302 0
-213 -240 -303 0
-213 -240 -294 0
-213 -240 -301 0
-213 -248 -294 0
-213 -248 -305 0
-213 -248 -306 0
-213 -248 -307 0
-213 -248 -304 0
-213 -248 -295 0
-213 -248 -303 0
-213 -252 -299 0
-213 -252 -302 0
-213 -252 -306 0
-213 -252 -298 0
-213 -254 -298 0
-213 -254 -303 0
-213 -254 -307 0
-213 -254 -305 0
-213 -245 -294 0
-213 -245 -259 0
-213 -245 -304 0
-213 -245 -298 0
-213 -245 -305 0
-213 -245 -293 0
-213 -251 -300 0
-213 -251 -299 0
-213 -251 -301 0
-213 -251 -303 0
-195 -244 0
-188 -249 -294 0
-188 -249 -218 0
-188 -249 -295 0
-188 -249 -304 0
-188 -249 -296 0
-188 -242 -295 0
-188 -242 -297 0
-188 -242 -298 0
-188 -242 -293 0
-188 -242 -299 0
-188 -245 -294 0
-188 -245 -297 0
-188 -245 -304 0
-188 -245 -298 0
-188 -245 -305 0
-188 -245 -293 0
-188 -247 -218 0
-188 -247 -293 0
-188 -230 -296 0
-188 -230 -293 0
-195 -239 0
-207 -241 -299 0
-207 -240 -291 0
-207 -240 -297 0
-207 -240 -302 0
-207 -240 -303 0
-207 -240 -294 0
-207 -240 -301 0
-207 -253 -302 0
-207 -253 -299 0
-207 -251 -299 0
-207 -251 -301 0
-207 -251 -303 0
-207 -251 -297 0
-201 -238 0
-195 -206 -278 0
-195 -241 -309 0
-195 -241 -310 0
-195 -240 -278 0
-195 -240 -309 0
-195 -240 -311 0
-195 -240 -312 0
-195 -240 -313 0
-195 -240 -314 0
-195 -243 -310 0
-195 -243 -315 0
-195 -243 -313 0
-195 -243 -316 0
-195 -243 -317 0
-195 -243 -312 0
-195 -244 -318 0
-195 -244 -317 0
-195 -244 -319 0
-195 -244 -220 0
-195 -239 -278 0
-195 -239 -310 0
-195 -239 -314 0
-195 -239 -312 0
-201 -245 0
-234 -244 -294 0
-234 -244 -318 0
-234 -244 -319 0
-234 -244 -220 0
-234 -243 -294 0
-234 -243 -310 0
-234 -243 -315 0
-234 -243 -313 0
-234 -243 -316 0
-234 -243 -312 0
-234 -246 -315 0
-234 -246 -318 0
-234 -246 -320 0
-234 -248 -311 0
-234 -248 -320 0
-234 -248 -316 0
-234 -248 -321 0
-234 -248 -322 0
-234 -248 -313 0
-234 -250 -315 0
-234 -250 -316 0
-234 -250 -321 0
-234 -250 -322 0
-234 -249 -260 0
-234 -249 -220 0
-234 -249 -322 0
-234 -249 -319 0
-201 -243 0
-213 -238 -278 0
-213 -238 -310 0
-213 -238 -260 0
-213 -238 -309 0
-213 -240 -278 0
-213 -240 -294 0
-213 -240 -309 0
-213 -240 -312 0
-213 -240 -313 0
-213 -240 -314 0
-213 -248 -320 0
-213 -248 -316 0
-213 -248 -321 0
-213 -248 -322 0
-213 -248 -317 0
-213 -248 -313 0
-213 -252 -310 0
-213 -252 -312 0
-213 -252 -316 0
-213 -252 -315 0
-213 -254 -315 0
-213 -254 -313 0
-213 -254 -321 0
-213 -254 -320 0
-213 -245 -260 0
-213 -245 -322 0
-213 -245 -315 0
-213 -245 -320 0
-213 -245 -318 0
-213 -251 -309 0
-213 -251 -310 0
-213 -251 -314 0
-213 -251 -313 0
-201 -248 0
-256 -243 -294 0
-256 -243 -310 0
-256 -243 -313 0
-256 -243 -316 0
-256 -243 -317 0
-256 -243 -312 0
-256 -250 -317 0
-256 -250 -316 0
-256 -250 -321 0
-256 -250 -322 0
-256 -254 -311 0
-256 -254 -313 0
-256 -254 -321 0
-256 -254 -320 0
-256 -257 -316 0
-256 -257 -320 0
-256 -246 -317 0
-256 -246 -318 0
-256 -246 -320 0
-256 -245 -260 0
-256 -245 -311 0
-256 -245 -322 0
-256 -245 -320 0
-256 -245 -318 0
-256 -252 -310 0
-256 -252 -311 0
-256 -252 -312 0
-256 -252 -316 0
-201 -249 0
-231 -244 -294 0
-231 -244 -317 0
-231 -244 -319 0
-231 -244 -220 0
-231 -230 -319 0
-231 -230 -260 0
-231 -245 -260 0
-231 -245 -311 0
-231 -245 -322 0
-231 -245 -315 0
-231 -245 -320 0
-231 -246 -315 0
-231 -246 -317 0
-231 -246 -320 0
-231 -247 -260 0
-231 -247 -220 0
-201 -244 0
-188 -238 -278 0
-188 -238 -310 0
-188 -238 -311 0
-188 -238 -309 0
-188 -249 -220 0
-188 -249 -317 0
-188 -249 -322 0
-188 -249 -319 0
-188 -245 -311 0
-188 -245 -322 0
-188 -245 -315 0
-188 -245 -320 0
-188 -245 -318 0
-188 -247 -220 0
-188 -247 -318 0
-188 -230 -319 0
-188 -230 -318 0
-201 -240 0
-210 -241 -294 0
-210 -241 -309 0
-210 -238 -278 0
-210 -238 -311 0
-210 -238 -260 0
-210 -238 -309 0
-210 -239 -278 0
-210 -239 -314 0
-210 -239 -312 0
-210 -239 -294 0
-210 -243 -294 0
-210 -243 -315 0
-210 -243 -313 0
-210 -243 -316 0
-210 -243 -317 0
-210 -243 -312 0
-210 -251 -309 0
-210 -251 -314 0
-210 -251 -313 0
-210 -251 -311 0
-210 -252 -311 0
-210 -252 -312 0
-210 -252 -316 0
-210 -252 -315 0
-210 -253 -309 0
-210 -253 -312 0
-203 -247 0
-228 -244 -218 0
-228 -244 -219 0
-228 -244 -220 0
-228 -244 -221 0
-228 -249 -220 0
-228 -249 -225 0
-228 -249 -221 0
-228 -249 -232 0
-203 -244 0
-188 -238 -217 0
-188 -238 -220 0
-188 -238 -223 0
-188 -238 -224 0
-188 -238 -226 0
-188 -249 -220 0
-188 -249 -221 0
-188 -249 -232 0
-188 -249 -222 0
-188 -242 -218 0
-188 -242 -221 0
-188 -242 -224 0
-188 -242 -227 0
-188 -242 -219 0
-188 -242 -223 0
-188 -245 -220 0
-188 -245 -224 0
-188 -245 -232 0
-188 -245 -227 0
-188 -245 -235 0
-188 -245 -219 0
-188 -247 -219 0
-203 -249 0
-231 -242 -218 0
-231 -242 -221 0
-231 -242 -224 0
-231 -242 -227 0
-231 -242 -225 0
-231 -242 -223 0
-231 -244 -218 0
-231 -244 -220 0
-231 -244 -221 0
-231 -244 -222 0
-231 -245 -220 0
-231 -245 -225 0
-231 -245 -224 0
-231 -245 -232 0
-231 -245 -227 0
-231 -245 -235 0
-231 -246 -227 0
-231 -246 -221 0
-231 -246 -235 0
-231 -247 -225 0
-216 -238 -278 0
-216 -238 -283 0
-216 -238 -280 0
-216 -238 -258 0
-216 -238 -284 0
-204 -238 0
-195 -242 -279 0
-195 -242 -280 0
-195 -242 -281 0
-195 -242 -282 0
-195 -242 -258 0
-195 -242 -283 0
-195 -240 -284 0
-195 -240 -280 0
-195 -240 -285 0
-195 -240 -286 0
-195 -240 -278 0
-195 -240 -287 0
-195 -243 -278 0
-195 -243 -283 0
-195 -243 -281 0
-195 -243 -286 0
-195 -243 -288 0
-195 -243 -279 0
-195 -243 -285 0
-195 -244 -282 0
-195 -244 -278 0
-195 -244 -279 0
-195 -244 -289 0
-195 -244 -217 0
-195 -239 -283 0
-195 -239 -287 0
-195 -239 -285 0
-204 -239 0
-207 -240 -291 0
-207 -240 -280 0
-207 -240 -285 0
-207 -240 -286 0
-207 -240 -278 0
-207 -240 -287 0
-207 -253 -285 0
-207 -253 -283 0
-207 -251 -283 0
-207 -251 -287 0
-207 -251 -286 0
-207 -251 -280 0
-207 -238 -278 0
-207 -238 -283 0
-207 -238 -280 0
-207 -238 -258 0
-204 -240 0
-210 -238 -278 0
-210 -238 -280 0
-210 -238 -258 0
-210 -238 -284 0
-210 -239 -287 0
-210 -239 -285 0
-210 -239 -291 0
-210 -243 -291 0
-210 -243 -278 0
-210 -243 -281 0
-210 -243 -286 0
-210 -243 -288 0
-210 -243 -279 0
-210 -243 -285 0
-210 -251 -284 0
-210 -251 -287 0
-210 -251 -286 0
-210 -251 -280 0
-210 -252 -280 0
-210 -252 -285 0
-210 -252 -288 0
-210 -252 -281 0
-210 -242 -291 0
-210 -242 -279 0
-210 -242 -280 0
-210 -242 -281 0
-210 -242 -282 0
-210 -242 -258 0
-210 -253 -284 0
-210 -253 -285 0
-17 -57 0
-18 -58 0
-19 -59 0
-20 -60 0
-21 -61 0
-22 -62 0
-23 -63 0
-24 -64 0
-277 -199 -241 0
-277 -199 -238 0
-216 -258 -238 0
-216 -258 -239 0
-216 -258 -240 0
-216 -259 -241 0
-216 -259 -242 0
-216 -259 -240 0
-216 -259 -243 0
-216 -259 -239 0
-186 -259 0
-195 -199 -241 0
-195 -258 -239 0
-195 -258 -240 0
-195 -260 -245 0
-195 -260 -243 0
-195 -260 -248 0
-195 -260 -249 0
-195 -260 -240 0
-195 -261 -241 0
-195 -261 -239 0
-195 -261 -243 0
-195 -261 -251 0
-195 -261 -252 0
-195 -261 -242 0
-195 -261 -253 0
-195 -262 -242 0
-195 -262 -240 0
-195 -262 -248 0
-195 -262 -252 0
-195 -262 -254 0
-195 -262 -245 0
-195 -262 -251 0
-195 -263 -241 0
-195 -263 -240 0
-195 -263 -253 0
-195 -263 -251 0
-186 -260 0
-201 -259 -241 0
-201 -259 -240 0
-201 -259 -243 0
-201 -259 -239 0
-201 -264 -243 0
-201 -264 -246 0
-201 -264 -248 0
-201 -264 -250 0
-201 -264 -249 0
-201 -262 -238 0
-201 -262 -240 0
-201 -262 -248 0
-201 -262 -252 0
-201 -262 -254 0
-201 -262 -245 0
-201 -262 -251 0
-201 -265 -243 0
-201 -265 -250 0
-201 -265 -254 0
-201 -265 -257 0
-201 -265 -246 0
-201 -265 -245 0
-201 -265 -252 0
-201 -266 -230 0
-201 -266 -245 0
-201 -266 -246 0
-201 -266 -247 0
-201 -261 -241 0
-201 -261 -238 0
-201 -261 -239 0
-201 -261 -243 0
-201 -261 -251 0
-201 -261 -252 0
-201 -261 -253 0
-186 -225 0
-203 -267 -249 0
-203 -266 -242 0
-203 -266 -245 0
-203 -266 -246 0
-203 -266 -247 0
-186 -258 0
-204 -199 -238 0
-204 -259 -242 0
-204 -259 -240 0
-204 -259 -243 0
-204 -259 -239 0
-204 -263 -240 0
-204 -263 -253 0
-204 -263 -251 0
-204 -263 -238 0
-204 -261 -238 0
-204 -261 -239 0
-204 -261 -243 0
-204 -261 -251 0
-204 -261 -252 0
-204 -261 -242 0
-204 -261 -253 0
-216 -233 -238 0
-216 -244 -294 0
-216 -244 -218 0
-216 -244 -291 0
-216 -258 -300 0
-216 -258 -299 0
-216 -258 -238 0
-195 -244 0
-186 -199 -291 0
-186 -260 -295 0
-186 -260 -297 0
-186 -260 -298 0
-186 -260 -293 0
-186 -260 -299 0
-186 -225 -296 0
-186 -225 -293 0
-186 -258 -300 0
-186 -258 -299 0
-195 -258 0
-204 -199 -238 0
-204 -263 -299 0
-204 -263 -301 0
-204 -263 -302 0
-204 -261 -300 0
-204 -261 -297 0
-204 -261 -302 0
-204 -261 -303 0
-204 -261 -294 0
-204 -261 -301 0
-204 -244 -294 0
-204 -244 -218 0
-195 -260 0
-201 -244 -218 0
-201 -244 -291 0
-201 -264 -297 0
-201 -264 -304 0
-201 -264 -298 0
-201 -264 -305 0
-201 -264 -293 0
-201 -262 -299 0
-201 -262 -298 0
-201 -262 -303 0
-201 -262 -306 0
-201 -262 -295 0
-201 -262 -302 0
-201 -265 -297 0
-201 -265 -305 0
-201 -265 -306 0
-201 -265 -307 0
-201 -265 -304 0
-201 -265 -295 0
-201 -265 -303 0
-201 -266 -218 0
-201 -266 -295 0
-201 -266 -304 0
-201 -266 -296 0
-201 -261 -291 0
-201 -261 -300 0
-201 -261 -297 0
-201 -261 -302 0
-201 -261 -303 0
-201 -261 -301 0
-195 -261 0
-210 -258 -300 0
-210 -258 -238 0
-210 -263 -291 0
-210 -263 -301 0
-210 -263 -302 0
-210 -262 -294 0
-210 -262 -298 0
-210 -262 -303 0
-210 -262 -306 0
-210 -262 -295 0
-210 -262 -302 0
-210 -268 -300 0
-210 -268 -301 0
-210 -268 -303 0
-210 -268 -297 0
-210 -269 -297 0
-210 -269 -302 0
-210 -269 -306 0
-210 -269 -298 0
-210 -260 -238 0
-210 -260 -295 0
-210 -260 -297 0
-210 -260 -298 0
-210 -260 -293 0
-210 -270 -300 0
-210 -270 -302 0
-195 -262 0
-213 -260 -238 0
-213 -260 -295 0
-213 -260 -298 0
-213 -260 -293 0
-213 -260 -299 0
-213 -261 -291 0
-213 -261 -300 0
-213 -261 -302 0
-213 -261 -303 0
-213 -261 -294 0
-213 -261 -301 0
-213 -265 -294 0
-213 -265 -305 0
-213 -265 -306 0
-213 -265 -307 0
-213 -265 -304 0
-213 -265 -295 0
-213 -265 -303 0
-213 -269 -299 0
-213 -269 -302 0
-213 -269 -306 0
-213 -269 -298 0
-213 -271 -298 0
-213 -271 -303 0
-213 -271 -307 0
-213 -271 -305 0
-213 -264 -294 0
-213 -264 -304 0
-213 -264 -298 0
-213 -264 -305 0
-213 -264 -293 0
-213 -268 -300 0
-213 -268 -299 0
-213 -268 -301 0
-213 -268 -303 0
-195 -263 0
-207 -258 -299 0
-207 -258 -238 0
-207 -261 -291 0
-207 -261 -297 0
-207 -261 -302 0
-207 -261 -303 0
-207 -261 -294 0
-207 -261 -301 0
-207 -270 -302 0
-207 -270 -299 0
-207 -268 -299 0
-207 -268 -301 0
-207 -268 -303 0
-207 -268 -297 0
-231 -260 0
-201 -244 -293 0
-201 -244 -219 0
-201 -244 -282 0
-201 -259 -249 0
-201 -259 -282 0
-201 -259 -337 0
-201 -259 -349 0
-201 -259 -331 0
-201 -264 -349 0
-201 -264 -362 0
-201 -264 -363 0
-201 -264 -364 0
-201 -262 -293 0
-201 -262 -337 0
-201 -262 -363 0
-201 -262 -365 0
-201 -262 -366 0
-201 -262 -367 0
-201 -262 -368 0
-201 -265 -349 0
-201 -265 -364 0
-201 -265 -366 0
-201 -265 -369 0
-201 -265 -362 0
-201 -265 -367 0
-201 -265 -365 0
-201 -261 -282 0
-201 -261 -293 0
-201 -261 -331 0
-201 -261 -349 0
-201 -261 -368 0
-201 -261 -365 0
-201 -261 -370 0
-231 -225 0
-203 -244 -293 0
-203 -244 -318 0
-203 -244 -282 0
-231 -264 0
-234 -260 -249 0
-234 -260 -293 0
-234 -260 -349 0
-234 -260 -363 0
-234 -260 -337 0
-234 -262 -293 0
-234 -262 -318 0
-234 -262 -337 0
-234 -262 -363 0
-234 -262 -365 0
-234 -262 -366 0
-234 -262 -368 0
-234 -272 -363 0
-234 -272 -364 0
-234 -265 -318 0
-234 -265 -349 0
-234 -265 -364 0
-234 -265 -366 0
-234 -265 -369 0
-234 -265 -362 0
-234 -265 -365 0
-234 -273 -363 0
-234 -273 -366 0
-234 -273 -369 0
-234 -273 -362 0
-231 -272 0
-237 -265 -318 0
-237 -265 -349 0
-237 -265 -364 0
-237 -265 -366 0
-237 -265 -369 0
-237 -265 -367 0
-237 -265 -365 0
-237 -264 -318 0
-237 -264 -349 0
-237 -264 -363 0
-237 -264 -364 0
-237 -273 -363 0
-237 -273 -367 0
-237 -273 -366 0
-237 -273 -369 0
-231 -267 0
-228 -225 -249 0
-201 -244 0
-186 -199 -278 0
-186 -199 -294 0
-186 -259 -278 0
-186 -259 -310 0
-186 -259 -311 0
-186 -259 -309 0
-186 -225 -319 0
-186 -225 -318 0
-186 -258 -294 0
-186 -258 -309 0
-186 -258 -310 0
-201 -259 0
-195 -199 -242 0
-195 -199 -278 0
-195 -244 -220 0
-195 -244 -278 0
-195 -258 -309 0
-195 -258 -310 0
-195 -258 -242 0
-195 -261 -278 0
-195 -261 -309 0
-195 -261 -311 0
-195 -261 -312 0
-195 -261 -313 0
-195 -261 -314 0
-195 -262 -310 0
-195 -262 -315 0
-195 -262 -313 0
-195 -262 -316 0
-195 -262 -317 0
-195 -262 -312 0
-195 -263 -278 0
-195 -263 -310 0
-195 -263 -314 0
-195 -263 -312 0
-201 -264 0
-234 -262 -294 0
-234 -262 -310 0
-234 -262 -315 0
-234 -262 -313 0
-234 -262 -316 0
-234 -262 -312 0
-234 -272 -315 0
-234 -272 -318 0
-234 -272 -320 0
-234 -265 -311 0
-234 -265 -320 0
-234 -265 -316 0
-234 -265 -321 0
-234 -265 -322 0
-234 -265 -313 0
-234 -273 -315 0
-234 -273 -316 0
-234 -273 -321 0
-234 -273 -322 0
-234 -266 -220 0
-234 -266 -322 0
-234 -266 -319 0
-201 -262 0
-213 -259 -242 0
-213 -259 -278 0
-213 -259 -310 0
-213 -259 -309 0
-213 -261 -278 0
-213 -261 -294 0
-213 -261 -309 0
-213 -261 -312 0
-213 -261 -313 0
-213 -261 -314 0
-213 -265 -320 0
-213 -265 -316 0
-213 -265 -321 0
-213 -265 -322 0
-213 -265 -317 0
-213 -265 -313 0
-213 -269 -310 0
-213 -269 -312 0
-213 -269 -316 0
-213 -269 -315 0
-213 -271 -315 0
-213 -271 -313 0
-213 -271 -321 0
-213 -271 -320 0
-213 -264 -322 0
-213 -264 -315 0
-213 -264 -320 0
-213 -264 -318 0
-213 -268 -309 0
-213 -268 -310 0
-213 -268 -314 0
-213 -268 -313 0
-201 -265 0
-256 -262 -294 0
-256 -262 -310 0
-256 -262 -313 0
-256 -262 -316 0
-256 -262 -317 0
-256 -262 -312 0
-256 -273 -317 0
-256 -273 -316 0
-256 -273 -321 0
-256 -273 -322 0
-256 -271 -311 0
-256 -271 -313 0
-256 -271 -321 0
-256 -271 -320 0
-256 -274 -316 0
-256 -274 -320 0
-256 -272 -317 0
-256 -272 -318 0
-256 -272 -320 0
-256 -264 -311 0
-256 -264 -322 0
-256 -264 -320 0
-256 -264 -318 0
-256 -269 -310 0
-256 -269 -311 0
-256 -269 -312 0
-256 -269 -316 0
-201 -266 0
-231 -225 -242 0
-231 -225 -319 0
-231 -264 -311 0
-231 -264 -322 0
-231 -264 -315 0
-231 -264 -320 0
-231 -272 -315 0
-231 -272 -317 0
-231 -272 -320 0
-231 -267 -220 0
-201 -261 0
-210 -258 -294 0
-210 -258 -309 0
-210 -258 -242 0
-210 -259 -242 0
-210 -259 -278 0
-210 -259 -311 0
-210 -259 -309 0
-210 -263 -278 0
-210 -263 -314 0
-210 -263 -312 0
-210 -263 -294 0
-210 -262 -294 0
-210 -262 -315 0
-210 -262 -313 0
-210 -262 -316 0
-210 -262 -317 0
-210 -262 -312 0
-210 -268 -309 0
-210 -268 -314 0
-210 -268 -313 0
-210 -268 -311 0
-210 -269 -311 0
-210 -269 -312 0
-210 -269 -316 0
-210 -269 -315 0
-210 -270 -309 0
-210 -270 -312 0
-234 -260 0
-201 -244 -295 0
-201 -244 -221 0
-201 -244 -279 0
-201 -259 -245 0
-201 -259 -279 0
-201 -259 -334 0
-201 -259 -352 0
-201 -259 -328 0
-201 -262 -295 0
-201 -262 -334 0
-105 -97 371 0
-106 -98 371 0
-107 -99 371 0
-108 -100 371 0
-109 -101 371 0
-110 -102 371 0
-111 -103 371 0
-112 -104 371 0
-201 -262 -371 0
-105 -145 372 0
-106 -146 372 0
-107 -147 372 0
-108 -148 372 0
-109 -149 372 0
-110 -150 372 0
-111 -151 372 0
-112 -152 372 0
-201 -262 -372 0
-105 -153 373 0
-106 -154 373 0
-107 -155 373 0
-108 -156 373 0
-109 -157 373 0
-110 -158 373 0
-111 -159 373 0
-112 -160 373 0
-201 -262 -373 0
-105 -137 374 0
-106 -138 374 0
-107 -139 374 0
-108 -140 374 0
-109 -141 374 0
-110 -142 374 0
-111 -143 374 0
-112 -144 374 0
-201 -262 -374 0
-201 -265 -352 0
-105 -169 375 0
-106 -170 375 0
-107 -171 375 0
-108 -172 375 0
-109 -173 375 0
-110 -174 375 0
-111 -175 375 0
-112 -176 375 0
-201 -265 -375 0
-201 -265 -373 0
-105 -161 376 0
-106 -162 376 0
-107 -163 376 0
-108 -164 376 0
-109 -165 376 0
-110 -166 376 0
-111 -167 376 0
-112 -168 376 0
-201 -265 -376 0
-105 -177 377 0
-106 -178 377 0
-107 -179 377 0
-108 -180 377 0
-109 -181 377 0
-110 -182 377 0
-111 -183 377 0
-112 -184 377 0
-201 -265 -377 0
-201 -265 -372 0
-201 -266 -221 0
-201 -266 -377 0
-201 -266 -357 0
-201 -261 -279 0
-201 -261 -295 0
-201 -261 -328 0
-201 -261 -352 0
-201 -261 -374 0
-201 -261 -372 0
-105 -129 378 0
-106 -130 378 0
-107 -131 378 0
-108 -132 378 0
-109 -133 378 0
-110 -134 378 0
-111 -135 378 0
-112 -136 378 0
-201 -261 -378 0
-234 -262 0
-213 -259 -245 0
-213 -259 -279 0
-213 -259 -317 0
-213 -259 -334 0
-213 -259 -328 0
-213 -260 -245 0
-213 -260 -295 0
-213 -260 -371 0
-213 -260 -367 0
-213 -260 -334 0
-213 -261 -279 0
-213 -261 -295 0
-213 -261 -328 0
-213 -261 -374 0
-213 -261 -372 0
-213 -261 -317 0
-213 -261 -378 0
-213 -265 -317 0
-213 -265 -375 0
-213 -265 -373 0
-213 -265 -376 0
-213 -265 -377 0
-213 -265 -372 0
-213 -269 -334 0
-213 -269 -374 0
-213 -269 -373 0
-213 -269 -371 0
-213 -271 -371 0
-213 -271 -372 0
-213 -271 -376 0
-213 -271 -375 0
-213 -268 -328 0
-213 -268 -334 0
-213 -268 -378 0
-213 -268 -372 0
-234 -272 0
-237 -265 -317 0
-237 -265 -352 0
-237 -265 -375 0
-237 -265 -373 0
-237 -265 -376 0
-237 -265 -372 0
-237 -266 -317 0
-237 -266 -221 0
-237 -266 -357 0
-237 -273 -371 0
-237 -273 -373 0
-237 -273 -376 0
-234 -265 0
-256 -260 -245 0
-256 -260 -295 0
-256 -260 -352 0
-256 -260 -367 0
-256 -260 -334 0
-256 -262 -295 0
-256 -262 -317 0
-256 -262 -334 0
-256 -262 -372 0
-256 -262 -373 0
-256 -262 -374 0
-256 -273 -373 0
-256 -273 -376 0
-256 -273 -377 0
-256 -271 -352 0
-256 -271 -372 0
-256 -271 -376 0
-256 -271 -375 0
-256 -274 -373 0
-256 -274 -375 0
-256 -272 -367 0
-256 -272 -375 0
-256 -269 -334 0
-256 -269 -352 0
-256 -269 -374 0
-256 -269 -373 0
-234 -273 0
-276 -265 -317 0
-276 -265 -352 0
-276 -265 -373 0
-276 -265 -376 0
-276 -265 -377 0
-276 -265 -372 0
-276 -271 -352 0
-276 -271 -371 0
-276 -271 -372 0
-276 -271 -376 0
-276 -274 -371 0
-276 -274 -373 0
-276 -272 -371 0
-276 -272 -367 0
-234 -266 0
-231 -260 -245 0
-231 -260 -295 0
-231 -260 -352 0
-231 -260 -371 0
-231 -260 -334 0
-231 -225 -245 0
-231 -225 -357 0
-231 -272 -371 0
-231 -272 -375 0
-231 -267 -221 0
-228 -225 0
-203 -244 -296 0
-203 -244 -319 0
-203 -244 -289 0
-203 -266 -319 0
-203 -266 -357 0
-203 -266 -358 0
-228 -266 0
-231 -260 -247 0
-231 -260 -296 0
-231 -260 -357 0
-231 -260 -354 0
-231 -260 -359 0
-231 -260 -341 0
-231 -225 -247 0
-231 -264 -319 0
-231 -264 -354 0
-231 -264 -358 0
-231 -264 -359 0
-231 -264 -361 0
-231 -272 -359 0
-231 -272 -357 0
-231 -272 -361 0
-203 -244 0
-186 -199 -217 0
-186 -199 -218 0
-186 -259 -217 0
-186 -259 -220 0
-186 -259 -223 0
-186 -259 -224 0
-186 -259 -226 0
-186 -260 -218 0
-186 -260 -221 0
-186 -260 -224 0
-186 -260 -227 0
-186 -260 -219 0
-186 -260 -223 0
-186 -258 -218 0
-186 -258 -226 0
-186 -258 -223 0
-203 -267 0
-228 -266 -220 0
-228 -266 -221 0
-228 -266 -232 0
-203 -266 0
-231 -260 -230 0
-231 -260 -218 0
-231 -260 -221 0
-231 -260 -224 0
-231 -260 -227 0
-231 -260 -223 0
-231 -264 -220 0
-231 -264 -224 0
-231 -264 -232 0
-231 -264 -227 0
-231 -264 -235 0
-231 -272 -227 0
-231 -272 -221 0
-231 -272 -235 0
-206 -205 -195 0
-206 -205 -207 0
-206 -205 -210 0
-206 -212 -204 0
-206 -212 -201 0
-206 -212 -210 0
-206 -212 -213 0
-206 -212 -188 0
-206 -212 -207 0
-186 -215 0
-230 -229 -188 0
-230 -229 -231 0
-230 -233 -195 0
-230 -233 -231 0
-230 -233 -201 0
-230 -233 -234 0
-230 -233 -228 0
-230 -236 -201 0
-230 -236 -188 0
-230 -236 -234 0
-230 -236 -237 0
-230 -236 -228 0
-186 -233 0
-244 -212 -204 0
-244 -212 -201 0
-244 -212 -210 0
-244 -212 -213 0
-244 -212 -207 0
-244 -236 -201 0
-244 -236 -203 0
-244 -236 -234 0
-244 -236 -237 0
-244 -236 -228 0
-244 -255 -195 0
-244 -255 -234 0
-244 -255 -213 0
-244 -255 -256 0
-244 -255 -231 0
-244 -255 -210 0
-244 -275 -201 0
-244 -275 -213 0
-244 -275 -237 0
-244 -275 -256 0
-244 -275 -276 0
-244 -275 -231 0
-244 -229 -203 0
-244 -229 -231 0
-244 -215 -228 0
-244 -215 -231 0
-206 -205 0
-241 -212 -191 0
-241 -212 -197 0
-241 -212 -198 0
-241 -212 -199 0
-241 -212 -200 0
-241 -290 -197 0
-241 -290 -208 0
-241 -290 -209 0
-241 -290 -189 0
-241 -292 -189 0
-241 -292 -200 0
-241 -292 -198 0
-241 -292 -209 0
-241 -292 -211 0
-241 -292 -191 0
-241 -292 -208 0
-206 -212 0
-238 -205 -200 0
-238 -205 -197 0
-238 -255 -192 0
-238 -255 -198 0
-238 -255 -202 0
-238 -255 -190 0
-238 -255 -199 0
-238 -255 -197 0
-238 -292 -196 0
-238 -292 -200 0
-238 -292 -198 0
-238 -292 -209 0
-238 -292 -211 0
-238 -292 -191 0
-238 -292 -208 0
-238 -308 -191 0
-238 -308 -197 0
-238 -308 -202 0
-238 -308 -211 0
-238 -308 -214 0
-238 -308 -192 0
-238 -308 -209 0
-238 -233 -190 0
-238 -233 -191 0
-238 -233 -192 0
-238 -233 -193 0
-238 -233 -194 0
-238 -290 -196 0
-238 -290 -197 0
-238 -290 -208 0
-238 -290 -209 0
-186 -215 -193 0
-186 -215 -199 0
-186 -215 -190 0
-186 -233 -189 0
-186 -233 -190 0
-186 -233 -191 0
-186 -233 -192 0
-186 -233 -193 0
-186 -233 -194 0
-186 -194 -229 0
-186 -194 -233 0
-186 -194 -236 0
-186 -199 -212 0
-186 -199 -236 0
-186 -199 -255 0
-186 -199 -275 0
-186 -199 -229 0
-186 -199 -215 0
-241 -189 0
-238 -191 -279 0
-238 -191 -280 0
-238 -191 -281 0
-238 -191 -282 0
-238 -191 -258 0
-238 -191 -283 0
-238 -197 -284 0
-238 -197 -280 0
-238 -197 -285 0
-238 -197 -286 0
-238 -197 -278 0
-238 -197 -287 0
-238 -198 -278 0
-238 -198 -283 0
-238 -198 -281 0
-238 -198 -286 0
-238 -198 -288 0
-238 -198 -279 0
-238 -198 -285 0
-238 -199 -282 0
-238 -199 -278 0
-238 -199 -279 0
-238 -199 -289 0
-238 -199 -217 0
-238 -200 -283 0
-238 -200 -287 0
-238 -200 -285 0
-241 -200 0
-239 -197 -291 0
-239 -197 -280 0
-239 -197 -285 0
-239 -197 -286 0
-239 -197 -278 0
-239 -197 -287 0
-239 -208 -285 0
-239 -208 -283 0
-239 -209 -283 0
-239 -209 -287 0
-239 -209 -286 0
-239 -209 -280 0
-239 -189 -278 0
-239 -189 -283 0
-239 -189 -280 0
-239 -189 -258 0
-241 -197 0
-240 -189 -278 0
-240 -189 -280 0
-240 -189 -258 0
-240 -189 -284 0
-240 -200 -287 0
-240 -200 -285 0
-240 -200 -291 0
-240 -198 -291 0
-240 -198 -278 0
-240 -198 -281 0
-240 -198 -286 0
-240 -198 -288 0
-240 -198 -279 0
-240 -198 -285 0
-240 -209 -284 0
-240 -209 -287 0
-240 -209 -286 0
-240 -209 -280 0
-240 -211 -280 0
-240 -211 -285 0
-240 -211 -288 0
-240 -211 -281 0
-240 -191 -291 0
-240 -191 -279 0
-240 -191 -280 0
-240 -191 -281 0
-240 -191 -282 0
-240 -191 -258 0
-240 -208 -284 0
-240 -208 -285 0
-238 -196 0
-241 -200 -299 0
-241 -200 -301 0
-241 -200 -302 0
-241 -197 -300 0
-241 -197 -297 0
-241 -197 -302 0
-241 -197 -303 0
-241 -197 -294 0
-241 -197 -301 0
-238 -191 0
-242 -192 -259 0
-242 -192 -297 0
-242 -192 -304 0
-242 -192 -298 0
-242 -192 -305 0
-242 -192 -293 0
-242 -198 -299 0
-242 -198 -298 0
-242 -198 -303 0
-242 -198 -306 0
-242 -198 -295 0
-242 -198 -302 0
-242 -202 -297 0
-242 -202 -305 0
-242 -202 -306 0
-242 -202 -307 0
-242 -202 -304 0
-242 -202 -295 0
-242 -202 -303 0
-242 -190 -259 0
-242 -190 -218 0
-242 -190 -295 0
-242 -190 -304 0
-242 -190 -296 0
-242 -199 -293 0
-242 -199 -295 0
-242 -199 -296 0
-242 -199 -218 0
-242 -197 -291 0
-242 -197 -300 0
-242 -197 -297 0
-242 -197 -302 0
-242 -197 -303 0
-242 -197 -301 0
-238 -197 0
-240 -196 -300 0
-240 -200 -291 0
-240 -200 -301 0
-240 -200 -302 0
-240 -198 -294 0
-240 -198 -298 0
-240 -198 -303 0
-240 -198 -306 0
-240 -198 -295 0
-240 -198 -302 0
-240 -209 -300 0
-240 -209 -301 0
-240 -209 -303 0
-240 -209 -297 0
-240 -211 -297 0
-240 -211 -302 0
-240 -211 -306 0
-240 -211 -298 0
-240 -191 -295 0
-240 -191 -297 0
-240 -191 -298 0
-240 -191 -293 0
-240 -191 -259 0
-240 -208 -300 0
-240 -208 -302 0
-238 -198 0
-243 -191 -295 0
-243 -191 -298 0
-243 -191 -293 0
-243 -191 -259 0
-243 -191 -299 0
-243 -197 -291 0
-243 -197 -300 0
-243 -197 -302 0
-243 -197 -303 0
-243 -197 -294 0
-243 -197 -301 0
-243 -202 -294 0
-243 -202 -305 0
-243 -202 -306 0
-243 -202 -307 0
-243 -202 -304 0
-243 -202 -295 0
-243 -202 -303 0
-243 -211 -299 0
-243 -211 -302 0
-243 -211 -306 0
-243 -211 -298 0
-243 -214 -298 0
-243 -214 -303 0
-243 -214 -307 0
-243 -214 -305 0
-243 -192 -294 0
-243 -192 -259 0
-243 -192 -304 0
-243 -192 -298 0
-243 -192 -305 0
-243 -192 -293 0
-243 -209 -300 0
-243 -209 -299 0
-243 -209 -301 0
-243 -209 -303 0
-238 -199 0
-244 -216 -218 0
-244 -190 -294 0
-244 -190 -218 0
-244 -190 -295 0
-244 -190 -304 0
-244 -190 -296 0
-244 -191 -295 0
-244 -191 -297 0
-244 -191 -298 0
-244 -191 -293 0
-244 -191 -299 0
-244 -192 -294 0
-244 -192 -297 0
-244 -192 -304 0
-244 -192 -298 0
-244 -192 -305 0
-244 -192 -293 0
-244 -193 -218 0
-244 -193 -293 0
-244 -194 -296 0
-244 -194 -293 0
-238 -200 0
-239 -196 -299 0
-239 -197 -291 0
-239 -197 -297 0
-239 -197 -302 0
-239 -197 -303 0
-239 -197 -294 0
-239 -197 -301 0
-239 -208 -302 0
-239 -208 -299 0
-239 -209 -299 0
-239 -209 -301 0
-239 -209 -303 0
-239 -209 -297 0
-186 -194 0
-230 -193 -188 0
-230 -193 -231 0
-230 -199 -195 0
-230 -199 -231 0
-230 -199 -201 0
-230 -199 -234 0
-230 -199 -228 0
-230 -190 -201 0
-230 -190 -188 0
-230 -190 -234 0
-230 -190 -237 0
-230 -190 -228 0
-186 -199 0
-244 -189 -204 0
-244 -189 -201 0
-244 -189 -210 0
-244 -189 -213 0
-244 -189 -207 0
-244 -190 -201 0
-244 -190 -203 0
-244 -190 -234 0
-244 -190 -237 0
-244 -190 -228 0
-244 -191 -195 0
-244 -191 -234 0
-244 -191 -213 0
-244 -191 -256 0
-244 -191 -231 0
-244 -191 -210 0
-244 -192 -201 0
-244 -192 -213 0
-244 -192 -237 0
-244 -192 -256 0
-244 -192 -276 0
-244 -192 -231 0
-244 -193 -203 0
-244 -193 -231 0
-244 -194 -228 0
-244 -194 -231 0
-206 -204 -212 0
-206 -204 -290 0
-206 -204 -292 0
-206 -195 -205 0
-206 -195 -255 0
-206 -195 -292 0
-206 -195 -308 0
-206 -195 -233 0
-206 -195 -290 0
-206 -204 0
-241 -195 -191 0
-241 -195 -197 0
-241 -195 -198 0
-241 -195 -199 0
-241 -195 -200 0
-241 -207 -197 0
-241 -207 -208 0
-241 -207 -209 0
-241 -207 -189 0
-241 -210 -189 0
-241 -210 -200 0
-241 -210 -198 0
-241 -210 -209 0
-241 -210 -211 0
-241 -210 -191 0
-241 -210 -208 0
-206 -195 0
-238 -204 -200 0
-238 -204 -197 0
-238 -201 -192 0
-238 -201 -198 0
-238 -201 -202 0
-238 -201 -190 0
-238 -201 -199 0
-238 -201 -197 0
-238 -210 -196 0
-238 -210 -200 0
-238 -210 -198 0
-238 -210 -209 0
-238 -210 -211 0
-238 -210 -191 0
-238 -210 -208 0
-238 -213 -191 0
-238 -213 -197 0
-238 -213 -202 0
-238 -213 -211 0
-238 -213 -214 0
-238 -213 -192 0
-238 -213 -209 0
-238 -188 -190 0
-238 -188 -191 0
-238 -188 -192 0
-238 -188 -193 0
-238 -188 -194 0
-238 -207 -196 0
-238 -207 -197 0
-238 -207 -208 0
-238 -207 -209 0
-230 -228 0
-247 -188 -218 0
-247 -188 -219 0
-247 -188 -220 0
-247 -188 -221 0
-247 -231 -220 0
-247 -231 -225 0
-247 -231 -221 0
-247 -231 -232 0
-230 -188 0
-244 -195 -217 0
-244 -195 -220 0
-244 -195 -223 0
-244 -195 -224 0
-244 -195 -226 0
-244 -231 -220 0
-244 -231 -221 0
-244 -231 -232 0
-244 -231 -222 0
-244 -201 -218 0
-244 -201 -221 0
-244 -201 -224 0
-244 -201 -227 0
-244 -201 -219 0
-244 -201 -223 0
-244 -234 -220 0
-244 -234 -224 0
-244 -234 -232 0
-244 -234 -227 0
-244 -234 -235 0
-244 -234 -219 0
-244 -228 -219 0
-230 -231 0
-249 -201 -218 0
-249 -201 -221 0
-249 -201 -224 0
-249 -201 -227 0
-249 -201 -225 0
-249 -201 -223 0
-249 -188 -218 0
-249 -188 -220 0
-249 -188 -221 0
-249 -188 -222 0
-249 -234 -220 0
-249 -234 -225 0
-249 -234 -224 0
-249 -234 -232 0
-249 -234 -227 0
-249 -234 -235 0
-249 -237 -227 0
-249 -237 -221 0
-249 -237 -235 0
-249 -228 -225 0
-244 -195 0
-238 -216 -258 0
-238 -204 -263 0
-238 -204 -261 0
-238 -201 -264 0
-238 -201 -262 0
-238 -201 -265 0
-238 -201 -266 0
-238 -201 -261 0
-238 -210 -258 0
-238 -210 -263 0
-238 -210 -262 0
-238 -210 -268 0
-238 -210 -269 0
-238 -210 -260 0
-238 -210 -270 0
-238 -213 -260 0
-238 -213 -261 0
-238 -213 -265 0
-238 -213 -269 0
-238 -213 -271 0
-238 -213 -264 0
-238 -213 -268 0
-238 -207 -258 0
-238 -207 -261 0
-238 -207 -270 0
-238 -207 -268 0
-244 -231 0
-249 -201 -259 0
-249 -201 -264 0
-249 -201 -262 0
-249 -201 -265 0
-249 -201 -261 0
-249 -203 -267 0
-249 -234 -260 0
-249 -234 -262 0
-249 -234 -272 0
-249 -234 -265 0
-249 -234 -273 0
-249 -237 -265 0
-249 -237 -264 0
-249 -237 -273 0
-249 -228 -225 0
-244 -201 0
-242 -195 -258 0
-242 -195 -261 0
-242 -195 -262 0
-242 -195 -263 0
-242 -234 -262 0
-242 -234 -272 0
-242 -234 -265 0
-242 -234 -273 0
-242 -234 -266 0
-242 -213 -259 0
-242 -213 -261 0
-242 -213 -265 0
-242 -213 -269 0
-242 -213 -271 0
-242 -213 -264 0
-242 -213 -268 0
-242 -256 -262 0
-242 -256 -273 0
-242 -256 -271 0
-242 -256 -274 0
-242 -256 -272 0
-242 -256 -264 0
-242 -256 -269 0
-242 -231 -225 0
-242 -231 -264 0
-242 -231 -272 0
-242 -231 -267 0
-242 -210 -258 0
-242 -210 -259 0
-242 -210 -263 0
-242 -210 -262 0
-242 -210 -268 0
-242 -210 -269 0
-242 -210 -270 0
-244 -234 0
-245 -201 -259 0
-245 -201 -262 0
-245 -201 -265 0
-245 -201 -266 0
-245 -201 -261 0
-245 -213 -259 0
-245 -213 -260 0
-245 -213 -261 0
-245 -213 -265 0
-245 -213 -269 0
-245 -213 -271 0
-245 -213 -268 0
-245 -237 -265 0
-245 -237 -266 0
-245 -237 -273 0
-245 -256 -260 0
-245 -256 -262 0
-245 -256 -273 0
-245 -256 -271 0
-245 -256 -274 0
-245 -256 -272 0
-245 -256 -269 0
-245 -276 -265 0
-245 -276 -271 0
-245 -276 -274 0
-245 -276 -272 0
-245 -231 -260 0
-245 -231 -225 0
-245 -231 -272 0
-245 -231 -267 0
-244 -228 0
-247 -203 -266 0
-247 -231 -260 0
-247 -231 -225 0
-247 -231 -264 0
-247 -231 -272 0
-244 -203 0
-230 -228 -266 0
-230 -231 -260 0
-230 -231 -264 0
-230 -231 -272 0
-230 -231 -267 0
-25 -57 0
-26 -58 0
-27 -59 0
-28 -60 0
-29 -61 0
-30 -62 0
-31 -63 0
-32 -64 0
-187 -199 -204 0
-187 -199 -195 0
-206 -258 -195 0
-206 -258 -207 0
-206 -258 -210 0
-206 -259 -204 0
-206 -259 -201 0
-206 -259 -210 0
-206 -259 -213 0
-206 -259 -207 0
-186 -225 0
-230 -267 -231 0
-230 -266 -201 0
-230 -266 -234 0
-230 -266 -237 0
-230 -266 -228 0
-206 -258 -300 0
-206 -258 -299 0
-206 -188 -218 0
-238 -258 0
-241 -263 -299 0
-241 -263 -301 0
-241 -263 -302 0
-241 -261 -300 0
-241 -261 -297 0
-241 -261 -302 0
-241 -261 -303 0
-241 -261 -294 0
-241 -261 -301 0
-238 -260 0
-242 -264 -297 0
-242 -264 -304 0
-242 -264 -298 0
-242 -264 -305 0
-242 -264 -293 0
-242 -262 -299 0
-242 -262 -298 0
-242 -262 -303 0
-242 -262 -306 0
-242 -262 -295 0
-242 -262 -302 0
-242 -265 -297 0
-242 -265 -305 0
-242 -265 -306 0
-242 -265 -307 0
-242 -265 -304 0
-242 -265 -295 0
-242 -265 -303 0
-242 -266 -218 0
-242 -266 -295 0
-242 -266 -304 0
-242 -266 -296 0
-242 -261 -291 0
-242 -261 -300 0
-242 -261 -297 0
-242 -261 -302 0
-242 -261 -303 0
-242 -261 -301 0
-238 -261 0
-240 -258 -300 0
-240 -263 -291 0
-240 -263 -301 0
-240 -263 -302 0
-240 -262 -294 0
-240 -262 -298 0
-240 -262 -303 0
-240 -262 -306 0
-240 -262 -295 0
-240 -262 -302 0
-240 -268 -300 0
-240 -268 -301 0
-240 -268 -303 0
-240 -268 -297 0
-240 -269 -297 0
-240 -269 -302 0
-240 -269 -306 0
-240 -269 -298 0
-240 -260 -295 0
-240 -260 -297 0
-240 -260 -298 0
-240 -260 -293 0
-240 -270 -300 0
-240 -270 -302 0
-238 -262 0
-243 -260 -295 0
-243 -260 -298 0
-243 -260 -293 0
-243 -260 -299 0
-243 -261 -291 0
-243 -261 -300 0
-243 -261 -302 0
-243 -261 -303 0
-243 -261 -294 0
-243 -261 -301 0
-243 -265 -294 0
-243 -265 -305 0
-243 -265 -306 0
-243 -265 -307 0
-243 -265 -304 0
-243 -265 -295 0
-243 -265 -303 0
-243 -269 -299 0
-243 -269 -302 0
-243 -269 -306 0
-243 -269 -298 0
-243 -271 -298 0
-243 -271 -303 0
-243 -271 -307 0
-243 -271 -305 0
-243 -264 -294 0
-243 -264 -304 0
-243 -264 -298 0
-243 -264 -305 0
-243 -264 -293 0
-243 -268 -300 0
-243 -268 -299 0
-243 -268 -301 0
-243 -268 -303 0
-238 -263 0
-239 -258 -299 0
-239 -261 -291 0
-239 -261 -297 0
-239 -261 -302 0
-239 -261 -303 0
-239 -261 -294 0
-239 -261 -301 0
-239 -270 -302 0
-239 -270 -299 0
-239 -268 -299 0
-239 -268 -301 0
-239 -268 -303 0
-239 -268 -297 0
-249 -260 0
-242 -259 -282 0
-242 -259 -337 0
-242 -259 -349 0
-242 -259 -331 0
-242 -264 -349 0
-242 -264 -362 0
-242 -264 -363 0
-242 -264 -364 0
-242 -262 -293 0
-242 -262 -337 0
-242 -262 -363 0
-242 -262 -365 0
-242 -262 -366 0
-242 -262 -367 0
-242 -262 -368 0
-242 -265 -349 0
-242 -265 -364 0
-242 -265 -366 0
-242 -265 -369 0
-242 -265 -362 0
-242 -265 -367 0
-242 -265 -365 0
-242 -261 -282 0
-242 -261 -293 0
-242 -261 -331 0
-242 -261 -349 0
-242 -261 -368 0
-242 -261 -365 0
-242 -261 -370 0
-249 -225 0
-249 -264 0
-245 -260 -293 0
-245 -260 -349 0
-245 -260 -363 0
-245 -260 -337 0
-245 -262 -293 0
-245 -262 -318 0
-245 -262 -337 0
-245 -262 -363 0
-245 -262 -365 0
-245 -262 -366 0
-245 -262 -368 0
-245 -272 -363 0
-245 -272 -364 0
-245 -265 -318 0
-245 -265 -349 0
-245 -265 -364 0
-245 -265 -366 0
-245 -265 -369 0
-245 -265 -362 0
-245 -265 -365 0
-245 -273 -363 0
-245 -273 -366 0
-245 -273 -369 0
-245 -273 -362 0
-249 -272 0
-246 -265 -318 0
-246 -265 -349 0
-246 -265 -364 0
-246 -265 -366 0
-246 -265 -369 0
-246 -265 -367 0
-246 -265 -365 0
-246 -264 -318 0
-246 -264 -349 0
-246 -264 -363 0
-246 -264 -364 0
-246 -273 -363 0
-246 -273 -367 0
-246 -273 -366 0
-246 -273 -369 0
-249 -267 0
-242 -259 0
-238 -199 -278 0
-238 -258 -309 0
-238 -258 -310 0
-238 -261 -278 0
-238 -261 -309 0
-238 -261 -311 0
-238 -261 -312 0
-238 -261 -313 0
-238 -261 -314 0
-238 -262 -310 0
-238 -262 -315 0
-238 -262 -313 0
-238 -262 -316 0
-238 -262 -317 0
-238 -262 -312 0
-238 -263 -278 0
-238 -263 -310 0
-238 -263 -314 0
-238 -263 -312 0
-242 -264 0
-245 -262 -294 0
-245 -262 -310 0
-245 -262 -315 0
-245 -262 -313 0
-245 -262 -316 0
-245 -262 -312 0
-245 -272 -315 0
-245 -272 -318 0
-245 -272 -320 0
-245 -265 -311 0
-245 -265 -320 0
-245 -265 -316 0
-245 -265 -321 0
-245 -265 -322 0
-245 -265 -313 0
-245 -273 -315 0
-245 -273 -316 0
-245 -273 -321 0
-245 -273 -322 0
-245 -266 -220 0
-245 -266 -322 0
-245 -266 -319 0
-242 -262 0
-243 -259 -278 0
-243 -259 -310 0
-243 -259 -309 0
-243 -261 -278 0
-243 -261 -294 0
-243 -261 -309 0
-243 -261 -312 0
-243 -261 -313 0
-243 -261 -314 0
-243 -265 -320 0
-243 -265 -316 0
-243 -265 -321 0
-243 -265 -322 0
-243 -265 -317 0
-243 -265 -313 0
-243 -269 -310 0
-243 -269 -312 0
-243 -269 -316 0
-243 -269 -315 0
-243 -271 -315 0
-243 -271 -313 0
-243 -271 -321 0
-243 -271 -320 0
-243 -264 -322 0
-243 -264 -315 0
-243 -264 -320 0
-243 -264 -318 0
-243 -268 -309 0
-243 -268 -310 0
-243 -268 -314 0
-243 -268 -313 0
-242 -265 0
-248 -262 -294 0
-248 -262 -310 0
-248 -262 -313 0
-248 -262 -316 0
-248 -262 -317 0
-248 -262 -312 0
-248 -273 -317 0
-248 -273 -316 0
-248 -273 -321 0
-248 -273 -322 0
-248 -271 -311 0
-248 -271 -313 0
-248 -271 -321 0
-248 -271 -320 0
-248 -274 -316 0
-248 -274 -320 0
-248 -272 -317 0
-248 -272 -318 0
-248 -272 -320 0
-248 -264 -311 0
-248 -264 -322 0
-248 -264 -320 0
-248 -264 -318 0
-248 -269 -310 0
-248 -269 -311 0
-248 -269 -312 0
-248 -269 -316 0
-242 -266 0
-249 -225 -319 0
-249 -264 -311 0
-249 -264 -322 0
-249 -264 -315 0
-249 -264 -320 0
-249 -272 -315 0
-249 -272 -317 0
-249 -272 -320 0
-249 -267 -220 0
-242 -261 0
-240 -258 -294 0
-240 -258 -309 0
-240 -259 -278 0
-240 -259 -311 0
-240 -259 -309 0
-240 -263 -278 0
-240 -263 -314 0
-240 -263 -312 0
-240 -263 -294 0
-240 -262 -294 0
-240 -262 -315 0
-240 -262 -313 0
-240 -262 -316 0
-240 -262 -317 0
-240 -262 -312 0
-240 -268 -309 0
-240 -268 -314 0
-240 -268 -313 0
-240 -268 -311 0
-240 -269 -311 0
-240 -269 -312 0
-240 -269 -316 0
-240 -269 -315 0
-240 -270 -309 0
-240 -270 -312 0
-245 -260 0
-242 -259 -279 0
-242 -259 -334 0
-242 -259 -352 0
-242 -259 -328 0
-242 -262 -295 0
-242 -262 -334 0
-242 -262 -371 0
-242 -262 -372 0
-242 -262 -373 0
-242 -262 -374 0
-242 -265 -352 0
-242 -265 -375 0
-242 -265 -373 0
-242 -265 -376 0
-242 -265 -377 0
-242 -265 -372 0
-242 -266 -221 0
-242 -266 -377 0
-242 -266 -357 0
-242 -261 -279 0
-242 -261 -295 0
-242 -261 -328 0
-242 -261 -352 0
-242 -261 -374 0
-242 -261 -372 0
-242 -261 -378 0
-245 -262 0
-243 -259 -279 0
-243 -259 -317 0
-243 -259 -334 0
-243 -259 -328 0
-243 -260 -295 0
-243 -260 -371 0
-243 -260 -367 0
-243 -260 -334 0
-243 -261 -279 0
-243 -261 -295 0
-243 -261 -328 0
-243 -261 -374 0
-243 -261 -372 0
-243 -261 -317 0
-243 -261 -378 0
-243 -265 -317 0
-243 -265 -375 0
-243 -265 -373 0
-243 -265 -376 0
-243 -265 -377 0
-243 -265 -372 0
-243 -269 -334 0
-243 -269 -374 0
-243 -269 -373 0
-243 -269 -371 0
-243 -271 -371 0
-243 -271 -372 0
-243 -271 -376 0
-243 -271 -375 0
-243 -268 -328 0
-243 -268 -334 0
-243 -268 -378 0
-243 -268 -372 0
-245 -272 0
-246 -265 -317 0
-246 -265 -352 0
-246 -265 -375 0
-246 -265 -373 0
-246 -265 -376 0
-246 -265 -372 0
-246 -266 -317 0
-246 -266 -221 0
-246 -266 -357 0
-246 -273 -371 0
-246 -273 -373 0
-246 -273 -376 0
-245 -265 0
-248 -260 -295 0
-248 -260 -352 0
-248 -260 -367 0
-248 -260 -334 0
-248 -262 -295 0
-248 -262 -317 0
-248 -262 -334 0
-248 -262 -372 0
-248 -262 -373 0
-248 -262 -374 0
-248 -273 -373 0
-248 -273 -376 0
-248 -273 -377 0
-248 -271 -352 0
-248 -271 -372 0
-248 -271 -376 0
-248 -271 -375 0
-248 -274 -373 0
-248 -274 -375 0
-248 -272 -367 0
-248 -272 -375 0
-248 -269 -334 0
-248 -269 -352 0
-248 -269 -374 0
-248 -269 -373 0
-245 -273 0
-250 -265 -317 0
-250 -265 -352 0
-250 -265 -373 0
-250 -265 -376 0
-250 -265 -377 0
-250 -265 -372 0
-250 -271 -352 0
-250 -271 -371 0
-250 -271 -372 0
-250 -271 -376 0
-250 -274 -371 0
-250 -274 -373 0
-250 -272 -371 0
-250 -272 -367 0
-245 -266 0
-249 -260 -295 0
-249 -260 -352 0
-249 -260 -371 0
-249 -260 -334 0
-249 -225 -357 0
-249 -272 -371 0
-249 -272 -375 0
-249 -267 -221 0
-247 -225 0
-230 -266 -319 0
-230 -266 -357 0
-230 -266 -358 0
-247 -266 0
-249 -260 -296 0
-249 -260 -357 0
-249 -260 -354 0
-249 -260 -359 0
-249 -260 -341 0
-249 -264 -319 0
-249 -264 -354 0
-249 -264 -358 0
-249 -264 -359 0
-249 -264 -361 0
-249 -272 -359 0
-249 -272 -357 0
-249 -272 -361 0
-186 -199 -217 0
-186 -199 -218 0
-230 -267 0
-247 -266 -220 0
-247 -266 -221 0
-247 -266 -232 0
-230 -266 0
-249 -260 -218 0
-249 -260 -221 0
-249 -260 -224 0
-249 -260 -227 0
-249 -260 -223 0
-249 -264 -220 0
-249 -264 -224 0
-249 -264 -232 0
-249 -264 -227 0
-249 -264 -235 0
-249 -272 -227 0
-249 -272 -221 0
-249 -272 -235 0
-25 -41 0
-26 -42 0
-27 -43 0
-28 -44 0
-29 -45 0
-30 -46 0
-31 -47 0
-32 -48 0
-187 -195 -194 0
-187 -195 -199 0
-206 -291 0
-241 -300 -197 0
-241 -300 -208 0
-241 -300 -209 0
-241 -299 -200 0
-241 -299 -198 0
-241 -299 -209 0
-241 -299 -211 0
-241 -299 -191 0
-241 -299 -208 0
-186 -218 -193 0
-186 -218 -199 0
-186 -218 -190 0
-186 -259 -190 0
-186 -259 -191 0
-186 -259 -192 0
-186 -259 -193 0
-186 -259 -194 0
-206 -195 -217 0
-206 -195 -258 0
-241 -300 0
-239 -299 -280 0
-239 -299 -285 0
-239 -299 -286 0
-239 -299 -278 0
-239 -299 -287 0
-239 -301 -285 0
-239 -301 -283 0
-239 -302 -283 0
-239 -302 -287 0
-239 -302 -286 0
-239 -302 -280 0
-241 -299 0
-240 -300 -287 0
-240 -300 -285 0
-240 -297 -278 0
-240 -297 -281 0
-240 -297 -286 0
-240 -297 -288 0
-240 -297 -279 0
-240 -297 -285 0
-240 -302 -284 0
-240 -302 -287 0
-240 -302 -286 0
-240 -302 -280 0
-240 -303 -280 0
-240 -303 -285 0
-240 -303 -288 0
-240 -303 -281 0
-240 -294 -279 0
-240 -294 -280 0
-240 -294 -281 0
-240 -294 -282 0
-240 -294 -258 0
-240 -301 -284 0
-240 -301 -285 0
-242 -295 0
-245 -259 -318 0
-245 -259 -319 0
-245 -259 -220 0
-245 -297 -310 0
-245 -297 -315 0
-245 -297 -313 0
-245 -297 -316 0
-245 -297 -312 0
-245 -304 -315 0
-245 -304 -318 0
-245 -304 -320 0
-245 -298 -311 0
-245 -298 -320 0
-245 -298 -316 0
-245 -298 -321 0
-245 -298 -322 0
-245 -298 -313 0
-245 -305 -315 0
-245 -305 -316 0
-245 -305 -321 0
-245 -305 -322 0
-245 -293 -260 0
-245 -293 -220 0
-245 -293 -322 0
-245 -293 -319 0
-242 -297 0
-243 -299 -278 0
-243 -299 -309 0
-243 -299 -312 0
-243 -299 -313 0
-243 -299 -314 0
-243 -298 -320 0
-243 -298 -316 0
-243 -298 -321 0
-243 -298 -322 0
-243 -298 -317 0
-243 -298 -313 0
-243 -303 -310 0
-243 -303 -312 0
-243 -303 -316 0
-243 -303 -315 0
-243 -306 -315 0
-243 -306 -313 0
-243 -306 -321 0
-243 -306 -320 0
-243 -295 -260 0
-243 -295 -322 0
-243 -295 -315 0
-243 -295 -320 0
-243 -295 -318 0
-243 -302 -309 0
-243 -302 -310 0
-243 -302 -314 0
-243 -302 -313 0
-242 -298 0
-248 -297 -310 0
-248 -297 -313 0
-248 -297 -316 0
-248 -297 -317 0
-248 -297 -312 0
-248 -305 -317 0
-248 -305 -316 0
-248 -305 -321 0
-248 -305 -322 0
-248 -306 -311 0
-248 -306 -313 0
-248 -306 -321 0
-248 -306 -320 0
-248 -307 -316 0
-248 -307 -320 0
-248 -304 -317 0
-248 -304 -318 0
-248 -304 -320 0
-248 -295 -260 0
-248 -295 -311 0
-248 -295 -322 0
-248 -295 -320 0
-248 -295 -318 0
-248 -303 -310 0
-248 -303 -311 0
-248 -303 -312 0
-248 -303 -316 0
-242 -293 0
-249 -259 -317 0
-249 -259 -319 0
-249 -259 -220 0
-249 -218 -319 0
-249 -218 -260 0
-249 -295 -260 0
-249 -295 -311 0
-249 -295 -322 0
-249 -295 -315 0
-249 -295 -320 0
-249 -304 -315 0
-249 -304 -317 0
-249 -304 -320 0
-249 -296 -260 0
-249 -296 -220 0
-242 -259 0
-244 -195 -220 0
-244 -293 -220 0
-244 -293 -317 0
-244 -293 -322 0
-244 -293 -319 0
-244 -295 -311 0
-244 -295 -322 0
-244 -295 -315 0
-244 -295 -320 0
-244 -295 -318 0
-244 -296 -220 0
-244 -296 -318 0
-244 -218 -319 0
-244 -218 -318 0
-242 -299 0
-240 -291 -309 0
-240 -300 -278 0
-240 -300 -314 0
-240 -300 -312 0
-240 -297 -315 0
-240 -297 -313 0
-240 -297 -316 0
-240 -297 -317 0
-240 -297 -312 0
-240 -302 -309 0
-240 -302 -314 0
-240 -302 -313 0
-240 -302 -311 0
-240 -303 -311 0
-240 -303 -312 0
-240 -303 -316 0
-240 -303 -315 0
-240 -301 -309 0
-240 -301 -312 0
-240 -291 0
-241 -300 -342 0
-241 -300 -340 0
-240 -300 0
-239 -301 -340 0
-239 -302 -342 0
-239 -302 -338 0
-239 -302 -335 0
-240 -297 0
-243 -294 -334 0
-243 -294 -336 0
-243 -294 -337 0
-243 -294 -261 0
-243 -298 -310 0
-243 -298 -343 0
-243 -298 -339 0
-243 -298 -344 0
-243 -298 -345 0
-243 -298 -334 0
-243 -298 -338 0
-243 -303 -340 0
-243 -303 -339 0
-243 -303 -336 0
-243 -306 -336 0
-243 -306 -338 0
-243 -306 -344 0
-243 -306 -343 0
-243 -295 -310 0
-243 -295 -261 0
-243 -295 -345 0
-243 -295 -336 0
-243 -295 -343 0
-243 -295 -337 0
-243 -302 -332 0
-243 -302 -342 0
-243 -302 -338 0
-240 -302 0
-251 -300 -283 0
-251 -300 -342 0
-251 -301 -332 0
-251 -303 -335 0
-251 -303 -339 0
-251 -303 -336 0
-251 -297 -310 0
-251 -297 -336 0
-251 -297 -338 0
-251 -297 -339 0
-251 -297 -334 0
-240 -303 0
-252 -297 -310 0
-252 -297 -336 0
-252 -297 -339 0
-252 -297 -334 0
-252 -297 -340 0
-252 -302 -332 0
-252 -302 -342 0
-252 -302 -335 0
-252 -306 -335 0
-252 -306 -336 0
-252 -306 -344 0
-252 -306 -343 0
-252 -298 -310 0
-252 -298 -335 0
-252 -298 -343 0
-252 -298 -339 0
-252 -298 -344 0
-252 -298 -345 0
-252 -298 -334 0
-240 -294 0
-242 -295 -261 0
-242 -295 -335 0
-242 -295 -345 0
-242 -295 -336 0
-242 -295 -343 0
-242 -295 -337 0
-242 -297 -336 0
-242 -297 -338 0
-242 -297 -339 0
-242 -297 -334 0
-242 -297 -340 0
-242 -298 -335 0
-242 -298 -343 0
-242 -298 -339 0
-242 -298 -344 0
-242 -298 -345 0
-242 -298 -334 0
-242 -298 -338 0
-242 -293 -261 0
-242 -293 -223 0
-242 -293 -334 0
-242 -293 -345 0
-242 -293 -341 0
-242 -259 -337 0
-242 -259 -334 0
-242 -259 -341 0
-242 -259 -223 0
-240 -301 0
-253 -300 -283 0
-253 -300 -340 0
-253 -302 -332 0
-253 -302 -338 0
-253 -302 -335 0
-243 -294 0
-242 -295 -262 0
-242 -295 -346 0
-242 -295 -347 0
-242 -295 -348 0
-242 -295 -349 0
-242 -298 -348 0
-242 -298 -350 0
-242 -298 -351 0
-242 -298 -346 0
-242 -298 -352 0
-242 -298 -353 0
-242 -293 -262 0
-242 -293 -224 0
-242 -293 -352 0
-242 -293 -346 0
-242 -293 -354 0
-242 -259 -349 0
-242 -259 -352 0
-242 -259 -354 0
-242 -259 -224 0
-242 -299 -280 0
-242 -299 -324 0
-242 -299 -355 0
-242 -299 -353 0
-242 -299 -356 0
-243 -299 0
-240 -291 -324 0
-240 -300 -280 0
-240 -300 -356 0
-240 -300 -355 0
-240 -302 -324 0
-240 -302 -356 0
-240 -302 -353 0
-240 -303 -355 0
-240 -303 -350 0
-240 -303 -347 0
-240 -294 -352 0
-240 -294 -347 0
-240 -294 -349 0
-240 -294 -262 0
-240 -301 -324 0
-240 -301 -355 0
-243 -298 0
-248 -294 -352 0
-248 -294 -349 0
-248 -294 -262 0
-248 -294 -335 0
-248 -305 -352 0
-248 -305 -350 0
-248 -305 -351 0
-248 -305 -346 0
-248 -306 -353 0
-248 -306 -351 0
-248 -306 -348 0
-248 -307 -350 0
-248 -307 -348 0
-248 -304 -352 0
-248 -304 -349 0
-248 -304 -348 0
-248 -295 -311 0
-248 -295 -262 0
-248 -295 -346 0
-248 -295 -348 0
-248 -295 -349 0
-248 -303 -335 0
-248 -303 -355 0
-248 -303 -350 0
-243 -303 0
-252 -299 -280 0
-252 -299 -324 0
-252 -299 -355 0
-252 -299 -311 0
-252 -299 -356 0
-252 -302 -324 0
-252 -302 -335 0
-252 -302 -356 0
-252 -306 -347 0
-252 -306 -351 0
-252 -306 -348 0
-252 -298 -311 0
-252 -298 -348 0
-252 -298 -350 0
-252 -298 -351 0
-252 -298 -346 0
-252 -298 -352 0
-243 -306 0
-254 -298 -311 0
-254 -298 -348 0
-254 -298 -351 0
-254 -298 -346 0
-254 -298 -352 0
-254 -298 -353 0
-254 -303 -335 0
-254 -303 -355 0
-254 -303 -347 0
-254 -307 -347 0
-254 -307 -348 0
-254 -305 -347 0
-254 -305 -352 0
-254 -305 -351 0
-254 -305 -346 0
-243 -295 0
-245 -294 -347 0
-245 -294 -349 0
-245 -294 -262 0
-245 -294 -335 0
-245 -259 -349 0
-245 -259 -311 0
-245 -259 -354 0
-245 -259 -224 0
-245 -304 -347 0
-245 -304 -349 0
-245 -304 -348 0
-245 -298 -311 0
-245 -298 -348 0
-245 -298 -350 0
-245 -298 -351 0
-245 -298 -346 0
-245 -298 -353 0
-245 -305 -347 0
-245 -305 -350 0
-245 -305 -351 0
-245 -305 -346 0
-245 -293 -311 0
-245 -293 -262 0
-245 -293 -224 0
-245 -293 -346 0
-245 -293 -354 0
-243 -302 0
-251 -300 -280 0
-251 -300 -335 0
-251 -300 -356 0
-251 -299 -280 0
-251 -299 -324 0
-251 -299 -353 0
-251 -299 -311 0
-251 -299 -356 0
-251 -301 -324 0
-251 -301 -335 0
-251 -303 -335 0
-251 -303 -350 0
-251 -303 -347 0
-186 -189 -258 0
-186 -218 -267 0
-186 -218 -266 0
-244 -293 0
-249 -294 -264 0
-249 -294 -262 0
-249 -294 -265 0
-249 -294 -261 0
-249 -218 -267 0
-249 -295 -260 0
-249 -295 -262 0
-249 -295 -272 0
-249 -295 -265 0
-249 -295 -273 0
-249 -304 -265 0
-249 -304 -264 0
-249 -304 -273 0
-249 -296 -225 0
-244 -294 0
-242 -295 -262 0
-242 -295 -272 0
-242 -295 -265 0
-242 -295 -273 0
-242 -295 -266 0
-242 -297 -261 0
-242 -297 -265 0
-242 -297 -269 0
-242 -297 -271 0
-242 -297 -264 0
-242 -297 -268 0
-242 -298 -262 0
-242 -298 -273 0
-242 -298 -271 0
-242 -298 -274 0
-242 -298 -272 0
-242 -298 -264 0
-242 -298 -269 0
-242 -293 -225 0
-242 -293 -264 0
-242 -293 -272 0
-242 -293 -267 0
-242 -299 -258 0
-242 -299 -263 0
-242 -299 -262 0
-242 -299 -268 0
-242 -299 -269 0
-242 -299 -270 0
-244 -295 0
-245 -294 -262 0
-245 -294 -265 0
-245 -294 -266 0
-245 -294 -261 0
-245 -297 -260 0
-245 -297 -261 0
-245 -297 -265 0
-245 -297 -269 0
-245 -297 -271 0
-245 -297 -268 0
-245 -304 -265 0
-245 -304 -266 0
-245 -304 -273 0
-245 -298 -260 0
-245 -298 -262 0
-245 -298 -273 0
-245 -298 -271 0
-245 -298 -274 0
-245 -298 -272 0
-245 -298 -269 0
-245 -305 -265 0
-245 -305 -271 0
-245 -305 -274 0
-245 -305 -272 0
-245 -293 -260 0
-245 -293 -225 0
-245 -293 -272 0
-245 -293 -267 0
-244 -296 0
-247 -218 -266 0
-247 -293 -260 0
-247 -293 -225 0
-247 -293 -264 0
-247 -293 -272 0
-244 -218 0
-230 -296 -266 0
-230 -293 -260 0
-230 -293 -264 0
-230 -293 -272 0
-230 -293 -267 0
-239 -291 0
-241 -299 -324 0
-241 -299 -329 0
-241 -299 -326 0
-241 -299 -309 0
-241 -299 -330 0
-239 -299 0
-240 -297 -309 0
-240 -297 -325 0
-240 -297 -326 0
-240 -297 -327 0
-240 -297 -328 0
-240 -297 -329 0
-240 -302 -330 0
-240 -302 -326 0
-240 -302 -324 0
-240 -303 -324 0
-240 -303 -329 0
-240 -303 -327 0
-240 -303 -325 0
-240 -294 -328 0
-240 -294 -324 0
-240 -294 -325 0
-240 -294 -331 0
-240 -294 -263 0
-240 -301 -329 0
-239 -301 0
-253 -302 -332 0
-253 -302 -326 0
-253 -302 -324 0
-253 -299 -284 0
-253 -299 -324 0
-253 -299 -329 0
-253 -299 -326 0
-253 -299 -309 0
-239 -302 0
-251 -299 -284 0
-251 -299 -324 0
-251 -299 -326 0
-251 -299 -309 0
-251 -299 -330 0
-251 -301 -332 0
-251 -303 -332 0
-251 -303 -324 0
-251 -303 -327 0
-251 -303 -325 0
-251 -297 -309 0
-251 -297 -332 0
-251 -297 -325 0
-251 -297 -326 0
-251 -297 -327 0
-251 -297 -328 0
-25 -49 0
-26 -50 0
-27 -51 0
-28 -52 0
-29 -53 0
-30 -54 0
-31 -55 0
-32 -56 0
-206 -278 -300 0
-206 -278 -299 0
-206 -201 -218 0
-206 -201 -259 0
-238 -278 0
-241 -309 -299 0
-241 -309 -301 0
-241 -309 -302 0
-241 -310 -300 0
-241 -310 -297 0
-241 -310 -302 0
-241 -310 -303 0
-241 -310 -301 0
-238 -310 0
-240 -278 -300 0
-240 -309 -291 0
-240 -309 -301 0
-240 -309 -302 0
-240 -311 -298 0
-240 -311 -303 0
-240 -311 -306 0
-240 -311 -295 0
-240 -311 -302 0
-240 -312 -300 0
-240 -312 -301 0
-240 -312 -303 0
-240 -312 -297 0
-240 -313 -297 0
-240 -313 -302 0
-240 -313 -306 0
-240 -313 -298 0
-240 -314 -300 0
-240 -314 -302 0
-238 -311 0
-243 -310 -291 0
-243 -310 -300 0
-243 -310 -302 0
-243 -310 -303 0
-243 -310 -301 0
-243 -315 -305 0
-243 -315 -306 0
-243 -315 -307 0
-243 -315 -304 0
-243 -315 -295 0
-243 -315 -303 0
-243 -313 -299 0
-243 -313 -302 0
-243 -313 -306 0
-243 -313 -298 0
-243 -316 -298 0
-243 -316 -303 0
-243 -316 -307 0
-243 -316 -305 0
-243 -317 -259 0
-243 -317 -304 0
-243 -317 -298 0
-243 -317 -305 0
-243 -317 -293 0
-243 -312 -300 0
-243 -312 -299 0
-243 -312 -301 0
-243 -312 -303 0
-238 -260 0
-244 -201 -218 0
-244 -318 -218 0
-244 -318 -295 0
-244 -318 -304 0
-244 -318 -296 0
-244 -317 -297 0
-244 -317 -304 0
-244 -317 -298 0
-244 -317 -305 0
-244 -317 -293 0
-244 -319 -218 0
-244 -319 -293 0
-244 -220 -296 0
-244 -220 -293 0
-238 -309 0
-239 -278 -299 0
-239 -310 -291 0
-239 -310 -297 0
-239 -310 -302 0
-239 -310 -303 0
-239 -310 -301 0
-239 -314 -302 0
-239 -314 -299 0
-239 -312 -299 0
-239 -312 -301 0
-239 -312 -303 0
-239 -312 -297 0
-245 -260 0
-244 -201 -221 0
-244 -294 -279 0
-244 -294 -334 0
-244 -294 -352 0
-244 -294 -328 0
-244 -318 -221 0
-244 -318 -377 0
-244 -318 -357 0
-244 -319 -221 0
-244 -319 -367 0
-244 -220 -357 0
-244 -220 -367 0
-245 -311 0
-243 -294 -279 0
-243 -294 -334 0
-243 -294 -264 0
-243 -294 -328 0
-243 -310 -279 0
-243 -310 -295 0
-243 -310 -328 0
-243 -310 -374 0
-243 -310 -372 0
-243 -310 -378 0
-243 -315 -375 0
-243 -315 -373 0
-243 -315 -376 0
-243 -315 -377 0
-243 -315 -372 0
-243 -313 -334 0
-243 -313 -374 0
-243 -313 -373 0
-243 -313 -371 0
-243 -316 -371 0
-243 -316 -372 0
-243 -316 -376 0
-243 -316 -375 0
-243 -312 -328 0
-243 -312 -334 0
-243 -312 -378 0
-243 -312 -372 0
-245 -322 0
-246 -315 -352 0
-246 -315 -375 0
-246 -315 -373 0
-246 -315 -376 0
-246 -315 -372 0
-246 -318 -264 0
-246 -318 -221 0
-246 -318 -357 0
-246 -320 -371 0
-246 -320 -373 0
-246 -320 -376 0
-245 -315 0
-248 -311 -295 0
-248 -311 -334 0
-248 -311 -372 0
-248 -311 -373 0
-248 -311 -374 0
-248 -320 -373 0
-248 -320 -376 0
-248 -320 -377 0
-248 -316 -352 0
-248 -316 -372 0
-248 -316 -376 0
-248 -316 -375 0
-248 -321 -373 0
-248 -321 -375 0
-248 -322 -367 0
-248 -322 -375 0
-248 -313 -334 0
-248 -313 -352 0
-248 -313 -374 0
-248 -313 -373 0
-245 -320 0
-250 -315 -352 0
-250 -315 -373 0
-250 -315 -376 0
-250 -315 -377 0
-250 -315 -372 0
-250 -316 -352 0
-250 -316 -371 0
-250 -316 -372 0
-250 -316 -376 0
-250 -321 -371 0
-250 -321 -373 0
-250 -322 -371 0
-250 -322 -367 0
-245 -318 0
-249 -260 -295 0
-249 -260 -357 0
-249 -260 -221 0
-249 -220 -357 0
-249 -220 -264 0
-249 -322 -371 0
-249 -322 -375 0
-249 -319 -264 0
-249 -319 -221 0
-243 -294 0
-238 -191 -280 0
-238 -278 -324 0
-238 -278 -335 0
-238 -310 -280 0
-238 -310 -324 0
-238 -310 -355 0
-238 -310 -353 0
-238 -310 -356 0
-238 -260 -349 0
-238 -260 -352 0
-238 -260 -354 0
-238 -260 -224 0
-238 -309 -280 0
-238 -309 -335 0
-238 -309 -356 0
-238 -309 -355 0
-243 -310 0
-240 -278 -297 0
-240 -278 -324 0
-240 -294 -280 0
-240 -294 -262 0
-240 -294 -324 0
-240 -309 -280 0
-240 -309 -356 0
-240 -309 -355 0
-240 -309 -297 0
-240 -312 -324 0
-240 -312 -356 0
-240 -312 -353 0
-240 -313 -355 0
-240 -313 -350 0
-240 -313 -347 0
-240 -314 -324 0
-240 -314 -355 0
-243 -315 0
-248 -320 -352 0
-248 -320 -350 0
-248 -320 -351 0
-248 -320 -346 0
-248 -316 -353 0
-248 -316 -351 0
-248 -316 -348 0
-248 -321 -350 0
-248 -321 -348 0
-248 -322 -352 0
-248 -322 -349 0
-248 -322 -348 0
-248 -317 -262 0
-248 -317 -346 0
-248 -317 -348 0
-248 -317 -349 0
-248 -313 -335 0
-248 -313 -355 0
-248 -313 -350 0
-243 -313 0
-252 -310 -280 0
-252 -310 -297 0
-252 -310 -324 0
-252 -310 -355 0
-252 -310 -356 0
-252 -312 -324 0
-252 -312 -335 0
-252 -312 -356 0
-252 -316 -347 0
-252 -316 -351 0
-252 -316 -348 0
-252 -315 -348 0
-252 -315 -350 0
-252 -315 -351 0
-252 -315 -346 0
-252 -315 -352 0
-243 -316 0
-254 -315 -348 0
-254 -315 -351 0
-254 -315 -346 0
-254 -315 -352 0
-254 -315 -353 0
-254 -313 -335 0
-254 -313 -355 0
-254 -313 -347 0
-254 -321 -347 0
-254 -321 -348 0
-254 -320 -347 0
-254 -320 -352 0
-254 -320 -351 0
-254 -320 -346 0
-243 -317 0
-245 -260 -297 0
-245 -260 -349 0
-245 -260 -354 0
-245 -260 -224 0
-245 -322 -347 0
-245 -322 -349 0
-245 -322 -348 0
-245 -315 -348 0
-245 -315 -350 0
-245 -315 -351 0
-245 -315 -346 0
-245 -315 -353 0
-245 -320 -347 0
-245 -320 -350 0
-245 -320 -351 0
-245 -320 -346 0
-245 -318 -262 0
-245 -318 -224 0
-245 -318 -346 0
-245 -318 -354 0
-243 -312 0
-251 -309 -280 0
-251 -309 -335 0
-251 -309 -356 0
-251 -309 -297 0
-251 -310 -280 0
-251 -310 -297 0
-251 -310 -324 0
-251 -310 -353 0
-251 -310 -356 0
-251 -314 -324 0
-251 -314 -335 0
-251 -313 -335 0
-251 -313 -350 0
-251 -313 -347 0
-248 -311 0
-243 -294 -281 0
-243 -294 -336 0
-243 -294 -265 0
-243 -294 -325 0
-243 -310 -281 0
-243 -310 -298 0
-243 -310 -325 0
-97 -137 379 0
-98 -138 379 0
-99 -139 379 0
-100 -140 379 0
-101 -141 379 0
-102 -142 379 0
-103 -143 379 0
-104 -144 379 0
-243 -310 -379 0
-97 -145 380 0
-98 -146 380 0
-99 -147 380 0
-100 -148 380 0
-101 -149 380 0
-102 -150 380 0
-103 -151 380 0
-104 -152 380 0
-243 -310 -380 0
-97 -129 381 0
-98 -130 381 0
-99 -131 381 0
-100 -132 381 0
-101 -133 381 0
-102 -134 381 0
-103 -135 381 0
-104 -136 381 0
-243 -310 -381 0
-243 -313 -336 0
-243 -313 -379 0
-97 -153 382 0
-98 -154 382 0
-99 -155 382 0
-100 -156 382 0
-101 -157 382 0
-102 -158 382 0
-103 -159 382 0
-104 -160 382 0
-243 -313 -382 0
-243 -316 -380 0
-97 -161 383 0
-98 -162 383 0
-99 -163 383 0
-100 -164 383 0
-101 -165 383 0
-102 -166 383 0
-103 -167 383 0
-104 -168 383 0
-243 -316 -383 0
-97 -169 384 0
-98 -170 384 0
-99 -171 384 0
-100 -172 384 0
-101 -173 384 0
-102 -174 384 0
-103 -175 384 0
-104 -176 384 0
-243 -316 -384 0
-243 -317 -265 0
-97 -177 385 0
-98 -178 385 0
-99 -179 385 0
-100 -180 385 0
-101 -181 385 0
-102 -182 385 0
-103 -183 385 0
-104 -184 385 0
-243 -317 -385 0
-243 -317 -384 0
-243 -317 -363 0
-243 -312 -325 0
-243 -312 -336 0
-243 -312 -381 0
-243 -312 -380 0
-248 -320 0
-250 -317 -265 0
-250 -317 -347 0
-250 -317 -385 0
-250 -317 -363 0
-250 -316 -347 0
-250 -316 -380 0
-250 -316 -383 0
-250 -321 -382 0
-250 -322 -371 0
-250 -322 -363 0
-248 -316 0
-254 -311 -298 0
-254 -311 -336 0
-254 -311 -380 0
-254 -311 -371 0
-254 -311 -379 0
-254 -313 -336 0
-254 -313 -347 0
-254 -313 -379 0
-254 -321 -384 0
-254 -320 -371 0
-254 -320 -383 0
-254 -320 -385 0
-248 -321 0
-257 -316 -347 0
-257 -316 -380 0
-257 -316 -384 0
-257 -320 -371 0
-257 -320 -382 0
-257 -320 -385 0
-248 -322 0
-246 -317 -265 0
-246 -317 -347 0
-246 -317 -384 0
-246 -317 -363 0
-246 -318 -265 0
-246 -318 -227 0
-246 -318 -371 0
-246 -318 -359 0
-246 -320 -371 0
-246 -320 -382 0
-246 -320 -383 0
-248 -317 0
-245 -260 -298 0
-245 -260 -363 0
-245 -260 -359 0
-245 -260 -227 0
-245 -311 -298 0
-245 -311 -336 0
-245 -311 -380 0
-245 -311 -382 0
-245 -311 -379 0
-245 -322 -363 0
-245 -322 -384 0
-245 -320 -382 0
-245 -320 -383 0
-245 -320 -385 0
-245 -318 -265 0
-245 -318 -227 0
-245 -318 -385 0
-245 -318 -359 0
-248 -313 0
-252 -310 -281 0
-252 -310 -298 0
-252 -310 -325 0
-252 -310 -347 0
-252 -310 -379 0
-252 -310 -381 0
-252 -311 -298 0
-252 -311 -336 0
-252 -311 -382 0
-252 -311 -371 0
-252 -311 -379 0
-252 -312 -325 0
-252 -312 -336 0
-252 -312 -381 0
-252 -312 -347 0
-252 -316 -347 0
-252 -316 -383 0
-252 -316 -384 0
-249 -260 0
-244 -201 -219 0
-244 -294 -282 0
-244 -294 -337 0
-244 -294 -349 0
-244 -294 -331 0
-244 -317 -349 0
-244 -317 -362 0
-244 -317 -363 0
-244 -317 -364 0
-244 -319 -219 0
-244 -220 -360 0
-249 -220 0
-230 -201 -266 0
-230 -319 -266 0
-230 -260 -293 0
-230 -260 -367 0
-230 -260 -360 0
-249 -317 0
-245 -260 -293 0
-245 -260 -360 0
-245 -260 -219 0
-245 -311 -293 0
-245 -311 -337 0
-245 -311 -363 0
-245 -311 -365 0
-245 -311 -366 0
-245 -311 -368 0
-245 -322 -363 0
-245 -322 -364 0
-245 -315 -349 0
-245 -315 -364 0
-245 -315 -366 0
-245 -315 -369 0
-245 -315 -362 0
-245 -315 -365 0
-245 -320 -363 0
-245 -320 -366 0
-245 -320 -369 0
-245 -320 -362 0
-249 -322 0
-246 -315 -349 0
-246 -315 -364 0
-246 -315 -366 0
-246 -315 -369 0
-246 -315 -367 0
-246 -315 -365 0
-246 -317 -266 0
-246 -317 -349 0
-246 -317 -363 0
-246 -317 -364 0
-246 -320 -363 0
-246 -320 -367 0
-246 -320 -366 0
-246 -320 -369 0
-249 -319 0
-247 -260 -293 0
-247 -260 -367 0
-247 -260 -219 0
-247 -220 -266 0
-186 -191 -258 0
-186 -191 -259 0
-186 -220 -267 0
-186 -220 -266 0
-244 -294 0
-238 -191 -258 0
-238 -278 -263 0
-238 -278 -261 0
-238 -310 -258 0
-238 -310 -263 0
-238 -310 -262 0
-238 -310 -268 0
-238 -310 -269 0
-238 -310 -270 0
-238 -311 -261 0
-238 -311 -265 0
-238 -311 -269 0
-238 -311 -271 0
-238 -311 -264 0
-238 -311 -268 0
-238 -309 -258 0
-238 -309 -261 0
-238 -309 -270 0
-238 -309 -268 0
-244 -318 0
-249 -220 -267 0
-249 -317 -262 0
-249 -317 -272 0
-249 -317 -265 0
-249 -317 -273 0
-249 -322 -265 0
-249 -322 -264 0
-249 -322 -273 0
-249 -319 -225 0
-244 -317 0
-245 -311 -259 0
-245 -311 -261 0
-245 -311 -265 0
-245 -311 -269 0
-245 -311 -271 0
-245 -311 -268 0
-245 -322 -265 0
-245 -322 -266 0
-245 -322 -273 0
-245 -315 -262 0
-245 -315 -273 0
-245 -315 -271 0
-245 -315 -274 0
-245 -315 -272 0
-245 -315 -269 0
-245 -320 -265 0
-245 -320 -271 0
-245 -320 -274 0
-245 -320 -272 0
-245 -318 -225 0
-245 -318 -272 0
-245 -318 -267 0
-244 -319 0
-247 -220 -266 0
-247 -318 -225 0
-247 -318 -264 0
-247 -318 -272 0
-244 -220 0
-230 -319 -266 0
-230 -318 -264 0
-230 -318 -272 0
-230 -318 -267 0
-240 -278 0
-241 -191 -299 0
-241 -294 -335 0
-241 -294 -261 0
-241 -294 -332 0
-241 -309 -342 0
-241 -309 -340 0
-241 -309 -299 0
-240 -294 0
-238 -191 -283 0
-238 -278 -332 0
-238 -311 -336 0
-238 -311 -338 0
-238 -311 -339 0
-238 -311 -334 0
-238 -311 -340 0
-238 -260 -337 0
-238 -260 -334 0
-238 -260 -341 0
-238 -260 -223 0
-238 -309 -283 0
-238 -309 -342 0
-238 -309 -340 0
-240 -309 0
-239 -278 -299 0
-239 -314 -340 0
-239 -312 -342 0
-239 -312 -338 0
-239 -312 -335 0
-239 -294 -283 0
-239 -294 -335 0
-239 -294 -261 0
-240 -311 0
-243 -294 -283 0
-243 -294 -261 0
-243 -294 -332 0
-243 -315 -343 0
-243 -315 -339 0
-243 -315 -344 0
-243 -315 -345 0
-243 -315 -334 0
-243 -315 -338 0
-243 -313 -340 0
-243 -313 -339 0
-243 -313 -336 0
-243 -316 -336 0
-243 -316 -338 0
-243 -316 -344 0
-243 -316 -343 0
-243 -317 -261 0
-243 -317 -345 0
-243 -317 -336 0
-243 -317 -343 0
-243 -317 -337 0
-243 -312 -332 0
-243 -312 -342 0
-243 -312 -338 0
-240 -312 0
-251 -309 -283 0
-251 -309 -342 0
-251 -309 -299 0
-251 -314 -332 0
-251 -313 -335 0
-251 -313 -339 0
-251 -313 -336 0
-251 -311 -299 0
-251 -311 -336 0
-251 -311 -338 0
-251 -311 -339 0
-251 -311 -334 0
-240 -313 0
-252 -311 -299 0
-252 -311 -336 0
-252 -311 -339 0
-252 -311 -334 0
-252 -311 -340 0
-252 -312 -332 0
-252 -312 -342 0
-252 -312 -335 0
-252 -316 -335 0
-252 -316 -336 0
-252 -316 -344 0
-252 -316 -343 0
-252 -315 -335 0
-252 -315 -343 0
-252 -315 -339 0
-252 -315 -344 0
-252 -315 -345 0
-252 -315 -334 0
-240 -314 0
-253 -309 -283 0
-253 -309 -340 0
-253 -309 -299 0
-253 -312 -332 0
-253 -312 -338 0
-253 -312 -335 0
-25 -65 0
-26 -66 0
-27 -67 0
-28 -68 0
-29 -69 0
-30 -70 0
-31 -71 0
-32 -72 0
-187 -194 -204 0
-187 -194 -195 0
-206 -217 -195 0
-206 -217 -207 0
-206 -217 -210 0
-206 -218 -204 0
-206 -218 -201 0
-206 -218 -210 0
-206 -218 -213 0
-206 -218 -188 0
-206 -218 -207 0
-186 -225 0
-244 -218 -204 0
-244 -218 -201 0
-244 -218 -210 0
-244 -218 -213 0
-244 -218 -207 0
-244 -219 -201 0
-244 -219 -234 0
-244 -219 -237 0
-244 -219 -228 0
-244 -220 -195 0
-244 -220 -234 0
-244 -220 -213 0
-244 -220 -256 0
-244 -220 -231 0
-244 -220 -210 0
-244 -221 -201 0
-244 -221 -213 0
-244 -221 -237 0
-244 -221 -256 0
-244 -221 -276 0
-244 -221 -231 0
-244 -222 -231 0
-247 -225 0
-244 -218 -289 0
-244 -218 -319 0
-244 -218 -341 0
-244 -218 -354 0
-244 -218 -333 0
-244 -219 -319 0
-244 -219 -357 0
-244 -219 -358 0
-244 -220 -296 0
-244 -220 -357 0
-244 -220 -354 0
-244 -220 -359 0
-244 -220 -360 0
-244 -220 -341 0
-244 -221 -319 0
-244 -221 -354 0
-244 -221 -358 0
-244 -221 -359 0
-244 -221 -361 0
-244 -221 -360 0
-247 -219 0
-249 -220 -296 0
-249 -220 -357 0
-249 -220 -354 0
-249 -220 -359 0
-249 -220 -267 0
-249 -220 -341 0
-249 -225 -296 0
-249 -225 -319 0
-249 -225 -357 0
-249 -221 -319 0
-249 -221 -267 0
-249 -221 -354 0
-249 -221 -358 0
-249 -221 -359 0
-249 -221 -361 0
-249 -232 -359 0
-249 -232 -357 0
-249 -232 -361 0
-186 -194 -258 0
-186 -194 -259 0
-244 -218 0
-238 -194 -258 0
-238 -217 -263 0
-238 -217 -261 0
-238 -220 -264 0
-238 -220 -262 0
-238 -220 -265 0
-238 -220 -266 0
-238 -220 -261 0
-238 -223 -258 0
-238 -223 -263 0
-238 -223 -262 0
-238 -223 -268 0
-238 -223 -269 0
-238 -223 -260 0
-238 -223 -270 0
-238 -224 -260 0
-238 -224 -261 0
-238 -224 -265 0
-238 -224 -269 0
-238 -224 -271 0
-238 -224 -264 0
-238 -224 -268 0
-238 -226 -258 0
-238 -226 -261 0
-238 -226 -270 0
-238 -226 -268 0
-244 -219 0
-249 -220 -259 0
-249 -220 -264 0
-249 -220 -262 0
-249 -220 -265 0
-249 -220 -261 0
-249 -221 -260 0
-249 -221 -262 0
-249 -221 -272 0
-249 -221 -265 0
-249 -221 -273 0
-249 -232 -265 0
-249 -232 -264 0
-249 -232 -273 0
-244 -220 0
-242 -218 -258 0
-242 -218 -261 0
-242 -218 -262 0
-242 -218 -263 0
-242 -221 -262 0
-242 -221 -272 0
-242 -221 -265 0
-242 -221 -273 0
-242 -221 -266 0
-242 -224 -259 0
-242 -224 -261 0
-242 -224 -265 0
-242 -224 -269 0
-242 -224 -271 0
-242 -224 -264 0
-242 -224 -268 0
-242 -227 -262 0
-242 -227 -273 0
-242 -227 -271 0
-242 -227 -274 0
-242 -227 -272 0
-242 -227 -264 0
-242 -227 -269 0
-242 -219 -264 0
-242 -219 -272 0
-242 -219 -267 0
-242 -223 -258 0
-242 -223 -259 0
-242 -223 -263 0
-242 -223 -262 0
-242 -223 -268 0
-242 -223 -269 0
-242 -223 -270 0
-244 -221 0
-245 -220 -259 0
-245 -220 -262 0
-245 -220 -265 0
-245 -220 -266 0
-245 -220 -261 0
-245 -224 -259 0
-245 -224 -260 0
-245 -224 -261 0
-245 -224 -265 0
-245 -224 -269 0
-245 -224 -271 0
-245 -224 -268 0
-245 -232 -265 0
-245 -232 -266 0
-245 -232 -273 0
-245 -227 -260 0
-245 -227 -262 0
-245 -227 -273 0
-245 -227 -271 0
-245 -227 -274 0
-245 -227 -272 0
-245 -227 -269 0
-245 -235 -265 0
-245 -235 -271 0
-245 -235 -274 0
-245 -235 -272 0
-245 -219 -260 0
-245 -219 -272 0
-245 -219 -267 0
-244 -222 0
-247 -219 -260 0
-247 -219 -264 0
-247 -219 -272 0
-249 -220 0
-242 -218 -282 0
-242 -218 -337 0
-242 -218 -349 0
-242 -218 -266 0
-242 -218 -331 0
-242 -221 -266 0
-242 -221 -349 0
-242 -221 -362 0
-242 -221 -363 0
-242 -221 -364 0
-242 -224 -293 0
-242 -224 -337 0
-242 -224 -363 0
-242 -224 -365 0
-242 -224 -366 0
-242 -224 -367 0
-242 -224 -368 0
-242 -227 -349 0
-242 -227 -364 0
-242 -227 -366 0
-242 -227 -369 0
-242 -227 -362 0
-242 -227 -367 0
-242 -227 -365 0
-242 -225 -293 0
-242 -225 -367 0
-242 -225 -360 0
-242 -223 -282 0
-242 -223 -293 0
-242 -223 -331 0
-242 -223 -349 0
-242 -223 -368 0
-242 -223 -365 0
-242 -223 -370 0
-249 -225 0
-244 -218 -282 0
-244 -218 -318 0
-244 -218 -337 0
-244 -218 -349 0
-244 -218 -331 0
-244 -220 -293 0
-244 -220 -367 0
-244 -220 -349 0
-244 -220 -363 0
-244 -220 -337 0
-244 -221 -318 0
-244 -221 -349 0
-244 -221 -362 0
-244 -221 -363 0
-244 -221 -364 0
-249 -221 0
-245 -220 -293 0
-245 -220 -349 0
-245 -220 -363 0
-245 -220 -266 0
-245 -220 -337 0
-245 -225 -293 0
-245 -225 -318 0
-245 -225 -360 0
-245 -224 -293 0
-245 -224 -318 0
-245 -224 -337 0
-245 -224 -363 0
-245 -224 -365 0
-245 -224 -366 0
-245 -224 -368 0
-245 -232 -363 0
-245 -232 -364 0
-245 -227 -318 0
-245 -227 -349 0
-245 -227 -364 0
-245 -227 -366 0
-245 -227 -369 0
-245 -227 -362 0
-245 -227 -365 0
-245 -235 -363 0
-245 -235 -366 0
-245 -235 -369 0
-245 -235 -362 0
-249 -232 0
-246 -227 -318 0
-246 -227 -349 0
-246 -227 -364 0
-246 -227 -366 0
-246 -227 -369 0
-246 -227 -367 0
-246 -227 -365 0
-246 -221 -318 0
-246 -221 -266 0
-246 -221 -349 0
-246 -221 -363 0
-246 -221 -364 0
-246 -235 -363 0
-246 -235 -367 0
-246 -235 -366 0
-246 -235 -369 0
-249 -222 0
-247 -225 -293 0
-247 -225 -318 0
-247 -225 -367 0
-25 -33 0
-26 -34 0
-27 -35 0
-28 -36 0
-29 -37 0
-30 -38 0
-31 -39 0
-32 -40 0
-187 -204 -194 0
-187 -204 -199 0
-206 -291 0
-238 -278 -192 0
-238 -278 -198 0
-238 -278 -202 0
-238 -278 -190 0
-238 -278 -199 0
-238 -278 -197 0
-238 -283 -200 0
-238 -283 -198 0
-238 -283 -209 0
-238 -283 -211 0
-238 -283 -191 0
-238 -283 -208 0
-238 -280 -191 0
-238 -280 -197 0
-238 -280 -202 0
-238 -280 -211 0
-238 -280 -214 0
-238 -280 -192 0
-238 -280 -209 0
-238 -258 -190 0
-238 -258 -191 0
-238 -258 -192 0
-238 -258 -193 0
-238 -258 -194 0
-238 -284 -197 0
-238 -284 -208 0
-238 -284 -209 0
-186 -217 -193 0
-186 -217 -199 0
-186 -217 -190 0
-186 -258 -189 0
-186 -258 -190 0
-186 -258 -191 0
-186 -258 -192 0
-186 -258 -193 0
-186 -258 -194 0
-206 -204 -218 0
-206 -204 -259 0
-238 -278 0
-242 -279 -259 0
-242 -279 -297 0
-242 -279 -304 0
-242 -279 -298 0
-242 -279 -305 0
-242 -279 -293 0
-242 -280 -299 0
-242 -280 -298 0
-242 -280 -303 0
-242 -280 -306 0
-242 -280 -295 0
-242 -280 -302 0
-242 -281 -297 0
-242 -281 -305 0
-242 -281 -306 0
-242 -281 -307 0
-242 -281 -304 0
-242 -281 -295 0
-242 -281 -303 0
-242 -282 -259 0
-242 -282 -218 0
-242 -282 -295 0
-242 -282 -304 0
-242 -282 -296 0
-242 -258 -293 0
-242 -258 -295 0
-242 -258 -296 0
-242 -258 -218 0
-242 -283 -300 0
-242 -283 -297 0
-242 -283 -302 0
-242 -283 -303 0
-242 -283 -301 0
-238 -283 0
-240 -284 -301 0
-240 -284 -302 0
-240 -280 -294 0
-240 -280 -298 0
-240 -280 -303 0
-240 -280 -306 0
-240 -280 -295 0
-240 -280 -302 0
-240 -285 -300 0
-240 -285 -301 0
-240 -285 -303 0
-240 -285 -297 0
-240 -286 -297 0
-240 -286 -302 0
-240 -286 -306 0
-240 -286 -298 0
-240 -278 -295 0
-240 -278 -297 0
-240 -278 -298 0
-240 -278 -293 0
-240 -278 -259 0
-240 -287 -300 0
-240 -287 -302 0
-238 -280 0
-243 -278 -295 0
-243 -278 -298 0
-243 -278 -293 0
-243 -278 -259 0
-243 -278 -299 0
-243 -283 -300 0
-243 -283 -302 0
-243 -283 -303 0
-243 -283 -294 0
-243 -283 -301 0
-243 -281 -294 0
-243 -281 -305 0
-243 -281 -306 0
-243 -281 -307 0
-243 -281 -304 0
-243 -281 -295 0
-243 -281 -303 0
-243 -286 -299 0
-243 -286 -302 0
-243 -286 -306 0
-243 -286 -298 0
-243 -288 -298 0
-243 -288 -303 0
-243 -288 -307 0
-243 -288 -305 0
-243 -279 -294 0
-243 -279 -259 0
-243 -279 -304 0
-243 -279 -298 0
-243 -279 -305 0
-243 -279 -293 0
-243 -285 -300 0
-243 -285 -299 0
-243 -285 -301 0
-243 -285 -303 0
-238 -258 0
-244 -204 -218 0
-244 -282 -294 0
-244 -282 -218 0
-244 -282 -295 0
-244 -282 -304 0
-244 -282 -296 0
-244 -278 -295 0
-244 -278 -297 0
-244 -278 -298 0
-244 -278 -293 0
-244 -278 -299 0
-244 -279 -294 0
-244 -279 -297 0
-244 -279 -304 0
-244 -279 -298 0
-244 -279 -305 0
-244 -279 -293 0
-244 -289 -218 0
-244 -289 -293 0
-244 -217 -296 0
-244 -217 -293 0
-238 -284 0
-239 -283 -297 0
-239 -283 -302 0
-239 -283 -303 0
-239 -283 -294 0
-239 -283 -301 0
-239 -287 -302 0
-239 -287 -299 0
-239 -285 -299 0
-239 -285 -301 0
-239 -285 -303 0
-239 -285 -297 0
-239 -283 0
-240 -291 -309 0
-240 -291 -324 0
-240 -291 -263 0
-240 -280 -300 0
-240 -280 -309 0
-240 -280 -325 0
-240 -280 -326 0
-240 -280 -327 0
-240 -280 -328 0
-240 -280 -329 0
-240 -285 -330 0
-240 -285 -326 0
-240 -285 -324 0
-240 -286 -324 0
-240 -286 -329 0
-240 -286 -327 0
-240 -286 -325 0
-240 -278 -300 0
-240 -278 -328 0
-240 -278 -324 0
-240 -278 -325 0
-240 -278 -331 0
-240 -278 -263 0
-240 -287 -329 0
-239 -287 0
-253 -285 -332 0
-253 -285 -326 0
-253 -285 -324 0
-253 -283 -300 0
-253 -283 -324 0
-253 -283 -329 0
-253 -283 -326 0
-253 -283 -309 0
-239 -285 0
-251 -283 -300 0
-251 -283 -324 0
-251 -283 -326 0
-251 -283 -309 0
-251 -283 -330 0
-251 -287 -332 0
-251 -286 -332 0
-251 -286 -324 0
-251 -286 -327 0
-251 -286 -325 0
-251 -280 -300 0
-251 -280 -309 0
-251 -280 -332 0
-251 -280 -325 0
-251 -280 -326 0
-251 -280 -327 0
-251 -280 -328 0
-239 -291 0
-238 -278 -328 0
-238 -278 -324 0
-238 -278 -325 0
-238 -278 -331 0
-238 -278 -263 0
-238 -278 -332 0
-238 -283 -324 0
-238 -283 -329 0
-238 -283 -326 0
-238 -283 -309 0
-238 -283 -330 0
-238 -280 -309 0
-238 -280 -332 0
-238 -280 -325 0
-238 -280 -326 0
-238 -280 -327 0
-238 -280 -328 0
-238 -280 -329 0
-238 -258 -331 0
-238 -258 -309 0
-238 -258 -328 0
-238 -258 -333 0
-238 -258 -226 0
-240 -291 0
-238 -278 -334 0
-238 -278 -335 0
-238 -278 -336 0
-238 -278 -337 0
-238 -278 -261 0
-238 -280 -310 0
-238 -280 -336 0
-238 -280 -338 0
-238 -280 -339 0
-238 -280 -334 0
-238 -280 -340 0
-238 -258 -337 0
-238 -258 -310 0
-238 -258 -334 0
-238 -258 -341 0
-238 -258 -223 0
-238 -284 -342 0
-238 -284 -340 0
-240 -284 0
-239 -287 -340 0
-239 -285 -342 0
-239 -285 -338 0
-239 -285 -335 0
-239 -291 -310 0
-239 -291 -335 0
-239 -291 -261 0
-240 -280 0
-243 -291 -310 0
-243 -291 -261 0
-243 -291 -332 0
-243 -278 -299 0
-243 -278 -334 0
-243 -278 -336 0
-243 -278 -337 0
-243 -278 -261 0
-243 -281 -310 0
-243 -281 -343 0
-243 -281 -339 0
-243 -281 -344 0
-243 -281 -345 0
-243 -281 -334 0
-243 -281 -338 0
-243 -286 -340 0
-243 -286 -339 0
-243 -286 -336 0
-243 -288 -336 0
-243 -288 -338 0
-243 -288 -344 0
-243 -288 -343 0
-243 -279 -310 0
-243 -279 -261 0
-243 -279 -345 0
-243 -279 -336 0
-243 -279 -343 0
-243 -279 -337 0
-243 -285 -332 0
-243 -285 -342 0
-243 -285 -338 0
-240 -285 0
-251 -284 -342 0
-251 -284 -299 0
-251 -287 -332 0
-251 -286 -335 0
-251 -286 -339 0
-251 -286 -336 0
-251 -280 -299 0
-251 -280 -310 0
-251 -280 -336 0
-251 -280 -338 0
-251 -280 -339 0
-251 -280 -334 0
-240 -286 0
-252 -280 -299 0
-252 -280 -310 0
-252 -280 -336 0
-252 -280 -339 0
-252 -280 -334 0
-252 -280 -340 0
-252 -285 -332 0
-252 -285 -342 0
-252 -285 -335 0
-252 -288 -335 0
-252 -288 -336 0
-252 -288 -344 0
-252 -288 -343 0
-252 -281 -310 0
-252 -281 -335 0
-252 -281 -343 0
-252 -281 -339 0
-252 -281 -344 0
-252 -281 -345 0
-252 -281 -334 0
-240 -278 0
-242 -291 -335 0
-242 -291 -261 0
-242 -291 -332 0
-242 -279 -261 0
-242 -279 -335 0
-242 -279 -345 0
-242 -279 -336 0
-242 -279 -343 0
-242 -279 -337 0
-242 -280 -299 0
-242 -280 -336 0
-242 -280 -338 0
-242 -280 -339 0
-242 -280 -334 0
-242 -280 -340 0
-242 -281 -335 0
-242 -281 -343 0
-242 -281 -339 0
-242 -281 -344 0
-242 -281 -345 0
-242 -281 -334 0
-242 -281 -338 0
-242 -282 -261 0
-242 -282 -223 0
-242 -282 -334 0
-242 -282 -345 0
-242 -282 -341 0
-242 -258 -299 0
-242 -258 -337 0
-242 -258 -334 0
-242 -258 -341 0
-242 -258 -223 0
-240 -287 0
-253 -284 -340 0
-253 -284 -299 0
-253 -285 -332 0
-253 -285 -338 0
-253 -285 -335 0
-204 -194 -229 0
-204 -194 -233 0
-204 -194 -236 0
-204 -206 -233 0
-204 -206 -212 0
-204 -206 -255 0
-204 -206 -215 0
-204 -199 -212 0
-204 -199 -236 0
-204 -199 -255 0
-204 -199 -275 0
-204 -199 -229 0
-204 -199 -215 0
-241 -216 -215 0
-241 -216 -233 0
-241 -199 -212 0
-241 -199 -236 0
-241 -199 -255 0
-241 -199 -275 0
-241 -199 -229 0
-241 -199 -215 0
-241 -189 -255 0
-241 -189 -292 0
-241 -189 -308 0
-241 -189 -233 0
-241 -189 -290 0
-241 -191 -212 0
-241 -191 -275 0
-241 -191 -308 0
-241 -191 -323 0
-241 -191 -236 0
-241 -191 -233 0
-241 -191 -292 0
-241 -194 -229 0
-241 -194 -233 0
-241 -194 -236 0
-205 -216 -230 0
-205 -216 -244 0
-204 -194 -247 0
-204 -194 -244 0
-204 -194 -249 0
-204 -199 -238 0
-204 -199 -249 0
-204 -199 -242 0
-204 -199 -245 0
-204 -199 -247 0
-204 -199 -230 0
-241 -199 0
-258 -216 -230 0
-258 -189 -242 0
-258 -189 -240 0
-258 -189 -243 0
-258 -189 -239 0
-258 -190 -242 0
-258 -190 -230 0
-258 -190 -245 0
-258 -190 -246 0
-258 -190 -247 0
-258 -191 -238 0
-258 -191 -245 0
-258 -191 -243 0
-258 -191 -248 0
-258 -191 -249 0
-258 -191 -240 0
-258 -192 -242 0
-258 -192 -243 0
-258 -192 -246 0
-258 -192 -248 0
-258 -192 -250 0
-258 -192 -249 0
-258 -193 -230 0
-258 -193 -249 0
-258 -194 -247 0
-258 -194 -249 0
-241 -189 0
-291 -191 -245 0
-291 -191 -243 0
-291 -191 -248 0
-291 -191 -249 0
-291 -191 -244 0
-291 -191 -240 0
-291 -197 -239 0
-291 -197 -243 0
-291 -197 -251 0
-291 -197 -252 0
-291 -197 -242 0
-291 -197 -253 0
-291 -198 -242 0
-291 -198 -240 0
-291 -198 -248 0
-291 -198 -252 0
-291 -198 -254 0
-291 -198 -245 0
-291 -198 -251 0
-291 -199 -249 0
-291 -199 -242 0
-291 -199 -245 0
-291 -199 -247 0
-291 -199 -230 0
-291 -200 -240 0
-291 -200 -253 0
-291 -200 -251 0
-241 -191 0
-278 -189 -240 0
-278 -189 -243 0
-278 -189 -244 0
-278 -189 -239 0
-278 -192 -244 0
-278 -192 -243 0
-278 -192 -246 0
-278 -192 -248 0
-278 -192 -250 0
-278 -192 -249 0
-278 -198 -238 0
-278 -198 -240 0
-278 -198 -248 0
-278 -198 -252 0
-278 -198 -254 0
-278 -198 -245 0
-278 -198 -251 0
-278 -202 -243 0
-278 -202 -250 0
-278 -202 -254 0
-278 -202 -257 0
-278 -202 -246 0
-278 -202 -245 0
-278 -202 -252 0
-278 -190 -244 0
-278 -190 -230 0
-278 -190 -245 0
-278 -190 -246 0
-278 -190 -247 0
-278 -199 -238 0
-278 -199 -249 0
-278 -199 -245 0
-278 -199 -247 0
-278 -199 -230 0
-278 -197 -238 0
-278 -197 -239 0
-278 -197 -243 0
-278 -197 -251 0
-278 -197 -252 0
-278 -197 -253 0
-241 -194 0
-217 -216 -244 0
-217 -193 -244 0
-217 -193 -249 0
-217 -199 -238 0
-217 -199 -249 0
-217 -199 -242 0
-217 -199 -245 0
-217 -199 -247 0
-217 -190 -242 0
-217 -190 -244 0
-217 -190 -245 0
-217 -190 -246 0
-217 -190 -247 0
-241 -216 -218 0
-241 -216 -259 0
-241 -199 -293 0
-241 -199 -294 0
-241 -199 -295 0
-241 -199 -296 0
-241 -199 -218 0
-241 -191 -295 0
-241 -191 -297 0
-241 -191 -298 0
-241 -191 -293 0
-241 -191 -259 0
-241 -191 -299 0
-241 -194 -296 0
-241 -194 -259 0
-241 -194 -293 0
-291 -191 0
-278 -206 -259 0
-278 -206 -218 0
-278 -192 -259 0
-278 -192 -297 0
-278 -192 -304 0
-278 -192 -298 0
-278 -192 -305 0
-278 -192 -293 0
-278 -198 -299 0
-278 -198 -298 0
-278 -198 -303 0
-278 -198 -306 0
-278 -198 -295 0
-278 -198 -302 0
-278 -202 -297 0
-278 -202 -305 0
-278 -202 -306 0
-278 -202 -307 0
-278 -202 -304 0
-278 -202 -295 0
-278 -202 -303 0
-278 -190 -259 0
-278 -190 -218 0
-278 -190 -295 0
-278 -190 -304 0
-278 -190 -296 0
-278 -199 -293 0
-278 -199 -295 0
-278 -199 -296 0
-278 -199 -218 0
-278 -197 -300 0
-278 -197 -297 0
-278 -197 -302 0
-278 -197 -303 0
-278 -197 -301 0
-291 -197 0
-283 -200 -301 0
-283 -200 -302 0
-283 -198 -294 0
-283 -198 -298 0
-283 -198 -303 0
-283 -198 -306 0
-283 -198 -295 0
-283 -198 -302 0
-283 -209 -300 0
-283 -209 -301 0
-283 -209 -303 0
-283 -209 -297 0
-283 -211 -297 0
-283 -211 -302 0
-283 -211 -306 0
-283 -211 -298 0
-283 -191 -295 0
-283 -191 -297 0
-283 -191 -298 0
-283 -191 -293 0
-283 -191 -259 0
-283 -208 -300 0
-283 -208 -302 0
-291 -198 0
-280 -191 -295 0
-280 -191 -298 0
-280 -191 -293 0
-280 -191 -259 0
-280 -191 -299 0
-280 -197 -300 0
-280 -197 -302 0
-280 -197 -303 0
-280 -197 -294 0
-280 -197 -301 0
-280 -202 -294 0
-280 -202 -305 0
-280 -202 -306 0
-280 -202 -307 0
-280 -202 -304 0
-280 -202 -295 0
-280 -202 -303 0
-280 -211 -299 0
-280 -211 -302 0
-280 -211 -306 0
-280 -211 -298 0
-280 -214 -298 0
-280 -214 -303 0
-280 -214 -307 0
-280 -214 -305 0
-280 -192 -294 0
-280 -192 -259 0
-280 -192 -304 0
-280 -192 -298 0
-280 -192 -305 0
-280 -192 -293 0
-280 -209 -300 0
-280 -209 -299 0
-280 -209 -301 0
-280 -209 -303 0
-291 -199 0
-258 -216 -218 0
-258 -206 -294 0
-258 -206 -218 0
-258 -190 -294 0
-258 -190 -218 0
-258 -190 -295 0
-258 -190 -304 0
-258 -190 -296 0
-258 -191 -295 0
-258 -191 -297 0
-258 -191 -298 0
-258 -191 -293 0
-258 -191 -299 0
-258 -192 -294 0
-258 -192 -297 0
-258 -192 -304 0
-258 -192 -298 0
-258 -192 -305 0
-258 -192 -293 0
-258 -193 -218 0
-258 -193 -293 0
-258 -194 -296 0
-258 -194 -293 0
-291 -200 0
-284 -197 -297 0
-284 -197 -302 0
-284 -197 -303 0
-284 -197 -294 0
-284 -197 -301 0
-284 -208 -302 0
-284 -208 -299 0
-284 -209 -299 0
-284 -209 -301 0
-284 -209 -303 0
-284 -209 -297 0
-205 -206 -188 0
-205 -206 -195 0
-205 -206 -201 0
-205 -206 -203 0
-204 -194 0
-217 -206 -188 0
-217 -206 -195 0
-217 -206 -201 0
-217 -193 -188 0
-217 -193 -231 0
-217 -199 -195 0
-217 -199 -231 0
-217 -199 -201 0
-217 -199 -234 0
-217 -199 -228 0
-217 -190 -201 0
-217 -190 -188 0
-217 -190 -234 0
-217 -190 -237 0
-217 -190 -228 0
-241 -199 -195 0
-241 -199 -231 0
-241 -199 -201 0
-241 -199 -234 0
-241 -199 -228 0
-241 -199 -203 0
-241 -189 -201 0
-241 -189 -210 0
-241 -189 -213 0
-241 -189 -188 0
-241 -189 -207 0
-241 -191 -195 0
-241 -191 -234 0
-241 -191 -213 0
-241 -191 -256 0
-241 -191 -231 0
-241 -191 -188 0
-241 -191 -210 0
-241 -194 -228 0
-241 -194 -188 0
-241 -194 -231 0
-204 -199 0
-258 -206 -195 0
-258 -206 -201 0
-258 -206 -203 0
-258 -189 -201 0
-258 -189 -210 0
-258 -189 -213 0
-258 -189 -207 0
-258 -190 -201 0
-258 -190 -203 0
-258 -190 -234 0
-258 -190 -237 0
-258 -190 -228 0
-258 -191 -195 0
-258 -191 -234 0
-258 -191 -213 0
-258 -191 -256 0
-258 -191 -231 0
-258 -191 -210 0
-258 -192 -201 0
-258 -192 -213 0
-258 -192 -237 0
-258 -192 -256 0
-258 -192 -276 0
-258 -192 -231 0
-258 -193 -203 0
-258 -193 -231 0
-258 -194 -228 0
-258 -194 -231 0
-33 -41 0
-34 -42 0
-35 -43 0
-36 -44 0
-37 -45 0
-38 -46 0
-39 -47 0
-40 -48 0
-205 -195 -194 0
-205 -195 -199 0
-205 -238 -199 0
-205 -238 -191 0
-205 -238 -194 0
-241 -195 -194 0
-241 -195 -199 0
-241 -259 -190 0
-241 -259 -191 0
-241 -259 -192 0
-241 -259 -193 0
-241 -259 -194 0
-241 -294 -192 0
-241 -294 -198 0
-241 -294 -202 0
-241 -294 -190 0
-241 -294 -199 0
-241 -294 -197 0
-241 -218 -193 0
-241 -218 -199 0
-241 -218 -190 0
-204 -218 -193 0
-204 -218 -199 0
-204 -218 -190 0
-204 -238 -199 0
-204 -238 -191 0
-204 -238 -194 0
-204 -259 -190 0
-204 -259 -191 0
-204 -259 -192 0
-204 -259 -193 0
-204 -259 -194 0
-205 -195 -230 0
-205 -195 -244 0
-196 -195 -230 0
-196 -195 -244 0
-204 -218 -247 0
-204 -218 -244 0
-204 -218 -249 0
-204 -259 -249 0
-204 -259 -242 0
-204 -259 -245 0
-204 -259 -247 0
-204 -259 -230 0
-241 -259 0
-258 -195 -230 0
-258 -293 -242 0
-258 -293 -230 0
-258 -293 -245 0
-258 -293 -246 0
-258 -293 -247 0
-258 -294 -245 0
-258 -294 -243 0
-258 -294 -248 0
-258 -294 -249 0
-258 -294 -240 0
-258 -295 -242 0
-258 -295 -243 0
-258 -295 -246 0
-258 -295 -248 0
-258 -295 -250 0
-258 -295 -249 0
-258 -296 -230 0
-258 -296 -249 0
-258 -218 -247 0
-258 -218 -249 0
-241 -294 0
-278 -295 -244 0
-278 -295 -243 0
-278 -295 -246 0
-278 -295 -248 0
-278 -295 -250 0
-278 -295 -249 0
-278 -297 -240 0
-278 -297 -248 0
-278 -297 -252 0
-278 -297 -254 0
-278 -297 -245 0
-278 -297 -251 0
-278 -298 -243 0
-278 -298 -250 0
-278 -298 -254 0
-278 -298 -257 0
-278 -298 -246 0
-278 -298 -245 0
-278 -298 -252 0
-278 -293 -244 0
-278 -293 -230 0
-278 -293 -245 0
-278 -293 -246 0
-278 -293 -247 0
-278 -259 -249 0
-278 -259 -245 0
-278 -259 -247 0
-278 -259 -230 0
-278 -299 -239 0
-278 -299 -243 0
-278 -299 -251 0
-278 -299 -252 0
-278 -299 -253 0
-241 -218 0
-217 -195 -244 0
-217 -296 -244 0
-217 -296 -249 0
-217 -259 -249 0
-217 -259 -242 0
-217 -259 -245 0
-217 -259 -247 0
-217 -293 -242 0
-217 -293 -244 0
-217 -293 -245 0
-217 -293 -246 0
-217 -293 -247 0
-241 -195 -220 0
-241 -195 -260 0
-241 -259 -318 0
-241 -259 -317 0
-241 -259 -319 0
-241 -259 -220 0
-241 -218 -319 0
-241 -218 -260 0
-241 -218 -318 0
-278 -295 0
-279 -259 -318 0
-279 -259 -319 0
-279 -259 -220 0
-279 -297 -310 0
-279 -297 -315 0
-279 -297 -313 0
-279 -297 -316 0
-279 -297 -312 0
-279 -304 -315 0
-279 -304 -318 0
-279 -304 -320 0
-279 -298 -311 0
-279 -298 -320 0
-279 -298 -316 0
-279 -298 -321 0
-279 -298 -322 0
-279 -298 -313 0
-279 -305 -315 0
-279 -305 -316 0
-279 -305 -321 0
-279 -305 -322 0
-279 -293 -260 0
-279 -293 -220 0
-279 -293 -322 0
-279 -293 -319 0
-278 -297 0
-280 -299 -309 0
-280 -299 -312 0
-280 -299 -313 0
-280 -299 -314 0
-280 -298 -320 0
-280 -298 -316 0
-280 -298 -321 0
-280 -298 -322 0
-280 -298 -317 0
-280 -298 -313 0
-280 -303 -310 0
-280 -303 -312 0
-280 -303 -316 0
-280 -303 -315 0
-280 -306 -315 0
-280 -306 -313 0
-280 -306 -321 0
-280 -306 -320 0
-280 -295 -260 0
-280 -295 -322 0
-280 -295 -315 0
-280 -295 -320 0
-280 -295 -318 0
-280 -302 -309 0
-280 -302 -310 0
-280 -302 -314 0
-280 -302 -313 0
-278 -298 0
-281 -297 -310 0
-281 -297 -313 0
-281 -297 -316 0
-281 -297 -317 0
-281 -297 -312 0
-281 -305 -317 0
-281 -305 -316 0
-281 -305 -321 0
-281 -305 -322 0
-281 -306 -311 0
-281 -306 -313 0
-281 -306 -321 0
-281 -306 -320 0
-281 -307 -316 0
-281 -307 -320 0
-281 -304 -317 0
-281 -304 -318 0
-281 -304 -320 0
-281 -295 -260 0
-281 -295 -311 0
-281 -295 -322 0
-281 -295 -320 0
-281 -295 -318 0
-281 -303 -310 0
-281 -303 -311 0
-281 -303 -312 0
-281 -303 -316 0
-278 -293 0
-282 -259 -317 0
-282 -259 -319 0
-282 -259 -220 0
-282 -218 -319 0
-282 -218 -260 0
-282 -295 -260 0
-282 -295 -311 0
-282 -295 -322 0
-282 -295 -315 0
-282 -295 -320 0
-282 -304 -315 0
-282 -304 -317 0
-282 -304 -320 0
-282 -296 -260 0
-282 -296 -220 0
-278 -259 0
-258 -195 -220 0
-258 -238 -220 0
-258 -293 -220 0
-258 -293 -317 0
-258 -293 -322 0
-258 -293 -319 0
-258 -295 -311 0
-258 -295 -322 0
-258 -295 -315 0
-258 -295 -320 0
-258 -295 -318 0
-258 -296 -220 0
-258 -296 -318 0
-258 -218 -319 0
-258 -218 -318 0
-278 -299 0
-283 -300 -314 0
-283 -300 -312 0
-283 -297 -315 0
-283 -297 -313 0
-283 -297 -316 0
-283 -297 -317 0
-283 -297 -312 0
-283 -302 -309 0
-283 -302 -314 0
-283 -302 -313 0
-283 -302 -311 0
-283 -303 -311 0
-283 -303 -312 0
-283 -303 -316 0
-283 -303 -315 0
-283 -301 -309 0
-283 -301 -312 0
-283 -300 0
-284 -301 -340 0
-284 -302 -342 0
-284 -302 -338 0
-284 -302 -335 0
-283 -297 0
-280 -294 -334 0
-280 -294 -336 0
-280 -294 -337 0
-280 -294 -261 0
-280 -298 -310 0
-280 -298 -343 0
-280 -298 -339 0
-280 -298 -344 0
-280 -298 -345 0
-280 -298 -334 0
-280 -298 -338 0
-280 -303 -340 0
-280 -303 -339 0
-280 -303 -336 0
-280 -306 -336 0
-280 -306 -338 0
-280 -306 -344 0
-280 -306 -343 0
-280 -295 -310 0
-280 -295 -261 0
-280 -295 -345 0
-280 -295 -336 0
-280 -295 -343 0
-280 -295 -337 0
-280 -302 -332 0
-280 -302 -342 0
-280 -302 -338 0
-283 -302 0
-285 -300 -342 0
-285 -301 -332 0
-285 -303 -335 0
-285 -303 -339 0
-285 -303 -336 0
-285 -297 -310 0
-285 -297 -336 0
-285 -297 -338 0
-285 -297 -339 0
-285 -297 -334 0
-283 -303 0
-286 -297 -310 0
-286 -297 -336 0
-286 -297 -339 0
-286 -297 -334 0
-286 -297 -340 0
-286 -302 -332 0
-286 -302 -342 0
-286 -302 -335 0
-286 -306 -335 0
-286 -306 -336 0
-286 -306 -344 0
-286 -306 -343 0
-286 -298 -310 0
-286 -298 -335 0
-286 -298 -343 0
-286 -298 -339 0
-286 -298 -344 0
-286 -298 -345 0
-286 -298 -334 0
-283 -294 0
-278 -238 -261 0
-278 -238 -223 0
-278 -295 -261 0
-278 -295 -335 0
-278 -295 -345 0
-278 -295 -336 0
-278 -295 -343 0
-278 -295 -337 0
-278 -297 -336 0
-278 -297 -338 0
-278 -297 -339 0
-278 -297 -334 0
-278 -297 -340 0
-278 -298 -335 0
-278 -298 -343 0
-278 -298 -339 0
-278 -298 -344 0
-278 -298 -345 0
-278 -298 -334 0
-278 -298 -338 0
-278 -293 -261 0
-278 -293 -223 0
-278 -293 -334 0
-278 -293 -345 0
-278 -293 -341 0
-278 -259 -337 0
-278 -259 -334 0
-278 -259 -341 0
-278 -259 -223 0
-283 -301 0
-287 -300 -340 0
-287 -302 -332 0
-287 -302 -338 0
-287 -302 -335 0
-280 -294 0
-278 -238 -262 0
-278 -238 -224 0
-278 -295 -262 0
-278 -295 -346 0
-278 -295 -347 0
-278 -295 -348 0
-278 -295 -349 0
-278 -298 -348 0
-278 -298 -350 0
-278 -298 -351 0
-278 -298 -346 0
-278 -298 -352 0
-278 -298 -353 0
-278 -293 -262 0
-278 -293 -224 0
-278 -293 -352 0
-278 -293 -346 0
-278 -293 -354 0
-278 -259 -349 0
-278 -259 -352 0
-278 -259 -354 0
-278 -259 -224 0
-278 -299 -324 0
-278 -299 -355 0
-278 -299 -353 0
-278 -299 -356 0
-280 -299 0
-283 -300 -356 0
-283 -300 -355 0
-283 -302 -324 0
-283 -302 -356 0
-283 -302 -353 0
-283 -303 -355 0
-283 -303 -350 0
-283 -303 -347 0
-283 -294 -352 0
-283 -294 -347 0
-283 -294 -349 0
-283 -294 -262 0
-283 -301 -324 0
-283 -301 -355 0
-280 -298 0
-281 -294 -352 0
-281 -294 -349 0
-281 -294 -262 0
-281 -294 -335 0
-281 -305 -352 0
-281 -305 -350 0
-281 -305 -351 0
-281 -305 -346 0
-281 -306 -353 0
-281 -306 -351 0
-281 -306 -348 0
-281 -307 -350 0
-281 -307 -348 0
-281 -304 -352 0
-281 -304 -349 0
-281 -304 -348 0
-281 -295 -311 0
-281 -295 -262 0
-281 -295 -346 0
-281 -295 -348 0
-281 -295 -349 0
-281 -303 -335 0
-281 -303 -355 0
-281 -303 -350 0
-280 -303 0
-286 -299 -324 0
-286 -299 -355 0
-286 -299 -311 0
-286 -299 -356 0
-286 -302 -324 0
-286 -302 -335 0
-286 -302 -356 0
-286 -306 -347 0
-286 -306 -351 0
-286 -306 -348 0
-286 -298 -311 0
-286 -298 -348 0
-286 -298 -350 0
-286 -298 -351 0
-286 -298 -346 0
-286 -298 -352 0
-280 -306 0
-288 -298 -311 0
-288 -298 -348 0
-288 -298 -351 0
-288 -298 -346 0
-288 -298 -352 0
-288 -298 -353 0
-288 -303 -335 0
-288 -303 -355 0
-288 -303 -347 0
-288 -307 -347 0
-288 -307 -348 0
-288 -305 -347 0
-288 -305 -352 0
-288 -305 -351 0
-288 -305 -346 0
-280 -295 0
-279 -294 -347 0
-279 -294 -349 0
-279 -294 -262 0
-279 -294 -335 0
-279 -259 -349 0
-279 -259 -311 0
-279 -259 -354 0
-279 -259 -224 0
-279 -304 -347 0
-279 -304 -349 0
-279 -304 -348 0
-279 -298 -311 0
-279 -298 -348 0
-279 -298 -350 0
-279 -298 -351 0
-279 -298 -346 0
-279 -298 -353 0
-279 -305 -347 0
-279 -305 -350 0
-279 -305 -351 0
-279 -305 -346 0
-279 -293 -311 0
-279 -293 -262 0
-279 -293 -224 0
-279 -293 -346 0
-279 -293 -354 0
-280 -302 0
-285 -300 -335 0
-285 -300 -356 0
-285 -299 -324 0
-285 -299 -353 0
-285 -299 -311 0
-285 -299 -356 0
-285 -301 -324 0
-285 -301 -335 0
-285 -303 -335 0
-285 -303 -350 0
-285 -303 -347 0
-204 -218 -267 0
-204 -218 -266 0
-204 -238 -260 0
-204 -238 -225 0
-241 -195 -225 0
-241 -294 -264 0
-241 -294 -262 0
-241 -294 -265 0
-241 -294 -266 0
-241 -294 -261 0
-241 -218 -267 0
-241 -218 -266 0
-258 -293 0
-282 -294 -264 0
-282 -294 -262 0
-282 -294 -265 0
-282 -294 -261 0
-282 -218 -267 0
-282 -295 -260 0
-282 -295 -262 0
-282 -295 -272 0
-282 -295 -265 0
-282 -295 -273 0
-282 -304 -265 0
-282 -304 -264 0
-282 -304 -273 0
-282 -296 -225 0
-258 -294 0
-278 -238 -225 0
-278 -295 -262 0
-278 -295 -272 0
-278 -295 -265 0
-278 -295 -273 0
-278 -295 -266 0
-278 -297 -261 0
-278 -297 -265 0
-278 -297 -269 0
-278 -297 -271 0
-278 -297 -264 0
-278 -297 -268 0
-278 -298 -262 0
-278 -298 -273 0
-278 -298 -271 0
-278 -298 -274 0
-278 -298 -272 0
-278 -298 -264 0
-278 -298 -269 0
-278 -293 -225 0
-278 -293 -264 0
-278 -293 -272 0
-278 -293 -267 0
-278 -299 -263 0
-278 -299 -262 0
-278 -299 -268 0
-278 -299 -269 0
-278 -299 -270 0
-258 -295 0
-279 -294 -262 0
-279 -294 -265 0
-279 -294 -266 0
-279 -294 -261 0
-279 -297 -260 0
-279 -297 -261 0
-279 -297 -265 0
-279 -297 -269 0
-279 -297 -271 0
-279 -297 -268 0
-279 -304 -265 0
-279 -304 -266 0
-279 -304 -273 0
-279 -298 -260 0
-279 -298 -262 0
-279 -298 -273 0
-279 -298 -271 0
-279 -298 -274 0
-279 -298 -272 0
-279 -298 -269 0
-279 -305 -265 0
-279 -305 -271 0
-279 -305 -274 0
-279 -305 -272 0
-279 -293 -260 0
-279 -293 -225 0
-279 -293 -272 0
-279 -293 -267 0
-258 -296 0
-289 -218 -266 0
-289 -293 -260 0
-289 -293 -225 0
-289 -293 -264 0
-289 -293 -272 0
-258 -218 0
-217 -238 -260 0
-217 -296 -266 0
-217 -293 -260 0
-217 -293 -264 0
-217 -293 -272 0
-217 -293 -267 0
-284 -299 0
-283 -297 -309 0
-283 -297 -325 0
-283 -297 -326 0
-283 -297 -327 0
-283 -297 -328 0
-283 -297 -329 0
-283 -302 -330 0
-283 -302 -326 0
-283 -302 -324 0
-283 -303 -324 0
-283 -303 -329 0
-283 -303 -327 0
-283 -303 -325 0
-283 -294 -328 0
-283 -294 -324 0
-283 -294 -325 0
-283 -294 -331 0
-283 -294 -263 0
-283 -301 -329 0
-284 -301 0
-287 -302 -332 0
-287 -302 -326 0
-287 -302 -324 0
-287 -299 -324 0
-287 -299 -329 0
-287 -299 -326 0
-287 -299 -309 0
-284 -302 0
-285 -299 -324 0
-285 -299 -326 0
-285 -299 -309 0
-285 -299 -330 0
-285 -301 -332 0
-285 -303 -332 0
-285 -303 -324 0
-285 -303 -327 0
-285 -303 -325 0
-285 -297 -309 0
-285 -297 -332 0
-285 -297 -325 0
-285 -297 -326 0
-285 -297 -327 0
-285 -297 -328 0
-33 -73 0
-34 -74 0
-35 -75 0
-36 -76 0
-37 -77 0
-38 -78 0
-39 -79 0
-40 -80 0
-283 -300 0
-291 -239 -261 0
-291 -239 -310 0
-291 -239 -223 0
-291 -309 -334 0
-291 -309 -335 0
-291 -309 -336 0
-291 -309 -337 0
-291 -309 -261 0
-291 -324 -310 0
-291 -324 -336 0
-291 -324 -338 0
-291 -324 -339 0
-291 -324 -334 0
-291 -324 -340 0
-291 -263 -337 0
-291 -263 -310 0
-291 -263 -334 0
-291 -263 -341 0
-291 -263 -223 0
-283 -324 0
-280 -300 -310 0
-280 -300 -261 0
-280 -309 -299 0
-280 -309 -334 0
-280 -309 -336 0
-280 -309 -337 0
-280 -309 -261 0
-280 -325 -310 0
-280 -325 -343 0
-280 -325 -339 0
-280 -325 -344 0
-280 -325 -345 0
-280 -325 -334 0
-280 -325 -338 0
-280 -326 -340 0
-280 -326 -339 0
-280 -326 -336 0
-280 -327 -336 0
-280 -327 -338 0
-280 -327 -344 0
-280 -327 -343 0
-280 -328 -310 0
-280 -328 -261 0
-280 -328 -345 0
-280 -328 -336 0
-280 -328 -343 0
-280 -328 -337 0
-280 -329 -342 0
-280 -329 -338 0
-283 -329 0
-285 -326 -335 0
-285 -326 -339 0
-285 -326 -336 0
-285 -324 -299 0
-285 -324 -310 0
-285 -324 -336 0
-285 -324 -338 0
-285 -324 -339 0
-285 -324 -334 0
-283 -326 0
-286 -324 -299 0
-286 -324 -310 0
-286 -324 -336 0
-286 -324 -339 0
-286 -324 -334 0
-286 -324 -340 0
-286 -329 -342 0
-286 -329 -335 0
-286 -327 -335 0
-286 -327 -336 0
-286 -327 -344 0
-286 -327 -343 0
-286 -325 -310 0
-286 -325 -335 0
-286 -325 -343 0
-286 -325 -339 0
-286 -325 -344 0
-286 -325 -345 0
-286 -325 -334 0
-283 -309 0
-278 -239 -261 0
-278 -239 -299 0
-278 -239 -223 0
-278 -300 -335 0
-278 -300 -261 0
-278 -328 -261 0
-278 -328 -335 0
-278 -328 -345 0
-278 -328 -336 0
-278 -328 -343 0
-278 -328 -337 0
-278 -324 -299 0
-278 -324 -336 0
-278 -324 -338 0
-278 -324 -339 0
-278 -324 -334 0
-278 -324 -340 0
-278 -325 -335 0
-278 -325 -343 0
-278 -325 -339 0
-278 -325 -344 0
-278 -325 -345 0
-278 -325 -334 0
-278 -325 -338 0
-278 -331 -261 0
-278 -331 -223 0
-278 -331 -334 0
-278 -331 -345 0
-278 -331 -341 0
-278 -263 -299 0
-278 -263 -337 0
-278 -263 -334 0
-278 -263 -341 0
-278 -263 -223 0
-283 -330 0
-287 -329 -338 0
-287 -329 -335 0
-287 -329 0
-285 -332 -301 0
-285 -332 -356 0
-129 -145 386 0
-130 -146 386 0
-131 -147 386 0
-132 -148 386 0
-133 -149 386 0
-134 -150 386 0
-135 -151 386 0
-136 -152 386 0
-285 -332 -386 0
-285 -332 -314 0
-285 -326 -342 0
-285 -326 -356 0
-129 -153 387 0
-130 -154 387 0
-131 -155 387 0
-132 -156 387 0
-133 -157 387 0
-134 -158 387 0
-135 -159 387 0
-136 -160 387 0
-285 -326 -387 0
-285 -326 -381 0
-285 -324 -301 0
-285 -324 -314 0
-285 -324 -342 0
-285 -324 -381 0
-285 -324 -386 0
-285 -324 -387 0
-285 -324 -378 0
-287 -332 0
-283 -300 -314 0
-283 -300 -356 0
-283 -300 -270 0
-283 -324 -301 0
-283 -324 -314 0
-283 -324 -381 0
-283 -324 -386 0
-283 -324 -387 0
-283 -324 -378 0
-129 -137 388 0
-130 -138 388 0
-131 -139 388 0
-132 -140 388 0
-133 -141 388 0
-134 -142 388 0
-135 -143 388 0
-136 -144 388 0
-283 -324 -388 0
-283 -329 -386 0
-283 -329 -356 0
-283 -326 -356 0
-283 -326 -388 0
-283 -326 -387 0
-283 -326 -381 0
-283 -309 -301 0
-283 -309 -378 0
-283 -309 -356 0
-283 -309 -381 0
-283 -309 -370 0
-283 -309 -270 0
-285 -332 0
-283 -300 -312 0
-283 -300 -355 0
-283 -300 -268 0
-283 -324 -302 0
-283 -324 -312 0
-283 -324 -379 0
-137 -145 389 0
-138 -146 389 0
-139 -147 389 0
-140 -148 389 0
-141 -149 389 0
-142 -150 389 0
-143 -151 389 0
-144 -152 389 0
-283 -324 -389 0
-137 -153 390 0
-138 -154 390 0
-139 -155 390 0
-140 -156 390 0
-141 -157 390 0
-142 -158 390 0
-143 -159 390 0
-144 -160 390 0
-283 -324 -390 0
-283 -324 -374 0
-283 -326 -355 0
-283 -326 -390 0
-283 -326 -379 0
-283 -309 -302 0
-283 -309 -374 0
-283 -309 -355 0
-283 -309 -379 0
-283 -309 -368 0
-283 -309 -268 0
-285 -330 0
-287 -332 -302 0
-287 -332 -355 0
-287 -332 -389 0
-287 -332 -312 0
-285 -326 0
-286 -332 -302 0
-286 -332 -355 0
-286 -332 -312 0
-286 -332 -388 0
-286 -324 -302 0
-286 -324 -312 0
-286 -324 -340 0
-286 -324 -379 0
-286 -324 -390 0
-286 -324 -374 0
-286 -327 -355 0
-286 -327 -379 0
-137 -161 391 0
-138 -162 391 0
-139 -163 391 0
-140 -164 391 0
-141 -165 391 0
-142 -166 391 0
-143 -167 391 0
-144 -168 391 0
-286 -327 -391 0
-137 -169 392 0
-138 -170 392 0
-139 -171 392 0
-140 -172 392 0
-141 -173 392 0
-142 -174 392 0
-143 -175 392 0
-144 -176 392 0
-286 -327 -392 0
-286 -325 -312 0
-286 -325 -355 0
-286 -325 -392 0
-286 -325 -390 0
-286 -325 -391 0
-137 -177 393 0
-138 -178 393 0
-139 -179 393 0
-140 -180 393 0
-141 -181 393 0
-142 -182 393 0
-143 -183 393 0
-144 -184 393 0
-286 -325 -393 0
-286 -325 -374 0
-285 -324 0
-280 -300 -312 0
-280 -300 -340 0
-280 -300 -268 0
-280 -309 -302 0
-280 -309 -374 0
-280 -309 -379 0
-280 -309 -368 0
-280 -309 -268 0
-280 -309 -340 0
-280 -332 -302 0
-280 -332 -389 0
-280 -332 -312 0
-280 -332 -388 0
-280 -325 -312 0
-280 -325 -392 0
-280 -325 -390 0
-280 -325 -391 0
-280 -325 -393 0
-280 -325 -374 0
-280 -325 -389 0
-280 -326 -340 0
-280 -326 -390 0
-280 -326 -379 0
-280 -327 -379 0
-280 -327 -389 0
-280 -327 -391 0
-280 -327 -392 0
-280 -328 -312 0
-280 -328 -268 0
-280 -328 -393 0
-280 -328 -379 0
-280 -328 -392 0
-280 -328 -368 0
-196 -239 -259 0
-196 -239 -294 0
-196 -239 -218 0
-196 -207 -218 0
-196 -207 -259 0
-241 -207 -218 0
-241 -207 -259 0
-241 -263 -293 0
-241 -263 -294 0
-241 -263 -295 0
-241 -263 -296 0
-241 -263 -218 0
-241 -309 -295 0
-241 -309 -297 0
-241 -309 -298 0
-241 -309 -293 0
-241 -309 -259 0
-241 -309 -299 0
-241 -226 -296 0
-241 -226 -259 0
-241 -226 -293 0
-291 -309 0
-278 -239 -259 0
-278 -239 -218 0
-278 -328 -259 0
-278 -328 -297 0
-278 -328 -304 0
-278 -328 -298 0
-278 -328 -305 0
-278 -328 -293 0
-278 -324 -299 0
-278 -324 -298 0
-278 -324 -303 0
-278 -324 -306 0
-278 -324 -295 0
-278 -324 -302 0
-278 -325 -297 0
-278 -325 -305 0
-278 -325 -306 0
-278 -325 -307 0
-278 -325 -304 0
-278 -325 -295 0
-278 -325 -303 0
-278 -331 -259 0
-278 -331 -218 0
-278 -331 -295 0
-278 -331 -304 0
-278 -331 -296 0
-278 -263 -293 0
-278 -263 -295 0
-278 -263 -296 0
-278 -263 -218 0
-278 -332 -297 0
-278 -332 -302 0
-278 -332 -303 0
-278 -332 -301 0
-291 -332 0
-283 -324 -294 0
-283 -324 -298 0
-283 -324 -303 0
-283 -324 -306 0
-283 -324 -295 0
-283 -324 -302 0
-283 -329 -301 0
-283 -329 -303 0
-283 -329 -297 0
-283 -326 -297 0
-283 -326 -302 0
-283 -326 -306 0
-283 -326 -298 0
-283 -309 -295 0
-283 -309 -297 0
-283 -309 -298 0
-283 -309 -293 0
-283 -309 -259 0
-283 -330 -302 0
-291 -324 0
-280 -309 -295 0
-280 -309 -298 0
-280 -309 -293 0
-280 -309 -259 0
-280 -309 -299 0
-280 -332 -302 0
-280 -332 -303 0
-280 -332 -294 0
-280 -332 -301 0
-280 -325 -294 0
-280 -325 -305 0
-280 -325 -306 0
-280 -325 -307 0
-280 -325 -304 0
-280 -325 -295 0
-280 -325 -303 0
-280 -326 -299 0
-280 -326 -302 0
-280 -326 -306 0
-280 -326 -298 0
-280 -327 -298 0
-280 -327 -303 0
-280 -327 -307 0
-280 -327 -305 0
-280 -328 -294 0
-280 -328 -259 0
-280 -328 -304 0
-280 -328 -298 0
-280 -328 -305 0
-280 -328 -293 0
-280 -329 -299 0
-280 -329 -301 0
-280 -329 -303 0
-291 -263 0
-258 -207 -218 0
-258 -239 -294 0
-258 -239 -218 0
-258 -331 -294 0
-258 -331 -218 0
-258 -331 -295 0
-258 -331 -304 0
-258 -331 -296 0
-258 -309 -295 0
-258 -309 -297 0
-258 -309 -298 0
-258 -309 -293 0
-258 -309 -299 0
-258 -328 -294 0
-258 -328 -297 0
-258 -328 -304 0
-258 -328 -298 0
-258 -328 -305 0
-258 -328 -293 0
-258 -333 -218 0
-258 -333 -293 0
-258 -226 -296 0
-258 -226 -293 0
-33 -81 0
-34 -82 0
-35 -83 0
-36 -84 0
-37 -85 0
-38 -86 0
-39 -87 0
-40 -88 0
-196 -240 -259 0
-196 -240 -294 0
-196 -240 -218 0
-196 -210 -218 0
-196 -210 -259 0
-241 -210 -218 0
-241 -210 -259 0
-241 -261 -293 0
-241 -261 -294 0
-241 -261 -295 0
-241 -261 -296 0
-241 -261 -218 0
-241 -310 -295 0
-241 -310 -297 0
-241 -310 -298 0
-241 -310 -293 0
-241 -310 -259 0
-241 -223 -296 0
-241 -223 -259 0
-241 -223 -293 0
-291 -310 0
-278 -240 -259 0
-278 -240 -218 0
-278 -334 -259 0
-278 -334 -297 0
-278 -334 -304 0
-278 -334 -298 0
-278 -334 -305 0
-278 -334 -293 0
-278 -335 -298 0
-278 -335 -303 0
-278 -335 -306 0
-278 -335 -295 0
-278 -335 -302 0
-278 -336 -297 0
-278 -336 -305 0
-278 -336 -306 0
-278 -336 -307 0
-278 -336 -304 0
-278 -336 -295 0
-278 -336 -303 0
-278 -337 -259 0
-278 -337 -218 0
-278 -337 -295 0
-278 -337 -304 0
-278 -337 -296 0
-278 -261 -293 0
-278 -261 -295 0
-278 -261 -296 0
-278 -261 -218 0
-291 -335 0
-280 -310 -295 0
-280 -310 -298 0
-280 -310 -293 0
-280 -310 -259 0
-280 -336 -294 0
-280 -336 -305 0
-280 -336 -306 0
-280 -336 -307 0
-280 -336 -304 0
-280 -336 -295 0
-280 -336 -303 0
-280 -338 -302 0
-280 -338 -306 0
-280 -338 -298 0
-280 -339 -298 0
-280 -339 -303 0
-280 -339 -307 0
-280 -339 -305 0
-280 -334 -294 0
-280 -334 -259 0
-280 -334 -304 0
-280 -334 -298 0
-280 -334 -305 0
-280 -334 -293 0
-280 -340 -300 0
-280 -340 -301 0
-280 -340 -303 0
-291 -261 0
-258 -210 -218 0
-258 -240 -294 0
-258 -240 -218 0
-258 -337 -294 0
-258 -337 -218 0
-258 -337 -295 0
-258 -337 -304 0
-258 -337 -296 0
-258 -310 -295 0
-258 -310 -297 0
-258 -310 -298 0
-258 -310 -293 0
-258 -334 -294 0
-258 -334 -297 0
-258 -334 -304 0
-258 -334 -298 0
-258 -334 -305 0
-258 -334 -293 0
-258 -341 -218 0
-258 -341 -293 0
-258 -223 -296 0
-258 -223 -293 0
-291 -332 0
-284 -342 -302 0
-284 -340 -301 0
-284 -340 -303 0
-284 -340 -297 0
-284 -342 0
-287 -340 -326 0
-287 -340 -324 0
-284 -340 0
-285 -338 -324 0
-285 -338 -327 0
-285 -338 -325 0
-285 -335 -300 0
-285 -335 -309 0
-285 -335 -325 0
-285 -335 -326 0
-285 -335 -327 0
-285 -335 -328 0
-284 -299 0
-291 -240 -263 0
-291 -240 -309 0
-291 -240 -226 0
-291 -310 -328 0
-291 -310 -324 0
-291 -310 -325 0
-291 -310 -331 0
-291 -310 -263 0
-291 -335 -309 0
-291 -335 -325 0
-291 -335 -326 0
-291 -335 -327 0
-291 -335 -328 0
-291 -335 -329 0
-291 -261 -331 0
-291 -261 -309 0
-291 -261 -328 0
-291 -261 -333 0
-291 -261 -226 0
-280 -299 0
-291 -240 -262 0
-291 -240 -311 0
-291 -240 -224 0
-291 -310 -352 0
-291 -310 -347 0
-291 -310 -349 0
-291 -310 -262 0
-291 -261 -349 0
-291 -261 -311 0
-291 -261 -352 0
-291 -261 -354 0
-291 -261 -224 0
-291 -332 -356 0
-291 -332 -355 0
-280 -310 0
-278 -240 -262 0
-278 -240 -297 0
-278 -240 -224 0
-278 -299 -262 0
-278 -299 -324 0
-278 -334 -262 0
-278 -334 -346 0
-278 -334 -347 0
-278 -334 -348 0
-278 -334 -349 0
-278 -336 -348 0
-278 -336 -350 0
-278 -336 -351 0
-278 -336 -346 0
-278 -336 -352 0
-278 -336 -353 0
-278 -337 -262 0
-278 -337 -224 0
-278 -337 -352 0
-278 -337 -346 0
-278 -337 -354 0
-278 -261 -297 0
-278 -261 -349 0
-278 -261 -352 0
-278 -261 -354 0
-278 -261 -224 0
-280 -336 0
-281 -310 -297 0
-281 -310 -352 0
-281 -310 -349 0
-281 -310 -262 0
-281 -343 -352 0
-281 -343 -350 0
-281 -343 -351 0
-281 -343 -346 0
-281 -339 -353 0
-281 -339 -351 0
-281 -339 -348 0
-281 -344 -350 0
-281 -344 -348 0
-281 -345 -352 0
-281 -345 -349 0
-281 -345 -348 0
-281 -334 -311 0
-281 -334 -262 0
-281 -334 -346 0
-281 -334 -348 0
-281 -334 -349 0
-281 -338 -355 0
-281 -338 -350 0
-280 -338 0
-286 -340 -324 0
-286 -340 -356 0
-286 -339 -347 0
-286 -339 -351 0
-286 -339 -348 0
-286 -336 -311 0
-286 -336 -348 0
-286 -336 -350 0
-286 -336 -351 0
-286 -336 -346 0
-286 -336 -352 0
-280 -339 0
-288 -336 -311 0
-288 -336 -348 0
-288 -336 -351 0
-288 -336 -346 0
-288 -336 -352 0
-288 -336 -353 0
-288 -338 -355 0
-288 -338 -347 0
-288 -344 -347 0
-288 -344 -348 0
-288 -343 -347 0
-288 -343 -352 0
-288 -343 -351 0
-288 -343 -346 0
-280 -334 0
-279 -310 -297 0
-279 -310 -347 0
-279 -310 -349 0
-279 -310 -262 0
-279 -261 -297 0
-279 -261 -349 0
-279 -261 -311 0
-279 -261 -354 0
-279 -261 -224 0
-279 -345 -347 0
-279 -345 -349 0
-279 -345 -348 0
-279 -336 -311 0
-279 -336 -348 0
-279 -336 -350 0
-279 -336 -351 0
-279 -336 -346 0
-279 -336 -353 0
-279 -343 -347 0
-279 -343 -350 0
-279 -343 -351 0
-279 -343 -346 0
-279 -337 -311 0
-279 -337 -262 0
-279 -337 -224 0
-279 -337 -346 0
-279 -337 -354 0
-280 -340 0
-285 -332 -356 0
-285 -332 -297 0
-285 -342 -324 0
-285 -338 -350 0
-285 -338 -347 0
-285 -332 0
-284 -299 -312 0
-284 -299 -355 0
-284 -299 -268 0
-285 -342 0
-287 -332 -302 0
-285 -338 0
-286 -335 -302 0
-286 -335 -312 0
-286 -335 -379 0
-286 -335 -390 0
-286 -335 -374 0
-286 -339 -355 0
-286 -339 -379 0
-286 -339 -391 0
-286 -339 -392 0
-286 -336 -312 0
-286 -336 -355 0
-286 -336 -392 0
-286 -336 -390 0
-286 -336 -391 0
-286 -336 -393 0
-286 -336 -374 0
-285 -335 0
-280 -299 -312 0
-280 -299 -268 0
-280 -299 -329 0
-280 -310 -302 0
-280 -310 -374 0
-280 -310 -379 0
-280 -310 -368 0
-280 -310 -268 0
-280 -336 -312 0
-280 -336 -392 0
-280 -336 -390 0
-280 -336 -391 0
-280 -336 -393 0
-280 -336 -374 0
-280 -336 -389 0
-280 -338 -390 0
-280 -338 -379 0
-280 -339 -379 0
-280 -339 -389 0
-280 -339 -391 0
-280 -339 -392 0
-280 -334 -312 0
-280 -334 -268 0
-280 -334 -393 0
-280 -334 -379 0
-280 -334 -392 0
-280 -334 -368 0
-286 -335 0
-280 -299 -313 0
-280 -299 -269 0
-280 -299 -326 0
-280 -310 -303 0
-280 -310 -372 0
-280 -310 -380 0
-280 -310 -365 0
-280 -310 -269 0
-280 -336 -313 0
-145 -169 394 0
-146 -170 394 0
-147 -171 394 0
-148 -172 394 0
-149 -173 394 0
-150 -174 394 0
-151 -175 394 0
-152 -176 394 0
-280 -336 -394 0
-145 -153 395 0
-146 -154 395 0
-147 -155 395 0
-148 -156 395 0
-149 -157 395 0
-150 -158 395 0
-151 -159 395 0
-152 -160 395 0
-280 -336 -395 0
-145 -161 396 0
-146 -162 396 0
-147 -163 396 0
-148 -164 396 0
-149 -165 396 0
-150 -166 396 0
-151 -167 396 0
-152 -168 396 0
-280 -336 -396 0
-145 -177 397 0
-146 -178 397 0
-147 -179 397 0
-148 -180 397 0
-149 -181 397 0
-150 -182 397 0
-151 -183 397 0
-152 -184 397 0
-280 -336 -397 0
-280 -336 -372 0
-280 -339 -380 0
-280 -339 -396 0
-280 -339 -394 0
-280 -334 -313 0
-280 -334 -269 0
-280 -334 -397 0
-280 -334 -380 0
-280 -334 -394 0
-280 -334 -365 0
-280 -340 -326 0
-280 -340 -386 0
-286 -340 0
-285 -332 -386 0
-285 -332 -303 0
-285 -342 -326 0
-285 -335 -303 0
-285 -335 -313 0
-285 -335 -380 0
-285 -335 -395 0
-285 -335 -372 0
-286 -339 0
-288 -335 -303 0
-288 -335 -313 0
-288 -335 -380 0
-288 -335 -372 0
-288 -335 -389 0
-288 -336 -313 0
-288 -336 -353 0
-288 -336 -394 0
-288 -336 -396 0
-288 -336 -397 0
-288 -336 -372 0
-288 -344 -380 0
-288 -344 -394 0
-288 -343 -380 0
-288 -343 -372 0
-288 -343 -396 0
-288 -343 -397 0
-286 -336 0
-281 -310 -303 0
-281 -310 -372 0
-281 -310 -353 0
-281 -310 -365 0
-281 -310 -269 0
-281 -335 -303 0
-281 -335 -313 0
-281 -335 -395 0
-281 -335 -372 0
-281 -335 -389 0
-281 -343 -372 0
-281 -343 -395 0
-281 -343 -396 0
-281 -343 -397 0
-281 -339 -353 0
-281 -339 -396 0
-281 -339 -394 0
-281 -344 -395 0
-281 -344 -394 0
-281 -345 -372 0
-281 -345 -365 0
-281 -345 -394 0
-281 -334 -313 0
-281 -334 -269 0
-281 -334 -353 0
-281 -334 -397 0
-281 -334 -394 0
-281 -334 -365 0
-241 -197 -294 0
-241 -210 -220 0
-241 -210 -260 0
-241 -261 -294 0
-241 -261 -318 0
-241 -261 -317 0
-241 -261 -319 0
-241 -261 -220 0
-241 -299 -311 0
-241 -299 -260 0
-241 -299 -309 0
-241 -223 -319 0
-241 -223 -260 0
-241 -223 -318 0
-278 -299 0
-291 -240 -260 0
-291 -240 -220 0
-291 -335 -315 0
-291 -335 -313 0
-291 -335 -316 0
-291 -335 -317 0
-291 -335 -312 0
-291 -261 -318 0
-291 -261 -317 0
-291 -261 -319 0
-291 -261 -220 0
-291 -332 -314 0
-291 -332 -312 0
-278 -334 0
-279 -261 -294 0
-279 -261 -318 0
-279 -261 -319 0
-279 -261 -220 0
-279 -335 -294 0
-279 -335 -315 0
-279 -335 -313 0
-279 -335 -316 0
-279 -335 -312 0
-279 -345 -315 0
-279 -345 -318 0
-279 -345 -320 0
-279 -336 -311 0
-279 -336 -320 0
-279 -336 -316 0
-279 -336 -321 0
-279 -336 -322 0
-279 -336 -313 0
-279 -343 -315 0
-279 -343 -316 0
-279 -343 -321 0
-279 -343 -322 0
-279 -337 -260 0
-279 -337 -220 0
-279 -337 -322 0
-279 -337 -319 0
-278 -335 0
-280 -299 -260 0
-280 -299 -309 0
-280 -336 -320 0
-280 -336 -316 0
-280 -336 -321 0
-280 -336 -322 0
-280 -336 -317 0
-280 -336 -313 0
-280 -338 -312 0
-280 -338 -316 0
-280 -338 -315 0
-280 -339 -315 0
-280 -339 -313 0
-280 -339 -321 0
-280 -339 -320 0
-280 -334 -260 0
-280 -334 -322 0
-280 -334 -315 0
-280 -334 -320 0
-280 -334 -318 0
-280 -340 -309 0
-280 -340 -314 0
-280 -340 -313 0
-278 -336 0
-281 -335 -294 0
-281 -335 -313 0
-281 -335 -316 0
-281 -335 -317 0
-281 -335 -312 0
-281 -343 -317 0
-281 -343 -316 0
-281 -343 -321 0
-281 -343 -322 0
-281 -339 -311 0
-281 -339 -313 0
-281 -339 -321 0
-281 -339 -320 0
-281 -344 -316 0
-281 -344 -320 0
-281 -345 -317 0
-281 -345 -318 0
-281 -345 -320 0
-281 -334 -260 0
-281 -334 -311 0
-281 -334 -322 0
-281 -334 -320 0
-281 -334 -318 0
-281 -338 -311 0
-281 -338 -312 0
-281 -338 -316 0
-278 -337 0
-282 -261 -294 0
-282 -261 -317 0
-282 -261 -319 0
-282 -261 -220 0
-282 -223 -319 0
-282 -223 -260 0
-282 -334 -260 0
-282 -334 -311 0
-282 -334 -322 0
-282 -334 -315 0
-282 -334 -320 0
-282 -345 -315 0
-282 -345 -317 0
-282 -345 -320 0
-282 -341 -260 0
-282 -341 -220 0
-278 -261 0
-258 -210 -220 0
-258 -240 -294 0
-258 -240 -220 0
-258 -299 -311 0
-258 -299 -309 0
-258 -337 -220 0
-258 -337 -317 0
-258 -337 -322 0
-258 -337 -319 0
-258 -334 -311 0
-258 -334 -322 0
-258 -334 -315 0
-258 -334 -320 0
-258 -334 -318 0
-258 -341 -220 0
-258 -341 -318 0
-258 -223 -319 0
-258 -223 -318 0
-287 -332 0
-284 -340 -386 0
-284 -340 -356 0
-284 -299 -314 0
-284 -299 -356 0
-284 -299 -270 0
-287 -340 0
-285 -332 -301 0
-285 -338 -356 0
-285 -338 -387 0
-285 -338 -381 0
-285 -335 -301 0
-285 -335 -314 0
-285 -335 -381 0
-285 -335 -386 0
-285 -335 -387 0
-285 -335 -378 0
-204 -206 -212 0
-204 -230 -229 0
-204 -230 -233 0
-204 -230 -236 0
-204 -244 -212 0
-204 -244 -236 0
-204 -244 -255 0
-204 -244 -275 0
-204 -244 -229 0
-204 -244 -215 0
-196 -238 -255 0
-196 -238 -292 0
-196 -238 -308 0
-196 -238 -233 0
-196 -238 -290 0
-196 -186 -215 0
-196 -186 -233 0
-205 -186 -194 0
-205 -186 -199 0
-196 -238 0
-291 -242 -192 0
-291 -242 -198 0
-291 -242 -202 0
-291 -242 -190 0
-291 -242 -199 0
-291 -242 -197 0
-291 -240 -200 0
-291 -240 -198 0
-291 -240 -209 0
-291 -240 -211 0
-291 -240 -191 0
-291 -240 -208 0
-291 -243 -191 0
-291 -243 -197 0
-291 -243 -202 0
-291 -243 -211 0
-291 -243 -214 0
-291 -243 -192 0
-291 -243 -209 0
-291 -244 -190 0
-291 -244 -191 0
-291 -244 -192 0
-291 -244 -193 0
-291 -244 -194 0
-291 -239 -197 0
-291 -239 -208 0
-291 -239 -209 0
-204 -230 -193 0
-204 -230 -199 0
-204 -230 -190 0
-204 -244 -189 0
-204 -244 -190 0
-204 -244 -191 0
-204 -244 -192 0
-204 -244 -193 0
-204 -244 -194 0
-205 -206 -195 0
-196 -238 -201 0
-196 -238 -210 0
-196 -238 -213 0
-196 -238 -188 0
-196 -238 -207 0
-204 -230 0
-217 -247 -188 0
-217 -247 -231 0
-217 -244 -195 0
-217 -244 -231 0
-217 -244 -201 0
-217 -244 -234 0
-217 -244 -228 0
-217 -249 -201 0
-217 -249 -188 0
-217 -249 -234 0
-217 -249 -237 0
-217 -249 -228 0
-204 -244 0
-258 -238 -201 0
-258 -238 -210 0
-258 -238 -213 0
-258 -238 -207 0
-258 -249 -201 0
-258 -249 -203 0
-258 -249 -234 0
-258 -249 -237 0
-258 -249 -228 0
-258 -242 -195 0
-258 -242 -234 0
-258 -242 -213 0
-258 -242 -256 0
-258 -242 -231 0
-258 -242 -210 0
-258 -245 -201 0
-258 -245 -213 0
-258 -245 -237 0
-258 -245 -256 0
-258 -245 -276 0
-258 -245 -231 0
-258 -247 -203 0
-258 -247 -231 0
-258 -230 -228 0
-258 -230 -231 0
-204 -206 -259 0
-204 -230 -267 0
-204 -230 -266 0
-258 -238 0
-291 -242 -264 0
-291 -242 -262 0
-291 -242 -265 0
-291 -242 -266 0
-291 -242 -261 0
-291 -240 -263 0
-291 -240 -262 0
-291 -240 -268 0
-291 -240 -269 0
-291 -240 -260 0
-291 -240 -270 0
-291 -243 -260 0
-291 -243 -261 0
-291 -243 -265 0
-291 -243 -269 0
-291 -243 -271 0
-291 -243 -264 0
-291 -243 -268 0
-291 -239 -261 0
-291 -239 -270 0
-291 -239 -268 0
-258 -249 0
-282 -242 -259 0
-282 -242 -264 0
-282 -242 -262 0
-282 -242 -265 0
-282 -242 -261 0
-282 -230 -267 0
-282 -245 -260 0
-282 -245 -262 0
-282 -245 -272 0
-282 -245 -265 0
-282 -245 -273 0
-282 -246 -265 0
-282 -246 -264 0
-282 -246 -273 0
-282 -247 -225 0
-258 -242 0
-278 -238 -261 0
-278 -238 -262 0
-278 -238 -263 0
-278 -245 -262 0
-278 -245 -272 0
-278 -245 -265 0
-278 -245 -273 0
-278 -245 -266 0
-278 -243 -259 0
-278 -243 -261 0
-278 -243 -265 0
-278 -243 -269 0
-278 -243 -271 0
-278 -243 -264 0
-278 -243 -268 0
-278 -248 -262 0
-278 -248 -273 0
-278 -248 -271 0
-278 -248 -274 0
-278 -248 -272 0
-278 -248 -264 0
-278 -248 -269 0
-278 -249 -225 0
-278 -249 -264 0
-278 -249 -272 0
-278 -249 -267 0
-278 -240 -259 0
-278 -240 -263 0
-278 -240 -262 0
-278 -240 -268 0
-278 -240 -269 0
-278 -240 -270 0
-258 -245 0
-279 -242 -259 0
-279 -242 -262 0
-279 -242 -265 0
-279 -242 -266 0
-279 -242 -261 0
-279 -243 -259 0
-279 -243 -260 0
-279 -243 -261 0
-279 -243 -265 0
-279 -243 -269 0
-279 -243 -271 0
-279 -243 -268 0
-279 -246 -265 0
-279 -246 -266 0
-279 -246 -273 0
-279 -248 -260 0
-279 -248 -262 0
-279 -248 -273 0
-279 -248 -271 0
-279 -248 -274 0
-279 -248 -272 0
-279 -248 -269 0
-279 -250 -265 0
-279 -250 -271 0
-279 -250 -274 0
-279 -250 -272 0
-279 -249 -260 0
-279 -249 -225 0
-279 -249 -272 0
-279 -249 -267 0
-258 -247 0
-289 -230 -266 0
-289 -249 -260 0
-289 -249 -225 0
-289 -249 -264 0
-289 -249 -272 0
-258 -230 0
-217 -247 -266 0
-217 -249 -260 0
-217 -249 -264 0
-217 -249 -272 0
-217 -249 -267 0
-196 -186 -218 0
-196 -186 -259 0
-291 -242 0
-278 -245 -259 0
-278 -245 -297 0
-278 -245 -304 0
-278 -245 -298 0
-278 -245 -305 0
-278 -245 -293 0
-278 -243 -299 0
-278 -243 -298 0
-278 -243 -303 0
-278 -243 -306 0
-278 -243 -295 0
-278 -243 -302 0
-278 -248 -297 0
-278 -248 -305 0
-278 -248 -306 0
-278 -248 -307 0
-278 -248 -304 0
-278 -248 -295 0
-278 -248 -303 0
-278 -249 -259 0
-278 -249 -218 0
-278 -249 -295 0
-278 -249 -304 0
-278 -249 -296 0
-278 -244 -293 0
-278 -244 -295 0
-278 -244 -296 0
-278 -244 -218 0
-278 -240 -300 0
-278 -240 -297 0
-278 -240 -302 0
-278 -240 -303 0
-278 -240 -301 0
-291 -240 0
-283 -239 -301 0
-283 -239 -302 0
-283 -243 -294 0
-283 -243 -298 0
-283 -243 -303 0
-283 -243 -306 0
-283 -243 -295 0
-283 -243 -302 0
-283 -251 -300 0
-283 -251 -301 0
-283 -251 -303 0
-283 -251 -297 0
-283 -252 -297 0
-283 -252 -302 0
-283 -252 -306 0
-283 -252 -298 0
-283 -242 -295 0
-283 -242 -297 0
-283 -242 -298 0
-283 -242 -293 0
-283 -242 -259 0
-283 -253 -300 0
-283 -253 -302 0
-291 -243 0
-280 -242 -295 0
-280 -242 -298 0
-280 -242 -293 0
-280 -242 -259 0
-280 -242 -299 0
-280 -240 -300 0
-280 -240 -302 0
-280 -240 -303 0
-280 -240 -294 0
-280 -240 -301 0
-280 -248 -294 0
-280 -248 -305 0
-280 -248 -306 0
-280 -248 -307 0
-280 -248 -304 0
-280 -248 -295 0
-280 -248 -303 0
-280 -252 -299 0
-280 -252 -302 0
-280 -252 -306 0
-280 -252 -298 0
-280 -254 -298 0
-280 -254 -303 0
-280 -254 -307 0
-280 -254 -305 0
-280 -245 -294 0
-280 -245 -259 0
-280 -245 -304 0
-280 -245 -298 0
-280 -245 -305 0
-280 -245 -293 0
-280 -251 -300 0
-280 -251 -299 0
-280 -251 -301 0
-280 -251 -303 0
-291 -244 0
-258 -186 -218 0
-258 -249 -294 0
-258 -249 -218 0
-258 -249 -295 0
-258 -249 -304 0
-258 -249 -296 0
-258 -242 -295 0
-258 -242 -297 0
-258 -242 -298 0
-258 -242 -293 0
-258 -242 -299 0
-258 -245 -294 0
-258 -245 -297 0
-258 -245 -304 0
-258 -245 -298 0
-258 -245 -305 0
-258 -245 -293 0
-258 -247 -218 0
-258 -247 -293 0
-258 -230 -296 0
-258 -230 -293 0
-291 -239 0
-284 -240 -297 0
-284 -240 -302 0
-284 -240 -303 0
-284 -240 -294 0
-284 -240 -301 0
-284 -253 -302 0
-284 -253 -299 0
-284 -251 -299 0
-284 -251 -301 0
-284 -251 -303 0
-284 -251 -297 0
-278 -238 0
-291 -240 -309 0
-291 -240 -311 0
-291 -240 -312 0
-291 -240 -313 0
-291 -240 -314 0
-291 -243 -310 0
-291 -243 -315 0
-291 -243 -313 0
-291 -243 -316 0
-291 -243 -317 0
-291 -243 -312 0
-291 -244 -318 0
-291 -244 -317 0
-291 -244 -319 0
-291 -244 -220 0
-291 -239 -310 0
-291 -239 -314 0
-291 -239 -312 0
-278 -245 0
-279 -244 -294 0
-279 -244 -318 0
-279 -244 -319 0
-279 -244 -220 0
-279 -243 -294 0
-279 -243 -310 0
-279 -243 -315 0
-279 -243 -313 0
-279 -243 -316 0
-279 -243 -312 0
-279 -246 -315 0
-279 -246 -318 0
-279 -246 -320 0
-279 -248 -311 0
-279 -248 -320 0
-279 -248 -316 0
-279 -248 -321 0
-279 -248 -322 0
-279 -248 -313 0
-279 -250 -315 0
-279 -250 -316 0
-279 -250 -321 0
-279 -250 -322 0
-279 -249 -260 0
-279 -249 -220 0
-279 -249 -322 0
-279 -249 -319 0
-278 -243 0
-280 -238 -310 0
-280 -238 -260 0
-280 -238 -309 0
-280 -240 -294 0
-280 -240 -309 0
-280 -240 -312 0
-280 -240 -313 0
-280 -240 -314 0
-280 -248 -320 0
-280 -248 -316 0
-280 -248 -321 0
-280 -248 -322 0
-280 -248 -317 0
-280 -248 -313 0
-280 -252 -310 0
-280 -252 -312 0
-280 -252 -316 0
-280 -252 -315 0
-280 -254 -315 0
-280 -254 -313 0
-280 -254 -321 0
-280 -254 -320 0
-280 -245 -260 0
-280 -245 -322 0
-280 -245 -315 0
-280 -245 -320 0
-280 -245 -318 0
-280 -251 -309 0
-280 -251 -310 0
-280 -251 -314 0
-280 -251 -313 0
-278 -248 0
-281 -243 -294 0
-281 -243 -310 0
-281 -243 -313 0
-281 -243 -316 0
-281 -243 -317 0
-281 -243 -312 0
-281 -250 -317 0
-281 -250 -316 0
-281 -250 -321 0
-281 -250 -322 0
-281 -254 -311 0
-281 -254 -313 0
-281 -254 -321 0
-281 -254 -320 0
-281 -257 -316 0
-281 -257 -320 0
-281 -246 -317 0
-281 -246 -318 0
-281 -246 -320 0
-281 -245 -260 0
-281 -245 -311 0
-281 -245 -322 0
-281 -245 -320 0
-281 -245 -318 0
-281 -252 -310 0
-281 -252 -311 0
-281 -252 -312 0
-281 -252 -316 0
-278 -249 0
-282 -244 -294 0
-282 -244 -317 0
-282 -244 -319 0
-282 -244 -220 0
-282 -230 -319 0
-282 -230 -260 0
-282 -245 -260 0
-282 -245 -311 0
-282 -245 -322 0
-282 -245 -315 0
-282 -245 -320 0
-282 -246 -315 0
-282 -246 -317 0
-282 -246 -320 0
-282 -247 -260 0
-282 -247 -220 0
-278 -244 0
-258 -186 -220 0
-258 -238 -310 0
-258 -238 -311 0
-258 -238 -309 0
-258 -249 -220 0
-258 -249 -317 0
-258 -249 -322 0
-258 -249 -319 0
-258 -245 -311 0
-258 -245 -322 0
-258 -245 -315 0
-258 -245 -320 0
-258 -245 -318 0
-258 -247 -220 0
-258 -247 -318 0
-258 -230 -319 0
-258 -230 -318 0
-278 -240 0
-283 -238 -311 0
-283 -238 -260 0
-283 -238 -309 0
-283 -239 -314 0
-283 -239 -312 0
-283 -239 -294 0
-283 -243 -294 0
-283 -243 -315 0
-283 -243 -313 0
-283 -243 -316 0
-283 -243 -317 0
-283 -243 -312 0
-283 -251 -309 0
-283 -251 -314 0
-283 -251 -313 0
-283 -251 -311 0
-283 -252 -311 0
-283 -252 -312 0
-283 -252 -316 0
-283 -252 -315 0
-283 -253 -309 0
-283 -253 -312 0
-204 -206 -218 0
-204 -244 -218 0
-204 -244 -219 0
-204 -244 -220 0
-204 -244 -221 0
-204 -244 -222 0
-217 -247 0
-289 -244 -218 0
-289 -244 -219 0
-289 -244 -220 0
-289 -244 -221 0
-289 -249 -220 0
-289 -249 -225 0
-289 -249 -221 0
-289 -249 -232 0
-217 -244 0
-258 -238 -220 0
-258 -238 -223 0
-258 -238 -224 0
-258 -238 -226 0
-258 -249 -220 0
-258 -249 -221 0
-258 -249 -232 0
-258 -249 -222 0
-258 -242 -218 0
-258 -242 -221 0
-258 -242 -224 0
-258 -242 -227 0
-258 -242 -219 0
-258 -242 -223 0
-258 -245 -220 0
-258 -245 -224 0
-258 -245 -232 0
-258 -245 -227 0
-258 -245 -235 0
-258 -245 -219 0
-258 -247 -219 0
-217 -249 0
-282 -242 -218 0
-282 -242 -221 0
-282 -242 -224 0
-282 -242 -227 0
-282 -242 -225 0
-282 -242 -223 0
-282 -244 -218 0
-282 -244 -220 0
-282 -244 -221 0
-282 -244 -222 0
-282 -245 -220 0
-282 -245 -225 0
-282 -245 -224 0
-282 -245 -232 0
-282 -245 -227 0
-282 -245 -235 0
-282 -246 -227 0
-282 -246 -221 0
-282 -246 -235 0
-282 -247 -225 0
-195 -194 -229 0
-195 -194 -233 0
-195 -194 -236 0
-195 -206 -233 0
-195 -206 -255 0
-195 -206 -215 0
-195 -199 -236 0
-195 -199 -255 0
-195 -199 -275 0
-195 -199 -229 0
-195 -199 -215 0
-238 -216 -215 0
-238 -216 -233 0
-238 -199 -236 0
-238 -199 -255 0
-238 -199 -275 0
-238 -199 -229 0
-238 -199 -215 0
-238 -191 -275 0
-238 -191 -308 0
-238 -191 -323 0
-238 -191 -236 0
-238 -191 -233 0
-238 -191 -292 0
-238 -194 -229 0
-238 -194 -233 0
-238 -194 -236 0
-238 -196 -290 0
-238 -196 -292 0
-212 -216 -230 0
-212 -216 -244 0
-195 -194 -247 0
-195 -194 -244 0
-195 -194 -249 0
-195 -199 -249 0
-195 -199 -242 0
-195 -199 -245 0
-195 -199 -247 0
-195 -199 -230 0
-238 -199 0
-259 -216 -230 0
-259 -190 -242 0
-259 -190 -230 0
-259 -190 -245 0
-259 -190 -246 0
-259 -190 -247 0
-259 -191 -245 0
-259 -191 -243 0
-259 -191 -248 0
-259 -191 -249 0
-259 -191 -240 0
-259 -192 -242 0
-259 -192 -243 0
-259 -192 -246 0
-259 -192 -248 0
-259 -192 -250 0
-259 -192 -249 0
-259 -193 -230 0
-259 -193 -249 0
-259 -194 -247 0
-259 -194 -249 0
-238 -191 0
-294 -192 -244 0
-294 -192 -243 0
-294 -192 -246 0
-294 -192 -248 0
-294 -192 -250 0
-294 -192 -249 0
-294 -198 -240 0
-294 -198 -248 0
-294 -198 -252 0
-294 -198 -254 0
-294 -198 -245 0
-294 -198 -251 0
-294 -202 -243 0
-294 -202 -250 0
-294 -202 -254 0
-294 -202 -257 0
-294 -202 -246 0
-294 -202 -245 0
-294 -202 -252 0
-294 -190 -244 0
-294 -190 -230 0
-294 -190 -245 0
-294 -190 -246 0
-294 -190 -247 0
-294 -199 -249 0
-294 -199 -245 0
-294 -199 -247 0
-294 -199 -230 0
-294 -197 -239 0
-294 -197 -243 0
-294 -197 -251 0
-294 -197 -252 0
-294 -197 -253 0
-238 -194 0
-218 -216 -244 0
-218 -193 -244 0
-218 -193 -249 0
-218 -199 -249 0
-218 -199 -242 0
-218 -199 -245 0
-218 -199 -247 0
-218 -190 -242 0
-218 -190 -244 0
-218 -190 -245 0
-218 -190 -246 0
-218 -190 -247 0
-291 -200 -240 0
-291 -200 -253 0
-291 -200 -251 0
-291 -197 -239 0
-291 -197 -243 0
-291 -197 -251 0
-291 -197 -252 0
-291 -197 -242 0
-291 -197 -253 0
-291 -200 0
-300 -197 -280 0
-300 -197 -285 0
-300 -197 -286 0
-300 -197 -278 0
-300 -197 -287 0
-300 -208 -285 0
-300 -208 -283 0
-300 -209 -283 0
-300 -209 -287 0
-300 -209 -286 0
-300 -209 -280 0
-291 -197 0
-299 -200 -287 0
-299 -200 -285 0
-299 -198 -278 0
-299 -198 -281 0
-299 -198 -286 0
-299 -198 -288 0
-299 -198 -279 0
-299 -198 -285 0
-299 -209 -284 0
-299 -209 -287 0
-299 -209 -286 0
-299 -209 -280 0
-299 -211 -280 0
-299 -211 -285 0
-299 -211 -288 0
-299 -211 -281 0
-299 -191 -279 0
-299 -191 -280 0
-299 -191 -281 0
-299 -191 -282 0
-299 -191 -258 0
-299 -208 -284 0
-299 -208 -285 0
-238 -216 -217 0
-238 -216 -258 0
-238 -199 -282 0
-238 -199 -278 0
-238 -199 -279 0
-238 -199 -289 0
-238 -199 -217 0
-238 -191 -279 0
-238 -191 -280 0
-238 -191 -281 0
-238 -191 -282 0
-238 -191 -258 0
-238 -191 -283 0
-238 -194 -289 0
-238 -194 -258 0
-238 -194 -282 0
-212 -206 -188 0
-212 -206 -201 0
-212 -206 -203 0
-195 -194 0
-218 -206 -188 0
-218 -206 -201 0
-218 -193 -188 0
-218 -193 -231 0
-218 -199 -231 0
-218 -199 -201 0
-218 -199 -234 0
-218 -199 -228 0
-218 -190 -201 0
-218 -190 -188 0
-218 -190 -234 0
-218 -190 -237 0
-218 -190 -228 0
-238 -199 -231 0
-238 -199 -201 0
-238 -199 -234 0
-238 -199 -228 0
-238 -199 -203 0
-238 -191 -234 0
-238 -191 -213 0
-238 -191 -256 0
-238 -191 -231 0
-238 -191 -188 0
-238 -191 -210 0
-238 -194 -228 0
-238 -194 -188 0
-238 -194 -231 0
-238 -196 -207 0
-238 -196 -210 0
-195 -199 0
-259 -206 -201 0
-259 -206 -203 0
-259 -190 -201 0
-259 -190 -203 0
-259 -190 -234 0
-259 -190 -237 0
-259 -190 -228 0
-259 -191 -234 0
-259 -191 -213 0
-259 -191 -256 0
-259 -191 -231 0
-259 -191 -210 0
-259 -192 -201 0
-259 -192 -213 0
-259 -192 -237 0
-259 -192 -256 0
-259 -192 -276 0
-259 -192 -231 0
-259 -193 -203 0
-259 -193 -231 0
-259 -194 -228 0
-259 -194 -231 0
-195 -230 -229 0
-195 -230 -233 0
-195 -230 -236 0
-195 -244 -236 0
-195 -244 -255 0
-195 -244 -275 0
-195 -244 -229 0
-195 -244 -215 0
-189 -241 -290 0
-189 -241 -292 0
-189 -186 -215 0
-189 -186 -233 0
-212 -186 -194 0
-212 -186 -199 0
-291 -239 -197 0
-291 -239 -208 0
-291 -239 -209 0
-291 -240 -200 0
-291 -240 -198 0
-291 -240 -209 0
-291 -240 -211 0
-291 -240 -191 0
-291 -240 -208 0
-195 -230 -193 0
-195 -230 -199 0
-195 -230 -190 0
-195 -244 -190 0
-195 -244 -191 0
-195 -244 -192 0
-195 -244 -193 0
-195 -244 -194 0
-189 -241 -207 0
-189 -241 -210 0
-195 -230 0
-218 -247 -188 0
-218 -247 -231 0
-218 -244 -231 0
-218 -244 -201 0
-218 -244 -234 0
-218 -244 -228 0
-218 -249 -201 0
-218 -249 -188 0
-218 -249 -234 0
-218 -249 -237 0
-218 -249 -228 0
-195 -244 0
-259 -249 -201 0
-259 -249 -203 0
-259 -249 -234 0
-259 -249 -237 0
-259 -249 -228 0
-259 -242 -234 0
-259 -242 -213 0
-259 -242 -256 0
-259 -242 -231 0
-259 -242 -210 0
-259 -245 -201 0
-259 -245 -213 0
-259 -245 -237 0
-259 -245 -256 0
-259 -245 -276 0
-259 -245 -231 0
-259 -247 -203 0
-259 -247 -231 0
-259 -230 -228 0
-259 -230 -231 0
-195 -230 -267 0
-195 -230 -266 0
-259 -249 0
-293 -242 -264 0
-293 -242 -262 0
-293 -242 -265 0
-293 -242 -261 0
-293 -230 -267 0
-293 -245 -260 0
-293 -245 -262 0
-293 -245 -272 0
-293 -245 -265 0
-293 -245 -273 0
-293 -246 -265 0
-293 -246 -264 0
-293 -246 -273 0
-293 -247 -225 0
-259 -242 0
-294 -245 -262 0
-294 -245 -272 0
-294 -245 -265 0
-294 -245 -273 0
-294 -245 -266 0
-294 -243 -261 0
-294 -243 -265 0
-294 -243 -269 0
-294 -243 -271 0
-294 -243 -264 0
-294 -243 -268 0
-294 -248 -262 0
-294 -248 -273 0
-294 -248 -271 0
-294 -248 -274 0
-294 -248 -272 0
-294 -248 -264 0
-294 -248 -269 0
-294 -249 -225 0
-294 -249 -264 0
-294 -249 -272 0
-294 -249 -267 0
-294 -240 -263 0
-294 -240 -262 0
-294 -240 -268 0
-294 -240 -269 0
-294 -240 -270 0
-259 -245 0
-295 -242 -262 0
-295 -242 -265 0
-295 -242 -266 0
-295 -242 -261 0
-295 -243 -260 0
-295 -243 -261 0
-295 -243 -265 0
-295 -243 -269 0
-295 -243 -271 0
-295 -243 -268 0
-295 -246 -265 0
-295 -246 -266 0
-295 -246 -273 0
-295 -248 -260 0
-295 -248 -262 0
-295 -248 -273 0
-295 -248 -271 0
-295 -248 -274 0
-295 -248 -272 0
-295 -248 -269 0
-295 -250 -265 0
-295 -250 -271 0
-295 -250 -274 0
-295 -250 -272 0
-295 -249 -260 0
-295 -249 -225 0
-295 -249 -272 0
-295 -249 -267 0
-259 -247 0
-296 -230 -266 0
-296 -249 -260 0
-296 -249 -225 0
-296 -249 -264 0
-296 -249 -272 0
-259 -230 0
-218 -247 -266 0
-218 -249 -260 0
-218 -249 -264 0
-218 -249 -272 0
-218 -249 -267 0
-294 -245 0
-295 -244 -318 0
-295 -244 -319 0
-295 -244 -220 0
-295 -243 -310 0
-295 -243 -315 0
-295 -243 -313 0
-295 -243 -316 0
-295 -243 -312 0
-295 -246 -315 0
-295 -246 -318 0
-295 -246 -320 0
-295 -248 -311 0
-295 -248 -320 0
-295 -248 -316 0
-295 -248 -321 0
-295 -248 -322 0
-295 -248 -313 0
-295 -250 -315 0
-295 -250 -316 0
-295 -250 -321 0
-295 -250 -322 0
-295 -249 -260 0
-295 -249 -220 0
-295 -249 -322 0
-295 -249 -319 0
-294 -243 0
-297 -240 -309 0
-297 -240 -312 0
-297 -240 -313 0
-297 -240 -314 0
-297 -248 -320 0
-297 -248 -316 0
-297 -248 -321 0
-297 -248 -322 0
-297 -248 -317 0
-297 -248 -313 0
-297 -252 -310 0
-297 -252 -312 0
-297 -252 -316 0
-297 -252 -315 0
-297 -254 -315 0
-297 -254 -313 0
-297 -254 -321 0
-297 -254 -320 0
-297 -245 -260 0
-297 -245 -322 0
-297 -245 -315 0
-297 -245 -320 0
-297 -245 -318 0
-297 -251 -309 0
-297 -251 -310 0
-297 -251 -314 0
-297 -251 -313 0
-294 -248 0
-298 -243 -310 0
-298 -243 -313 0
-298 -243 -316 0
-298 -243 -317 0
-298 -243 -312 0
-298 -250 -317 0
-298 -250 -316 0
-298 -250 -321 0
-298 -250 -322 0
-298 -254 -311 0
-298 -254 -313 0
-298 -254 -321 0
-298 -254 -320 0
-298 -257 -316 0
-298 -257 -320 0
-298 -246 -317 0
-298 -246 -318 0
-298 -246 -320 0
-298 -245 -260 0
-298 -245 -311 0
-298 -245 -322 0
-298 -245 -320 0
-298 -245 -318 0
-298 -252 -310 0
-298 -252 -311 0
-298 -252 -312 0
-298 -252 -316 0
-294 -249 0
-293 -244 -317 0
-293 -244 -319 0
-293 -244 -220 0
-293 -230 -319 0
-293 -230 -260 0
-293 -245 -260 0
-293 -245 -311 0
-293 -245 -322 0
-293 -245 -315 0
-293 -245 -320 0
-293 -246 -315 0
-293 -246 -317 0
-293 -246 -320 0
-293 -247 -260 0
-293 -247 -220 0
-294 -244 0
-259 -186 -220 0
-259 -249 -220 0
-259 -249 -317 0
-259 -249 -322 0
-259 -249 -319 0
-259 -245 -311 0
-259 -245 -322 0
-259 -245 -315 0
-259 -245 -320 0
-259 -245 -318 0
-259 -247 -220 0
-259 -247 -318 0
-259 -230 -319 0
-259 -230 -318 0
-294 -240 0
-299 -241 -309 0
-299 -239 -314 0
-299 -239 -312 0
-299 -243 -315 0
-299 -243 -313 0
-299 -243 -316 0
-299 -243 -317 0
-299 -243 -312 0
-299 -251 -309 0
-299 -251 -314 0
-299 -251 -313 0
-299 -251 -311 0
-299 -252 -311 0
-299 -252 -312 0
-299 -252 -316 0
-299 -252 -315 0
-299 -253 -309 0
-299 -253 -312 0
-195 -244 -219 0
-195 -244 -220 0
-195 -244 -221 0
-195 -244 -222 0
-218 -247 0
-296 -244 -219 0
-296 -244 -220 0
-296 -244 -221 0
-296 -249 -220 0
-296 -249 -225 0
-296 -249 -221 0
-296 -249 -232 0
-218 -244 0
-259 -249 -220 0
-259 -249 -221 0
-259 -249 -232 0
-259 -249 -222 0
-259 -242 -221 0
-259 -242 -224 0
-259 -242 -227 0
-259 -242 -219 0
-259 -242 -223 0
-259 -245 -220 0
-259 -245 -224 0
-259 -245 -232 0
-259 -245 -227 0
-259 -245 -235 0
-259 -245 -219 0
-259 -247 -219 0
-218 -249 0
-293 -242 -221 0
-293 -242 -224 0
-293 -242 -227 0
-293 -242 -225 0
-293 -242 -223 0
-293 -244 -220 0
-293 -244 -221 0
-293 -244 -222 0
-293 -245 -220 0
-293 -245 -225 0
-293 -245 -224 0
-293 -245 -232 0
-293 -245 -227 0
-293 -245 -235 0
-293 -246 -227 0
-293 -246 -221 0
-293 -246 -235 0
-293 -247 -225 0
-189 -186 -217 0
-189 -186 -258 0
-291 -239 0
-300 -240 -280 0
-300 -240 -285 0
-300 -240 -286 0
-300 -240 -278 0
-300 -240 -287 0
-300 -253 -285 0
-300 -253 -283 0
-300 -251 -283 0
-300 -251 -287 0
-300 -251 -286 0
-300 -251 -280 0
-291 -240 0
-299 -239 -287 0
-299 -239 -285 0
-299 -243 -278 0
-299 -243 -281 0
-299 -243 -286 0
-299 -243 -288 0
-299 -243 -279 0
-299 -243 -285 0
-299 -251 -284 0
-299 -251 -287 0
-299 -251 -286 0
-299 -251 -280 0
-299 -252 -280 0
-299 -252 -285 0
-299 -252 -288 0
-299 -252 -281 0
-299 -242 -279 0
-299 -242 -280 0
-299 -242 -281 0
-299 -242 -282 0
-299 -242 -258 0
-299 -253 -284 0
-299 -253 -285 0
-212 -204 -194 0
-212 -204 -199 0
-212 -241 -199 0
-212 -241 -191 0
-212 -241 -194 0
-238 -204 -194 0
-238 -204 -199 0
-238 -258 -190 0
-238 -258 -191 0
-238 -258 -192 0
-238 -258 -193 0
-238 -258 -194 0
-238 -278 -192 0
-238 -278 -198 0
-238 -278 -202 0
-238 -278 -190 0
-238 -278 -199 0
-238 -278 -197 0
-238 -217 -193 0
-238 -217 -199 0
-238 -217 -190 0
-195 -217 -193 0
-195 -217 -199 0
-195 -217 -190 0
-195 -241 -199 0
-195 -241 -191 0
-195 -241 -194 0
-195 -258 -190 0
-195 -258 -191 0
-195 -258 -192 0
-195 -258 -193 0
-195 -258 -194 0
-300 -283 0
-299 -280 -309 0
-299 -280 -325 0
-299 -280 -326 0
-299 -280 -327 0
-299 -280 -328 0
-299 -280 -329 0
-299 -285 -330 0
-299 -285 -326 0
-299 -285 -324 0
-299 -286 -324 0
-299 -286 -329 0
-299 -286 -327 0
-299 -286 -325 0
-299 -278 -328 0
-299 -278 -324 0
-299 -278 -325 0
-299 -278 -331 0
-299 -278 -263 0
-299 -287 -329 0
-300 -287 0
-301 -285 -332 0
-301 -285 -326 0
-301 -285 -324 0
-301 -283 -324 0
-301 -283 -329 0
-301 -283 -326 0
-301 -283 -309 0
-300 -285 0
-302 -283 -324 0
-302 -283 -326 0
-302 -283 -309 0
-302 -283 -330 0
-302 -287 -332 0
-302 -286 -332 0
-302 -286 -324 0
-302 -286 -327 0
-302 -286 -325 0
-302 -280 -309 0
-302 -280 -332 0
-302 -280 -325 0
-302 -280 -326 0
-302 -280 -327 0
-302 -280 -328 0
-299 -284 0
-300 -287 -340 0
-300 -285 -342 0
-300 -285 -338 0
-300 -285 -335 0
-299 -280 0
-297 -278 -334 0
-297 -278 -336 0
-297 -278 -337 0
-297 -278 -261 0
-297 -281 -310 0
-297 -281 -343 0
-297 -281 -339 0
-297 -281 -344 0
-297 -281 -345 0
-297 -281 -334 0
-297 -281 -338 0
-297 -286 -340 0
-297 -286 -339 0
-297 -286 -336 0
-297 -288 -336 0
-297 -288 -338 0
-297 -288 -344 0
-297 -288 -343 0
-297 -279 -310 0
-297 -279 -261 0
-297 -279 -345 0
-297 -279 -336 0
-297 -279 -343 0
-297 -279 -337 0
-297 -285 -332 0
-297 -285 -342 0
-297 -285 -338 0
-299 -285 0
-302 -284 -342 0
-302 -287 -332 0
-302 -286 -335 0
-302 -286 -339 0
-302 -286 -336 0
-302 -280 -310 0
-302 -280 -336 0
-302 -280 -338 0
-302 -280 -339 0
-302 -280 -334 0
-299 -286 0
-303 -280 -310 0
-303 -280 -336 0
-303 -280 -339 0
-303 -280 -334 0
-303 -280 -340 0
-303 -285 -332 0
-303 -285 -342 0
-303 -285 -335 0
-303 -288 -335 0
-303 -288 -336 0
-303 -288 -344 0
-303 -288 -343 0
-303 -281 -310 0
-303 -281 -335 0
-303 -281 -343 0
-303 -281 -339 0
-303 -281 -344 0
-303 -281 -345 0
-303 -281 -334 0
-299 -278 0
-294 -241 -261 0
-294 -241 -223 0
-294 -279 -261 0
-294 -279 -335 0
-294 -279 -345 0
-294 -279 -336 0
-294 -279 -343 0
-294 -279 -337 0
-294 -280 -336 0
-294 -280 -338 0
-294 -280 -339 0
-294 -280 -334 0
-294 -280 -340 0
-294 -281 -335 0
-294 -281 -343 0
-294 -281 -339 0
-294 -281 -344 0
-294 -281 -345 0
-294 -281 -334 0
-294 -281 -338 0
-294 -282 -261 0
-294 -282 -223 0
-294 -282 -334 0
-294 -282 -345 0
-294 -282 -341 0
-294 -258 -337 0
-294 -258 -334 0
-294 -258 -341 0
-294 -258 -223 0
-299 -287 0
-301 -284 -340 0
-301 -285 -332 0
-301 -285 -338 0
-301 -285 -335 0
-212 -204 -230 0
-212 -204 -244 0
-189 -204 -230 0
-189 -204 -244 0
-195 -217 -247 0
-195 -217 -244 0
-195 -217 -249 0
-195 -258 -249 0
-195 -258 -242 0
-195 -258 -245 0
-195 -258 -247 0
-195 -258 -230 0
-238 -258 0
-259 -204 -230 0
-259 -282 -242 0
-259 -282 -230 0
-259 -282 -245 0
-259 -282 -246 0
-259 -282 -247 0
-259 -278 -245 0
-259 -278 -243 0
-259 -278 -248 0
-259 -278 -249 0
-259 -278 -240 0
-259 -279 -242 0
-259 -279 -243 0
-259 -279 -246 0
-259 -279 -248 0
-259 -279 -250 0
-259 -279 -249 0
-259 -289 -230 0
-259 -289 -249 0
-259 -217 -247 0
-259 -217 -249 0
-238 -278 0
-294 -279 -244 0
-294 -279 -243 0
-294 -279 -246 0
-294 -279 -248 0
-294 -279 -250 0
-294 -279 -249 0
-294 -280 -240 0
-294 -280 -248 0
-294 -280 -252 0
-294 -280 -254 0
-294 -280 -245 0
-294 -280 -251 0
-294 -281 -243 0
-294 -281 -250 0
-294 -281 -254 0
-294 -281 -257 0
-294 -281 -246 0
-294 -281 -245 0
-294 -281 -252 0
-294 -282 -244 0
-294 -282 -230 0
-294 -282 -245 0
-294 -282 -246 0
-294 -282 -247 0
-294 -258 -249 0
-294 -258 -245 0
-294 -258 -247 0
-294 -258 -230 0
-294 -283 -239 0
-294 -283 -243 0
-294 -283 -251 0
-294 -283 -252 0
-294 -283 -253 0
-238 -217 0
-218 -204 -244 0
-218 -289 -244 0
-218 -289 -249 0
-218 -258 -249 0
-218 -258 -242 0
-218 -258 -245 0
-218 -258 -247 0
-218 -282 -242 0
-218 -282 -244 0
-218 -282 -245 0
-218 -282 -246 0
-218 -282 -247 0
-41 -49 0
-42 -50 0
-43 -51 0
-44 -52 0
-45 -53 0
-46 -54 0
-47 -55 0
-48 -56 0
-212 -201 -230 0
-212 -201 -244 0
-189 -278 -239 0
-189 -278 -240 0
-189 -201 -230 0
-189 -201 -244 0
-195 -220 -247 0
-195 -220 -244 0
-195 -220 -249 0
-195 -260 -249 0
-195 -260 -245 0
-195 -260 -247 0
-195 -260 -230 0
-238 -260 0
-259 -201 -230 0
-259 -318 -230 0
-259 -318 -245 0
-259 -318 -246 0
-259 -318 -247 0
-259 -317 -243 0
-259 -317 -246 0
-259 -317 -248 0
-259 -317 -250 0
-259 -317 -249 0
-259 -319 -230 0
-259 -319 -249 0
-259 -220 -247 0
-259 -220 -249 0
-238 -220 0
-218 -201 -244 0
-218 -319 -244 0
-218 -319 -249 0
-218 -260 -249 0
-218 -260 -245 0
-218 -260 -247 0
-218 -318 -244 0
-218 -318 -245 0
-218 -318 -246 0
-218 -318 -247 0
-291 -309 -240 0
-291 -309 -253 0
-291 -309 -251 0
-291 -310 -239 0
-291 -310 -243 0
-291 -310 -251 0
-291 -310 -252 0
-291 -310 -253 0
-295 -260 0
-259 -201 -221 0
-259 -242 -221 0
-259 -318 -221 0
-259 -318 -377 0
-259 -318 -357 0
-259 -319 -221 0
-259 -319 -367 0
-259 -220 -357 0
-259 -220 -367 0
-295 -311 0
-297 -310 -328 0
-297 -310 -374 0
-297 -310 -372 0
-297 -310 -378 0
-297 -315 -375 0
-297 -315 -373 0
-297 -315 -376 0
-297 -315 -377 0
-297 -315 -372 0
-297 -313 -334 0
-297 -313 -374 0
-297 -313 -373 0
-297 -313 -371 0
-297 -316 -371 0
-297 -316 -372 0
-297 -316 -376 0
-297 -316 -375 0
-297 -312 -328 0
-297 -312 -334 0
-297 -312 -378 0
-297 -312 -372 0
-295 -322 0
-304 -315 -352 0
-304 -315 -375 0
-304 -315 -373 0
-304 -315 -376 0
-304 -315 -372 0
-304 -318 -264 0
-304 -318 -221 0
-304 -318 -357 0
-304 -320 -371 0
-304 -320 -373 0
-304 -320 -376 0
-295 -315 0
-298 -311 -334 0
-298 -311 -372 0
-298 -311 -373 0
-298 -311 -374 0
-298 -320 -373 0
-298 -320 -376 0
-298 -320 -377 0
-298 -316 -352 0
-298 -316 -372 0
-298 -316 -376 0
-298 -316 -375 0
-298 -321 -373 0
-298 -321 -375 0
-298 -322 -367 0
-298 -322 -375 0
-298 -313 -334 0
-298 -313 -352 0
-298 -313 -374 0
-298 -313 -373 0
-295 -320 0
-305 -315 -352 0
-305 -315 -373 0
-305 -315 -376 0
-305 -315 -377 0
-305 -315 -372 0
-305 -316 -352 0
-305 -316 -371 0
-305 -316 -372 0
-305 -316 -376 0
-305 -321 -371 0
-305 -321 -373 0
-305 -322 -371 0
-305 -322 -367 0
-295 -318 0
-293 -260 -357 0
-293 -260 -221 0
-293 -220 -357 0
-293 -220 -264 0
-293 -322 -371 0
-293 -322 -375 0
-293 -319 -264 0
-293 -319 -221 0
-297 -310 0
-299 -278 -324 0
-299 -309 -356 0
-299 -309 -355 0
-299 -312 -324 0
-299 -312 -356 0
-299 -312 -353 0
-299 -313 -355 0
-299 -313 -350 0
-299 -313 -347 0
-299 -314 -324 0
-299 -314 -355 0
-297 -315 0
-298 -320 -352 0
-298 -320 -350 0
-298 -320 -351 0
-298 -320 -346 0
-298 -316 -353 0
-298 -316 -351 0
-298 -316 -348 0
-298 -321 -350 0
-298 -321 -348 0
-298 -322 -352 0
-298 -322 -349 0
-298 -322 -348 0
-298 -317 -262 0
-298 -317 -346 0
-298 -317 -348 0
-298 -317 -349 0
-298 -313 -335 0
-298 -313 -355 0
-298 -313 -350 0
-297 -313 0
-303 -310 -324 0
-303 -310 -355 0
-303 -310 -356 0
-303 -312 -324 0
-303 -312 -335 0
-303 -312 -356 0
-303 -316 -347 0
-303 -316 -351 0
-303 -316 -348 0
-303 -315 -348 0
-303 -315 -350 0
-303 -315 -351 0
-303 -315 -346 0
-303 -315 -352 0
-297 -316 0
-306 -315 -348 0
-306 -315 -351 0
-306 -315 -346 0
-306 -315 -352 0
-306 -315 -353 0
-306 -313 -335 0
-306 -313 -355 0
-306 -313 -347 0
-306 -321 -347 0
-306 -321 -348 0
-306 -320 -347 0
-306 -320 -352 0
-306 -320 -351 0
-306 -320 -346 0
-297 -317 0
-295 -260 -349 0
-295 -260 -354 0
-295 -260 -224 0
-295 -322 -347 0
-295 -322 -349 0
-295 -322 -348 0
-295 -315 -348 0
-295 -315 -350 0
-295 -315 -351 0
-295 -315 -346 0
-295 -315 -353 0
-295 -320 -347 0
-295 -320 -350 0
-295 -320 -351 0
-295 -320 -346 0
-295 -318 -262 0
-295 -318 -224 0
-295 -318 -346 0
-295 -318 -354 0
-297 -312 0
-302 -309 -335 0
-302 -309 -356 0
-302 -310 -324 0
-302 -310 -353 0
-302 -310 -356 0
-302 -314 -324 0
-302 -314 -335 0
-302 -313 -335 0
-302 -313 -350 0
-302 -313 -347 0
-298 -311 0
-297 -310 -325 0
-297 -310 -379 0
-297 -310 -380 0
-297 -310 -381 0
-297 -313 -336 0
-297 -313 -379 0
-297 -313 -382 0
-297 -316 -380 0
-297 -316 -383 0
-297 -316 -384 0
-297 -317 -265 0
-297 -317 -385 0
-297 -317 -384 0
-297 -317 -363 0
-297 -312 -325 0
-297 -312 -336 0
-297 -312 -381 0
-297 -312 -380 0
-298 -320 0
-305 -317 -265 0
-305 -317 -347 0
-305 -317 -385 0
-305 -317 -363 0
-305 -316 -347 0
-305 -316 -380 0
-305 -316 -383 0
-305 -321 -382 0
-305 -322 -371 0
-305 -322 -363 0
-298 -316 0
-306 -311 -336 0
-306 -311 -380 0
-306 -311 -371 0
-306 -311 -379 0
-306 -313 -336 0
-306 -313 -347 0
-306 -313 -379 0
-306 -321 -384 0
-306 -320 -371 0
-306 -320 -383 0
-306 -320 -385 0
-298 -321 0
-307 -316 -347 0
-307 -316 -380 0
-307 -316 -384 0
-307 -320 -371 0
-307 -320 -382 0
-307 -320 -385 0
-298 -322 0
-304 -317 -265 0
-304 -317 -347 0
-304 -317 -384 0
-304 -317 -363 0
-304 -318 -265 0
-304 -318 -227 0
-304 -318 -371 0
-304 -318 -359 0
-304 -320 -371 0
-304 -320 -382 0
-304 -320 -383 0
-298 -317 0
-295 -260 -363 0
-295 -260 -359 0
-295 -260 -227 0
-295 -311 -336 0
-295 -311 -380 0
-295 -311 -382 0
-295 -311 -379 0
-295 -322 -363 0
-295 -322 -384 0
-295 -320 -382 0
-295 -320 -383 0
-295 -320 -385 0
-295 -318 -265 0
-295 -318 -227 0
-295 -318 -385 0
-295 -318 -359 0
-298 -313 0
-303 -310 -325 0
-303 -310 -347 0
-303 -310 -379 0
-303 -310 -381 0
-303 -311 -336 0
-303 -311 -382 0
-303 -311 -371 0
-303 -311 -379 0
-303 -312 -325 0
-303 -312 -336 0
-303 -312 -381 0
-303 -312 -347 0
-303 -316 -347 0
-303 -316 -383 0
-303 -316 -384 0
-293 -260 0
-259 -201 -219 0
-259 -242 -219 0
-259 -317 -349 0
-259 -317 -362 0
-259 -317 -363 0
-259 -317 -364 0
-259 -319 -219 0
-259 -220 -360 0
-293 -220 0
-218 -201 -266 0
-218 -242 -266 0
-218 -319 -266 0
-218 -260 -367 0
-218 -260 -360 0
-293 -317 0
-295 -260 -360 0
-295 -260 -219 0
-295 -311 -337 0
-295 -311 -363 0
-295 -311 -365 0
-295 -311 -366 0
-295 -311 -368 0
-295 -322 -363 0
-295 -322 -364 0
-295 -315 -349 0
-295 -315 -364 0
-295 -315 -366 0
-295 -315 -369 0
-295 -315 -362 0
-295 -315 -365 0
-295 -320 -363 0
-295 -320 -366 0
-295 -320 -369 0
-295 -320 -362 0
-293 -322 0
-304 -315 -349 0
-304 -315 -364 0
-304 -315 -366 0
-304 -315 -369 0
-304 -315 -367 0
-304 -315 -365 0
-304 -317 -266 0
-304 -317 -349 0
-304 -317 -363 0
-304 -317 -364 0
-304 -320 -363 0
-304 -320 -367 0
-304 -320 -366 0
-304 -320 -369 0
-293 -319 0
-296 -260 -367 0
-296 -260 -219 0
-296 -220 -266 0
-195 -220 -267 0
-195 -220 -266 0
-195 -242 -225 0
-238 -201 -225 0
-238 -220 -267 0
-238 -220 -266 0
-238 -278 -263 0
-238 -278 -261 0
-259 -318 0
-293 -220 -267 0
-293 -317 -262 0
-293 -317 -272 0
-293 -317 -265 0
-293 -317 -273 0
-293 -322 -265 0
-293 -322 -264 0
-293 -322 -273 0
-293 -319 -225 0
-259 -317 0
-295 -311 -261 0
-295 -311 -265 0
-295 -311 -269 0
-295 -311 -271 0
-295 -311 -268 0
-295 -322 -265 0
-295 -322 -266 0
-295 -322 -273 0
-295 -315 -262 0
-295 -315 -273 0
-295 -315 -271 0
-295 -315 -274 0
-295 -315 -272 0
-295 -315 -269 0
-295 -320 -265 0
-295 -320 -271 0
-295 -320 -274 0
-295 -320 -272 0
-295 -318 -225 0
-295 -318 -272 0
-295 -318 -267 0
-259 -319 0
-296 -220 -266 0
-296 -318 -225 0
-296 -318 -264 0
-296 -318 -272 0
-259 -220 0
-218 -319 -266 0
-218 -318 -264 0
-218 -318 -272 0
-218 -318 -267 0
-291 -309 -342 0
-291 -309 -340 0
-291 -242 -261 0
-291 -242 -223 0
-299 -309 0
-300 -314 -340 0
-300 -312 -342 0
-300 -312 -338 0
-300 -312 -335 0
-299 -311 0
-297 -315 -343 0
-297 -315 -339 0
-297 -315 -344 0
-297 -315 -345 0
-297 -315 -334 0
-297 -315 -338 0
-297 -313 -340 0
-297 -313 -339 0
-297 -313 -336 0
-297 -316 -336 0
-297 -316 -338 0
-297 -316 -344 0
-297 -316 -343 0
-297 -317 -261 0
-297 -317 -345 0
-297 -317 -336 0
-297 -317 -343 0
-297 -317 -337 0
-297 -312 -332 0
-297 -312 -342 0
-297 -312 -338 0
-299 -312 0
-302 -309 -342 0
-302 -314 -332 0
-302 -313 -335 0
-302 -313 -339 0
-302 -313 -336 0
-302 -311 -336 0
-302 -311 -338 0
-302 -311 -339 0
-302 -311 -334 0
-299 -313 0
-303 -311 -336 0
-303 -311 -339 0
-303 -311 -334 0
-303 -311 -340 0
-303 -312 -332 0
-303 -312 -342 0
-303 -312 -335 0
-303 -316 -335 0
-303 -316 -336 0
-303 -316 -344 0
-303 -316 -343 0
-303 -315 -335 0
-303 -315 -343 0
-303 -315 -339 0
-303 -315 -344 0
-303 -315 -345 0
-303 -315 -334 0
-299 -314 0
-301 -309 -340 0
-301 -312 -332 0
-301 -312 -338 0
-301 -312 -335 0
-41 -81 0
-42 -82 0
-43 -83 0
-44 -84 0
-45 -85 0
-46 -86 0
-47 -87 0
-48 -88 0
-189 -240 -258 0
-189 -240 -278 0
-189 -240 -217 0
-189 -210 -217 0
-189 -210 -258 0
-291 -332 0
-300 -342 -285 0
-300 -340 -287 0
-300 -340 -286 0
-300 -340 -280 0
-238 -210 -217 0
-238 -210 -258 0
-238 -261 -282 0
-238 -261 -278 0
-238 -261 -279 0
-238 -261 -289 0
-238 -261 -217 0
-238 -310 -279 0
-238 -310 -280 0
-238 -310 -281 0
-238 -310 -282 0
-238 -310 -258 0
-238 -223 -289 0
-238 -223 -258 0
-238 -223 -282 0
-291 -240 -263 0
-291 -240 -309 0
-291 -240 -226 0
-300 -342 0
-301 -340 -326 0
-301 -340 -324 0
-300 -340 0
-302 -338 -324 0
-302 -338 -327 0
-302 -338 -325 0
-302 -335 -309 0
-302 -335 -325 0
-302 -335 -326 0
-302 -335 -327 0
-302 -335 -328 0
-297 -310 0
-294 -240 -262 0
-294 -240 -224 0
-294 -334 -262 0
-294 -334 -346 0
-294 -334 -347 0
-294 -334 -348 0
-294 -334 -349 0
-294 -336 -348 0
-294 -336 -350 0
-294 -336 -351 0
-294 -336 -346 0
-294 -336 -352 0
-294 -336 -353 0
-294 -337 -262 0
-294 -337 -224 0
-294 -337 -352 0
-294 -337 -346 0
-294 -337 -354 0
-294 -261 -349 0
-294 -261 -352 0
-294 -261 -354 0
-294 -261 -224 0
-297 -336 0
-298 -310 -352 0
-298 -310 -349 0
-298 -310 -262 0
-298 -343 -352 0
-298 -343 -350 0
-298 -343 -351 0
-298 -343 -346 0
-298 -339 -353 0
-298 -339 -351 0
-298 -339 -348 0
-298 -344 -350 0
-298 -344 -348 0
-298 -345 -352 0
-298 -345 -349 0
-298 -345 -348 0
-298 -334 -311 0
-298 -334 -262 0
-298 -334 -346 0
-298 -334 -348 0
-298 -334 -349 0
-298 -338 -355 0
-298 -338 -350 0
-297 -338 0
-303 -340 -324 0
-303 -340 -356 0
-303 -339 -347 0
-303 -339 -351 0
-303 -339 -348 0
-303 -336 -311 0
-303 -336 -348 0
-303 -336 -350 0
-303 -336 -351 0
-303 -336 -346 0
-303 -336 -352 0
-297 -339 0
-306 -336 -311 0
-306 -336 -348 0
-306 -336 -351 0
-306 -336 -346 0
-306 -336 -352 0
-306 -336 -353 0
-306 -338 -355 0
-306 -338 -347 0
-306 -344 -347 0
-306 -344 -348 0
-306 -343 -347 0
-306 -343 -352 0
-306 -343 -351 0
-306 -343 -346 0
-297 -334 0
-295 -310 -347 0
-295 -310 -349 0
-295 -310 -262 0
-295 -261 -349 0
-295 -261 -311 0
-295 -261 -354 0
-295 -261 -224 0
-295 -345 -347 0
-295 -345 -349 0
-295 -345 -348 0
-295 -336 -311 0
-295 -336 -348 0
-295 -336 -350 0
-295 -336 -351 0
-295 -336 -346 0
-295 -336 -353 0
-295 -343 -347 0
-295 -343 -350 0
-295 -343 -351 0
-295 -343 -346 0
-295 -337 -311 0
-295 -337 -262 0
-295 -337 -224 0
-295 -337 -346 0
-295 -337 -354 0
-297 -340 0
-302 -332 -356 0
-302 -342 -324 0
-302 -338 -350 0
-302 -338 -347 0
-302 -332 0
-302 -342 0
-302 -338 0
-303 -335 -312 0
-303 -335 -379 0
-303 -335 -390 0
-303 -335 -374 0
-303 -339 -355 0
-303 -339 -379 0
-303 -339 -391 0
-303 -339 -392 0
-303 -336 -312 0
-303 -336 -355 0
-303 -336 -392 0
-303 -336 -390 0
-303 -336 -391 0
-303 -336 -393 0
-303 -336 -374 0
-302 -335 0
-297 -310 -374 0
-297 -310 -379 0
-297 -310 -368 0
-297 -310 -268 0
-297 -336 -312 0
-297 -336 -392 0
-297 -336 -390 0
-297 -336 -391 0
-297 -336 -393 0
-297 -336 -374 0
-297 -336 -389 0
-297 -338 -390 0
-297 -338 -379 0
-297 -339 -379 0
-297 -339 -389 0
-297 -339 -391 0
-297 -339 -392 0
-297 -334 -312 0
-297 -334 -268 0
-297 -334 -393 0
-297 -334 -379 0
-297 -334 -392 0
-297 -334 -368 0
-303 -335 0
-297 -310 -372 0
-297 -310 -380 0
-297 -310 -365 0
-297 -310 -269 0
-297 -336 -313 0
-297 -336 -394 0
-297 -336 -395 0
-297 -336 -396 0
-297 -336 -397 0
-297 -336 -372 0
-297 -339 -380 0
-297 -339 -396 0
-297 -339 -394 0
-297 -334 -313 0
-297 -334 -269 0
-297 -334 -397 0
-297 -334 -380 0
-297 -334 -394 0
-297 -334 -365 0
-297 -340 -326 0
-297 -340 -386 0
-303 -340 0
-302 -332 -386 0
-302 -342 -326 0
-302 -335 -313 0
-302 -335 -380 0
-302 -335 -395 0
-302 -335 -372 0
-303 -339 0
-306 -335 -313 0
-306 -335 -380 0
-306 -335 -372 0
-306 -335 -389 0
-306 -336 -313 0
-306 -336 -353 0
-306 -336 -394 0
-306 -336 -396 0
-306 -336 -397 0
-306 -336 -372 0
-306 -344 -380 0
-306 -344 -394 0
-306 -343 -380 0
-306 -343 -372 0
-306 -343 -396 0
-306 -343 -397 0
-303 -336 0
-298 -310 -372 0
-298 -310 -353 0
-298 -310 -365 0
-298 -310 -269 0
-298 -335 -313 0
-298 -335 -395 0
-298 -335 -372 0
-298 -335 -389 0
-298 -343 -372 0
-298 -343 -395 0
-298 -343 -396 0
-298 -343 -397 0
-298 -339 -353 0
-298 -339 -396 0
-298 -339 -394 0
-298 -344 -395 0
-298 -344 -394 0
-298 -345 -372 0
-298 -345 -365 0
-298 -345 -394 0
-298 -334 -313 0
-298 -334 -269 0
-298 -334 -353 0
-298 -334 -397 0
-298 -334 -394 0
-298 -334 -365 0
-238 -210 -220 0
-238 -210 -260 0
-238 -261 -318 0
-238 -261 -317 0
-238 -261 -319 0
-238 -261 -220 0
-238 -223 -319 0
-238 -223 -260 0
-238 -223 -318 0
-238 -283 -309 0
-294 -334 0
-295 -261 -318 0
-295 -261 -319 0
-295 -261 -220 0
-295 -335 -315 0
-295 -335 -313 0
-295 -335 -316 0
-295 -335 -312 0
-295 -345 -315 0
-295 -345 -318 0
-295 -345 -320 0
-295 -336 -311 0
-295 -336 -320 0
-295 -336 -316 0
-295 -336 -321 0
-295 -336 -322 0
-295 -336 -313 0
-295 -343 -315 0
-295 -343 -316 0
-295 -343 -321 0
-295 -343 -322 0
-295 -337 -260 0
-295 -337 -220 0
-295 -337 -322 0
-295 -337 -319 0
-294 -335 0
-297 -336 -320 0
-297 -336 -316 0
-297 -336 -321 0
-297 -336 -322 0
-297 -336 -317 0
-297 -336 -313 0
-297 -338 -312 0
-297 -338 -316 0
-297 -338 -315 0
-297 -339 -315 0
-297 -339 -313 0
-297 -339 -321 0
-297 -339 -320 0
-297 -334 -260 0
-297 -334 -322 0
-297 -334 -315 0
-297 -334 -320 0
-297 -334 -318 0
-297 -340 -309 0
-297 -340 -314 0
-297 -340 -313 0
-294 -336 0
-298 -335 -313 0
-298 -335 -316 0
-298 -335 -317 0
-298 -335 -312 0
-298 -343 -317 0
-298 -343 -316 0
-298 -343 -321 0
-298 -343 -322 0
-298 -339 -311 0
-298 -339 -313 0
-298 -339 -321 0
-298 -339 -320 0
-298 -344 -316 0
-298 -344 -320 0
-298 -345 -317 0
-298 -345 -318 0
-298 -345 -320 0
-298 -334 -260 0
-298 -334 -311 0
-298 -334 -322 0
-298 -334 -320 0
-298 -334 -318 0
-298 -338 -311 0
-298 -338 -312 0
-298 -338 -316 0
-294 -337 0
-293 -261 -317 0
-293 -261 -319 0
-293 -261 -220 0
-293 -223 -319 0
-293 -223 -260 0
-293 -334 -260 0
-293 -334 -311 0
-293 -334 -322 0
-293 -334 -315 0
-293 -334 -320 0
-293 -345 -315 0
-293 -345 -317 0
-293 -345 -320 0
-293 -341 -260 0
-293 -341 -220 0
-294 -261 0
-259 -210 -220 0
-259 -240 -220 0
-259 -337 -220 0
-259 -337 -317 0
-259 -337 -322 0
-259 -337 -319 0
-259 -334 -311 0
-259 -334 -322 0
-259 -334 -315 0
-259 -334 -320 0
-259 -334 -318 0
-259 -341 -220 0
-259 -341 -318 0
-259 -223 -319 0
-259 -223 -318 0
-301 -332 0
-300 -340 -386 0
-300 -340 -356 0
-301 -340 0
-302 -338 -356 0
-302 -338 -387 0
-302 -338 -381 0
-302 -335 -314 0
-302 -335 -381 0
-302 -335 -386 0
-302 -335 -387 0
-302 -335 -378 0
-41 -89 0
-42 -90 0
-43 -91 0
-44 -92 0
-45 -93 0
-46 -94 0
-47 -95 0
-48 -96 0
-238 -213 -220 0
-238 -213 -260 0
-238 -262 -318 0
-238 -262 -317 0
-238 -262 -319 0
-238 -262 -220 0
-238 -224 -319 0
-238 -224 -260 0
-238 -224 -318 0
-238 -280 -309 0
-238 -280 -310 0
-294 -352 0
-295 -262 -318 0
-295 -262 -319 0
-295 -262 -220 0
-295 -346 -315 0
-295 -346 -318 0
-295 -346 -320 0
-295 -347 -320 0
-295 -347 -316 0
-295 -347 -321 0
-295 -347 -322 0
-295 -347 -313 0
-295 -348 -315 0
-295 -348 -316 0
-295 -348 -321 0
-295 -348 -322 0
-295 -349 -260 0
-295 -349 -220 0
-295 -349 -322 0
-295 -349 -319 0
-294 -347 0
-298 -348 -317 0
-298 -348 -316 0
-298 -348 -321 0
-298 -348 -322 0
-298 -350 -313 0
-298 -350 -321 0
-298 -350 -320 0
-298 -351 -316 0
-298 -351 -320 0
-298 -346 -317 0
-298 -346 -318 0
-298 -346 -320 0
-298 -352 -260 0
-298 -352 -322 0
-298 -352 -320 0
-298 -352 -318 0
-298 -353 -310 0
-298 -353 -312 0
-298 -353 -316 0
-294 -349 0
-293 -262 -317 0
-293 -262 -319 0
-293 -262 -220 0
-293 -224 -319 0
-293 -224 -260 0
-293 -352 -260 0
-293 -352 -322 0
-293 -352 -315 0
-293 -352 -320 0
-293 -346 -315 0
-293 -346 -317 0
-293 -346 -320 0
-293 -354 -260 0
-293 -354 -220 0
-294 -262 0
-259 -213 -220 0
-259 -243 -220 0
-259 -349 -220 0
-259 -349 -317 0
-259 -349 -322 0
-259 -349 -319 0
-259 -352 -322 0
-259 -352 -315 0
-259 -352 -320 0
-259 -352 -318 0
-259 -354 -220 0
-259 -354 -318 0
-259 -224 -319 0
-259 -224 -318 0
-294 -335 0
-299 -280 -309 0
-299 -324 -314 0
-299 -324 -312 0
-299 -355 -309 0
-299 -355 -314 0
-299 -355 -313 0
-299 -353 -312 0
-299 -353 -316 0
-299 -353 -315 0
-299 -356 -309 0
-299 -356 -312 0
-291 -324 -342 0
-291 -324 -340 0
-291 -243 -261 0
-291 -243 -310 0
-291 -243 -223 0
-299 -324 0
-300 -356 -340 0
-300 -355 -342 0
-300 -355 -338 0
-299 -355 0
-302 -324 -342 0
-302 -356 -332 0
-302 -353 -339 0
-302 -353 -336 0
-299 -353 0
-303 -355 -332 0
-303 -355 -342 0
-303 -350 -336 0
-303 -350 -344 0
-303 -350 -343 0
-303 -347 -310 0
-303 -347 -343 0
-303 -347 -339 0
-303 -347 -344 0
-303 -347 -345 0
-303 -347 -334 0
-299 -311 0
-294 -243 -261 0
-294 -243 -223 0
-294 -352 -261 0
-294 -352 -345 0
-294 -352 -336 0
-294 -352 -343 0
-294 -352 -337 0
-294 -347 -343 0
-294 -347 -339 0
-294 -347 -344 0
-294 -347 -345 0
-294 -347 -334 0
-294 -347 -338 0
-294 -349 -261 0
-294 -349 -223 0
-294 -349 -334 0
-294 -349 -345 0
-294 -349 -341 0
-294 -262 -337 0
-294 -262 -334 0
-294 -262 -341 0
-294 -262 -223 0
-299 -356 0
-301 -324 -340 0
-301 -355 -332 0
-301 -355 -338 0
-298 -311 0
-294 -243 -265 0
-294 -243 -227 0
-294 -352 -265 0
-294 -352 -385 0
-294 -352 -384 0
-294 -352 -363 0
-294 -349 -265 0
-294 -349 -227 0
-294 -349 -371 0
-294 -349 -385 0
-294 -349 -359 0
-294 -262 -363 0
-294 -262 -371 0
-294 -262 -359 0
-294 -262 -227 0
-294 -335 -325 0
-294 -335 -379 0
-294 -335 -380 0
-294 -335 -381 0
-298 -348 0
-305 -352 -315 0
-305 -352 -265 0
-305 -352 -385 0
-305 -352 -363 0
-305 -350 -380 0
-305 -350 -383 0
-305 -351 -382 0
-305 -346 -371 0
-305 -346 -363 0
-298 -350 0
-306 -353 -336 0
-306 -353 -379 0
-306 -351 -384 0
-306 -348 -371 0
-306 -348 -383 0
-306 -348 -385 0
-298 -351 0
-307 -350 -380 0
-307 -350 -384 0
-307 -348 -371 0
-307 -348 -382 0
-307 -348 -385 0
-298 -346 0
-304 -352 -315 0
-304 -352 -265 0
-304 -352 -384 0
-304 -352 -363 0
-304 -349 -315 0
-304 -349 -265 0
-304 -349 -227 0
-304 -349 -371 0
-304 -349 -359 0
-304 -348 -371 0
-304 -348 -382 0
-304 -348 -383 0
-298 -352 0
-295 -311 -363 0
-295 -311 -265 0
-295 -311 -336 0
-295 -262 -363 0
-295 -262 -315 0
-295 -262 -359 0
-295 -262 -227 0
-295 -346 -363 0
-295 -346 -384 0
-295 -348 -382 0
-295 -348 -383 0
-295 -348 -385 0
-295 -349 -315 0
-295 -349 -265 0
-295 -349 -227 0
-295 -349 -385 0
-295 -349 -359 0
-298 -353 0
-303 -335 -325 0
-303 -335 -379 0
-303 -335 -315 0
-303 -335 -381 0
-303 -355 -325 0
-303 -355 -336 0
-303 -355 -381 0
-303 -350 -383 0
-303 -350 -384 0
-303 -335 0
-299 -280 -326 0
-299 -324 -386 0
-299 -324 -389 0
-299 -355 -326 0
-299 -355 -386 0
-299 -311 -372 0
-299 -311 -380 0
-299 -311 -365 0
-299 -311 -269 0
-299 -356 -326 0
-299 -356 -389 0
-303 -355 0
-302 -324 -338 0
-302 -324 -386 0
-302 -335 -326 0
-302 -335 -313 0
-302 -335 -386 0
-302 -356 -326 0
-302 -356 -338 0
-303 -350 0
-306 -347 -313 0
-306 -347 -394 0
-306 -347 -396 0
-306 -347 -397 0
-306 -347 -372 0
-306 -351 -380 0
-306 -351 -394 0
-306 -348 -380 0
-306 -348 -372 0
-306 -348 -396 0
-306 -348 -397 0
-303 -347 0
-298 -311 -372 0
-298 -311 -365 0
-298 -311 -269 0
-298 -311 -338 0
-298 -348 -372 0
-298 -348 -395 0
-298 -348 -396 0
-298 -348 -397 0
-298 -350 -396 0
-298 -350 -394 0
-298 -351 -395 0
-298 -351 -394 0
-298 -346 -372 0
-298 -346 -365 0
-298 -346 -394 0
-298 -352 -313 0
-298 -352 -269 0
-298 -352 -397 0
-298 -352 -394 0
-298 -352 -365 0
-306 -347 0
-298 -311 -373 0
-298 -311 -366 0
-298 -311 -271 0
-298 -311 -339 0
-298 -348 -373 0
-153 -161 398 0
-154 -162 398 0
-155 -163 398 0
-156 -164 398 0
-157 -165 398 0
-158 -166 398 0
-159 -167 398 0
-160 -168 398 0
-298 -348 -398 0
-153 -177 399 0
-154 -178 399 0
-155 -179 399 0
-156 -180 399 0
-157 -181 399 0
-158 -182 399 0
-159 -183 399 0
-160 -184 399 0
-298 -348 -399 0
-153 -169 400 0
-154 -170 400 0
-155 -171 400 0
-156 -172 400 0
-157 -173 400 0
-158 -174 400 0
-159 -175 400 0
-160 -176 400 0
-298 -351 -400 0
-298 -346 -373 0
-298 -346 -366 0
-298 -346 -400 0
-298 -352 -316 0
-298 -352 -271 0
-298 -352 -399 0
-298 -352 -400 0
-298 -352 -366 0
-298 -353 -339 0
-298 -353 -390 0
-306 -353 0
-303 -335 -327 0
-303 -335 -390 0
-303 -335 -316 0
-303 -335 -387 0
-303 -355 -327 0
-303 -355 -339 0
-303 -355 -387 0
-303 -347 -316 0
-303 -347 -400 0
-303 -347 -398 0
-303 -347 -399 0
-303 -347 -373 0
-306 -351 0
-307 -347 -316 0
-307 -347 -400 0
-307 -347 -399 0
-307 -347 -373 0
-307 -347 -395 0
-307 -348 -382 0
-307 -348 -373 0
-307 -348 -399 0
-306 -348 0
-305 -347 -316 0
-305 -347 -398 0
-305 -347 -399 0
-305 -347 -373 0
-305 -347 -395 0
-305 -352 -316 0
-305 -352 -271 0
-305 -352 -399 0
-305 -352 -382 0
-305 -352 -366 0
-305 -351 -382 0
-305 -346 -382 0
-305 -346 -373 0
-305 -346 -366 0
-295 -311 0
-294 -243 -264 0
-294 -243 -221 0
-294 -347 -375 0
-294 -347 -373 0
-294 -347 -376 0
-294 -347 -377 0
-294 -347 -372 0
-294 -349 -264 0
-294 -349 -221 0
-294 -349 -377 0
-294 -349 -357 0
-294 -262 -367 0
-294 -262 -357 0
-294 -262 -221 0
-294 -335 -328 0
-294 -335 -374 0
-294 -335 -372 0
-294 -335 -378 0
-295 -262 0
-259 -213 -221 0
-259 -243 -317 0
-259 -243 -221 0
-259 -349 -317 0
-259 -349 -221 0
-259 -349 -377 0
-259 -349 -357 0
-259 -311 -371 0
-259 -311 -367 0
-259 -311 -334 0
-259 -354 -221 0
-259 -354 -367 0
-259 -224 -357 0
-259 -224 -367 0
-295 -346 0
-304 -347 -317 0
-304 -347 -375 0
-304 -347 -373 0
-304 -347 -376 0
-304 -347 -372 0
-304 -349 -317 0
-304 -349 -264 0
-304 -349 -221 0
-304 -349 -357 0
-304 -348 -371 0
-304 -348 -373 0
-304 -348 -376 0
-295 -347 0
-298 -311 -367 0
-298 -311 -264 0
-298 -311 -334 0
-298 -348 -373 0
-298 -348 -376 0
-298 -348 -377 0
-298 -350 -372 0
-298 -350 -376 0
-298 -350 -375 0
-298 -351 -373 0
-298 -351 -375 0
-298 -346 -367 0
-298 -346 -375 0
-298 -353 -334 0
-298 -353 -374 0
-298 -353 -373 0
-295 -348 0
-305 -347 -317 0
-305 -347 -373 0
-305 -347 -376 0
-305 -347 -377 0
-305 -347 -372 0
-305 -350 -371 0
-305 -350 -372 0
-305 -350 -376 0
-305 -351 -371 0
-305 -351 -373 0
-305 -346 -371 0
-305 -346 -367 0
-295 -349 0
-293 -311 -371 0
-293 -311 -264 0
-293 -311 -334 0
-293 -262 -317 0
-293 -262 -357 0
-293 -262 -221 0
-293 -224 -357 0
-293 -224 -264 0
-293 -346 -371 0
-293 -346 -375 0
-293 -354 -264 0
-293 -354 -221 0
-302 -324 0
-300 -280 -340 0
-300 -335 -389 0
-300 -335 -312 0
-300 -335 -388 0
-300 -356 -340 0
-302 -335 0
-299 -280 -329 0
-299 -324 -388 0
-299 -353 -390 0
-299 -353 -379 0
-299 -311 -374 0
-299 -311 -379 0
-299 -311 -368 0
-299 -311 -268 0
-299 -356 -329 0
-302 -356 0
-301 -324 -340 0
-301 -335 -329 0
-301 -335 -389 0
-301 -335 -312 0
-302 -353 0
-303 -335 -329 0
-303 -335 -312 0
-303 -335 -388 0
-303 -350 -379 0
-303 -350 -391 0
-303 -350 -392 0
-303 -347 -312 0
-303 -347 -392 0
-303 -347 -390 0
-303 -347 -391 0
-303 -347 -393 0
-303 -347 -374 0
-41 -57 0
-42 -58 0
-43 -59 0
-44 -60 0
-45 -61 0
-46 -62 0
-47 -63 0
-48 -64 0
-212 -244 -201 0
-212 -244 -203 0
-189 -244 -201 0
-189 -244 -203 0
-189 -258 -207 0
-189 -258 -210 0
-195 -225 0
-218 -244 -201 0
-218 -267 -231 0
-218 -266 -201 0
-218 -266 -234 0
-218 -266 -237 0
-218 -266 -228 0
-238 -260 -234 0
-238 -260 -213 0
-238 -260 -256 0
-238 -260 -231 0
-238 -260 -210 0
-238 -225 -228 0
-238 -225 -231 0
-238 -258 -207 0
-238 -258 -210 0
-212 -188 -230 0
-189 -258 -239 0
-189 -258 -240 0
-189 -188 -230 0
-195 -225 -247 0
-195 -225 -249 0
-238 -260 0
-294 -264 -243 0
-294 -264 -246 0
-294 -264 -248 0
-294 -264 -250 0
-294 -264 -249 0
-294 -262 -240 0
-294 -262 -248 0
-294 -262 -252 0
-294 -262 -254 0
-294 -262 -245 0
-294 -262 -251 0
-294 -265 -243 0
-294 -265 -250 0
-294 -265 -254 0
-294 -265 -257 0
-294 -265 -246 0
-294 -265 -245 0
-294 -265 -252 0
-294 -266 -230 0
-294 -266 -245 0
-294 -266 -246 0
-294 -266 -247 0
-294 -261 -239 0
-294 -261 -243 0
-294 -261 -251 0
-294 -261 -252 0
-294 -261 -253 0
-238 -225 0
-218 -267 -249 0
-218 -266 -242 0
-218 -266 -245 0
-218 -266 -246 0
-218 -266 -247 0
-291 -263 -240 0
-291 -263 -253 0
-291 -263 -251 0
-291 -261 -239 0
-291 -261 -243 0
-291 -261 -251 0
-291 -261 -252 0
-291 -261 -242 0
-291 -261 -253 0
-293 -260 0
-294 -244 -219 0
-294 -264 -349 0
-294 -264 -362 0
-294 -264 -363 0
-294 -264 -364 0
-294 -262 -337 0
-294 -262 -363 0
-294 -262 -365 0
-294 -262 -366 0
-294 -262 -367 0
-294 -262 -368 0
-294 -265 -349 0
-294 -265 -364 0
-294 -265 -366 0
-294 -265 -369 0
-294 -265 -362 0
-294 -265 -367 0
-294 -265 -365 0
-294 -261 -331 0
-294 -261 -349 0
-294 -261 -368 0
-294 -261 -365 0
-294 -261 -370 0
-293 -225 0
-218 -244 -318 0
-293 -264 0
-295 -260 -349 0
-295 -260 -363 0
-295 -260 -337 0
-295 -262 -318 0
-295 -262 -337 0
-295 -262 -363 0
-295 -262 -365 0
-295 -262 -366 0
-295 -262 -368 0
-295 -272 -363 0
-295 -272 -364 0
-295 -265 -318 0
-295 -265 -349 0
-295 -265 -364 0
-295 -265 -366 0
-295 -265 -369 0
-295 -265 -362 0
-295 -265 -365 0
-295 -273 -363 0
-295 -273 -366 0
-295 -273 -369 0
-295 -273 -362 0
-293 -272 0
-304 -265 -318 0
-304 -265 -349 0
-304 -265 -364 0
-304 -265 -366 0
-304 -265 -369 0
-304 -265 -367 0
-304 -265 -365 0
-304 -264 -318 0
-304 -264 -349 0
-304 -264 -363 0
-304 -264 -364 0
-304 -273 -363 0
-304 -273 -367 0
-304 -273 -366 0
-304 -273 -369 0
-293 -267 0
-238 -188 -220 0
-238 -225 -319 0
-238 -225 -318 0
-238 -258 -309 0
-238 -258 -310 0
-294 -264 0
-295 -262 -310 0
-295 -262 -315 0
-295 -262 -313 0
-295 -262 -316 0
-295 -262 -312 0
-295 -272 -315 0
-295 -272 -318 0
-295 -272 -320 0
-295 -265 -311 0
-295 -265 -320 0
-295 -265 -316 0
-295 -265 -321 0
-295 -265 -322 0
-295 -265 -313 0
-295 -273 -315 0
-295 -273 -316 0
-295 -273 -321 0
-295 -273 -322 0
-295 -266 -220 0
-295 -266 -322 0
-295 -266 -319 0
-294 -262 0
-297 -261 -309 0
-297 -261 -312 0
-297 -261 -313 0
-297 -261 -314 0
-297 -265 -320 0
-297 -265 -316 0
-297 -265 -321 0
-297 -265 -322 0
-297 -265 -317 0
-297 -265 -313 0
-297 -269 -310 0
-297 -269 -312 0
-297 -269 -316 0
-297 -269 -315 0
-297 -271 -315 0
-297 -271 -313 0
-297 -271 -321 0
-297 -271 -320 0
-297 -264 -322 0
-297 -264 -315 0
-297 -264 -320 0
-297 -264 -318 0
-297 -268 -309 0
-297 -268 -310 0
-297 -268 -314 0
-297 -268 -313 0
-294 -265 0
-298 -262 -310 0
-298 -262 -313 0
-298 -262 -316 0
-298 -262 -317 0
-298 -262 -312 0
-298 -273 -317 0
-298 -273 -316 0
-298 -273 -321 0
-298 -273 -322 0
-298 -271 -311 0
-298 -271 -313 0
-298 -271 -321 0
-298 -271 -320 0
-298 -274 -316 0
-298 -274 -320 0
-298 -272 -317 0
-298 -272 -318 0
-298 -272 -320 0
-298 -264 -311 0
-298 -264 -322 0
-298 -264 -320 0
-298 -264 -318 0
-298 -269 -310 0
-298 -269 -311 0
-298 -269 -312 0
-298 -269 -316 0
-294 -266 0
-293 -225 -319 0
-293 -264 -311 0
-293 -264 -322 0
-293 -264 -315 0
-293 -264 -320 0
-293 -272 -315 0
-293 -272 -317 0
-293 -272 -320 0
-293 -267 -220 0
-294 -261 0
-299 -258 -309 0
-299 -263 -314 0
-299 -263 -312 0
-299 -262 -315 0
-299 -262 -313 0
-299 -262 -316 0
-299 -262 -317 0
-299 -262 -312 0
-299 -268 -309 0
-299 -268 -314 0
-299 -268 -313 0
-299 -268 -311 0
-299 -269 -311 0
-299 -269 -312 0
-299 -269 -316 0
-299 -269 -315 0
-299 -270 -309 0
-299 -270 -312 0
-295 -260 0
-294 -244 -221 0
-294 -262 -334 0
-294 -262 -371 0
-294 -262 -372 0
-294 -262 -373 0
-294 -262 -374 0
-294 -265 -352 0
-294 -265 -375 0
-294 -265 -373 0
-294 -265 -376 0
-294 -265 -377 0
-294 -265 -372 0
-294 -266 -221 0
-294 -266 -377 0
-294 -266 -357 0
-294 -261 -328 0
-294 -261 -352 0
-294 -261 -374 0
-294 -261 -372 0
-294 -261 -378 0
-295 -262 0
-297 -260 -371 0
-297 -260 -367 0
-297 -260 -334 0
-297 -261 -328 0
-297 -261 -374 0
-297 -261 -372 0
-297 -261 -317 0
-297 -261 -378 0
-297 -265 -317 0
-297 -265 -375 0
-297 -265 -373 0
-297 -265 -376 0
-297 -265 -377 0
-297 -265 -372 0
-297 -269 -334 0
-297 -269 -374 0
-297 -269 -373 0
-297 -269 -371 0
-297 -271 -371 0
-297 -271 -372 0
-297 -271 -376 0
-297 -271 -375 0
-297 -268 -328 0
-297 -268 -334 0
-297 -268 -378 0
-297 -268 -372 0
-295 -272 0
-304 -265 -317 0
-304 -265 -352 0
-304 -265 -375 0
-304 -265 -373 0
-304 -265 -376 0
-304 -265 -372 0
-304 -266 -317 0
-304 -266 -221 0
-304 -266 -357 0
-304 -273 -371 0
-304 -273 -373 0
-304 -273 -376 0
-295 -265 0
-298 -260 -352 0
-298 -260 -367 0
-298 -260 -334 0
-298 -262 -317 0
-298 -262 -334 0
-298 -262 -372 0
-298 -262 -373 0
-298 -262 -374 0
-298 -273 -373 0
-298 -273 -376 0
-298 -273 -377 0
-298 -271 -352 0
-298 -271 -372 0
-298 -271 -376 0
-298 -271 -375 0
-298 -274 -373 0
-298 -274 -375 0
-298 -272 -367 0
-298 -272 -375 0
-298 -269 -334 0
-298 -269 -352 0
-298 -269 -374 0
-298 -269 -373 0
-295 -273 0
-305 -265 -317 0
-305 -265 -352 0
-305 -265 -373 0
-305 -265 -376 0
-305 -265 -377 0
-305 -265 -372 0
-305 -271 -352 0
-305 -271 -371 0
-305 -271 -372 0
-305 -271 -376 0
-305 -274 -371 0
-305 -274 -373 0
-305 -272 -371 0
-305 -272 -367 0
-295 -266 0
-293 -260 -352 0
-293 -260 -371 0
-293 -260 -334 0
-293 -225 -357 0
-293 -272 -371 0
-293 -272 -375 0
-293 -267 -221 0
-296 -225 0
-218 -244 -319 0
-218 -266 -319 0
-218 -266 -357 0
-218 -266 -358 0
-296 -266 0
-293 -260 -357 0
-293 -260 -354 0
-293 -260 -359 0
-293 -260 -341 0
-293 -264 -319 0
-293 -264 -354 0
-293 -264 -358 0
-293 -264 -359 0
-293 -264 -361 0
-293 -272 -359 0
-293 -272 -357 0
-293 -272 -361 0
-195 -244 -220 0
-238 -260 -221 0
-238 -260 -224 0
-238 -260 -227 0
-238 -260 -219 0
-238 -260 -223 0
-238 -258 -226 0
-238 -258 -223 0
-218 -267 0
-296 -266 -220 0
-296 -266 -221 0
-296 -266 -232 0
-218 -266 0
-293 -260 -221 0
-293 -260 -224 0
-293 -260 -227 0
-293 -260 -223 0
-293 -264 -220 0
-293 -264 -224 0
-293 -264 -232 0
-293 -264 -227 0
-293 -264 -235 0
-293 -272 -227 0
-293 -272 -221 0
-293 -272 -235 0
-41 -73 0
-42 -74 0
-43 -75 0
-44 -76 0
-45 -77 0
-46 -78 0
-47 -79 0
-48 -80 0
-189 -239 -258 0
-189 -239 -278 0
-189 -239 -217 0
-189 -207 -217 0
-189 -207 -258 0
-291 -332 0
-299 -324 -278 0
-299 -324 -281 0
-299 -324 -286 0
-299 -324 -288 0
-299 -324 -279 0
-299 -324 -285 0
-299 -329 -287 0
-299 -329 -286 0
-299 -329 -280 0
-299 -326 -280 0
-299 -326 -285 0
-299 -326 -288 0
-299 -326 -281 0
-299 -309 -279 0
-299 -309 -280 0
-299 -309 -281 0
-299 -309 -282 0
-299 -309 -258 0
-299 -330 -285 0
-238 -207 -217 0
-238 -207 -258 0
-238 -263 -282 0
-238 -263 -278 0
-238 -263 -279 0
-238 -263 -289 0
-238 -263 -217 0
-238 -309 -279 0
-238 -309 -280 0
-238 -309 -281 0
-238 -309 -282 0
-238 -309 -258 0
-238 -309 -283 0
-238 -226 -289 0
-238 -226 -258 0
-238 -226 -282 0
-291 -239 -261 0
-291 -239 -310 0
-291 -239 -223 0
-299 -324 0
-297 -309 -334 0
-297 -309 -336 0
-297 -309 -337 0
-297 -309 -261 0
-297 -325 -310 0
-297 -325 -343 0
-297 -325 -339 0
-297 -325 -344 0
-297 -325 -345 0
-297 -325 -334 0
-297 -325 -338 0
-297 -326 -340 0
-297 -326 -339 0
-297 -326 -336 0
-297 -327 -336 0
-297 -327 -338 0
-297 -327 -344 0
-297 -327 -343 0
-297 -328 -310 0
-297 -328 -261 0
-297 -328 -345 0
-297 -328 -336 0
-297 -328 -343 0
-297 -328 -337 0
-297 -329 -342 0
-297 -329 -338 0
-299 -329 0
-302 -326 -335 0
-302 -326 -339 0
-302 -326 -336 0
-302 -324 -310 0
-302 -324 -336 0
-302 -324 -338 0
-302 -324 -339 0
-302 -324 -334 0
-299 -326 0
-303 -324 -310 0
-303 -324 -336 0
-303 -324 -339 0
-303 -324 -334 0
-303 -324 -340 0
-303 -329 -342 0
-303 -329 -335 0
-303 -327 -335 0
-303 -327 -336 0
-303 -327 -344 0
-303 -327 -343 0
-303 -325 -310 0
-303 -325 -335 0
-303 -325 -343 0
-303 -325 -339 0
-303 -325 -344 0
-303 -325 -345 0
-303 -325 -334 0
-299 -309 0
-294 -239 -261 0
-294 -239 -223 0
-294 -328 -261 0
-294 -328 -335 0
-294 -328 -345 0
-294 -328 -336 0
-294 -328 -343 0
-294 -328 -337 0
-294 -324 -336 0
-294 -324 -338 0
-294 -324 -339 0
-294 -324 -334 0
-294 -324 -340 0
-294 -325 -335 0
-294 -325 -343 0
-294 -325 -339 0
-294 -325 -344 0
-294 -325 -345 0
-294 -325 -334 0
-294 -325 -338 0
-294 -331 -261 0
-294 -331 -223 0
-294 -331 -334 0
-294 -331 -345 0
-294 -331 -341 0
-294 -263 -337 0
-294 -263 -334 0
-294 -263 -341 0
-294 -263 -223 0
-299 -330 0
-301 -329 -338 0
-301 -329 -335 0
-301 -329 0
-302 -332 -356 0
-302 -332 -386 0
-302 -332 -314 0
-302 -326 -342 0
-302 -326 -356 0
-302 -326 -387 0
-302 -326 -381 0
-302 -324 -314 0
-302 -324 -342 0
-302 -324 -381 0
-302 -324 -386 0
-302 -324 -387 0
-302 -324 -378 0
-301 -332 0
-299 -324 -314 0
-299 -324 -381 0
-299 -324 -386 0
-299 -324 -387 0
-299 -324 -378 0
-299 -324 -388 0
-299 -329 -386 0
-299 -329 -356 0
-299 -326 -356 0
-299 -326 -388 0
-299 -326 -387 0
-299 -326 -381 0
-299 -309 -378 0
-299 -309 -356 0
-299 -309 -381 0
-299 -309 -370 0
-299 -309 -270 0
-302 -332 0
-299 -324 -312 0
-299 -324 -379 0
-299 -324 -389 0
-299 -324 -390 0
-299 -324 -374 0
-299 -326 -355 0
-299 -326 -390 0
-299 -326 -379 0
-299 -309 -374 0
-299 -309 -355 0
-299 -309 -379 0
-299 -309 -368 0
-299 -309 -268 0
-302 -330 0
-301 -332 -355 0
-301 -332 -389 0
-301 -332 -312 0
-302 -326 0
-303 -332 -355 0
-303 -332 -312 0
-303 -332 -388 0
-303 -324 -312 0
-303 -324 -340 0
-303 -324 -379 0
-303 -324 -390 0
-303 -324 -374 0
-303 -327 -355 0
-303 -327 -379 0
-303 -327 -391 0
-303 -327 -392 0
-303 -325 -312 0
-303 -325 -355 0
-303 -325 -392 0
-303 -325 -390 0
-303 -325 -391 0
-303 -325 -393 0
-303 -325 -374 0
-302 -324 0
-297 -309 -374 0
-297 -309 -379 0
-297 -309 -368 0
-297 -309 -268 0
-297 -309 -340 0
-297 -332 -389 0
-297 -332 -312 0
-297 -332 -388 0
-297 -325 -312 0
-297 -325 -392 0
-297 -325 -390 0
-297 -325 -391 0
-297 -325 -393 0
-297 -325 -374 0
-297 -325 -389 0
-297 -326 -340 0
-297 -326 -390 0
-297 -326 -379 0
-297 -327 -379 0
-297 -327 -389 0
-297 -327 -391 0
-297 -327 -392 0
-297 -328 -312 0
-297 -328 -268 0
-297 -328 -393 0
-297 -328 -379 0
-297 -328 -392 0
-297 -328 -368 0
-201 -230 -229 0
-201 -230 -233 0
-201 -230 -236 0
-201 -244 -236 0
-201 -244 -275 0
-201 -244 -229 0
-201 -244 -215 0
-191 -241 -290 0
-191 -241 -292 0
-191 -238 -292 0
-191 -238 -308 0
-191 -238 -233 0
-191 -238 -290 0
-191 -186 -215 0
-191 -186 -233 0
-255 -186 -194 0
-255 -186 -199 0
-278 -238 -197 0
-278 -238 -198 0
-278 -238 -199 0
-278 -238 -200 0
-278 -239 -197 0
-278 -239 -208 0
-278 -239 -209 0
-278 -240 -200 0
-278 -240 -198 0
-278 -240 -209 0
-278 -240 -211 0
-278 -240 -208 0
-294 -241 -200 0
-294 -241 -197 0
-294 -240 -200 0
-294 -240 -198 0
-294 -240 -209 0
-294 -240 -211 0
-294 -240 -208 0
-294 -243 -197 0
-294 -243 -202 0
-294 -243 -211 0
-294 -243 -214 0
-294 -243 -192 0
-294 -243 -209 0
-294 -244 -190 0
-294 -244 -192 0
-294 -244 -193 0
-294 -244 -194 0
-294 -239 -197 0
-294 -239 -208 0
-294 -239 -209 0
-201 -230 -193 0
-201 -230 -199 0
-201 -230 -190 0
-201 -244 -190 0
-201 -244 -192 0
-201 -244 -193 0
-201 -244 -194 0
-191 -241 -207 0
-191 -241 -210 0
-191 -238 -210 0
-191 -238 -213 0
-191 -238 -188 0
-191 -238 -207 0
-201 -230 0
-220 -247 -188 0
-220 -247 -231 0
-220 -244 -231 0
-220 -244 -234 0
-220 -244 -228 0
-220 -249 -188 0
-220 -249 -234 0
-220 -249 -237 0
-220 -249 -228 0
-201 -244 0
-260 -238 -210 0
-260 -238 -213 0
-260 -238 -207 0
-260 -249 -203 0
-260 -249 -234 0
-260 -249 -237 0
-260 -249 -228 0
-260 -245 -213 0
-260 -245 -237 0
-260 -245 -256 0
-260 -245 -276 0
-260 -245 -231 0
-260 -247 -203 0
-260 -247 -231 0
-260 -230 -228 0
-260 -230 -231 0
-201 -230 -267 0
-201 -230 -266 0
-294 -241 -263 0
-294 -241 -261 0
-294 -240 -263 0
-294 -240 -262 0
-294 -240 -268 0
-294 -240 -269 0
-294 -240 -270 0
-294 -243 -261 0
-294 -243 -265 0
-294 -243 -269 0
-294 -243 -271 0
-294 -243 -264 0
-294 -243 -268 0
-294 -239 -261 0
-294 -239 -270 0
-294 -239 -268 0
-260 -249 0
-318 -230 -267 0
-318 -245 -262 0
-318 -245 -272 0
-318 -245 -265 0
-318 -245 -273 0
-318 -246 -265 0
-318 -246 -264 0
-318 -246 -273 0
-318 -247 -225 0
-260 -245 0
-317 -243 -261 0
-317 -243 -265 0
-317 -243 -269 0
-317 -243 -271 0
-317 -243 -268 0
-317 -246 -265 0
-317 -246 -266 0
-317 -246 -273 0
-317 -248 -262 0
-317 -248 -273 0
-317 -248 -271 0
-317 -248 -274 0
-317 -248 -272 0
-317 -248 -269 0
-317 -250 -265 0
-317 -250 -271 0
-317 -250 -274 0
-317 -250 -272 0
-317 -249 -225 0
-317 -249 -272 0
-317 -249 -267 0
-260 -247 0
-319 -230 -266 0
-319 -249 -225 0
-319 -249 -264 0
-319 -249 -272 0
-260 -230 0
-220 -247 -266 0
-220 -249 -264 0
-220 -249 -272 0
-220 -249 -267 0
-191 -241 -300 0
-191 -241 -299 0
-191 -186 -218 0
-191 -186 -259 0
-278 -239 -299 0
-278 -239 -301 0
-278 -239 -302 0
-278 -240 -300 0
-278 -240 -297 0
-278 -240 -302 0
-278 -240 -303 0
-278 -240 -301 0
-294 -240 0
-310 -241 -300 0
-310 -239 -301 0
-310 -239 -302 0
-310 -243 -298 0
-310 -243 -303 0
-310 -243 -306 0
-310 -243 -295 0
-310 -243 -302 0
-310 -251 -300 0
-310 -251 -301 0
-310 -251 -303 0
-310 -251 -297 0
-310 -252 -297 0
-310 -252 -302 0
-310 -252 -306 0
-310 -252 -298 0
-310 -253 -300 0
-310 -253 -302 0
-294 -243 0
-311 -240 -300 0
-311 -240 -302 0
-311 -240 -303 0
-311 -240 -301 0
-311 -248 -305 0
-311 -248 -306 0
-311 -248 -307 0
-311 -248 -304 0
-311 -248 -295 0
-311 -248 -303 0
-311 -252 -299 0
-311 -252 -302 0
-311 -252 -306 0
-311 -252 -298 0
-311 -254 -298 0
-311 -254 -303 0
-311 -254 -307 0
-311 -254 -305 0
-311 -245 -259 0
-311 -245 -304 0
-311 -245 -298 0
-311 -245 -305 0
-311 -245 -293 0
-311 -251 -300 0
-311 -251 -299 0
-311 -251 -301 0
-311 -251 -303 0
-294 -244 0
-260 -186 -218 0
-260 -249 -218 0
-260 -249 -295 0
-260 -249 -304 0
-260 -249 -296 0
-260 -245 -297 0
-260 -245 -304 0
-260 -245 -298 0
-260 -245 -305 0
-260 -245 -293 0
-260 -247 -218 0
-260 -247 -293 0
-260 -230 -296 0
-260 -230 -293 0
-294 -239 0
-309 -241 -299 0
-309 -240 -297 0
-309 -240 -302 0
-309 -240 -303 0
-309 -240 -301 0
-309 -253 -302 0
-309 -253 -299 0
-309 -251 -299 0
-309 -251 -301 0
-309 -251 -303 0
-309 -251 -297 0
-201 -244 -219 0
-201 -244 -221 0
-201 -244 -222 0
-220 -247 0
-319 -244 -219 0
-319 -244 -221 0
-319 -249 -225 0
-319 -249 -221 0
-319 -249 -232 0
-220 -244 0
-260 -238 -223 0
-260 -238 -224 0
-260 -238 -226 0
-260 -249 -221 0
-260 -249 -232 0
-260 -249 -222 0
-260 -245 -224 0
-260 -245 -232 0
-260 -245 -227 0
-260 -245 -235 0
-260 -245 -219 0
-260 -247 -219 0
-220 -249 0
-318 -244 -221 0
-318 -244 -222 0
-318 -245 -225 0
-318 -245 -224 0
-318 -245 -232 0
-318 -245 -227 0
-318 -245 -235 0
-318 -246 -227 0
-318 -246 -221 0
-318 -246 -235 0
-318 -247 -225 0
-191 -238 -283 0
-191 -238 -280 0
-191 -238 -258 0
-191 -238 -284 0
-191 -186 -217 0
-191 -186 -258 0
-294 -240 -284 0
-294 -240 -280 0
-294 -240 -285 0
-294 -240 -286 0
-294 -240 -287 0
-294 -243 -283 0
-294 -243 -281 0
-294 -243 -286 0
-294 -243 -288 0
-294 -243 -279 0
-294 -243 -285 0
-294 -244 -282 0
-294 -244 -279 0
-294 -244 -289 0
-294 -244 -217 0
-294 -239 -283 0
-294 -239 -287 0
-294 -239 -285 0
-278 -239 0
-309 -240 -280 0
-309 -240 -285 0
-309 -240 -286 0
-309 -240 -287 0
-309 -253 -285 0
-309 -253 -283 0
-309 -251 -283 0
-309 -251 -287 0
-309 -251 -286 0
-309 -251 -280 0
-309 -238 -283 0
-309 -238 -280 0
-309 -238 -258 0
-278 -240 0
-310 -238 -280 0
-310 -238 -258 0
-310 -238 -284 0
-310 -239 -287 0
-310 -239 -285 0
-310 -243 -281 0
-310 -243 -286 0
-310 -243 -288 0
-310 -243 -279 0
-310 -243 -285 0
-310 -251 -284 0
-310 -251 -287 0
-310 -251 -286 0
-310 -251 -280 0
-310 -252 -280 0
-310 -252 -285 0
-310 -252 -288 0
-310 -252 -281 0
-310 -253 -284 0
-310 -253 -285 0
-255 -195 -194 0
-255 -195 -199 0
-255 -238 -199 0
-255 -238 -194 0
-242 -195 -194 0
-242 -195 -199 0
-242 -259 -190 0
-242 -259 -192 0
-242 -259 -193 0
-242 -259 -194 0
-242 -218 -193 0
-242 -218 -199 0
-242 -218 -190 0
-242 -291 -200 0
-242 -291 -197 0
-278 -300 -197 0
-278 -300 -208 0
-278 -300 -209 0
-278 -299 -200 0
-278 -299 -198 0
-278 -299 -209 0
-278 -299 -211 0
-278 -299 -208 0
-278 -238 -199 0
-278 -238 -194 0
-201 -218 -193 0
-201 -218 -199 0
-201 -218 -190 0
-201 -238 -199 0
-201 -238 -194 0
-201 -259 -190 0
-201 -259 -192 0
-201 -259 -193 0
-201 -259 -194 0
-255 -195 -230 0
-255 -195 -244 0
-191 -291 -239 0
-191 -291 -240 0
-191 -195 -230 0
-191 -195 -244 0
-201 -218 -247 0
-201 -218 -244 0
-201 -218 -249 0
-201 -259 -249 0
-201 -259 -245 0
-201 -259 -247 0
-201 -259 -230 0
-242 -259 0
-260 -195 -230 0
-260 -293 -230 0
-260 -293 -245 0
-260 -293 -246 0
-260 -293 -247 0
-260 -295 -243 0
-260 -295 -246 0
-260 -295 -248 0
-260 -295 -250 0
-260 -295 -249 0
-260 -296 -230 0
-260 -296 -249 0
-260 -218 -247 0
-260 -218 -249 0
-242 -218 0
-220 -195 -244 0
-220 -296 -244 0
-220 -296 -249 0
-220 -259 -249 0
-220 -259 -245 0
-220 -259 -247 0
-220 -293 -244 0
-220 -293 -245 0
-220 -293 -246 0
-220 -293 -247 0
-278 -300 -240 0
-278 -300 -253 0
-278 -300 -251 0
-278 -299 -239 0
-278 -299 -243 0
-278 -299 -251 0
-278 -299 -252 0
-278 -299 -253 0
-191 -238 -258 0
-191 -238 -217 0
-191 -195 -217 0
-191 -195 -258 0
-278 -300 0
-309 -299 -280 0
-309 -299 -285 0
-309 -299 -286 0
-309 -299 -287 0
-309 -301 -285 0
-309 -301 -283 0
-309 -302 -283 0
-309 -302 -287 0
-309 -302 -286 0
-309 -302 -280 0
-278 -299 0
-310 -300 -287 0
-310 -300 -285 0
-310 -297 -281 0
-310 -297 -286 0
-310 -297 -288 0
-310 -297 -279 0
-310 -297 -285 0
-310 -302 -284 0
-310 -302 -287 0
-310 -302 -286 0
-310 -302 -280 0
-310 -303 -280 0
-310 -303 -285 0
-310 -303 -288 0
-310 -303 -281 0
-310 -301 -284 0
-310 -301 -285 0
-242 -195 -217 0
-242 -195 -258 0
-242 -259 -282 0
-242 -259 -279 0
-242 -259 -289 0
-242 -259 -217 0
-242 -218 -289 0
-242 -218 -258 0
-242 -218 -282 0
-278 -300 -342 0
-278 -300 -340 0
-278 -238 -261 0
-278 -238 -223 0
-310 -300 0
-309 -301 -340 0
-309 -302 -342 0
-309 -302 -338 0
-309 -302 -335 0
-310 -297 0
-311 -298 -343 0
-311 -298 -339 0
-311 -298 -344 0
-311 -298 -345 0
-311 -298 -334 0
-311 -298 -338 0
-311 -303 -340 0
-311 -303 -339 0
-311 -303 -336 0
-311 -306 -336 0
-311 -306 -338 0
-311 -306 -344 0
-311 -306 -343 0
-311 -295 -261 0
-311 -295 -345 0
-311 -295 -336 0
-311 -295 -343 0
-311 -295 -337 0
-311 -302 -332 0
-311 -302 -342 0
-311 -302 -338 0
-310 -302 0
-312 -300 -342 0
-312 -301 -332 0
-312 -303 -335 0
-312 -303 -339 0
-312 -303 -336 0
-312 -297 -336 0
-312 -297 -338 0
-312 -297 -339 0
-312 -297 -334 0
-310 -303 0
-313 -297 -336 0
-313 -297 -339 0
-313 -297 -334 0
-313 -297 -340 0
-313 -302 -332 0
-313 -302 -342 0
-313 -302 -335 0
-313 -306 -335 0
-313 -306 -336 0
-313 -306 -344 0
-313 -306 -343 0
-313 -298 -335 0
-313 -298 -343 0
-313 -298 -339 0
-313 -298 -344 0
-313 -298 -345 0
-313 -298 -334 0
-310 -301 0
-314 -300 -340 0
-314 -302 -332 0
-314 -302 -338 0
-314 -302 -335 0
-311 -299 0
-310 -291 -324 0
-310 -300 -356 0
-310 -300 -355 0
-310 -302 -324 0
-310 -302 -356 0
-310 -302 -353 0
-310 -303 -355 0
-310 -303 -350 0
-310 -303 -347 0
-310 -301 -324 0
-310 -301 -355 0
-311 -298 0
-315 -305 -352 0
-315 -305 -350 0
-315 -305 -351 0
-315 -305 -346 0
-315 -306 -353 0
-315 -306 -351 0
-315 -306 -348 0
-315 -307 -350 0
-315 -307 -348 0
-315 -304 -352 0
-315 -304 -349 0
-315 -304 -348 0
-315 -295 -262 0
-315 -295 -346 0
-315 -295 -348 0
-315 -295 -349 0
-315 -303 -335 0
-315 -303 -355 0
-315 -303 -350 0
-311 -303 0
-313 -299 -324 0
-313 -299 -355 0
-313 -299 -356 0
-313 -302 -324 0
-313 -302 -335 0
-313 -302 -356 0
-313 -306 -347 0
-313 -306 -351 0
-313 -306 -348 0
-313 -298 -348 0
-313 -298 -350 0
-313 -298 -351 0
-313 -298 -346 0
-313 -298 -352 0
-311 -306 0
-316 -298 -348 0
-316 -298 -351 0
-316 -298 -346 0
-316 -298 -352 0
-316 -298 -353 0
-316 -303 -335 0
-316 -303 -355 0
-316 -303 -347 0
-316 -307 -347 0
-316 -307 -348 0
-316 -305 -347 0
-316 -305 -352 0
-316 -305 -351 0
-316 -305 -346 0
-311 -295 0
-317 -259 -349 0
-317 -259 -354 0
-317 -259 -224 0
-317 -304 -347 0
-317 -304 -349 0
-317 -304 -348 0
-317 -298 -348 0
-317 -298 -350 0
-317 -298 -351 0
-317 -298 -346 0
-317 -298 -353 0
-317 -305 -347 0
-317 -305 -350 0
-317 -305 -351 0
-317 -305 -346 0
-317 -293 -262 0
-317 -293 -224 0
-317 -293 -346 0
-317 -293 -354 0
-311 -302 0
-312 -300 -335 0
-312 -300 -356 0
-312 -299 -324 0
-312 -299 -353 0
-312 -299 -356 0
-312 -301 -324 0
-312 -301 -335 0
-312 -303 -335 0
-312 -303 -350 0
-312 -303 -347 0
-201 -218 -267 0
-201 -218 -266 0
-201 -238 -225 0
-242 -195 -225 0
-242 -218 -267 0
-242 -218 -266 0
-242 -291 -263 0
-242 -291 -261 0
-260 -293 0
-318 -218 -267 0
-318 -295 -262 0
-318 -295 -272 0
-318 -295 -265 0
-318 -295 -273 0
-318 -304 -265 0
-318 -304 -264 0
-318 -304 -273 0
-318 -296 -225 0
-260 -295 0
-317 -297 -261 0
-317 -297 -265 0
-317 -297 -269 0
-317 -297 -271 0
-317 -297 -268 0
-317 -304 -265 0
-317 -304 -266 0
-317 -304 -273 0
-317 -298 -262 0
-317 -298 -273 0
-317 -298 -271 0
-317 -298 -274 0
-317 -298 -272 0
-317 -298 -269 0
-317 -305 -265 0
-317 -305 -271 0
-317 -305 -274 0
-317 -305 -272 0
-317 -293 -225 0
-317 -293 -272 0
-317 -293 -267 0
-260 -296 0
-319 -218 -266 0
-319 -293 -225 0
-319 -293 -264 0
-319 -293 -272 0
-260 -218 0
-220 -296 -266 0
-220 -293 -264 0
-220 -293 -272 0
-220 -293 -267 0
-278 -299 -324 0
-278 -299 -329 0
-278 -299 -326 0
-278 -299 -330 0
-278 -238 -263 0
-278 -238 -226 0
-309 -299 0
-310 -297 -325 0
-310 -297 -326 0
-310 -297 -327 0
-310 -297 -328 0
-310 -297 -329 0
-310 -302 -330 0
-310 -302 -326 0
-310 -302 -324 0
-310 -303 -324 0
-310 -303 -329 0
-310 -303 -327 0
-310 -303 -325 0
-310 -301 -329 0
-309 -301 0
-314 -302 -332 0
-314 -302 -326 0
-314 -302 -324 0
-314 -299 -324 0
-314 -299 -329 0
-314 -299 -326 0
-309 -302 0
-312 -299 -324 0
-312 -299 -326 0
-312 -299 -330 0
-312 -301 -332 0
-312 -303 -332 0
-312 -303 -324 0
-312 -303 -327 0
-312 -303 -325 0
-312 -297 -332 0
-312 -297 -325 0
-312 -297 -326 0
-312 -297 -327 0
-312 -297 -328 0
-49 -105 0
-50 -106 0
-51 -107 0
-52 -108 0
-53 -109 0
-54 -110 0
-55 -111 0
-56 -112 0
-201 -221 -267 0
-201 -221 -266 0
-201 -245 -225 0
-242 -234 -225 0
-242 -295 -261 0
-242 -295 -262 0
-242 -295 -263 0
-242 -221 -267 0
-242 -221 -266 0
-242 -279 -263 0
-242 -279 -261 0
-294 -245 -225 0
-294 -279 -263 0
-294 -279 -261 0
-294 -334 -263 0
-294 -334 -262 0
-294 -334 -268 0
-294 -334 -269 0
-294 -334 -270 0
-294 -352 -261 0
-294 -352 -265 0
-294 -352 -269 0
-294 -352 -271 0
-294 -352 -268 0
-294 -328 -261 0
-294 -328 -270 0
-294 -328 -268 0
-260 -367 0
-318 -221 -267 0
-318 -377 -265 0
-318 -377 -273 0
-318 -357 -225 0
-260 -357 0
-319 -221 -266 0
-319 -367 -225 0
-319 -367 -272 0
-260 -221 0
-220 -357 -266 0
-220 -367 -272 0
-220 -367 -267 0
-294 -245 -262 0
-294 -245 -224 0
-294 -279 -324 0
-294 -279 -335 0
-294 -334 -324 0
-294 -334 -355 0
-294 -334 -353 0
-294 -334 -356 0
-294 -264 -349 0
-294 -264 -354 0
-294 -264 -224 0
-294 -328 -335 0
-294 -328 -356 0
-294 -328 -355 0
-311 -334 0
-310 -279 -324 0
-310 -295 -262 0
-310 -295 -324 0
-310 -328 -356 0
-310 -328 -355 0
-310 -374 -324 0
-310 -374 -356 0
-310 -374 -353 0
-310 -372 -355 0
-310 -372 -350 0
-310 -372 -347 0
-310 -378 -324 0
-310 -378 -355 0
-311 -371 0
-315 -375 -350 0
-315 -375 -351 0
-315 -375 -346 0
-315 -373 -353 0
-315 -373 -351 0
-315 -373 -348 0
-315 -376 -350 0
-315 -376 -348 0
-315 -377 -349 0
-315 -377 -348 0
-315 -372 -335 0
-315 -372 -355 0
-315 -372 -350 0
-311 -372 0
-313 -334 -324 0
-313 -334 -355 0
-313 -334 -356 0
-313 -374 -324 0
-313 -374 -335 0
-313 -374 -356 0
-313 -373 -347 0
-313 -373 -351 0
-313 -373 -348 0
-313 -371 -348 0
-313 -371 -350 0
-313 -371 -351 0
-313 -371 -346 0
-311 -373 0
-316 -371 -348 0
-316 -371 -351 0
-316 -371 -346 0
-316 -371 -353 0
-316 -372 -335 0
-316 -372 -355 0
-316 -372 -347 0
-316 -376 -347 0
-316 -376 -348 0
-316 -375 -347 0
-316 -375 -351 0
-316 -375 -346 0
-311 -374 0
-312 -328 -335 0
-312 -328 -356 0
-312 -334 -324 0
-312 -334 -353 0
-312 -334 -356 0
-312 -378 -324 0
-312 -378 -335 0
-312 -372 -335 0
-312 -372 -350 0
-312 -372 -347 0
-322 -371 0
-315 -352 -345 0
-315 -352 -397 0
-315 -352 -399 0
-315 -352 -393 0
-315 -375 -399 0
-177 -161 401 0
-178 -162 401 0
-179 -163 401 0
-180 -164 401 0
-181 -165 401 0
-182 -166 401 0
-183 -167 401 0
-184 -168 401 0
-315 -375 -401 0
-315 -373 -346 0
-315 -373 -397 0
-315 -373 -401 0
-177 -169 402 0
-178 -170 402 0
-179 -171 402 0
-180 -172 402 0
-181 -173 402 0
-182 -174 402 0
-183 -175 402 0
-184 -176 402 0
-315 -373 -402 0
-315 -376 -399 0
-315 -376 -402 0
-315 -372 -345 0
-315 -372 -346 0
-315 -372 -393 0
-315 -372 -399 0
-322 -367 0
-318 -264 -358 0
-318 -264 -232 0
-318 -221 -358 0
-318 -221 -272 0
-318 -357 -272 0
-318 -357 -232 0
-322 -375 0
-320 -371 -346 0
-320 -371 -399 0
-320 -371 -401 0
-320 -371 -397 0
-320 -373 -346 0
-320 -373 -385 0
-320 -373 -397 0
-320 -373 -401 0
-320 -376 -385 0
-320 -376 -399 0
-315 -352 0
-311 -295 -336 0
-311 -295 -265 0
-311 -295 -325 0
-311 -334 -325 0
-311 -334 -379 0
-311 -334 -380 0
-311 -334 -381 0
-311 -372 -336 0
-311 -372 -379 0
-311 -372 -382 0
-311 -373 -380 0
-311 -373 -383 0
-311 -373 -384 0
-311 -374 -325 0
-311 -374 -336 0
-311 -374 -381 0
-311 -374 -380 0
-315 -375 0
-320 -373 -347 0
-320 -373 -380 0
-320 -373 -383 0
-320 -376 -382 0
-320 -377 -363 0
-315 -373 0
-316 -352 -336 0
-316 -352 -380 0
-316 -352 -379 0
-316 -372 -336 0
-316 -372 -347 0
-316 -372 -379 0
-316 -376 -384 0
-316 -375 -383 0
-316 -375 -385 0
-315 -376 0
-321 -373 -347 0
-321 -373 -380 0
-321 -373 -384 0
-321 -375 -382 0
-321 -375 -385 0
-315 -377 0
-322 -367 -265 0
-322 -367 -227 0
-322 -367 -359 0
-322 -375 -382 0
-322 -375 -383 0
-315 -372 0
-313 -334 -325 0
-313 -334 -347 0
-313 -334 -379 0
-313 -334 -381 0
-313 -352 -336 0
-313 -352 -382 0
-313 -352 -379 0
-313 -374 -325 0
-313 -374 -336 0
-313 -374 -381 0
-313 -374 -347 0
-313 -373 -347 0
-313 -373 -383 0
-313 -373 -384 0
-320 -371 0
-315 -352 -343 0
-315 -352 -394 0
-315 -352 -400 0
-315 -352 -392 0
-315 -373 -348 0
-315 -373 -394 0
-169 -161 403 0
-170 -162 403 0
-171 -163 403 0
-172 -164 403 0
-173 -165 403 0
-174 -166 403 0
-175 -167 403 0
-176 -168 403 0
-315 -373 -403 0
-315 -376 -400 0
-315 -377 -364 0
-315 -372 -343 0
-315 -372 -348 0
-315 -372 -392 0
-315 -372 -400 0
-320 -373 0
-316 -352 -343 0
-316 -352 -384 0
-316 -352 -394 0
-316 -352 -392 0
-316 -371 -348 0
-316 -371 -403 0
-316 -371 -402 0
-316 -371 -394 0
-316 -372 -343 0
-316 -372 -348 0
-316 -372 -392 0
-316 -372 -384 0
-316 -376 -384 0
-320 -376 0
-321 -371 -348 0
-321 -371 -400 0
-321 -371 -402 0
-321 -371 -394 0
-321 -373 -348 0
-321 -373 -384 0
-321 -373 -394 0
-320 -377 0
-322 -371 -348 0
-322 -371 -400 0
-322 -371 -403 0
-322 -371 -394 0
-322 -367 -273 0
-322 -367 -235 0
-322 -367 -361 0
-318 -264 0
-260 -234 -219 0
-260 -245 -219 0
-260 -295 -337 0
-260 -295 -349 0
-260 -295 -331 0
-260 -357 -219 0
-260 -221 -360 0
-318 -221 0
-220 -234 -266 0
-220 -245 -266 0
-220 -357 -266 0
-220 -264 -360 0
-318 -377 0
-322 -371 -349 0
-322 -371 -364 0
-322 -371 -366 0
-322 -371 -369 0
-322 -371 -365 0
-322 -375 -363 0
-322 -375 -366 0
-322 -375 -369 0
-318 -357 0
-319 -264 -219 0
-319 -221 -266 0
-49 -89 0
-50 -90 0
-51 -91 0
-52 -92 0
-53 -93 0
-54 -94 0
-55 -95 0
-56 -96 0
-191 -243 -259 0
-191 -243 -218 0
-191 -280 -300 0
-191 -280 -299 0
-191 -213 -218 0
-191 -213 -259 0
-242 -213 -218 0
-242 -213 -259 0
-242 -262 -293 0
-242 -262 -295 0
-242 -262 -296 0
-242 -262 -218 0
-242 -224 -296 0
-242 -224 -259 0
-242 -224 -293 0
-242 -280 -300 0
-242 -280 -299 0
-278 -324 -299 0
-278 -324 -301 0
-278 -324 -302 0
-278 -335 -300 0
-278 -335 -302 0
-278 -335 -303 0
-278 -335 -301 0
-278 -243 -259 0
-278 -243 -218 0
-294 -335 0
-310 -280 -300 0
-310 -324 -301 0
-310 -324 -302 0
-310 -355 -300 0
-310 -355 -301 0
-310 -355 -303 0
-310 -353 -302 0
-310 -353 -306 0
-310 -353 -298 0
-310 -356 -300 0
-310 -356 -302 0
-294 -262 0
-260 -213 -218 0
-260 -243 -218 0
-260 -349 -218 0
-260 -349 -295 0
-260 -349 -304 0
-260 -349 -296 0
-260 -352 -304 0
-260 -352 -298 0
-260 -352 -305 0
-260 -352 -293 0
-260 -354 -218 0
-260 -354 -293 0
-260 -224 -296 0
-260 -224 -293 0
-294 -324 0
-309 -280 -299 0
-309 -335 -302 0
-309 -335 -303 0
-309 -335 -301 0
-309 -356 -302 0
-309 -356 -299 0
-309 -355 -299 0
-309 -355 -301 0
-309 -355 -303 0
-278 -297 -261 0
-278 -297 -332 0
-278 -324 -342 0
-278 -324 -340 0
-278 -243 -261 0
-278 -243 -223 0
-294 -243 -261 0
-294 -243 -223 0
-294 -280 -332 0
-294 -262 -337 0
-294 -262 -334 0
-294 -262 -341 0
-294 -262 -223 0
-294 -324 -342 0
-294 -324 -340 0
-310 -324 0
-309 -356 -340 0
-309 -355 -342 0
-309 -355 -338 0
-309 -297 -261 0
-310 -355 0
-312 -324 -342 0
-312 -356 -332 0
-312 -353 -339 0
-312 -353 -336 0
-310 -353 0
-313 -355 -332 0
-313 -355 -342 0
-313 -350 -336 0
-313 -350 -344 0
-313 -350 -343 0
-313 -347 -343 0
-313 -347 -339 0
-313 -347 -344 0
-313 -347 -345 0
-313 -347 -334 0
-310 -356 0
-314 -324 -340 0
-314 -355 -332 0
-314 -355 -338 0
-315 -348 0
-320 -352 -265 0
-320 -352 -385 0
-320 -352 -363 0
-320 -350 -380 0
-320 -350 -383 0
-320 -351 -382 0
-320 -346 -371 0
-320 -346 -363 0
-315 -350 0
-316 -353 -336 0
-316 -353 -379 0
-316 -351 -384 0
-316 -348 -371 0
-316 -348 -383 0
-316 -348 -385 0
-315 -351 0
-321 -350 -380 0
-321 -350 -384 0
-321 -348 -371 0
-321 -348 -382 0
-321 -348 -385 0
-315 -346 0
-322 -352 -265 0
-322 -352 -384 0
-322 -352 -363 0
-322 -349 -265 0
-322 -349 -227 0
-322 -349 -371 0
-322 -349 -359 0
-322 -348 -371 0
-322 -348 -382 0
-322 -348 -383 0
-315 -352 0
-317 -262 -363 0
-317 -262 -359 0
-317 -262 -227 0
-317 -346 -363 0
-317 -346 -384 0
-317 -348 -382 0
-317 -348 -383 0
-317 -348 -385 0
-317 -349 -265 0
-317 -349 -227 0
-317 -349 -385 0
-317 -349 -359 0
-315 -353 0
-313 -335 -325 0
-313 -335 -379 0
-313 -335 -381 0
-313 -355 -325 0
-313 -355 -336 0
-313 -355 -381 0
-313 -350 -383 0
-313 -350 -384 0
-313 -335 0
-310 -280 -326 0
-310 -297 -269 0
-310 -297 -326 0
-310 -324 -386 0
-310 -324 -389 0
-310 -355 -326 0
-310 -355 -386 0
-310 -356 -326 0
-310 -356 -389 0
-313 -355 0
-312 -324 -338 0
-312 -324 -386 0
-312 -335 -326 0
-312 -335 -386 0
-312 -356 -326 0
-312 -356 -338 0
-313 -350 0
-316 -347 -394 0
-316 -347 -396 0
-316 -347 -397 0
-316 -347 -372 0
-316 -351 -380 0
-316 -351 -394 0
-316 -348 -380 0
-316 -348 -372 0
-316 -348 -396 0
-316 -348 -397 0
-313 -347 0
-315 -348 -372 0
-315 -348 -395 0
-315 -348 -396 0
-315 -348 -397 0
-315 -350 -396 0
-315 -350 -394 0
-315 -351 -395 0
-315 -351 -394 0
-315 -346 -372 0
-315 -346 -365 0
-315 -346 -394 0
-315 -352 -269 0
-315 -352 -397 0
-315 -352 -394 0
-315 -352 -365 0
-316 -347 0
-315 -348 -373 0
-315 -348 -398 0
-315 -348 -399 0
-315 -351 -400 0
-315 -346 -373 0
-315 -346 -366 0
-315 -346 -400 0
-315 -352 -271 0
-315 -352 -399 0
-315 -352 -400 0
-315 -352 -366 0
-315 -353 -339 0
-315 -353 -390 0
-316 -353 0
-313 -335 -327 0
-313 -335 -390 0
-313 -335 -387 0
-313 -355 -327 0
-313 -355 -339 0
-313 -355 -387 0
-313 -347 -400 0
-313 -347 -398 0
-313 -347 -399 0
-313 -347 -373 0
-316 -351 0
-321 -347 -400 0
-321 -347 -399 0
-321 -347 -373 0
-321 -347 -395 0
-321 -348 -382 0
-321 -348 -373 0
-321 -348 -399 0
-316 -348 0
-320 -347 -398 0
-320 -347 -399 0
-320 -347 -373 0
-320 -347 -395 0
-320 -352 -271 0
-320 -352 -399 0
-320 -352 -382 0
-320 -352 -366 0
-320 -351 -382 0
-320 -346 -382 0
-320 -346 -373 0
-320 -346 -366 0
-317 -262 0
-260 -213 -221 0
-260 -243 -221 0
-260 -297 -334 0
-260 -297 -328 0
-260 -349 -221 0
-260 -349 -377 0
-260 -349 -357 0
-260 -354 -221 0
-260 -354 -367 0
-260 -224 -357 0
-260 -224 -367 0
-317 -346 0
-322 -347 -375 0
-322 -347 -373 0
-322 -347 -376 0
-322 -347 -372 0
-322 -349 -264 0
-322 -349 -221 0
-322 -349 -357 0
-322 -348 -371 0
-322 -348 -373 0
-322 -348 -376 0
-317 -347 0
-315 -348 -373 0
-315 -348 -376 0
-315 -348 -377 0
-315 -350 -372 0
-315 -350 -376 0
-315 -350 -375 0
-315 -351 -373 0
-315 -351 -375 0
-315 -346 -367 0
-315 -346 -375 0
-315 -353 -334 0
-315 -353 -374 0
-315 -353 -373 0
-317 -348 0
-320 -347 -373 0
-320 -347 -376 0
-320 -347 -377 0
-320 -347 -372 0
-320 -350 -371 0
-320 -350 -372 0
-320 -350 -376 0
-320 -351 -371 0
-320 -351 -373 0
-320 -346 -371 0
-320 -346 -367 0
-317 -349 0
-318 -262 -357 0
-318 -262 -221 0
-318 -224 -357 0
-318 -224 -264 0
-318 -346 -371 0
-318 -346 -375 0
-318 -354 -264 0
-318 -354 -221 0
-312 -324 0
-309 -280 -340 0
-309 -335 -389 0
-309 -335 -388 0
-309 -356 -340 0
-309 -297 -340 0
-309 -297 -268 0
-312 -335 0
-310 -280 -329 0
-310 -297 -268 0
-310 -297 -329 0
-310 -324 -388 0
-310 -353 -390 0
-310 -353 -379 0
-310 -356 -329 0
-312 -356 0
-314 -324 -340 0
-314 -335 -329 0
-314 -335 -389 0
-312 -353 0
-313 -335 -329 0
-313 -335 -388 0
-313 -350 -379 0
-313 -350 -391 0
-313 -350 -392 0
-313 -347 -392 0
-313 -347 -390 0
-313 -347 -391 0
-313 -347 -393 0
-313 -347 -374 0
-49 -97 0
-50 -98 0
-51 -99 0
-52 -100 0
-53 -101 0
-54 -102 0
-55 -103 0
-56 -104 0
-294 -248 -262 0
-294 -248 -224 0
-294 -281 -324 0
-294 -281 -335 0
-294 -336 -324 0
-294 -336 -355 0
-294 -336 -353 0
-294 -336 -356 0
-294 -265 -349 0
-294 -265 -352 0
-294 -265 -354 0
-294 -265 -224 0
-294 -325 -335 0
-294 -325 -356 0
-294 -325 -355 0
-311 -336 0
-310 -281 -324 0
-310 -298 -262 0
-310 -298 -324 0
-310 -325 -356 0
-310 -325 -355 0
-310 -379 -324 0
-310 -379 -356 0
-310 -379 -353 0
-310 -380 -355 0
-310 -380 -350 0
-310 -381 -324 0
-310 -381 -355 0
-311 -380 0
-313 -336 -324 0
-313 -336 -355 0
-313 -336 -356 0
-313 -379 -324 0
-313 -379 -335 0
-313 -379 -356 0
-313 -382 -351 0
-313 -382 -348 0
-311 -382 0
-316 -380 -335 0
-316 -380 -355 0
-316 -383 -348 0
-316 -384 -352 0
-316 -384 -351 0
-316 -384 -346 0
-311 -371 0
-317 -265 -349 0
-317 -265 -354 0
-317 -265 -224 0
-317 -385 -349 0
-317 -385 -348 0
-317 -384 -350 0
-317 -384 -351 0
-317 -384 -346 0
-317 -363 -262 0
-317 -363 -224 0
-317 -363 -346 0
-317 -363 -354 0
-311 -379 0
-312 -325 -335 0
-312 -325 -356 0
-312 -336 -324 0
-312 -336 -353 0
-312 -336 -356 0
-312 -381 -324 0
-312 -381 -335 0
-312 -380 -335 0
-312 -380 -350 0
-320 -371 0
-317 -265 -364 0
-317 -265 -361 0
-317 -265 -235 0
-317 -347 -343 0
-317 -347 -394 0
-317 -347 -400 0
-317 -347 -392 0
-317 -385 -364 0
-317 -363 -273 0
-317 -363 -235 0
-317 -363 -402 0
-317 -363 -361 0
-320 -382 0
-316 -347 -343 0
-316 -347 -394 0
-316 -347 -375 0
-316 -347 -392 0
-316 -380 -343 0
-316 -380 -348 0
-316 -380 -392 0
-320 -383 0
-321 -382 -348 0
-321 -382 -394 0
-320 -385 0
-322 -371 -273 0
-322 -371 -348 0
-322 -371 -364 0
-322 -363 -273 0
-322 -363 -235 0
-322 -363 -375 0
-322 -363 -361 0
-316 -347 0
-311 -298 -339 0
-311 -298 -271 0
-311 -298 -327 0
-311 -336 -327 0
-311 -336 -390 0
-311 -336 -395 0
-311 -336 -387 0
-311 -380 -339 0
-311 -380 -390 0
-311 -371 -271 0
-311 -371 -399 0
-311 -371 -400 0
-311 -371 -366 0
-311 -379 -327 0
-311 -379 -339 0
-311 -379 -387 0
-311 -379 -395 0
-316 -380 0
-313 -336 -327 0
-313 -336 -350 0
-313 -336 -390 0
-313 -336 -387 0
-313 -347 -339 0
-313 -347 -373 0
-313 -347 -390 0
-313 -379 -327 0
-313 -379 -339 0
-313 -379 -387 0
-313 -379 -350 0
-316 -383 0
-321 -384 -373 0
-321 -384 -399 0
-316 -384 0
-320 -371 -271 0
-320 -371 -350 0
-320 -371 -399 0
-320 -371 -366 0
-320 -385 -373 0
-320 -385 -366 0
-321 -382 0
-316 -347 -344 0
-316 -347 -396 0
-316 -347 -376 0
-316 -347 -391 0
-316 -380 -344 0
-316 -380 -351 0
-316 -380 -391 0
-316 -384 -376 0
-316 -384 -401 0
-321 -384 0
-320 -371 -274 0
-320 -371 -351 0
-320 -371 -401 0
-320 -371 -369 0
-320 -382 -351 0
-320 -382 -396 0
-320 -385 -376 0
-320 -385 -369 0
-322 -371 0
-317 -265 -362 0
-317 -265 -358 0
-317 -265 -232 0
-317 -347 -345 0
-317 -347 -397 0
-317 -347 -399 0
-317 -347 -393 0
-317 -384 -399 0
-317 -384 -401 0
-317 -363 -272 0
-317 -363 -232 0
-317 -363 -358 0
-322 -363 0
-318 -265 -377 0
-318 -265 -358 0
-318 -265 -232 0
-318 -227 -358 0
-318 -227 -272 0
-318 -371 -272 0
-318 -371 -346 0
-318 -371 -402 0
-318 -359 -272 0
-318 -359 -232 0
-322 -384 0
-320 -371 -272 0
-320 -371 -346 0
-320 -371 -362 0
-320 -382 -346 0
-320 -382 -397 0
-320 -382 -401 0
-320 -383 -399 0
-317 -265 0
-260 -256 -221 0
-260 -248 -221 0
-260 -298 -334 0
-260 -298 -352 0
-260 -298 -328 0
-260 -363 -221 0
-260 -363 -377 0
-260 -363 -357 0
-260 -359 -221 0
-260 -359 -367 0
-260 -227 -357 0
-260 -227 -367 0
-317 -347 0
-311 -298 -334 0
-311 -298 -264 0
-311 -298 -328 0
-311 -336 -328 0
-311 -336 -374 0
-311 -336 -372 0
-311 -336 -378 0
-311 -380 -334 0
-311 -380 -374 0
-311 -380 -373 0
-311 -382 -372 0
-311 -382 -376 0
-311 -382 -375 0
-311 -379 -328 0
-311 -379 -334 0
-311 -379 -378 0
-311 -379 -372 0
-317 -385 0
-322 -363 -264 0
-322 -363 -221 0
-322 -363 -357 0
-322 -384 -373 0
-322 -384 -376 0
-317 -384 0
-320 -382 -352 0
-320 -382 -372 0
-320 -382 -376 0
-320 -383 -373 0
-320 -385 -367 0
-317 -363 0
-318 -265 -357 0
-318 -265 -221 0
-318 -227 -357 0
-318 -227 -264 0
-318 -385 -375 0
-318 -359 -264 0
-318 -359 -221 0
-313 -336 0
-310 -281 -326 0
-310 -298 -353 0
-310 -298 -269 0
-310 -298 -326 0
-310 -325 -386 0
-310 -325 -389 0
-310 -347 -395 0
-310 -347 -372 0
-310 -347 -389 0
-310 -379 -326 0
-310 -379 -386 0
-310 -379 -353 0
-310 -381 -326 0
-310 -381 -389 0
-313 -347 0
-311 -298 -338 0
-311 -298 -269 0
-311 -298 -326 0
-311 -336 -326 0
-311 -336 -389 0
-311 -336 -386 0
-311 -382 -396 0
-311 -382 -394 0
-311 -371 -269 0
-311 -371 -397 0
-311 -371 -394 0
-311 -371 -365 0
-311 -379 -326 0
-311 -379 -338 0
-311 -379 -386 0
-313 -379 0
-312 -325 -338 0
-312 -325 -386 0
-312 -336 -326 0
-312 -336 -353 0
-312 -336 -386 0
-312 -381 -326 0
-312 -381 -338 0
-312 -347 -338 0
-312 -347 -395 0
-312 -347 -372 0
-313 -382 0
-316 -347 -338 0
-316 -347 -372 0
-316 -347 -389 0
-316 -383 -394 0
-316 -384 -372 0
-316 -384 -396 0
-316 -384 -397 0
-49 -113 0
-50 -114 0
-51 -115 0
-52 -116 0
-53 -117 0
-54 -118 0
-55 -119 0
-56 -120 0
-201 -219 -267 0
-201 -249 -225 0
-242 -231 -225 0
-242 -293 -261 0
-242 -293 -262 0
-242 -293 -263 0
-242 -219 -267 0
-242 -282 -263 0
-242 -282 -261 0
-294 -249 -225 0
-294 -282 -263 0
-294 -282 -261 0
-294 -337 -263 0
-294 -337 -262 0
-294 -337 -268 0
-294 -337 -269 0
-294 -337 -270 0
-294 -349 -261 0
-294 -349 -265 0
-294 -349 -269 0
-294 -349 -271 0
-294 -349 -264 0
-294 -349 -268 0
-294 -331 -261 0
-294 -331 -270 0
-294 -331 -268 0
-260 -367 0
-317 -349 -261 0
-317 -349 -265 0
-317 -349 -269 0
-317 -349 -271 0
-317 -349 -268 0
-317 -362 -265 0
-317 -362 -273 0
-317 -363 -262 0
-317 -363 -273 0
-317 -363 -271 0
-317 -363 -274 0
-317 -363 -272 0
-317 -363 -269 0
-317 -364 -265 0
-317 -364 -271 0
-317 -364 -274 0
-317 -364 -272 0
-260 -360 0
-260 -219 0
-201 -249 -225 0
-201 -266 -221 0
-201 -266 -222 0
-242 -231 -225 0
-242 -266 -221 0
-242 -266 -222 0
-242 -293 -223 0
-242 -293 -224 0
-242 -293 -225 0
-242 -293 -226 0
-242 -282 -226 0
-242 -282 -223 0
-220 -360 0
-319 -266 -221 0
-220 -266 0
-260 -293 -223 0
-260 -293 -224 0
-260 -293 -226 0
-260 -367 -224 0
-260 -367 -232 0
-260 -367 -227 0
-260 -367 -235 0
-317 -266 0
-260 -231 -221 0
-260 -249 -221 0
-260 -293 -334 0
-260 -293 -352 0
-260 -293 -328 0
-260 -360 -221 0
-260 -219 -357 0
-317 -349 0
-311 -293 -334 0
-311 -293 -264 0
-311 -293 -328 0
-311 -337 -328 0
-311 -337 -374 0
-311 -337 -372 0
-311 -337 -378 0
-311 -363 -375 0
-311 -363 -373 0
-311 -363 -376 0
-311 -363 -377 0
-311 -363 -372 0
-311 -365 -334 0
-311 -365 -374 0
-311 -365 -373 0
-311 -365 -371 0
-311 -366 -371 0
-311 -366 -372 0
-311 -366 -376 0
-311 -366 -375 0
-311 -368 -328 0
-311 -368 -334 0
-311 -368 -378 0
-311 -368 -372 0
-317 -362 0
-322 -363 -352 0
-322 -363 -375 0
-322 -363 -373 0
-322 -363 -376 0
-322 -363 -372 0
-322 -364 -371 0
-322 -364 -373 0
-322 -364 -376 0
-317 -363 0
-315 -349 -334 0
-315 -349 -372 0
-315 -349 -373 0
-315 -349 -374 0
-315 -364 -373 0
-315 -364 -376 0
-315 -364 -377 0
-315 -366 -352 0
-315 -366 -372 0
-315 -366 -376 0
-315 -366 -375 0
-315 -369 -373 0
-315 -369 -375 0
-315 -362 -375 0
-315 -365 -334 0
-315 -365 -352 0
-315 -365 -374 0
-315 -365 -373 0
-317 -364 0
-320 -363 -352 0
-320 -363 -373 0
-320 -363 -376 0
-320 -363 -377 0
-320 -363 -372 0
-320 -366 -352 0
-320 -366 -371 0
-320 -366 -372 0
-320 -366 -376 0
-320 -369 -371 0
-320 -369 -373 0
-320 -362 -371 0
-322 -363 0
-315 -349 -345 0
-315 -349 -397 0
-315 -349 -399 0
-315 -349 -377 0
-315 -349 -393 0
-315 -364 -377 0
-315 -364 -399 0
-315 -364 -401 0
-315 -366 -346 0
-315 -366 -397 0
-315 -366 -401 0
-315 -366 -402 0
-315 -369 -399 0
-315 -369 -402 0
-315 -367 -272 0
-315 -367 -346 0
-315 -367 -402 0
-315 -365 -345 0
-315 -365 -346 0
-315 -365 -393 0
-315 -365 -399 0
-322 -367 0
-317 -266 -358 0
-317 -266 -232 0
-317 -349 -345 0
-317 -349 -385 0
-317 -349 -397 0
-317 -349 -399 0
-317 -349 -393 0
-317 -363 -346 0
-317 -363 -402 0
-317 -363 -399 0
-317 -363 -401 0
-317 -363 -397 0
-317 -364 -385 0
-317 -364 -399 0
-317 -364 -401 0
-322 -364 0
-320 -363 -346 0
-320 -363 -399 0
-320 -363 -401 0
-320 -363 -377 0
-320 -363 -397 0
-320 -367 -272 0
-320 -367 -346 0
-320 -367 -385 0
-320 -366 -346 0
-320 -366 -385 0
-320 -366 -397 0
-320 -366 -401 0
-320 -369 -385 0
-320 -369 -399 0
-319 -266 0
-260 -231 -222 0
-260 -249 -222 0
-260 -293 -341 0
-260 -293 -354 0
-260 -293 -333 0
-260 -367 -354 0
-260 -367 -358 0
-260 -367 -359 0
-260 -367 -361 0
-319 -219 0
-220 -231 -267 0
-220 -249 -267 0
-220 -266 -357 0
-49 -57 0
-50 -58 0
-51 -59 0
-52 -60 0
-53 -61 0
-54 -62 0
-55 -63 0
-56 -64 0
-255 -244 -203 0
-191 -244 -203 0
-191 -258 -207 0
-191 -258 -210 0
-191 -259 -210 0
-191 -259 -213 0
-191 -259 -207 0
-201 -225 0
-220 -267 -231 0
-220 -266 -234 0
-220 -266 -237 0
-220 -266 -228 0
-242 -259 -210 0
-242 -259 -213 0
-242 -259 -207 0
-242 -225 -228 0
-242 -225 -231 0
-242 -258 -207 0
-242 -258 -210 0
-255 -188 -230 0
-191 -258 -239 0
-191 -258 -240 0
-191 -259 -240 0
-191 -259 -243 0
-191 -259 -239 0
-191 -188 -230 0
-201 -225 -247 0
-201 -225 -249 0
-294 -258 -239 0
-294 -258 -240 0
-294 -261 -239 0
-294 -261 -243 0
-294 -261 -251 0
-294 -261 -252 0
-294 -261 -253 0
-294 -262 -240 0
-294 -262 -248 0
-294 -262 -252 0
-294 -262 -254 0
-294 -262 -245 0
-294 -262 -251 0
-294 -263 -240 0
-294 -263 -253 0
-294 -263 -251 0
-242 -225 0
-220 -267 -249 0
-220 -266 -245 0
-220 -266 -246 0
-220 -266 -247 0
-278 -259 -240 0
-278 -259 -243 0
-278 -259 -239 0
-278 -263 -240 0
-278 -263 -253 0
-278 -263 -251 0
-278 -261 -239 0
-278 -261 -243 0
-278 -261 -251 0
-278 -261 -252 0
-278 -261 -253 0
-191 -244 -218 0
-191 -258 -300 0
-191 -258 -299 0
-191 -188 -218 0
-242 -188 -218 0
-242 -225 -296 0
-242 -225 -293 0
-242 -258 -300 0
-242 -258 -299 0
-278 -263 -299 0
-278 -263 -301 0
-278 -263 -302 0
-278 -261 -300 0
-278 -261 -297 0
-278 -261 -302 0
-278 -261 -303 0
-278 -261 -301 0
-278 -244 -218 0
-294 -261 0
-310 -258 -300 0
-310 -263 -301 0
-310 -263 -302 0
-310 -262 -298 0
-310 -262 -303 0
-310 -262 -306 0
-310 -262 -295 0
-310 -262 -302 0
-310 -268 -300 0
-310 -268 -301 0
-310 -268 -303 0
-310 -268 -297 0
-310 -269 -297 0
-310 -269 -302 0
-310 -269 -306 0
-310 -269 -298 0
-310 -270 -300 0
-310 -270 -302 0
-294 -262 0
-311 -261 -300 0
-311 -261 -302 0
-311 -261 -303 0
-311 -261 -301 0
-311 -265 -305 0
-311 -265 -306 0
-311 -265 -307 0
-311 -265 -304 0
-311 -265 -295 0
-311 -265 -303 0
-311 -269 -299 0
-311 -269 -302 0
-311 -269 -306 0
-311 -269 -298 0
-311 -271 -298 0
-311 -271 -303 0
-311 -271 -307 0
-311 -271 -305 0
-311 -264 -304 0
-311 -264 -298 0
-311 -264 -305 0
-311 -264 -293 0
-311 -268 -300 0
-311 -268 -299 0
-311 -268 -301 0
-311 -268 -303 0
-294 -263 0
-309 -258 -299 0
-309 -261 -297 0
-309 -261 -302 0
-309 -261 -303 0
-309 -261 -301 0
-309 -270 -302 0
-309 -270 -299 0
-309 -268 -299 0
-309 -268 -301 0
-309 -268 -303 0
-309 -268 -297 0
-318 -225 0
-318 -264 0
-317 -262 -337 0
-317 -262 -363 0
-317 -262 -365 0
-317 -262 -366 0
-317 -262 -368 0
-317 -272 -363 0
-317 -272 -364 0
-317 -265 -349 0
-317 -265 -364 0
-317 -265 -366 0
-317 -265 -369 0
-317 -265 -362 0
-317 -265 -365 0
-317 -273 -363 0
-317 -273 -366 0
-317 -273 -369 0
-317 -273 -362 0
-318 -272 0
-322 -265 -349 0
-322 -265 -364 0
-322 -265 -366 0
-322 -265 -369 0
-322 -265 -367 0
-322 -265 -365 0
-322 -264 -349 0
-322 -264 -363 0
-322 -264 -364 0
-322 -273 -363 0
-322 -273 -367 0
-322 -273 -366 0
-322 -273 -369 0
-318 -267 0
-317 -262 0
-311 -259 -334 0
-311 -259 -328 0
-311 -261 -328 0
-311 -261 -374 0
-311 -261 -372 0
-311 -261 -378 0
-311 -265 -375 0
-311 -265 -373 0
-311 -265 -376 0
-311 -265 -377 0
-311 -265 -372 0
-311 -269 -334 0
-311 -269 -374 0
-311 -269 -373 0
-311 -269 -371 0
-311 -271 -371 0
-311 -271 -372 0
-311 -271 -376 0
-311 -271 -375 0
-311 -268 -328 0
-311 -268 -334 0
-311 -268 -378 0
-311 -268 -372 0
-317 -272 0
-322 -265 -352 0
-322 -265 -375 0
-322 -265 -373 0
-322 -265 -376 0
-322 -265 -372 0
-322 -266 -221 0
-322 -266 -357 0
-322 -273 -371 0
-322 -273 -373 0
-322 -273 -376 0
-317 -265 0
-315 -262 -334 0
-315 -262 -372 0
-315 -262 -373 0
-315 -262 -374 0
-315 -273 -373 0
-315 -273 -376 0
-315 -273 -377 0
-315 -271 -352 0
-315 -271 -372 0
-315 -271 -376 0
-315 -271 -375 0
-315 -274 -373 0
-315 -274 -375 0
-315 -272 -367 0
-315 -272 -375 0
-315 -269 -334 0
-315 -269 -352 0
-315 -269 -374 0
-315 -269 -373 0
-317 -273 0
-320 -265 -352 0
-320 -265 -373 0
-320 -265 -376 0
-320 -265 -377 0
-320 -265 -372 0
-320 -271 -352 0
-320 -271 -371 0
-320 -271 -372 0
-320 -271 -376 0
-320 -274 -371 0
-320 -274 -373 0
-320 -272 -371 0
-320 -272 -367 0
-317 -266 0
-318 -225 -357 0
-318 -272 -371 0
-318 -272 -375 0
-318 -267 -221 0
-319 -225 0
-220 -266 -357 0
-220 -266 -358 0
-319 -266 0
-318 -264 -354 0
-318 -264 -358 0
-318 -264 -359 0
-318 -264 -361 0
-318 -272 -359 0
-318 -272 -357 0
-318 -272 -361 0
-242 -259 -223 0
-242 -259 -224 0
-242 -259 -226 0
-242 -258 -226 0
-242 -258 -223 0
-220 -267 0
-319 -266 -221 0
-319 -266 -232 0
-220 -266 0
-318 -264 -224 0
-318 -264 -232 0
-318 -264 -227 0
-318 -264 -235 0
-318 -272 -227 0
-318 -272 -221 0
-318 -272 -235 0
-49 -81 0
-50 -82 0
-51 -83 0
-52 -84 0
-53 -85 0
-54 -86 0
-55 -87 0
-56 -88 0
-191 -240 -258 0
-191 -240 -217 0
-191 -299 -280 0
-191 -299 -258 0
-191 -299 -284 0
-191 -210 -217 0
-191 -210 -258 0
-294 -240 -258 0
-294 -240 -217 0
-294 -335 -281 0
-294 -335 -286 0
-294 -335 -288 0
-294 -335 -279 0
-294 -335 -285 0
-294 -261 -282 0
-294 -261 -279 0
-294 -261 -289 0
-294 -261 -217 0
-294 -332 -287 0
-294 -332 -285 0
-278 -332 0
-309 -342 -285 0
-309 -340 -287 0
-309 -340 -286 0
-309 -340 -280 0
-309 -299 -280 0
-309 -299 -258 0
-242 -210 -217 0
-242 -210 -258 0
-242 -261 -282 0
-242 -261 -279 0
-242 -261 -289 0
-242 -261 -217 0
-242 -299 -280 0
-242 -299 -258 0
-242 -299 -284 0
-242 -223 -289 0
-242 -223 -258 0
-242 -223 -282 0
-191 -240 -259 0
-191 -240 -218 0
-191 -283 -300 0
-191 -210 -218 0
-191 -210 -259 0
-242 -210 -218 0
-242 -210 -259 0
-242 -261 -293 0
-242 -261 -295 0
-242 -261 -296 0
-242 -261 -218 0
-242 -223 -296 0
-242 -223 -259 0
-242 -223 -293 0
-242 -283 -300 0
-278 -332 -301 0
-278 -332 -302 0
-278 -240 -259 0
-278 -240 -218 0
-294 -335 0
-311 -336 -305 0
-311 -336 -306 0
-311 -336 -307 0
-311 -336 -304 0
-311 -336 -295 0
-311 -336 -303 0
-311 -338 -302 0
-311 -338 -306 0
-311 -338 -298 0
-311 -339 -298 0
-311 -339 -303 0
-311 -339 -307 0
-311 -339 -305 0
-311 -334 -259 0
-311 -334 -304 0
-311 -334 -298 0
-311 -334 -305 0
-311 -334 -293 0
-311 -340 -300 0
-311 -340 -301 0
-311 -340 -303 0
-294 -261 0
-260 -210 -218 0
-260 -240 -218 0
-260 -337 -218 0
-260 -337 -295 0
-260 -337 -304 0
-260 -337 -296 0
-260 -334 -297 0
-260 -334 -304 0
-260 -334 -298 0
-260 -334 -305 0
-260 -334 -293 0
-260 -341 -218 0
-260 -341 -293 0
-260 -223 -296 0
-260 -223 -293 0
-294 -332 0
-309 -342 -302 0
-309 -340 -301 0
-309 -340 -303 0
-309 -340 -297 0
-278 -299 -324 0
-278 -299 -263 0
-278 -240 -263 0
-278 -240 -226 0
-309 -342 0
-314 -340 -326 0
-314 -340 -324 0
-309 -340 0
-312 -338 -324 0
-312 -338 -327 0
-312 -338 -325 0
-312 -335 -325 0
-312 -335 -326 0
-312 -335 -327 0
-312 -335 -328 0
-294 -240 -263 0
-294 -240 -226 0
-294 -335 -325 0
-294 -335 -326 0
-294 -335 -327 0
-294 -335 -328 0
-294 -335 -329 0
-294 -261 -331 0
-294 -261 -328 0
-294 -261 -333 0
-294 -261 -226 0
-294 -240 -262 0
-294 -240 -224 0
-294 -283 -324 0
-294 -261 -349 0
-294 -261 -352 0
-294 -261 -354 0
-294 -261 -224 0
-294 -332 -356 0
-294 -332 -355 0
-311 -336 0
-315 -343 -352 0
-315 -343 -350 0
-315 -343 -351 0
-315 -343 -346 0
-315 -339 -353 0
-315 -339 -351 0
-315 -339 -348 0
-315 -344 -350 0
-315 -344 -348 0
-315 -345 -352 0
-315 -345 -349 0
-315 -345 -348 0
-315 -334 -262 0
-315 -334 -346 0
-315 -334 -348 0
-315 -334 -349 0
-315 -338 -355 0
-315 -338 -350 0
-311 -338 0
-313 -340 -324 0
-313 -340 -356 0
-313 -339 -347 0
-313 -339 -351 0
-313 -339 -348 0
-313 -336 -348 0
-313 -336 -350 0
-313 -336 -351 0
-313 -336 -346 0
-313 -336 -352 0
-311 -339 0
-316 -336 -348 0
-316 -336 -351 0
-316 -336 -346 0
-316 -336 -352 0
-316 -336 -353 0
-316 -338 -355 0
-316 -338 -347 0
-316 -344 -347 0
-316 -344 -348 0
-316 -343 -347 0
-316 -343 -352 0
-316 -343 -351 0
-316 -343 -346 0
-311 -334 0
-317 -261 -349 0
-317 -261 -354 0
-317 -261 -224 0
-317 -345 -347 0
-317 -345 -349 0
-317 -345 -348 0
-317 -336 -348 0
-317 -336 -350 0
-317 -336 -351 0
-317 -336 -346 0
-317 -336 -353 0
-317 -343 -347 0
-317 -343 -350 0
-317 -343 -351 0
-317 -343 -346 0
-317 -337 -262 0
-317 -337 -224 0
-317 -337 -346 0
-317 -337 -354 0
-311 -340 0
-312 -332 -356 0
-312 -342 -324 0
-312 -338 -350 0
-312 -338 -347 0
-312 -332 0
-309 -299 -355 0
-309 -299 -268 0
-312 -342 0
-312 -338 0
-313 -335 -379 0
-313 -335 -390 0
-313 -335 -374 0
-313 -339 -355 0
-313 -339 -379 0
-313 -339 -391 0
-313 -339 -392 0
-313 -336 -355 0
-313 -336 -392 0
-313 -336 -390 0
-313 -336 -391 0
-313 -336 -393 0
-313 -336 -374 0
-312 -335 0
-311 -299 -268 0
-311 -299 -329 0
-311 -336 -392 0
-311 -336 -390 0
-311 -336 -391 0
-311 -336 -393 0
-311 -336 -374 0
-311 -336 -389 0
-311 -338 -390 0
-311 -338 -379 0
-311 -339 -379 0
-311 -339 -389 0
-311 -339 -391 0
-311 -339 -392 0
-311 -334 -268 0
-311 -334 -393 0
-311 -334 -379 0
-311 -334 -392 0
-311 -334 -368 0
-313 -335 0
-311 -299 -269 0
-311 -299 -326 0
-311 -336 -394 0
-311 -336 -395 0
-311 -336 -396 0
-311 -336 -397 0
-311 -336 -372 0
-311 -339 -380 0
-311 -339 -396 0
-311 -339 -394 0
-311 -334 -269 0
-311 -334 -397 0
-311 -334 -380 0
-311 -334 -394 0
-311 -334 -365 0
-311 -340 -326 0
-311 -340 -386 0
-313 -340 0
-312 -332 -386 0
-312 -342 -326 0
-312 -335 -380 0
-312 -335 -395 0
-312 -335 -372 0
-313 -339 0
-316 -335 -380 0
-316 -335 -372 0
-316 -335 -389 0
-316 -336 -353 0
-316 -336 -394 0
-316 -336 -396 0
-316 -336 -397 0
-316 -336 -372 0
-316 -344 -380 0
-316 -344 -394 0
-316 -343 -380 0
-316 -343 -372 0
-316 -343 -396 0
-316 -343 -397 0
-313 -336 0
-315 -335 -395 0
-315 -335 -372 0
-315 -335 -389 0
-315 -343 -372 0
-315 -343 -395 0
-315 -343 -396 0
-315 -343 -397 0
-315 -339 -353 0
-315 -339 -396 0
-315 -339 -394 0
-315 -344 -395 0
-315 -344 -394 0
-315 -345 -372 0
-315 -345 -365 0
-315 -345 -394 0
-315 -334 -269 0
-315 -334 -353 0
-315 -334 -397 0
-315 -334 -394 0
-315 -334 -365 0
-314 -332 0
-309 -340 -386 0
-309 -340 -356 0
-309 -299 -356 0
-309 -299 -270 0
-314 -340 0
-312 -338 -356 0
-312 -338 -387 0
-312 -338 -381 0
-312 -335 -381 0
-312 -335 -386 0
-312 -335 -387 0
-312 -335 -378 0
-199 -186 -215 0
-199 -204 -290 0
-199 -204 -292 0
-199 -195 -292 0
-199 -195 -308 0
-199 -195 -290 0
-244 -195 -292 0
-244 -195 -308 0
-244 -195 -290 0
-244 -201 -275 0
-244 -201 -308 0
-244 -201 -323 0
-244 -201 -236 0
-244 -201 -292 0
-244 -203 -229 0
-244 -203 -236 0
-244 -204 -290 0
-244 -204 -292 0
-233 -186 -194 0
-244 -195 -197 0
-244 -195 -198 0
-244 -195 -200 0
-244 -201 -192 0
-244 -201 -198 0
-244 -201 -202 0
-244 -201 -190 0
-244 -201 -197 0
-244 -203 -193 0
-244 -203 -190 0
-244 -204 -200 0
-244 -204 -197 0
-258 -195 -197 0
-258 -195 -198 0
-258 -195 -200 0
-258 -207 -197 0
-258 -207 -208 0
-258 -207 -209 0
-258 -210 -200 0
-258 -210 -198 0
-258 -210 -209 0
-258 -210 -211 0
-258 -210 -208 0
-258 -186 -194 0
-259 -186 -194 0
-259 -204 -200 0
-259 -204 -197 0
-259 -201 -192 0
-259 -201 -198 0
-259 -201 -202 0
-259 -201 -190 0
-259 -201 -197 0
-259 -210 -200 0
-259 -210 -198 0
-259 -210 -209 0
-259 -210 -211 0
-259 -210 -208 0
-259 -213 -197 0
-259 -213 -202 0
-259 -213 -211 0
-259 -213 -214 0
-259 -213 -192 0
-259 -213 -209 0
-259 -207 -197 0
-259 -207 -208 0
-259 -207 -209 0
-244 -195 -223 0
-244 -195 -224 0
-244 -195 -226 0
-244 -201 -221 0
-244 -201 -224 0
-244 -201 -227 0
-244 -201 -219 0
-244 -201 -223 0
-244 -204 -226 0
-244 -204 -223 0
-225 -228 0
-267 -231 -221 0
-267 -231 -232 0
-225 -231 0
-266 -201 -221 0
-266 -201 -224 0
-266 -201 -227 0
-266 -201 -223 0
-266 -234 -224 0
-266 -234 -232 0
-266 -234 -227 0
-266 -234 -235 0
-266 -237 -227 0
-266 -237 -221 0
-266 -237 -235 0
-199 -204 -239 0
-199 -204 -240 0
-199 -195 -240 0
-199 -195 -243 0
-199 -195 -239 0
-259 -204 -239 0
-259 -204 -240 0
-259 -201 -245 0
-259 -201 -243 0
-259 -201 -248 0
-259 -201 -249 0
-259 -201 -240 0
-259 -210 -239 0
-259 -210 -243 0
-259 -210 -251 0
-259 -210 -252 0
-259 -210 -253 0
-259 -213 -240 0
-259 -213 -248 0
-259 -213 -252 0
-259 -213 -254 0
-259 -213 -245 0
-259 -213 -251 0
-259 -207 -240 0
-259 -207 -253 0
-259 -207 -251 0
-260 -195 -240 0
-260 -195 -243 0
-260 -195 -239 0
-260 -234 -243 0
-260 -234 -246 0
-260 -234 -248 0
-260 -234 -250 0
-260 -234 -249 0
-260 -213 -240 0
-260 -213 -248 0
-260 -213 -252 0
-260 -213 -254 0
-260 -213 -245 0
-260 -213 -251 0
-260 -256 -243 0
-260 -256 -250 0
-260 -256 -254 0
-260 -256 -257 0
-260 -256 -246 0
-260 -256 -245 0
-260 -256 -252 0
-260 -231 -230 0
-260 -231 -245 0
-260 -231 -246 0
-260 -231 -247 0
-260 -210 -239 0
-260 -210 -243 0
-260 -210 -251 0
-260 -210 -252 0
-260 -210 -253 0
-244 -203 0
-225 -228 -249 0
-225 -231 -245 0
-225 -231 -246 0
-225 -231 -247 0
-258 -195 -240 0
-258 -195 -243 0
-258 -195 -239 0
-258 -207 -240 0
-258 -207 -253 0
-258 -207 -251 0
-258 -210 -239 0
-258 -210 -243 0
-258 -210 -251 0
-258 -210 -252 0
-258 -210 -253 0
-188 -230 -229 0
-188 -230 -236 0
-199 -241 -290 0
-199 -241 -292 0
-199 -238 -292 0
-199 -238 -308 0
-199 -238 -290 0
-199 -186 -215 0
-233 -186 -194 0
-258 -238 -197 0
-258 -238 -198 0
-258 -238 -200 0
-258 -239 -197 0
-258 -239 -208 0
-258 -239 -209 0
-258 -240 -200 0
-258 -240 -198 0
-258 -240 -209 0
-258 -240 -211 0
-258 -240 -208 0
-259 -241 -200 0
-259 -241 -197 0
-259 -242 -192 0
-259 -242 -198 0
-259 -242 -202 0
-259 -242 -190 0
-259 -242 -197 0
-259 -240 -200 0
-259 -240 -198 0
-259 -240 -209 0
-259 -240 -211 0
-259 -240 -208 0
-259 -243 -197 0
-259 -243 -202 0
-259 -243 -211 0
-259 -243 -214 0
-259 -243 -192 0
-259 -243 -209 0
-259 -239 -197 0
-259 -239 -208 0
-259 -239 -209 0
-188 -230 -193 0
-188 -230 -190 0
-199 -241 -207 0
-199 -241 -210 0
-199 -238 -210 0
-199 -238 -213 0
-199 -238 -207 0
-188 -230 0
-225 -247 -231 0
-225 -249 -234 0
-225 -249 -237 0
-225 -249 -228 0
-199 -241 -300 0
-199 -241 -299 0
-199 -186 -218 0
-258 -239 -299 0
-258 -239 -301 0
-258 -239 -302 0
-258 -240 -300 0
-258 -240 -297 0
-258 -240 -302 0
-258 -240 -303 0
-258 -240 -301 0
-260 -245 -297 0
-260 -245 -304 0
-260 -245 -298 0
-260 -245 -305 0
-260 -245 -293 0
-260 -243 -299 0
-260 -243 -298 0
-260 -243 -303 0
-260 -243 -306 0
-260 -243 -295 0
-260 -243 -302 0
-260 -248 -297 0
-260 -248 -305 0
-260 -248 -306 0
-260 -248 -307 0
-260 -248 -304 0
-260 -248 -295 0
-260 -248 -303 0
-260 -249 -218 0
-260 -249 -295 0
-260 -249 -304 0
-260 -249 -296 0
-260 -240 -300 0
-260 -240 -297 0
-260 -240 -302 0
-260 -240 -303 0
-260 -240 -301 0
-259 -240 0
-261 -241 -300 0
-261 -239 -301 0
-261 -239 -302 0
-261 -243 -298 0
-261 -243 -303 0
-261 -243 -306 0
-261 -243 -295 0
-261 -243 -302 0
-261 -251 -300 0
-261 -251 -301 0
-261 -251 -303 0
-261 -251 -297 0
-261 -252 -297 0
-261 -252 -302 0
-261 -252 -306 0
-261 -252 -298 0
-261 -242 -295 0
-261 -242 -297 0
-261 -242 -298 0
-261 -242 -293 0
-261 -253 -300 0
-261 -253 -302 0
-259 -243 0
-262 -242 -295 0
-262 -242 -298 0
-262 -242 -293 0
-262 -242 -299 0
-262 -240 -300 0
-262 -240 -302 0
-262 -240 -303 0
-262 -240 -301 0
-262 -248 -305 0
-262 -248 -306 0
-262 -248 -307 0
-262 -248 -304 0
-262 -248 -295 0
-262 -248 -303 0
-262 -252 -299 0
-262 -252 -302 0
-262 -252 -306 0
-262 -252 -298 0
-262 -254 -298 0
-262 -254 -303 0
-262 -254 -307 0
-262 -254 -305 0
-262 -245 -304 0
-262 -245 -298 0
-262 -245 -305 0
-262 -245 -293 0
-262 -251 -300 0
-262 -251 -299 0
-262 -251 -301 0
-262 -251 -303 0
-259 -239 0
-263 -241 -299 0
-263 -240 -297 0
-263 -240 -302 0
-263 -240 -303 0
-263 -240 -301 0
-263 -253 -302 0
-263 -253 -299 0
-263 -251 -299 0
-263 -251 -301 0
-263 -251 -303 0
-263 -251 -297 0
-259 -241 -309 0
-259 -241 -310 0
-259 -240 -309 0
-259 -240 -311 0
-259 -240 -312 0
-259 -240 -313 0
-259 -240 -314 0
-259 -243 -310 0
-259 -243 -315 0
-259 -243 -313 0
-259 -243 -316 0
-259 -243 -317 0
-259 -243 -312 0
-259 -239 -310 0
-259 -239 -314 0
-259 -239 -312 0
-260 -245 0
-264 -243 -310 0
-264 -243 -315 0
-264 -243 -313 0
-264 -243 -316 0
-264 -243 -312 0
-264 -246 -315 0
-264 -246 -318 0
-264 -246 -320 0
-264 -248 -311 0
-264 -248 -320 0
-264 -248 -316 0
-264 -248 -321 0
-264 -248 -322 0
-264 -248 -313 0
-264 -250 -315 0
-264 -250 -316 0
-264 -250 -321 0
-264 -250 -322 0
-264 -249 -220 0
-264 -249 -322 0
-264 -249 -319 0
-260 -243 0
-262 -238 -310 0
-262 -238 -309 0
-262 -240 -309 0
-262 -240 -312 0
-262 -240 -313 0
-262 -240 -314 0
-262 -248 -320 0
-262 -248 -316 0
-262 -248 -321 0
-262 -248 -322 0
-262 -248 -317 0
-262 -248 -313 0
-262 -252 -310 0
-262 -252 -312 0
-262 -252 -316 0
-262 -252 -315 0
-262 -254 -315 0
-262 -254 -313 0
-262 -254 -321 0
-262 -254 -320 0
-262 -245 -322 0
-262 -245 -315 0
-262 -245 -320 0
-262 -245 -318 0
-262 -251 -309 0
-262 -251 -310 0
-262 -251 -314 0
-262 -251 -313 0
-260 -248 0
-265 -243 -310 0
-265 -243 -313 0
-265 -243 -316 0
-265 -243 -317 0
-265 -243 -312 0
-265 -250 -317 0
-265 -250 -316 0
-265 -250 -321 0
-265 -250 -322 0
-265 -254 -311 0
-265 -254 -313 0
-265 -254 -321 0
-265 -254 -320 0
-265 -257 -316 0
-265 -257 -320 0
-265 -246 -317 0
-265 -246 -318 0
-265 -246 -320 0
-265 -245 -311 0
-265 -245 -322 0
-265 -245 -320 0
-265 -245 -318 0
-265 -252 -310 0
-265 -252 -311 0
-265 -252 -312 0
-265 -252 -316 0
-260 -249 0
-266 -230 -319 0
-266 -245 -311 0
-266 -245 -322 0
-266 -245 -315 0
-266 -245 -320 0
-266 -246 -315 0
-266 -246 -317 0
-266 -246 -320 0
-266 -247 -220 0
-260 -240 0
-261 -241 -309 0
-261 -238 -311 0
-261 -238 -309 0
-261 -239 -314 0
-261 -239 -312 0
-261 -243 -315 0
-261 -243 -313 0
-261 -243 -316 0
-261 -243 -317 0
-261 -243 -312 0
-261 -251 -309 0
-261 -251 -314 0
-261 -251 -313 0
-261 -251 -311 0
-261 -252 -311 0
-261 -252 -312 0
-261 -252 -316 0
-261 -252 -315 0
-261 -253 -309 0
-261 -253 -312 0
-225 -247 0
-267 -249 -221 0
-267 -249 -232 0
-225 -249 0
-266 -242 -221 0
-266 -242 -224 0
-266 -242 -227 0
-266 -242 -223 0
-266 -245 -224 0
-266 -245 -232 0
-266 -245 -227 0
-266 -245 -235 0
-266 -246 -227 0
-266 -246 -221 0
-266 -246 -235 0
-199 -238 -283 0
-199 -238 -280 0
-199 -238 -284 0
-199 -186 -217 0
-259 -242 -279 0
-259 -242 -280 0
-259 -242 -281 0
-259 -242 -282 0
-259 -242 -283 0
-259 -240 -284 0
-259 -240 -280 0
-259 -240 -285 0
-259 -240 -286 0
-259 -240 -287 0
-259 -243 -283 0
-259 -243 -281 0
-259 -243 -286 0
-259 -243 -288 0
-259 -243 -279 0
-259 -243 -285 0
-259 -239 -283 0
-259 -239 -287 0
-259 -239 -285 0
-258 -239 0
-263 -240 -280 0
-263 -240 -285 0
-263 -240 -286 0
-263 -240 -287 0
-263 -253 -285 0
-263 -253 -283 0
-263 -251 -283 0
-263 -251 -287 0
-263 -251 -286 0
-263 -251 -280 0
-263 -238 -283 0
-263 -238 -280 0
-258 -240 0
-261 -238 -280 0
-261 -238 -284 0
-261 -239 -287 0
-261 -239 -285 0
-261 -243 -281 0
-261 -243 -286 0
-261 -243 -288 0
-261 -243 -279 0
-261 -243 -285 0
-261 -251 -284 0
-261 -251 -287 0
-261 -251 -286 0
-261 -251 -280 0
-261 -252 -280 0
-261 -252 -285 0
-261 -252 -288 0
-261 -252 -281 0
-261 -242 -279 0
-261 -242 -280 0
-261 -242 -281 0
-261 -242 -282 0
-261 -253 -284 0
-261 -253 -285 0
-233 -195 -194 0
-233 -238 -194 0
-244 -195 -194 0
-244 -294 -192 0
-244 -294 -198 0
-244 -294 -202 0
-244 -294 -190 0
-244 -294 -197 0
-244 -218 -193 0
-244 -218 -190 0
-244 -291 -200 0
-244 -291 -197 0
-258 -300 -197 0
-258 -300 -208 0
-258 -300 -209 0
-258 -299 -200 0
-258 -299 -198 0
-258 -299 -209 0
-258 -299 -211 0
-258 -299 -208 0
-258 -238 -194 0
-188 -218 -193 0
-188 -218 -190 0
-188 -238 -194 0
-233 -195 -230 0
-199 -291 -239 0
-199 -291 -240 0
-199 -195 -230 0
-188 -218 -247 0
-188 -218 -249 0
-260 -295 -243 0
-260 -295 -246 0
-260 -295 -248 0
-260 -295 -250 0
-260 -295 -249 0
-260 -297 -240 0
-260 -297 -248 0
-260 -297 -252 0
-260 -297 -254 0
-260 -297 -245 0
-260 -297 -251 0
-260 -298 -243 0
-260 -298 -250 0
-260 -298 -254 0
-260 -298 -257 0
-260 -298 -246 0
-260 -298 -245 0
-260 -298 -252 0
-260 -293 -230 0
-260 -293 -245 0
-260 -293 -246 0
-260 -293 -247 0
-260 -299 -239 0
-260 -299 -243 0
-260 -299 -251 0
-260 -299 -252 0
-260 -299 -253 0
-244 -218 0
-225 -296 -249 0
-225 -293 -245 0
-225 -293 -246 0
-225 -293 -247 0
-258 -300 -240 0
-258 -300 -253 0
-258 -300 -251 0
-258 -299 -239 0
-258 -299 -243 0
-258 -299 -251 0
-258 -299 -252 0
-258 -299 -253 0
-199 -238 -217 0
-199 -195 -217 0
-258 -300 0
-263 -299 -280 0
-263 -299 -285 0
-263 -299 -286 0
-263 -299 -287 0
-263 -301 -285 0
-263 -301 -283 0
-263 -302 -283 0
-263 -302 -287 0
-263 -302 -286 0
-263 -302 -280 0
-258 -299 0
-261 -300 -287 0
-261 -300 -285 0
-261 -297 -281 0
-261 -297 -286 0
-261 -297 -288 0
-261 -297 -279 0
-261 -297 -285 0
-261 -302 -284 0
-261 -302 -287 0
-261 -302 -286 0
-261 -302 -280 0
-261 -303 -280 0
-261 -303 -285 0
-261 -303 -288 0
-261 -303 -281 0
-261 -294 -279 0
-261 -294 -280 0
-261 -294 -281 0
-261 -294 -282 0
-261 -301 -284 0
-261 -301 -285 0
-244 -195 -217 0
-244 -294 -279 0
-244 -294 -280 0
-244 -294 -281 0
-244 -294 -282 0
-244 -294 -283 0
-244 -218 -289 0
-244 -218 -282 0
-244 -195 -220 0
-244 -218 -319 0
-244 -218 -318 0
-244 -291 -309 0
-244 -291 -310 0
-260 -295 0
-264 -297 -310 0
-264 -297 -315 0
-264 -297 -313 0
-264 -297 -316 0
-264 -297 -312 0
-264 -304 -315 0
-264 -304 -318 0
-264 -304 -320 0
-264 -298 -311 0
-264 -298 -320 0
-264 -298 -316 0
-264 -298 -321 0
-264 -298 -322 0
-264 -298 -313 0
-264 -305 -315 0
-264 -305 -316 0
-264 -305 -321 0
-264 -305 -322 0
-264 -293 -220 0
-264 -293 -322 0
-264 -293 -319 0
-260 -297 0
-262 -299 -309 0
-262 -299 -312 0
-262 -299 -313 0
-262 -299 -314 0
-262 -298 -320 0
-262 -298 -316 0
-262 -298 -321 0
-262 -298 -322 0
-262 -298 -317 0
-262 -298 -313 0
-262 -303 -310 0
-262 -303 -312 0
-262 -303 -316 0
-262 -303 -315 0
-262 -306 -315 0
-262 -306 -313 0
-262 -306 -321 0
-262 -306 -320 0
-262 -295 -322 0
-262 -295 -315 0
-262 -295 -320 0
-262 -295 -318 0
-262 -302 -309 0
-262 -302 -310 0
-262 -302 -314 0
-262 -302 -313 0
-260 -298 0
-265 -297 -310 0
-265 -297 -313 0
-265 -297 -316 0
-265 -297 -317 0
-265 -297 -312 0
-265 -305 -317 0
-265 -305 -316 0
-265 -305 -321 0
-265 -305 -322 0
-265 -306 -311 0
-265 -306 -313 0
-265 -306 -321 0
-265 -306 -320 0
-265 -307 -316 0
-265 -307 -320 0
-265 -304 -317 0
-265 -304 -318 0
-265 -304 -320 0
-265 -295 -311 0
-265 -295 -322 0
-265 -295 -320 0
-265 -295 -318 0
-265 -303 -310 0
-265 -303 -311 0
-265 -303 -312 0
-265 -303 -316 0
-260 -293 0
-266 -218 -319 0
-266 -295 -311 0
-266 -295 -322 0
-266 -295 -315 0
-266 -295 -320 0
-266 -304 -315 0
-266 -304 -317 0
-266 -304 -320 0
-266 -296 -220 0
-260 -299 0
-261 -291 -309 0
-261 -300 -314 0
-261 -300 -312 0
-261 -297 -315 0
-261 -297 -313 0
-261 -297 -316 0
-261 -297 -317 0
-261 -297 -312 0
-261 -302 -309 0
-261 -302 -314 0
-261 -302 -313 0
-261 -302 -311 0
-261 -303 -311 0
-261 -303 -312 0
-261 -303 -316 0
-261 -303 -315 0
-261 -301 -309 0
-261 -301 -312 0
-258 -300 -342 0
-258 -300 -340 0
-258 -238 -223 0
-261 -300 0
-263 -301 -340 0
-263 -302 -342 0
-263 -302 -338 0
-263 -302 -335 0
-261 -297 0
-262 -294 -334 0
-262 -294 -336 0
-262 -294 -337 0
-262 -298 -343 0
-262 -298 -339 0
-262 -298 -344 0
-262 -298 -345 0
-262 -298 -334 0
-262 -298 -338 0
-262 -303 -340 0
-262 -303 -339 0
-262 -303 -336 0
-262 -306 -336 0
-262 -306 -338 0
-262 -306 -344 0
-262 -306 -343 0
-262 -295 -345 0
-262 -295 -336 0
-262 -295 -343 0
-262 -295 -337 0
-262 -302 -332 0
-262 -302 -342 0
-262 -302 -338 0
-261 -302 0
-268 -300 -342 0
-268 -301 -332 0
-268 -303 -335 0
-268 -303 -339 0
-268 -303 -336 0
-268 -297 -336 0
-268 -297 -338 0
-268 -297 -339 0
-268 -297 -334 0
-261 -303 0
-269 -297 -336 0
-269 -297 -339 0
-269 -297 -334 0
-269 -297 -340 0
-269 -302 -332 0
-269 -302 -342 0
-269 -302 -335 0
-269 -306 -335 0
-269 -306 -336 0
-269 -306 -344 0
-269 -306 -343 0
-269 -298 -335 0
-269 -298 -343 0
-269 -298 -339 0
-269 -298 -344 0
-269 -298 -345 0
-269 -298 -334 0
-260 -238 -223 0
-260 -295 -335 0
-260 -295 -345 0
-260 -295 -336 0
-260 -295 -343 0
-260 -295 -337 0
-260 -297 -336 0
-260 -297 -338 0
-260 -297 -339 0
-260 -297 -334 0
-260 -297 -340 0
-260 -298 -335 0
-260 -298 -343 0
-260 -298 -339 0
-260 -298 -344 0
-260 -298 -345 0
-260 -298 -334 0
-260 -298 -338 0
-260 -293 -223 0
-260 -293 -334 0
-260 -293 -345 0
-260 -293 -341 0
-261 -301 0
-270 -300 -340 0
-270 -302 -332 0
-270 -302 -338 0
-270 -302 -335 0
-260 -238 -224 0
-260 -295 -346 0
-260 -295 -347 0
-260 -295 -348 0
-260 -295 -349 0
-260 -298 -348 0
-260 -298 -350 0
-260 -298 -351 0
-260 -298 -346 0
-260 -298 -352 0
-260 -298 -353 0
-260 -293 -224 0
-260 -293 -352 0
-260 -293 -346 0
-260 -293 -354 0
-260 -299 -324 0
-260 -299 -355 0
-260 -299 -353 0
-260 -299 -356 0
-262 -299 0
-261 -291 -324 0
-261 -300 -356 0
-261 -300 -355 0
-261 -302 -324 0
-261 -302 -356 0
-261 -302 -353 0
-261 -303 -355 0
-261 -303 -350 0
-261 -303 -347 0
-261 -294 -352 0
-261 -294 -347 0
-261 -294 -349 0
-261 -301 -324 0
-261 -301 -355 0
-262 -298 0
-265 -294 -352 0
-265 -294 -349 0
-265 -294 -335 0
-265 -305 -352 0
-265 -305 -350 0
-265 -305 -351 0
-265 -305 -346 0
-265 -306 -353 0
-265 -306 -351 0
-265 -306 -348 0
-265 -307 -350 0
-265 -307 -348 0
-265 -304 -352 0
-265 -304 -349 0
-265 -304 -348 0
-265 -295 -346 0
-265 -295 -348 0
-265 -295 -349 0
-265 -303 -335 0
-265 -303 -355 0
-265 -303 -350 0
-262 -303 0
-269 -299 -324 0
-269 -299 -355 0
-269 -299 -356 0
-269 -302 -324 0
-269 -302 -335 0
-269 -302 -356 0
-269 -306 -347 0
-269 -306 -351 0
-269 -306 -348 0
-269 -298 -348 0
-269 -298 -350 0
-269 -298 -351 0
-269 -298 -346 0
-269 -298 -352 0
-262 -306 0
-271 -298 -348 0
-271 -298 -351 0
-271 -298 -346 0
-271 -298 -352 0
-271 -298 -353 0
-271 -303 -335 0
-271 -303 -355 0
-271 -303 -347 0
-271 -307 -347 0
-271 -307 -348 0
-271 -305 -347 0
-271 -305 -352 0
-271 -305 -351 0
-271 -305 -346 0
-262 -295 0
-264 -294 -347 0
-264 -294 -349 0
-264 -294 -335 0
-264 -304 -347 0
-264 -304 -349 0
-264 -304 -348 0
-264 -298 -348 0
-264 -298 -350 0
-264 -298 -351 0
-264 -298 -346 0
-264 -298 -353 0
-264 -305 -347 0
-264 -305 -350 0
-264 -305 -351 0
-264 -305 -346 0
-264 -293 -224 0
-264 -293 -346 0
-264 -293 -354 0
-262 -302 0
-268 -300 -335 0
-268 -300 -356 0
-268 -299 -324 0
-268 -299 -353 0
-268 -299 -356 0
-268 -301 -324 0
-268 -301 -335 0
-268 -303 -335 0
-268 -303 -350 0
-268 -303 -347 0
-258 -299 -324 0
-258 -299 -329 0
-258 -299 -326 0
-258 -299 -330 0
-258 -238 -226 0
-263 -299 0
-261 -297 -325 0
-261 -297 -326 0
-261 -297 -327 0
-261 -297 -328 0
-261 -297 -329 0
-261 -302 -330 0
-261 -302 -326 0
-261 -302 -324 0
-261 -303 -324 0
-261 -303 -329 0
-261 -303 -327 0
-261 -303 -325 0
-261 -294 -328 0
-261 -294 -324 0
-261 -294 -325 0
-261 -294 -331 0
-261 -301 -329 0
-263 -301 0
-270 -302 -332 0
-270 -302 -326 0
-270 -302 -324 0
-270 -299 -324 0
-270 -299 -329 0
-270 -299 -326 0
-263 -302 0
-268 -299 -324 0
-268 -299 -326 0
-268 -299 -330 0
-268 -301 -332 0
-268 -303 -332 0
-268 -303 -324 0
-268 -303 -327 0
-268 -303 -325 0
-268 -297 -332 0
-268 -297 -325 0
-268 -297 -326 0
-268 -297 -327 0
-268 -297 -328 0
-57 -113 0
-58 -114 0
-59 -115 0
-60 -116 0
-61 -117 0
-62 -118 0
-63 -119 0
-64 -120 0
-244 -231 -220 0
-244 -293 -310 0
-244 -293 -311 0
-244 -293 -309 0
-244 -219 -319 0
-244 -282 -309 0
-244 -282 -310 0
-259 -249 -220 0
-259 -282 -309 0
-259 -282 -310 0
-259 -337 -309 0
-259 -337 -311 0
-259 -337 -312 0
-259 -337 -313 0
-259 -337 -314 0
-259 -349 -310 0
-259 -349 -315 0
-259 -349 -313 0
-259 -349 -316 0
-259 -349 -317 0
-259 -349 -312 0
-259 -331 -310 0
-259 -331 -314 0
-259 -331 -312 0
-260 -367 0
-264 -349 -310 0
-264 -349 -315 0
-264 -349 -313 0
-264 -349 -316 0
-264 -349 -312 0
-264 -362 -315 0
-264 -362 -320 0
-264 -363 -311 0
-264 -363 -320 0
-264 -363 -316 0
-264 -363 -321 0
-264 -363 -322 0
-264 -363 -313 0
-264 -364 -315 0
-264 -364 -316 0
-264 -364 -321 0
-264 -364 -322 0
-260 -349 0
-262 -293 -310 0
-262 -293 -309 0
-262 -337 -309 0
-262 -337 -312 0
-262 -337 -313 0
-262 -337 -314 0
-262 -363 -320 0
-262 -363 -316 0
-262 -363 -321 0
-262 -363 -322 0
-262 -363 -317 0
-262 -363 -313 0
-262 -365 -310 0
-262 -365 -312 0
-262 -365 -316 0
-262 -365 -315 0
-262 -366 -315 0
-262 -366 -313 0
-262 -366 -321 0
-262 -366 -320 0
-262 -367 -322 0
-262 -367 -315 0
-262 -367 -320 0
-262 -368 -309 0
-262 -368 -310 0
-262 -368 -314 0
-262 -368 -313 0
-260 -363 0
-265 -349 -310 0
-265 -349 -313 0
-265 -349 -316 0
-265 -349 -317 0
-265 -349 -312 0
-265 -364 -317 0
-265 -364 -316 0
-265 -364 -321 0
-265 -364 -322 0
-265 -366 -311 0
-265 -366 -313 0
-265 -366 -321 0
-265 -366 -320 0
-265 -369 -316 0
-265 -369 -320 0
-265 -362 -317 0
-265 -362 -320 0
-265 -367 -311 0
-265 -367 -322 0
-265 -367 -320 0
-265 -365 -310 0
-265 -365 -311 0
-265 -365 -312 0
-265 -365 -316 0
-260 -337 0
-261 -282 -309 0
-261 -293 -311 0
-261 -293 -309 0
-261 -331 -314 0
-261 -331 -312 0
-261 -349 -315 0
-261 -349 -313 0
-261 -349 -316 0
-261 -349 -317 0
-261 -349 -312 0
-261 -368 -309 0
-261 -368 -314 0
-261 -368 -313 0
-261 -368 -311 0
-261 -365 -311 0
-261 -365 -312 0
-261 -365 -316 0
-261 -365 -315 0
-261 -370 -309 0
-261 -370 -312 0
-244 -293 -223 0
-244 -293 -224 0
-244 -293 -226 0
-244 -318 -221 0
-244 -318 -224 0
-244 -318 -227 0
-244 -318 -223 0
-244 -282 -226 0
-244 -282 -223 0
-225 -360 0
-260 -249 -221 0
-260 -293 -334 0
-260 -293 -352 0
-260 -293 -328 0
-260 -349 -334 0
-260 -349 -371 0
-260 -349 -372 0
-260 -349 -373 0
-260 -349 -374 0
-260 -363 -352 0
-260 -363 -375 0
-260 -363 -373 0
-260 -363 -376 0
-260 -363 -377 0
-260 -363 -372 0
-260 -337 -328 0
-260 -337 -352 0
-260 -337 -374 0
-260 -337 -372 0
-260 -337 -378 0
-264 -349 0
-262 -293 -334 0
-262 -293 -328 0
-262 -318 -371 0
-262 -318 -334 0
-262 -337 -328 0
-262 -337 -374 0
-262 -337 -372 0
-262 -337 -378 0
-262 -363 -375 0
-262 -363 -373 0
-262 -363 -376 0
-262 -363 -377 0
-262 -363 -372 0
-262 -365 -334 0
-262 -365 -374 0
-262 -365 -373 0
-262 -365 -371 0
-262 -366 -371 0
-262 -366 -372 0
-262 -366 -376 0
-262 -366 -375 0
-262 -368 -328 0
-262 -368 -334 0
-262 -368 -378 0
-262 -368 -372 0
-264 -362 0
-272 -363 -352 0
-272 -363 -375 0
-272 -363 -373 0
-272 -363 -376 0
-272 -363 -372 0
-272 -364 -371 0
-272 -364 -373 0
-272 -364 -376 0
-264 -363 0
-265 -318 -352 0
-265 -318 -334 0
-265 -349 -334 0
-265 -349 -372 0
-265 -349 -373 0
-265 -349 -374 0
-265 -364 -373 0
-265 -364 -376 0
-265 -364 -377 0
-265 -366 -352 0
-265 -366 -372 0
-265 -366 -376 0
-265 -366 -375 0
-265 -369 -373 0
-265 -369 -375 0
-265 -362 -375 0
-265 -365 -334 0
-265 -365 -352 0
-265 -365 -374 0
-265 -365 -373 0
-264 -364 0
-273 -363 -352 0
-273 -363 -373 0
-273 -363 -376 0
-273 -363 -377 0
-273 -363 -372 0
-273 -366 -352 0
-273 -366 -371 0
-273 -366 -372 0
-273 -366 -376 0
-273 -369 -371 0
-273 -369 -373 0
-273 -362 -371 0
-272 -363 0
-265 -318 -377 0
-265 -318 -346 0
-265 -318 -345 0
-265 -349 -345 0
-265 -349 -397 0
-265 -349 -399 0
-265 -349 -377 0
-265 -349 -393 0
-265 -364 -377 0
-265 -364 -399 0
-265 -364 -401 0
-265 -366 -346 0
-265 -366 -397 0
-265 -366 -401 0
-265 -366 -402 0
-265 -369 -399 0
-265 -369 -402 0
-265 -367 -346 0
-265 -367 -402 0
-265 -365 -345 0
-265 -365 -346 0
-265 -365 -393 0
-265 -365 -399 0
-272 -367 0
-264 -318 -346 0
-264 -318 -385 0
-264 -318 -345 0
-264 -349 -345 0
-264 -349 -385 0
-264 -349 -397 0
-264 -349 -399 0
-264 -349 -393 0
-264 -363 -346 0
-264 -363 -402 0
-264 -363 -399 0
-264 -363 -401 0
-264 -363 -397 0
-264 -364 -385 0
-264 -364 -399 0
-264 -364 -401 0
-272 -364 0
-273 -363 -346 0
-273 -363 -399 0
-273 -363 -401 0
-273 -363 -377 0
-273 -363 -397 0
-273 -367 -346 0
-273 -367 -385 0
-273 -366 -346 0
-273 -366 -385 0
-273 -366 -397 0
-273 -366 -401 0
-273 -369 -385 0
-273 -369 -399 0
-267 -219 0
-233 -201 -230 0
-199 -278 -239 0
-199 -278 -240 0
-199 -294 -240 0
-199 -294 -243 0
-199 -294 -239 0
-199 -201 -230 0
-188 -220 -247 0
-188 -220 -249 0
-259 -278 -239 0
-259 -278 -240 0
-259 -310 -239 0
-259 -310 -243 0
-259 -310 -251 0
-259 -310 -252 0
-259 -310 -253 0
-259 -311 -240 0
-259 -311 -248 0
-259 -311 -252 0
-259 -311 -254 0
-259 -311 -245 0
-259 -311 -251 0
-259 -309 -240 0
-259 -309 -253 0
-259 -309 -251 0
-244 -220 0
-225 -319 -249 0
-225 -318 -245 0
-225 -318 -246 0
-225 -318 -247 0
-258 -294 -240 0
-258 -294 -243 0
-258 -294 -239 0
-258 -309 -240 0
-258 -309 -253 0
-258 -309 -251 0
-258 -310 -239 0
-258 -310 -243 0
-258 -310 -251 0
-258 -310 -252 0
-258 -310 -253 0
-199 -242 -218 0
-199 -278 -300 0
-199 -278 -299 0
-199 -201 -218 0
-244 -201 -218 0
-244 -220 -296 0
-244 -220 -293 0
-244 -278 -300 0
-244 -278 -299 0
-258 -309 -299 0
-258 -309 -301 0
-258 -309 -302 0
-258 -310 -300 0
-258 -310 -297 0
-258 -310 -302 0
-258 -310 -303 0
-258 -310 -301 0
-258 -242 -218 0
-259 -310 0
-261 -278 -300 0
-261 -309 -301 0
-261 -309 -302 0
-261 -311 -298 0
-261 -311 -303 0
-261 -311 -306 0
-261 -311 -295 0
-261 -311 -302 0
-261 -312 -300 0
-261 -312 -301 0
-261 -312 -303 0
-261 -312 -297 0
-261 -313 -297 0
-261 -313 -302 0
-261 -313 -306 0
-261 -313 -298 0
-261 -314 -300 0
-261 -314 -302 0
-259 -311 0
-262 -310 -300 0
-262 -310 -302 0
-262 -310 -303 0
-262 -310 -301 0
-262 -315 -305 0
-262 -315 -306 0
-262 -315 -307 0
-262 -315 -304 0
-262 -315 -295 0
-262 -315 -303 0
-262 -313 -299 0
-262 -313 -302 0
-262 -313 -306 0
-262 -313 -298 0
-262 -316 -298 0
-262 -316 -303 0
-262 -316 -307 0
-262 -316 -305 0
-262 -317 -304 0
-262 -317 -298 0
-262 -317 -305 0
-262 -317 -293 0
-262 -312 -300 0
-262 -312 -299 0
-262 -312 -301 0
-262 -312 -303 0
-259 -309 0
-263 -278 -299 0
-263 -310 -297 0
-263 -310 -302 0
-263 -310 -303 0
-263 -310 -301 0
-263 -314 -302 0
-263 -314 -299 0
-263 -312 -299 0
-263 -312 -301 0
-263 -312 -303 0
-263 -312 -297 0
-264 -311 0
-262 -294 -334 0
-262 -294 -328 0
-262 -310 -328 0
-262 -310 -374 0
-262 -310 -372 0
-262 -310 -378 0
-262 -315 -375 0
-262 -315 -373 0
-262 -315 -376 0
-262 -315 -377 0
-262 -315 -372 0
-262 -313 -334 0
-262 -313 -374 0
-262 -313 -373 0
-262 -313 -371 0
-262 -316 -371 0
-262 -316 -372 0
-262 -316 -376 0
-262 -316 -375 0
-262 -312 -328 0
-262 -312 -334 0
-262 -312 -378 0
-262 -312 -372 0
-264 -322 0
-272 -315 -352 0
-272 -315 -375 0
-272 -315 -373 0
-272 -315 -376 0
-272 -315 -372 0
-272 -318 -221 0
-272 -318 -357 0
-272 -320 -371 0
-272 -320 -373 0
-272 -320 -376 0
-264 -315 0
-265 -311 -334 0
-265 -311 -372 0
-265 -311 -373 0
-265 -311 -374 0
-265 -320 -373 0
-265 -320 -376 0
-265 -320 -377 0
-265 -316 -352 0
-265 -316 -372 0
-265 -316 -376 0
-265 -316 -375 0
-265 -321 -373 0
-265 -321 -375 0
-265 -322 -367 0
-265 -322 -375 0
-265 -313 -334 0
-265 -313 -352 0
-265 -313 -374 0
-265 -313 -373 0
-264 -320 0
-273 -315 -352 0
-273 -315 -373 0
-273 -315 -376 0
-273 -315 -377 0
-273 -315 -372 0
-273 -316 -352 0
-273 -316 -371 0
-273 -316 -372 0
-273 -316 -376 0
-273 -321 -371 0
-273 -321 -373 0
-273 -322 -371 0
-273 -322 -367 0
-264 -318 0
-266 -220 -357 0
-266 -322 -371 0
-266 -322 -375 0
-266 -319 -221 0
-259 -242 -224 0
-259 -278 -324 0
-259 -278 -335 0
-259 -310 -324 0
-259 -310 -355 0
-259 -310 -353 0
-259 -310 -356 0
-259 -309 -335 0
-259 -309 -356 0
-259 -309 -355 0
-262 -310 0
-261 -278 -324 0
-261 -294 -324 0
-261 -309 -356 0
-261 -309 -355 0
-261 -312 -324 0
-261 -312 -356 0
-261 -312 -353 0
-261 -313 -355 0
-261 -313 -350 0
-261 -313 -347 0
-261 -314 -324 0
-261 -314 -355 0
-262 -315 0
-265 -320 -352 0
-265 -320 -350 0
-265 -320 -351 0
-265 -320 -346 0
-265 -316 -353 0
-265 -316 -351 0
-265 -316 -348 0
-265 -321 -350 0
-265 -321 -348 0
-265 -322 -352 0
-265 -322 -349 0
-265 -322 -348 0
-265 -317 -346 0
-265 -317 -348 0
-265 -317 -349 0
-265 -313 -335 0
-265 -313 -355 0
-265 -313 -350 0
-262 -313 0
-269 -310 -324 0
-269 -310 -355 0
-269 -310 -356 0
-269 -312 -324 0
-269 -312 -335 0
-269 -312 -356 0
-269 -316 -347 0
-269 -316 -351 0
-269 -316 -348 0
-269 -315 -348 0
-269 -315 -350 0
-269 -315 -351 0
-269 -315 -346 0
-269 -315 -352 0
-262 -316 0
-271 -315 -348 0
-271 -315 -351 0
-271 -315 -346 0
-271 -315 -352 0
-271 -315 -353 0
-271 -313 -335 0
-271 -313 -355 0
-271 -313 -347 0
-271 -321 -347 0
-271 -321 -348 0
-271 -320 -347 0
-271 -320 -352 0
-271 -320 -351 0
-271 -320 -346 0
-262 -317 0
-264 -322 -347 0
-264 -322 -349 0
-264 -322 -348 0
-264 -315 -348 0
-264 -315 -350 0
-264 -315 -351 0
-264 -315 -346 0
-264 -315 -353 0
-264 -320 -347 0
-264 -320 -350 0
-264 -320 -351 0
-264 -320 -346 0
-264 -318 -224 0
-264 -318 -346 0
-264 -318 -354 0
-262 -312 0
-268 -309 -335 0
-268 -309 -356 0
-268 -310 -324 0
-268 -310 -353 0
-268 -310 -356 0
-268 -314 -324 0
-268 -314 -335 0
-268 -313 -335 0
-268 -313 -350 0
-268 -313 -347 0
-265 -311 0
-262 -294 -336 0
-262 -294 -325 0
-262 -310 -325 0
-262 -310 -379 0
-262 -310 -380 0
-262 -310 -381 0
-262 -313 -336 0
-262 -313 -379 0
-262 -313 -382 0
-262 -316 -380 0
-262 -316 -383 0
-262 -316 -384 0
-262 -317 -385 0
-262 -317 -384 0
-262 -317 -363 0
-262 -312 -325 0
-262 -312 -336 0
-262 -312 -381 0
-262 -312 -380 0
-265 -320 0
-273 -317 -347 0
-273 -317 -385 0
-273 -317 -363 0
-273 -316 -347 0
-273 -316 -380 0
-273 -316 -383 0
-273 -321 -382 0
-273 -322 -371 0
-273 -322 -363 0
-265 -316 0
-271 -311 -336 0
-271 -311 -380 0
-271 -311 -371 0
-271 -311 -379 0
-271 -313 -336 0
-271 -313 -347 0
-271 -313 -379 0
-271 -321 -384 0
-271 -320 -371 0
-271 -320 -383 0
-271 -320 -385 0
-265 -321 0
-274 -316 -347 0
-274 -316 -380 0
-274 -316 -384 0
-274 -320 -371 0
-274 -320 -382 0
-274 -320 -385 0
-265 -322 0
-272 -317 -347 0
-272 -317 -384 0
-272 -317 -363 0
-272 -318 -227 0
-272 -318 -371 0
-272 -318 -359 0
-272 -320 -371 0
-272 -320 -382 0
-272 -320 -383 0
-265 -317 0
-264 -311 -336 0
-264 -311 -380 0
-264 -311 -382 0
-264 -311 -379 0
-264 -322 -363 0
-264 -322 -384 0
-264 -320 -382 0
-264 -320 -383 0
-264 -320 -385 0
-264 -318 -227 0
-264 -318 -385 0
-264 -318 -359 0
-265 -313 0
-269 -310 -325 0
-269 -310 -347 0
-269 -310 -379 0
-269 -310 -381 0
-269 -311 -336 0
-269 -311 -382 0
-269 -311 -371 0
-269 -311 -379 0
-269 -312 -325 0
-269 -312 -336 0
-269 -312 -381 0
-269 -312 -347 0
-269 -316 -347 0
-269 -316 -383 0
-269 -316 -384 0
-266 -220 0
-266 -317 0
-264 -311 -337 0
-264 -311 -363 0
-264 -311 -365 0
-264 -311 -366 0
-264 -311 -368 0
-264 -322 -363 0
-264 -322 -364 0
-264 -315 -349 0
-264 -315 -364 0
-264 -315 -366 0
-264 -315 -369 0
-264 -315 -362 0
-264 -315 -365 0
-264 -320 -363 0
-264 -320 -366 0
-264 -320 -369 0
-264 -320 -362 0
-266 -322 0
-272 -315 -349 0
-272 -315 -364 0
-272 -315 -366 0
-272 -315 -369 0
-272 -315 -367 0
-272 -315 -365 0
-272 -317 -349 0
-272 -317 -363 0
-272 -317 -364 0
-272 -320 -363 0
-272 -320 -367 0
-272 -320 -366 0
-272 -320 -369 0
-266 -319 0
-258 -294 -335 0
-258 -294 -332 0
-258 -309 -342 0
-258 -309 -340 0
-258 -242 -223 0
-259 -242 -223 0
-259 -278 -332 0
-259 -311 -336 0
-259 -311 -338 0
-259 -311 -339 0
-259 -311 -334 0
-259 -311 -340 0
-259 -309 -342 0
-259 -309 -340 0
-261 -309 0
-263 -314 -340 0
-263 -312 -342 0
-263 -312 -338 0
-263 -312 -335 0
-263 -294 -335 0
-261 -311 0
-262 -294 -332 0
-262 -315 -343 0
-262 -315 -339 0
-262 -315 -344 0
-262 -315 -345 0
-262 -315 -334 0
-262 -315 -338 0
-262 -313 -340 0
-262 -313 -339 0
-262 -313 -336 0
-262 -316 -336 0
-262 -316 -338 0
-262 -316 -344 0
-262 -316 -343 0
-262 -317 -345 0
-262 -317 -336 0
-262 -317 -343 0
-262 -317 -337 0
-262 -312 -332 0
-262 -312 -342 0
-262 -312 -338 0
-261 -312 0
-268 -309 -342 0
-268 -314 -332 0
-268 -313 -335 0
-268 -313 -339 0
-268 -313 -336 0
-268 -311 -336 0
-268 -311 -338 0
-268 -311 -339 0
-268 -311 -334 0
-261 -313 0
-269 -311 -336 0
-269 -311 -339 0
-269 -311 -334 0
-269 -311 -340 0
-269 -312 -332 0
-269 -312 -342 0
-269 -312 -335 0
-269 -316 -335 0
-269 -316 -336 0
-269 -316 -344 0
-269 -316 -343 0
-269 -315 -335 0
-269 -315 -343 0
-269 -315 -339 0
-269 -315 -344 0
-269 -315 -345 0
-269 -315 -334 0
-261 -314 0
-270 -309 -340 0
-270 -312 -332 0
-270 -312 -338 0
-270 -312 -335 0
-57 -105 0
-58 -106 0
-59 -107 0
-60 -108 0
-61 -109 0
-62 -110 0
-63 -111 0
-64 -112 0
-244 -234 -220 0
-244 -295 -310 0
-244 -295 -311 0
-244 -295 -309 0
-244 -221 -319 0
-244 -221 -318 0
-244 -279 -309 0
-244 -279 -310 0
-259 -245 -220 0
-259 -279 -309 0
-259 -279 -310 0
-259 -334 -309 0
-259 -334 -311 0
-259 -334 -312 0
-259 -334 -313 0
-259 -334 -314 0
-259 -352 -310 0
-259 -352 -315 0
-259 -352 -313 0
-259 -352 -316 0
-259 -352 -312 0
-259 -328 -310 0
-259 -328 -314 0
-259 -328 -312 0
-260 -352 0
-262 -295 -310 0
-262 -295 -309 0
-262 -334 -309 0
-262 -334 -312 0
-262 -334 -313 0
-262 -334 -314 0
-262 -371 -320 0
-262 -371 -316 0
-262 -371 -321 0
-262 -371 -322 0
-262 -371 -313 0
-262 -372 -310 0
-262 -372 -312 0
-262 -372 -316 0
-262 -372 -315 0
-262 -373 -315 0
-262 -373 -313 0
-262 -373 -321 0
-262 -373 -320 0
-262 -374 -309 0
-262 -374 -310 0
-262 -374 -314 0
-262 -374 -313 0
-260 -371 0
-265 -352 -310 0
-265 -352 -313 0
-265 -352 -316 0
-265 -352 -312 0
-265 -375 -316 0
-265 -375 -321 0
-265 -375 -322 0
-265 -373 -311 0
-265 -373 -313 0
-265 -373 -321 0
-265 -373 -320 0
-265 -376 -316 0
-265 -376 -320 0
-265 -377 -318 0
-265 -377 -320 0
-265 -372 -310 0
-265 -372 -311 0
-265 -372 -312 0
-265 -372 -316 0
-260 -367 0
-266 -221 -319 0
-266 -377 -315 0
-266 -377 -320 0
-266 -357 -220 0
-260 -334 0
-261 -279 -309 0
-261 -295 -311 0
-261 -295 -309 0
-261 -328 -314 0
-261 -328 -312 0
-261 -352 -315 0
-261 -352 -313 0
-261 -352 -316 0
-261 -352 -312 0
-261 -374 -309 0
-261 -374 -314 0
-261 -374 -313 0
-261 -374 -311 0
-261 -372 -311 0
-261 -372 -312 0
-261 -372 -316 0
-261 -372 -315 0
-261 -378 -309 0
-261 -378 -312 0
-259 -245 -224 0
-259 -279 -324 0
-259 -279 -335 0
-259 -317 -347 0
-259 -317 -349 0
-259 -317 -335 0
-259 -334 -324 0
-259 -334 -355 0
-259 -334 -353 0
-259 -334 -356 0
-259 -328 -335 0
-259 -328 -356 0
-259 -328 -355 0
-260 -245 -224 0
-260 -295 -335 0
-260 -295 -324 0
-260 -371 -348 0
-260 -371 -350 0
-260 -371 -351 0
-260 -371 -346 0
-260 -371 -353 0
-260 -367 -224 0
-260 -367 -346 0
-260 -367 -354 0
-260 -334 -324 0
-260 -334 -355 0
-260 -334 -353 0
-260 -334 -356 0
-262 -334 0
-261 -279 -324 0
-261 -295 -324 0
-261 -328 -356 0
-261 -328 -355 0
-261 -374 -324 0
-261 -374 -356 0
-261 -374 -353 0
-261 -372 -355 0
-261 -372 -350 0
-261 -372 -347 0
-261 -317 -347 0
-261 -317 -349 0
-261 -378 -324 0
-261 -378 -355 0
-262 -371 0
-265 -317 -349 0
-265 -317 -335 0
-265 -375 -350 0
-265 -375 -351 0
-265 -375 -346 0
-265 -373 -353 0
-265 -373 -351 0
-265 -373 -348 0
-265 -376 -350 0
-265 -376 -348 0
-265 -377 -349 0
-265 -377 -348 0
-265 -372 -335 0
-265 -372 -355 0
-265 -372 -350 0
-262 -372 0
-269 -334 -324 0
-269 -334 -355 0
-269 -334 -356 0
-269 -374 -324 0
-269 -374 -335 0
-269 -374 -356 0
-269 -373 -347 0
-269 -373 -351 0
-269 -373 -348 0
-269 -371 -348 0
-269 -371 -350 0
-269 -371 -351 0
-269 -371 -346 0
-262 -373 0
-271 -371 -348 0
-271 -371 -351 0
-271 -371 -346 0
-271 -371 -353 0
-271 -372 -335 0
-271 -372 -355 0
-271 -372 -347 0
-271 -376 -347 0
-271 -376 -348 0
-271 -375 -347 0
-271 -375 -351 0
-271 -375 -346 0
-262 -374 0
-268 -328 -335 0
-268 -328 -356 0
-268 -334 -324 0
-268 -334 -353 0
-268 -334 -356 0
-268 -378 -324 0
-268 -378 -335 0
-268 -372 -335 0
-268 -372 -350 0
-268 -372 -347 0
-272 -371 0
-265 -317 -346 0
-265 -317 -362 0
-265 -317 -345 0
-265 -352 -345 0
-265 -352 -397 0
-265 -352 -399 0
-265 -352 -393 0
-265 -375 -399 0
-265 -375 -401 0
-265 -373 -346 0
-265 -373 -397 0
-265 -373 -401 0
-265 -373 -402 0
-265 -376 -399 0
-265 -376 -402 0
-265 -372 -345 0
-265 -372 -346 0
-265 -372 -393 0
-265 -372 -399 0
-272 -367 0
-266 -317 -346 0
-266 -317 -385 0
-266 -317 -345 0
-266 -221 -358 0
-266 -357 -232 0
-272 -375 0
-273 -371 -346 0
-273 -371 -399 0
-273 -371 -401 0
-273 -371 -397 0
-273 -373 -346 0
-273 -373 -385 0
-273 -373 -397 0
-273 -373 -401 0
-273 -376 -385 0
-273 -376 -399 0
-260 -245 -227 0
-260 -295 -336 0
-260 -295 -347 0
-260 -295 -325 0
-260 -352 -336 0
-260 -352 -380 0
-260 -352 -382 0
-260 -352 -379 0
-260 -367 -227 0
-260 -367 -385 0
-260 -367 -359 0
-260 -334 -325 0
-260 -334 -347 0
-260 -334 -379 0
-260 -334 -380 0
-260 -334 -381 0
-265 -352 0
-262 -295 -336 0
-262 -295 -325 0
-262 -317 -363 0
-262 -317 -336 0
-262 -334 -325 0
-262 -334 -379 0
-262 -334 -380 0
-262 -334 -381 0
-262 -372 -336 0
-262 -372 -379 0
-262 -372 -382 0
-262 -373 -380 0
-262 -373 -383 0
-262 -373 -384 0
-262 -374 -325 0
-262 -374 -336 0
-262 -374 -381 0
-262 -374 -380 0
-265 -375 0
-273 -373 -347 0
-273 -373 -380 0
-273 -373 -383 0
-273 -376 -382 0
-273 -377 -363 0
-265 -373 0
-271 -352 -336 0
-271 -352 -380 0
-271 -352 -379 0
-271 -372 -336 0
-271 -372 -347 0
-271 -372 -379 0
-271 -376 -384 0
-271 -375 -383 0
-271 -375 -385 0
-265 -376 0
-274 -373 -347 0
-274 -373 -380 0
-274 -373 -384 0
-274 -375 -382 0
-274 -375 -385 0
-265 -377 0
-272 -367 -227 0
-272 -367 -359 0
-272 -375 -382 0
-272 -375 -383 0
-265 -372 0
-269 -334 -325 0
-269 -334 -347 0
-269 -334 -379 0
-269 -334 -381 0
-269 -352 -336 0
-269 -352 -382 0
-269 -352 -379 0
-269 -374 -325 0
-269 -374 -336 0
-269 -374 -381 0
-269 -374 -347 0
-269 -373 -347 0
-269 -373 -383 0
-269 -373 -384 0
-273 -371 0
-265 -317 -348 0
-265 -317 -364 0
-265 -317 -343 0
-265 -352 -343 0
-265 -352 -394 0
-265 -352 -400 0
-265 -352 -392 0
-265 -373 -348 0
-265 -373 -394 0
-265 -373 -403 0
-265 -376 -400 0
-265 -377 -364 0
-265 -372 -343 0
-265 -372 -348 0
-265 -372 -392 0
-265 -372 -400 0
-273 -373 0
-271 -352 -343 0
-271 -352 -384 0
-271 -352 -394 0
-271 -352 -392 0
-271 -371 -348 0
-271 -371 -403 0
-271 -371 -402 0
-271 -371 -394 0
-271 -372 -343 0
-271 -372 -348 0
-271 -372 -392 0
-271 -372 -384 0
-271 -376 -384 0
-273 -376 0
-274 -371 -348 0
-274 -371 -400 0
-274 -371 -402 0
-274 -371 -394 0
-274 -373 -348 0
-274 -373 -384 0
-274 -373 -394 0
-273 -377 0
-272 -371 -348 0
-272 -371 -400 0
-272 -371 -403 0
-272 -371 -394 0
-272 -367 -235 0
-272 -367 -361 0
-260 -245 -219 0
-260 -295 -337 0
-260 -295 -349 0
-260 -295 -331 0
-260 -352 -337 0
-260 -352 -363 0
-260 -352 -365 0
-260 -352 -366 0
-260 -352 -368 0
-260 -371 -349 0
-260 -371 -364 0
-260 -371 -366 0
-260 -371 -369 0
-260 -371 -362 0
-260 -371 -365 0
-260 -334 -331 0
-260 -334 -349 0
-260 -334 -368 0
-260 -334 -365 0
-260 -334 -370 0
-266 -221 0
-266 -377 0
-272 -371 -349 0
-272 -371 -364 0
-272 -371 -366 0
-272 -371 -369 0
-272 -371 -365 0
-272 -375 -363 0
-272 -375 -366 0
-272 -375 -369 0
-266 -357 0
-57 -121 0
-58 -122 0
-59 -123 0
-60 -124 0
-61 -125 0
-62 -126 0
-63 -127 0
-64 -128 0
-244 -296 -223 0
-244 -296 -224 0
-244 -296 -226 0
-244 -319 -221 0
-244 -319 -224 0
-244 -319 -227 0
-244 -319 -219 0
-244 -319 -223 0
-244 -289 -226 0
-244 -289 -223 0
-225 -360 0
-266 -319 -221 0
-266 -319 -224 0
-266 -319 -227 0
-266 -319 -223 0
-266 -357 -224 0
-266 -357 -232 0
-266 -357 -227 0
-266 -357 -235 0
-266 -358 -227 0
-266 -358 -221 0
-266 -358 -235 0
-260 -247 -219 0
-260 -296 -337 0
-260 -296 -349 0
-260 -296 -331 0
-260 -357 -349 0
-260 -357 -362 0
-260 -357 -363 0
-260 -357 -364 0
-260 -354 -337 0
-260 -354 -363 0
-260 -354 -365 0
-260 -354 -366 0
-260 -354 -367 0
-260 -354 -368 0
-260 -359 -349 0
-260 -359 -364 0
-260 -359 -366 0
-260 -359 -369 0
-260 -359 -362 0
-260 -359 -367 0
-260 -359 -365 0
-260 -341 -331 0
-260 -341 -349 0
-260 -341 -368 0
-260 -341 -365 0
-260 -341 -370 0
-266 -222 0
-266 -357 0
-264 -319 -349 0
-264 -319 -363 0
-264 -319 -337 0
-264 -354 -337 0
-264 -354 -363 0
-264 -354 -365 0
-264 -354 -366 0
-264 -354 -368 0
-264 -358 -363 0
-264 -358 -364 0
-264 -359 -349 0
-264 -359 -364 0
-264 -359 -366 0
-264 -359 -369 0
-264 -359 -362 0
-264 -359 -365 0
-264 -361 -363 0
-264 -361 -366 0
-264 -361 -369 0
-264 -361 -362 0
-266 -358 0
-272 -359 -349 0
-272 -359 -364 0
-272 -359 -366 0
-272 -359 -369 0
-272 -359 -367 0
-272 -359 -365 0
-272 -357 -349 0
-272 -357 -363 0
-272 -357 -364 0
-272 -361 -363 0
-272 -361 -367 0
-272 -361 -366 0
-272 -361 -369 0
-57 -65 0
-58 -66 0
-59 -67 0
-60 -68 0
-61 -69 0
-62 -70 0
-63 -71 0
-64 -72 0
-199 -217 -207 0
-199 -217 -210 0
-199 -218 -210 0
-199 -218 -213 0
-199 -218 -207 0
-244 -218 -210 0
-244 -218 -213 0
-244 -218 -207 0
-244 -220 -234 0
-244 -220 -213 0
-244 -220 -256 0
-244 -220 -231 0
-244 -220 -210 0
-244 -217 -207 0
-244 -217 -210 0
-199 -217 -239 0
-199 -217 -240 0
-199 -218 -240 0
-199 -218 -243 0
-199 -218 -239 0
-259 -217 -239 0
-259 -217 -240 0
-259 -220 -245 0
-259 -220 -243 0
-259 -220 -248 0
-259 -220 -249 0
-259 -220 -240 0
-259 -223 -239 0
-259 -223 -243 0
-259 -223 -251 0
-259 -223 -252 0
-259 -223 -253 0
-259 -224 -240 0
-259 -224 -248 0
-259 -224 -252 0
-259 -224 -254 0
-259 -224 -245 0
-259 -224 -251 0
-259 -226 -240 0
-259 -226 -253 0
-259 -226 -251 0
-260 -218 -240 0
-260 -218 -243 0
-260 -218 -239 0
-260 -221 -243 0
-260 -221 -246 0
-260 -221 -248 0
-260 -221 -250 0
-260 -221 -249 0
-260 -224 -240 0
-260 -224 -248 0
-260 -224 -252 0
-260 -224 -254 0
-260 -224 -245 0
-260 -224 -251 0
-260 -227 -243 0
-260 -227 -250 0
-260 -227 -254 0
-260 -227 -257 0
-260 -227 -246 0
-260 -227 -245 0
-260 -227 -252 0
-260 -219 -245 0
-260 -219 -246 0
-260 -219 -247 0
-260 -223 -239 0
-260 -223 -243 0
-260 -223 -251 0
-260 -223 -252 0
-260 -223 -253 0
-258 -218 -240 0
-258 -218 -243 0
-258 -218 -239 0
-258 -226 -240 0
-258 -226 -253 0
-258 -226 -251 0
-258 -223 -239 0
-258 -223 -243 0
-258 -223 -251 0
-258 -223 -252 0
-258 -223 -253 0
-267 -219 0
-266 -220 -357 0
-266 -220 -354 0
-266 -220 -359 0
-266 -220 -341 0
-266 -221 -354 0
-266 -221 -358 0
-266 -221 -359 0
-266 -221 -361 0
-266 -232 -359 0
-266 -232 -357 0
-266 -232 -361 0
-260 -218 -337 0
-260 -218 -349 0
-260 -218 -331 0
-260 -221 -349 0
-260 -221 -362 0
-260 -221 -363 0
-260 -221 -364 0
-260 -224 -337 0
-260 -224 -363 0
-260 -224 -365 0
-260 -224 -366 0
-260 -224 -367 0
-260 -224 -368 0
-260 -227 -349 0
-260 -227 -364 0
-260 -227 -366 0
-260 -227 -369 0
-260 -227 -362 0
-260 -227 -367 0
-260 -227 -365 0
-260 -223 -331 0
-260 -223 -349 0
-260 -223 -368 0
-260 -223 -365 0
-260 -223 -370 0
-266 -221 0
-264 -220 -349 0
-264 -220 -363 0
-264 -220 -337 0
-264 -224 -337 0
-264 -224 -363 0
-264 -224 -365 0
-264 -224 -366 0
-264 -224 -368 0
-264 -232 -363 0
-264 -232 -364 0
-264 -227 -349 0
-264 -227 -364 0
-264 -227 -366 0
-264 -227 -369 0
-264 -227 -362 0
-264 -227 -365 0
-264 -235 -363 0
-264 -235 -366 0
-264 -235 -369 0
-264 -235 -362 0
-266 -232 0
-272 -227 -349 0
-272 -227 -364 0
-272 -227 -366 0
-272 -227 -369 0
-272 -227 -367 0
-272 -227 -365 0
-272 -221 -349 0
-272 -221 -363 0
-272 -221 -364 0
-272 -235 -363 0
-272 -235 -367 0
-272 -235 -366 0
-272 -235 -369 0
-266 -222 0
-194 -204 -290 0
-194 -204 -292 0
-194 -195 -292 0
-194 -195 -308 0
-194 -195 -290 0
-230 -188 -236 0
-230 -188 -275 0
-230 -188 -229 0
-230 -195 -292 0
-230 -195 -308 0
-230 -195 -290 0
-230 -201 -275 0
-230 -201 -308 0
-230 -201 -323 0
-230 -201 -236 0
-230 -201 -292 0
-230 -204 -290 0
-230 -204 -292 0
-230 -188 -190 0
-230 -188 -192 0
-230 -188 -193 0
-230 -195 -197 0
-230 -195 -198 0
-230 -195 -200 0
-230 -201 -192 0
-230 -201 -198 0
-230 -201 -202 0
-230 -201 -190 0
-230 -201 -197 0
-230 -204 -200 0
-230 -204 -197 0
-217 -195 -197 0
-217 -195 -198 0
-217 -195 -200 0
-217 -207 -197 0
-217 -207 -208 0
-217 -207 -209 0
-217 -210 -200 0
-217 -210 -198 0
-217 -210 -209 0
-217 -210 -211 0
-217 -210 -208 0
-218 -204 -200 0
-218 -204 -197 0
-218 -201 -192 0
-218 -201 -198 0
-218 -201 -202 0
-218 -201 -190 0
-218 -201 -197 0
-218 -210 -200 0
-218 -210 -198 0
-218 -210 -209 0
-218 -210 -211 0
-218 -210 -208 0
-218 -213 -197 0
-218 -213 -202 0
-218 -213 -211 0
-218 -213 -214 0
-218 -213 -192 0
-218 -213 -209 0
-218 -188 -190 0
-218 -188 -192 0
-218 -188 -193 0
-218 -207 -197 0
-218 -207 -208 0
-218 -207 -209 0
-194 -204 -239 0
-194 -204 -240 0
-194 -195 -240 0
-194 -195 -243 0
-194 -195 -239 0
-225 -195 -240 0
-225 -195 -243 0
-225 -195 -239 0
-225 -231 -245 0
-225 -231 -246 0
-225 -231 -247 0
-225 -201 -245 0
-225 -201 -243 0
-225 -201 -248 0
-225 -201 -249 0
-225 -201 -240 0
-225 -234 -243 0
-225 -234 -246 0
-225 -234 -248 0
-225 -234 -250 0
-225 -234 -249 0
-225 -228 -249 0
-218 -204 -239 0
-218 -204 -240 0
-218 -201 -245 0
-218 -201 -243 0
-218 -201 -248 0
-218 -201 -249 0
-218 -201 -240 0
-218 -210 -239 0
-218 -210 -243 0
-218 -210 -251 0
-218 -210 -252 0
-218 -210 -253 0
-218 -213 -240 0
-218 -213 -248 0
-218 -213 -252 0
-218 -213 -254 0
-218 -213 -245 0
-218 -213 -251 0
-218 -188 -249 0
-218 -188 -245 0
-218 -188 -247 0
-218 -207 -240 0
-218 -207 -253 0
-218 -207 -251 0
-220 -195 -240 0
-220 -195 -243 0
-220 -195 -239 0
-220 -234 -243 0
-220 -234 -246 0
-220 -234 -248 0
-220 -234 -250 0
-220 -234 -249 0
-220 -213 -240 0
-220 -213 -248 0
-220 -213 -252 0
-220 -213 -254 0
-220 -213 -245 0
-220 -213 -251 0
-220 -256 -243 0
-220 -256 -250 0
-220 -256 -254 0
-220 -256 -257 0
-220 -256 -246 0
-220 -256 -245 0
-220 -256 -252 0
-220 -231 -245 0
-220 -231 -246 0
-220 -231 -247 0
-220 -188 -249 0
-220 -188 -245 0
-220 -188 -247 0
-220 -210 -239 0
-220 -210 -243 0
-220 -210 -251 0
-220 -210 -252 0
-220 -210 -253 0
-217 -195 -240 0
-217 -195 -243 0
-217 -195 -239 0
-217 -207 -240 0
-217 -207 -253 0
-217 -207 -251 0
-217 -210 -239 0
-217 -210 -243 0
-217 -210 -251 0
-217 -210 -252 0
-217 -210 -253 0
-230 -195 -261 0
-230 -195 -262 0
-230 -195 -263 0
-230 -201 -264 0
-230 -201 -262 0
-230 -201 -265 0
-230 -201 -266 0
-230 -201 -261 0
-230 -204 -263 0
-230 -204 -261 0
-218 -204 -263 0
-218 -204 -261 0
-218 -201 -264 0
-218 -201 -262 0
-218 -201 -265 0
-218 -201 -266 0
-218 -201 -261 0
-218 -210 -263 0
-218 -210 -262 0
-218 -210 -268 0
-218 -210 -269 0
-218 -210 -270 0
-218 -213 -261 0
-218 -213 -265 0
-218 -213 -269 0
-218 -213 -271 0
-218 -213 -264 0
-218 -213 -268 0
-218 -207 -261 0
-218 -207 -270 0
-218 -207 -268 0
-225 -231 0
-219 -201 -264 0
-219 -201 -262 0
-219 -201 -265 0
-219 -201 -261 0
-219 -234 -262 0
-219 -234 -272 0
-219 -234 -265 0
-219 -234 -273 0
-219 -237 -265 0
-219 -237 -264 0
-219 -237 -273 0
-220 -195 -261 0
-220 -195 -262 0
-220 -195 -263 0
-220 -234 -262 0
-220 -234 -272 0
-220 -234 -265 0
-220 -234 -273 0
-220 -234 -266 0
-220 -213 -261 0
-220 -213 -265 0
-220 -213 -269 0
-220 -213 -271 0
-220 -213 -264 0
-220 -213 -268 0
-220 -256 -262 0
-220 -256 -273 0
-220 -256 -271 0
-220 -256 -274 0
-220 -256 -272 0
-220 -256 -264 0
-220 -256 -269 0
-220 -231 -264 0
-220 -231 -272 0
-220 -231 -267 0
-220 -210 -263 0
-220 -210 -262 0
-220 -210 -268 0
-220 -210 -269 0
-220 -210 -270 0
-225 -234 0
-221 -201 -262 0
-221 -201 -265 0
-221 -201 -266 0
-221 -201 -261 0
-221 -213 -261 0
-221 -213 -265 0
-221 -213 -269 0
-221 -213 -271 0
-221 -213 -268 0
-221 -237 -265 0
-221 -237 -266 0
-221 -237 -273 0
-221 -256 -262 0
-221 -256 -273 0
-221 -256 -271 0
-221 -256 -274 0
-221 -256 -272 0
-221 -256 -269 0
-221 -276 -265 0
-221 -276 -271 0
-221 -276 -274 0
-221 -276 -272 0
-221 -231 -272 0
-221 -231 -267 0
-225 -228 0
-222 -231 -264 0
-222 -231 -272 0
-203 -244 -236 0
-203 -244 -275 0
-203 -244 -229 0
-194 -241 -290 0
-194 -241 -292 0
-194 -238 -292 0
-194 -238 -308 0
-194 -238 -290 0
-217 -238 -197 0
-217 -238 -198 0
-217 -238 -200 0
-217 -239 -197 0
-217 -239 -208 0
-217 -239 -209 0
-217 -240 -200 0
-217 -240 -198 0
-217 -240 -209 0
-217 -240 -211 0
-217 -240 -208 0
-218 -241 -200 0
-218 -241 -197 0
-218 -242 -192 0
-218 -242 -198 0
-218 -242 -202 0
-218 -242 -190 0
-218 -242 -197 0
-218 -240 -200 0
-218 -240 -198 0
-218 -240 -209 0
-218 -240 -211 0
-218 -240 -208 0
-218 -243 -197 0
-218 -243 -202 0
-218 -243 -211 0
-218 -243 -214 0
-218 -243 -192 0
-218 -243 -209 0
-218 -244 -190 0
-218 -244 -192 0
-218 -244 -193 0
-218 -239 -197 0
-218 -239 -208 0
-218 -239 -209 0
-203 -244 -190 0
-203 -244 -192 0
-203 -244 -193 0
-194 -241 -207 0
-194 -241 -210 0
-194 -238 -210 0
-194 -238 -213 0
-194 -238 -207 0
-225 -238 -210 0
-225 -238 -213 0
-225 -238 -207 0
-225 -249 -234 0
-225 -249 -237 0
-225 -249 -228 0
-225 -242 -234 0
-225 -242 -213 0
-225 -242 -256 0
-225 -242 -231 0
-225 -242 -210 0
-225 -245 -213 0
-225 -245 -237 0
-225 -245 -256 0
-225 -245 -276 0
-225 -245 -231 0
-225 -247 -231 0
-218 -241 -263 0
-218 -241 -261 0
-218 -242 -264 0
-218 -242 -262 0
-218 -242 -265 0
-218 -242 -266 0
-218 -242 -261 0
-218 -240 -263 0
-218 -240 -262 0
-218 -240 -268 0
-218 -240 -269 0
-218 -240 -270 0
-218 -243 -261 0
-218 -243 -265 0
-218 -243 -269 0
-218 -243 -271 0
-218 -243 -264 0
-218 -243 -268 0
-218 -239 -261 0
-218 -239 -270 0
-218 -239 -268 0
-225 -249 0
-219 -242 -264 0
-219 -242 -262 0
-219 -242 -265 0
-219 -242 -261 0
-219 -245 -262 0
-219 -245 -272 0
-219 -245 -265 0
-219 -245 -273 0
-219 -246 -265 0
-219 -246 -264 0
-219 -246 -273 0
-220 -238 -261 0
-220 -238 -262 0
-220 -238 -263 0
-220 -245 -262 0
-220 -245 -272 0
-220 -245 -265 0
-220 -245 -273 0
-220 -245 -266 0
-220 -243 -261 0
-220 -243 -265 0
-220 -243 -269 0
-220 -243 -271 0
-220 -243 -264 0
-220 -243 -268 0
-220 -248 -262 0
-220 -248 -273 0
-220 -248 -271 0
-220 -248 -274 0
-220 -248 -272 0
-220 -248 -264 0
-220 -248 -269 0
-220 -249 -264 0
-220 -249 -272 0
-220 -249 -267 0
-220 -240 -263 0
-220 -240 -262 0
-220 -240 -268 0
-220 -240 -269 0
-220 -240 -270 0
-225 -245 0
-221 -242 -262 0
-221 -242 -265 0
-221 -242 -266 0
-221 -242 -261 0
-221 -243 -261 0
-221 -243 -265 0
-221 -243 -269 0
-221 -243 -271 0
-221 -243 -268 0
-221 -246 -265 0
-221 -246 -266 0
-221 -246 -273 0
-221 -248 -262 0
-221 -248 -273 0
-221 -248 -271 0
-221 -248 -274 0
-221 -248 -272 0
-221 -248 -269 0
-221 -250 -265 0
-221 -250 -271 0
-221 -250 -274 0
-221 -250 -272 0
-221 -249 -272 0
-221 -249 -267 0
-225 -247 0
-222 -249 -264 0
-222 -249 -272 0
-194 -241 -300 0
-194 -241 -299 0
-217 -239 -299 0
-217 -239 -301 0
-217 -239 -302 0
-217 -240 -300 0
-217 -240 -297 0
-217 -240 -302 0
-217 -240 -303 0
-217 -240 -301 0
-220 -245 -297 0
-220 -245 -304 0
-220 -245 -298 0
-220 -245 -305 0
-220 -245 -293 0
-220 -243 -299 0
-220 -243 -298 0
-220 -243 -303 0
-220 -243 -306 0
-220 -243 -295 0
-220 -243 -302 0
-220 -248 -297 0
-220 -248 -305 0
-220 -248 -306 0
-220 -248 -307 0
-220 -248 -304 0
-220 -248 -295 0
-220 -248 -303 0
-220 -249 -295 0
-220 -249 -304 0
-220 -249 -296 0
-220 -244 -293 0
-220 -244 -295 0
-220 -244 -296 0
-220 -240 -300 0
-220 -240 -297 0
-220 -240 -302 0
-220 -240 -303 0
-220 -240 -301 0
-218 -240 0
-223 -241 -300 0
-223 -239 -301 0
-223 -239 -302 0
-223 -243 -298 0
-223 -243 -303 0
-223 -243 -306 0
-223 -243 -295 0
-223 -243 -302 0
-223 -251 -300 0
-223 -251 -301 0
-223 -251 -303 0
-223 -251 -297 0
-223 -252 -297 0
-223 -252 -302 0
-223 -252 -306 0
-223 -252 -298 0
-223 -242 -295 0
-223 -242 -297 0
-223 -242 -298 0
-223 -242 -293 0
-223 -253 -300 0
-223 -253 -302 0
-218 -243 0
-224 -242 -295 0
-224 -242 -298 0
-224 -242 -293 0
-224 -242 -299 0
-224 -240 -300 0
-224 -240 -302 0
-224 -240 -303 0
-224 -240 -301 0
-224 -248 -305 0
-224 -248 -306 0
-224 -248 -307 0
-224 -248 -304 0
-224 -248 -295 0
-224 -248 -303 0
-224 -252 -299 0
-224 -252 -302 0
-224 -252 -306 0
-224 -252 -298 0
-224 -254 -298 0
-224 -254 -303 0
-224 -254 -307 0
-224 -254 -305 0
-224 -245 -304 0
-224 -245 -298 0
-224 -245 -305 0
-224 -245 -293 0
-224 -251 -300 0
-224 -251 -299 0
-224 -251 -301 0
-224 -251 -303 0
-225 -249 -295 0
-225 -249 -304 0
-225 -249 -296 0
-225 -242 -295 0
-225 -242 -297 0
-225 -242 -298 0
-225 -242 -293 0
-225 -242 -299 0
-225 -245 -297 0
-225 -245 -304 0
-225 -245 -298 0
-225 -245 -305 0
-225 -245 -293 0
-225 -247 -293 0
-218 -239 0
-226 -241 -299 0
-226 -240 -297 0
-226 -240 -302 0
-226 -240 -303 0
-226 -240 -301 0
-226 -253 -302 0
-226 -253 -299 0
-226 -251 -299 0
-226 -251 -301 0
-226 -251 -303 0
-226 -251 -297 0
-218 -241 -309 0
-218 -241 -310 0
-218 -240 -309 0
-218 -240 -311 0
-218 -240 -312 0
-218 -240 -313 0
-218 -240 -314 0
-218 -243 -310 0
-218 -243 -315 0
-218 -243 -313 0
-218 -243 -316 0
-218 -243 -317 0
-218 -243 -312 0
-218 -244 -318 0
-218 -244 -317 0
-218 -244 -319 0
-218 -239 -310 0
-218 -239 -314 0
-218 -239 -312 0
-220 -245 0
-221 -244 -318 0
-221 -244 -319 0
-221 -243 -310 0
-221 -243 -315 0
-221 -243 -313 0
-221 -243 -316 0
-221 -243 -312 0
-221 -246 -315 0
-221 -246 -318 0
-221 -246 -320 0
-221 -248 -311 0
-221 -248 -320 0
-221 -248 -316 0
-221 -248 -321 0
-221 -248 -322 0
-221 -248 -313 0
-221 -250 -315 0
-221 -250 -316 0
-221 -250 -321 0
-221 -250 -322 0
-221 -249 -322 0
-221 -249 -319 0
-220 -243 0
-224 -238 -310 0
-224 -238 -309 0
-224 -240 -309 0
-224 -240 -312 0
-224 -240 -313 0
-224 -240 -314 0
-224 -248 -320 0
-224 -248 -316 0
-224 -248 -321 0
-224 -248 -322 0
-224 -248 -317 0
-224 -248 -313 0
-224 -252 -310 0
-224 -252 -312 0
-224 -252 -316 0
-224 -252 -315 0
-224 -254 -315 0
-224 -254 -313 0
-224 -254 -321 0
-224 -254 -320 0
-224 -245 -322 0
-224 -245 -315 0
-224 -245 -320 0
-224 -245 -318 0
-224 -251 -309 0
-224 -251 -310 0
-224 -251 -314 0
-224 -251 -313 0
-220 -248 0
-227 -243 -310 0
-227 -243 -313 0
-227 -243 -316 0
-227 -243 -317 0
-227 -243 -312 0
-227 -250 -317 0
-227 -250 -316 0
-227 -250 -321 0
-227 -250 -322 0
-227 -254 -311 0
-227 -254 -313 0
-227 -254 -321 0
-227 -254 -320 0
-227 -257 -316 0
-227 -257 -320 0
-227 -246 -317 0
-227 -246 -318 0
-227 -246 -320 0
-227 -245 -311 0
-227 -245 -322 0
-227 -245 -320 0
-227 -245 -318 0
-227 -252 -310 0
-227 -252 -311 0
-227 -252 -312 0
-227 -252 -316 0
-220 -249 0
-219 -244 -317 0
-219 -244 -319 0
-219 -245 -311 0
-219 -245 -322 0
-219 -245 -315 0
-219 -245 -320 0
-219 -246 -315 0
-219 -246 -317 0
-219 -246 -320 0
-225 -238 -310 0
-225 -238 -311 0
-225 -238 -309 0
-225 -249 -317 0
-225 -249 -322 0
-225 -249 -319 0
-225 -245 -311 0
-225 -245 -322 0
-225 -245 -315 0
-225 -245 -320 0
-225 -245 -318 0
-225 -247 -318 0
-220 -240 0
-223 -241 -309 0
-223 -238 -311 0
-223 -238 -309 0
-223 -239 -314 0
-223 -239 -312 0
-223 -243 -315 0
-223 -243 -313 0
-223 -243 -316 0
-223 -243 -317 0
-223 -243 -312 0
-223 -251 -309 0
-223 -251 -314 0
-223 -251 -313 0
-223 -251 -311 0
-223 -252 -311 0
-223 -252 -312 0
-223 -252 -316 0
-223 -252 -315 0
-223 -253 -309 0
-223 -253 -312 0
-194 -238 -283 0
-194 -238 -280 0
-194 -238 -284 0
-218 -242 -279 0
-218 -242 -280 0
-218 -242 -281 0
-218 -242 -282 0
-218 -242 -283 0
-218 -240 -284 0
-218 -240 -280 0
-218 -240 -285 0
-218 -240 -286 0
-218 -240 -287 0
-218 -243 -283 0
-218 -243 -281 0
-218 -243 -286 0
-218 -243 -288 0
-218 -243 -279 0
-218 -243 -285 0
-218 -244 -282 0
-218 -244 -279 0
-218 -244 -289 0
-218 -239 -283 0
-218 -239 -287 0
-218 -239 -285 0
-217 -239 0
-226 -240 -280 0
-226 -240 -285 0
-226 -240 -286 0
-226 -240 -287 0
-226 -253 -285 0
-226 -253 -283 0
-226 -251 -283 0
-226 -251 -287 0
-226 -251 -286 0
-226 -251 -280 0
-226 -238 -283 0
-226 -238 -280 0
-217 -240 0
-223 -238 -280 0
-223 -238 -284 0
-223 -239 -287 0
-223 -239 -285 0
-223 -243 -281 0
-223 -243 -286 0
-223 -243 -288 0
-223 -243 -279 0
-223 -243 -285 0
-223 -251 -284 0
-223 -251 -287 0
-223 -251 -286 0
-223 -251 -280 0
-223 -252 -280 0
-223 -252 -285 0
-223 -252 -288 0
-223 -252 -281 0
-223 -242 -279 0
-223 -242 -280 0
-223 -242 -281 0
-223 -242 -282 0
-223 -253 -284 0
-223 -253 -285 0
-65 -121 0
-66 -122 0
-67 -123 0
-68 -124 0
-69 -125 0
-70 -126 0
-71 -127 0
-72 -128 0
-230 -296 -261 0
-230 -296 -262 0
-230 -296 -263 0
-230 -319 -264 0
-230 -319 -262 0
-230 -319 -265 0
-230 -319 -266 0
-230 -319 -261 0
-230 -289 -263 0
-230 -289 -261 0
-218 -289 -263 0
-218 -289 -261 0
-218 -319 -264 0
-218 -319 -262 0
-218 -319 -265 0
-218 -319 -266 0
-218 -319 -261 0
-218 -341 -263 0
-218 -341 -262 0
-218 -341 -268 0
-218 -341 -269 0
-218 -341 -270 0
-218 -354 -261 0
-218 -354 -265 0
-218 -354 -269 0
-218 -354 -271 0
-218 -354 -264 0
-218 -354 -268 0
-218 -333 -261 0
-218 -333 -270 0
-218 -333 -268 0
-225 -360 0
-219 -319 -264 0
-219 -319 -262 0
-219 -319 -265 0
-219 -319 -261 0
-219 -357 -262 0
-219 -357 -272 0
-219 -357 -265 0
-219 -357 -273 0
-219 -358 -265 0
-219 -358 -264 0
-219 -358 -273 0
-220 -296 -261 0
-220 -296 -262 0
-220 -296 -263 0
-220 -357 -262 0
-220 -357 -272 0
-220 -357 -265 0
-220 -357 -273 0
-220 -357 -266 0
-220 -354 -261 0
-220 -354 -265 0
-220 -354 -269 0
-220 -354 -271 0
-220 -354 -264 0
-220 -354 -268 0
-220 -359 -262 0
-220 -359 -273 0
-220 -359 -271 0
-220 -359 -274 0
-220 -359 -272 0
-220 -359 -264 0
-220 -359 -269 0
-220 -360 -264 0
-220 -360 -272 0
-220 -341 -263 0
-220 -341 -262 0
-220 -341 -268 0
-220 -341 -269 0
-220 -341 -270 0
-225 -357 0
-221 -319 -262 0
-221 -319 -265 0
-221 -319 -266 0
-221 -319 -261 0
-221 -354 -261 0
-221 -354 -265 0
-221 -354 -269 0
-221 -354 -271 0
-221 -354 -268 0
-221 -358 -265 0
-221 -358 -266 0
-221 -358 -273 0
-221 -359 -262 0
-221 -359 -273 0
-221 -359 -271 0
-221 -359 -274 0
-221 -359 -272 0
-221 -359 -269 0
-221 -361 -265 0
-221 -361 -271 0
-221 -361 -274 0
-221 -361 -272 0
-221 -360 -272 0
-220 -296 -337 0
-220 -296 -349 0
-220 -296 -331 0
-220 -357 -349 0
-220 -357 -362 0
-220 -357 -363 0
-220 -357 -364 0
-220 -354 -337 0
-220 -354 -363 0
-220 -354 -365 0
-220 -354 -366 0
-220 -354 -367 0
-220 -354 -368 0
-220 -359 -349 0
-220 -359 -364 0
-220 -359 -366 0
-220 -359 -369 0
-220 -359 -362 0
-220 -359 -367 0
-220 -359 -365 0
-220 -267 -367 0
-220 -341 -331 0
-220 -341 -349 0
-220 -341 -368 0
-220 -341 -365 0
-220 -341 -370 0
-225 -296 -337 0
-225 -296 -349 0
-225 -296 -331 0
-225 -319 -367 0
-225 -319 -349 0
-225 -319 -363 0
-225 -319 -337 0
-225 -357 -349 0
-225 -357 -362 0
-225 -357 -363 0
-225 -357 -364 0
-219 -357 0
-221 -319 -349 0
-221 -319 -363 0
-221 -319 -337 0
-221 -354 -337 0
-221 -354 -363 0
-221 -354 -365 0
-221 -354 -366 0
-221 -354 -368 0
-221 -358 -363 0
-221 -358 -364 0
-221 -359 -349 0
-221 -359 -364 0
-221 -359 -366 0
-221 -359 -369 0
-221 -359 -362 0
-221 -359 -365 0
-221 -361 -363 0
-221 -361 -366 0
-221 -361 -369 0
-221 -361 -362 0
-219 -358 0
-232 -359 -349 0
-232 -359 -364 0
-232 -359 -366 0
-232 -359 -369 0
-232 -359 -367 0
-232 -359 -365 0
-232 -357 -349 0
-232 -357 -363 0
-232 -357 -364 0
-232 -361 -363 0
-232 -361 -367 0
-232 -361 -366 0
-232 -361 -369 0
-194 -258 -207 0
-194 -258 -210 0
-194 -259 -210 0
-194 -259 -213 0
-194 -259 -207 0
-230 -259 -210 0
-230 -259 -213 0
-230 -259 -207 0
-230 -260 -234 0
-230 -260 -213 0
-230 -260 -256 0
-230 -260 -231 0
-230 -260 -210 0
-230 -258 -207 0
-230 -258 -210 0
-194 -258 -239 0
-194 -258 -240 0
-194 -259 -240 0
-194 -259 -243 0
-194 -259 -239 0
-218 -258 -239 0
-218 -258 -240 0
-218 -260 -245 0
-218 -260 -243 0
-218 -260 -248 0
-218 -260 -249 0
-218 -260 -240 0
-218 -261 -239 0
-218 -261 -243 0
-218 -261 -251 0
-218 -261 -252 0
-218 -261 -253 0
-218 -262 -240 0
-218 -262 -248 0
-218 -262 -252 0
-218 -262 -254 0
-218 -262 -245 0
-218 -262 -251 0
-218 -263 -240 0
-218 -263 -253 0
-218 -263 -251 0
-220 -259 -240 0
-220 -259 -243 0
-220 -259 -239 0
-220 -264 -243 0
-220 -264 -246 0
-220 -264 -248 0
-220 -264 -250 0
-220 -264 -249 0
-220 -262 -240 0
-220 -262 -248 0
-220 -262 -252 0
-220 -262 -254 0
-220 -262 -245 0
-220 -262 -251 0
-220 -265 -243 0
-220 -265 -250 0
-220 -265 -254 0
-220 -265 -257 0
-220 -265 -246 0
-220 -265 -245 0
-220 -265 -252 0
-220 -266 -245 0
-220 -266 -246 0
-220 -266 -247 0
-220 -261 -239 0
-220 -261 -243 0
-220 -261 -251 0
-220 -261 -252 0
-220 -261 -253 0
-217 -259 -240 0
-217 -259 -243 0
-217 -259 -239 0
-217 -263 -240 0
-217 -263 -253 0
-217 -263 -251 0
-217 -261 -239 0
-217 -261 -243 0
-217 -261 -251 0
-217 -261 -252 0
-217 -261 -253 0
-194 -258 -300 0
-194 -258 -299 0
-230 -260 -295 0
-230 -260 -297 0
-230 -260 -298 0
-230 -260 -293 0
-230 -260 -299 0
-230 -258 -300 0
-230 -258 -299 0
-217 -263 -299 0
-217 -263 -301 0
-217 -263 -302 0
-217 -261 -300 0
-217 -261 -297 0
-217 -261 -302 0
-217 -261 -303 0
-217 -261 -301 0
-220 -264 -297 0
-220 -264 -304 0
-220 -264 -298 0
-220 -264 -305 0
-220 -264 -293 0
-220 -262 -299 0
-220 -262 -298 0
-220 -262 -303 0
-220 -262 -306 0
-220 -262 -295 0
-220 -262 -302 0
-220 -265 -297 0
-220 -265 -305 0
-220 -265 -306 0
-220 -265 -307 0
-220 -265 -304 0
-220 -265 -295 0
-220 -265 -303 0
-220 -266 -295 0
-220 -266 -304 0
-220 -266 -296 0
-220 -261 -300 0
-220 -261 -297 0
-220 -261 -302 0
-220 -261 -303 0
-220 -261 -301 0
-218 -261 0
-223 -258 -300 0
-223 -263 -301 0
-223 -263 -302 0
-223 -262 -298 0
-223 -262 -303 0
-223 -262 -306 0
-223 -262 -295 0
-223 -262 -302 0
-223 -268 -300 0
-223 -268 -301 0
-223 -268 -303 0
-223 -268 -297 0
-223 -269 -297 0
-223 -269 -302 0
-223 -269 -306 0
-223 -269 -298 0
-223 -260 -295 0
-223 -260 -297 0
-223 -260 -298 0
-223 -260 -293 0
-223 -270 -300 0
-223 -270 -302 0
-218 -262 0
-224 -260 -295 0
-224 -260 -298 0
-224 -260 -293 0
-224 -260 -299 0
-224 -261 -300 0
-224 -261 -302 0
-224 -261 -303 0
-224 -261 -301 0
-224 -265 -305 0
-224 -265 -306 0
-224 -265 -307 0
-224 -265 -304 0
-224 -265 -295 0
-224 -265 -303 0
-224 -269 -299 0
-224 -269 -302 0
-224 -269 -306 0
-224 -269 -298 0
-224 -271 -298 0
-224 -271 -303 0
-224 -271 -307 0
-224 -271 -305 0
-224 -264 -304 0
-224 -264 -298 0
-224 -264 -305 0
-224 -264 -293 0
-224 -268 -300 0
-224 -268 -299 0
-224 -268 -301 0
-224 -268 -303 0
-218 -263 0
-226 -258 -299 0
-226 -261 -297 0
-226 -261 -302 0
-226 -261 -303 0
-226 -261 -301 0
-226 -270 -302 0
-226 -270 -299 0
-226 -268 -299 0
-226 -268 -301 0
-226 -268 -303 0
-226 -268 -297 0
-220 -259 -337 0
-220 -259 -349 0
-220 -259 -331 0
-220 -264 -349 0
-220 -264 -362 0
-220 -264 -363 0
-220 -264 -364 0
-220 -262 -337 0
-220 -262 -363 0
-220 -262 -365 0
-220 -262 -366 0
-220 -262 -367 0
-220 -262 -368 0
-220 -265 -349 0
-220 -265 -364 0
-220 -265 -366 0
-220 -265 -369 0
-220 -265 -362 0
-220 -265 -367 0
-220 -265 -365 0
-220 -261 -331 0
-220 -261 -349 0
-220 -261 -368 0
-220 -261 -365 0
-220 -261 -370 0
-219 -264 0
-221 -260 -349 0
-221 -260 -363 0
-221 -260 -337 0
-221 -262 -337 0
-221 -262 -363 0
-221 -262 -365 0
-221 -262 -366 0
-221 -262 -368 0
-221 -272 -363 0
-221 -272 -364 0
-221 -265 -349 0
-221 -265 -364 0
-221 -265 -366 0
-221 -265 -369 0
-221 -265 -362 0
-221 -265 -365 0
-221 -273 -363 0
-221 -273 -366 0
-221 -273 -369 0
-221 -273 -362 0
-219 -272 0
-232 -265 -349 0
-232 -265 -364 0
-232 -265 -366 0
-232 -265 -369 0
-232 -265 -367 0
-232 -265 -365 0
-232 -264 -349 0
-232 -264 -363 0
-232 -264 -364 0
-232 -273 -363 0
-232 -273 -367 0
-232 -273 -366 0
-232 -273 -369 0
-219 -267 0
-230 -259 -310 0
-230 -259 -311 0
-230 -259 -309 0
-230 -258 -309 0
-230 -258 -310 0
-218 -258 -309 0
-218 -258 -310 0
-218 -261 -309 0
-218 -261 -311 0
-218 -261 -312 0
-218 -261 -313 0
-218 -261 -314 0
-218 -262 -310 0
-218 -262 -315 0
-218 -262 -313 0
-218 -262 -316 0
-218 -262 -317 0
-218 -262 -312 0
-218 -263 -310 0
-218 -263 -314 0
-218 -263 -312 0
-220 -264 0
-221 -262 -310 0
-221 -262 -315 0
-221 -262 -313 0
-221 -262 -316 0
-221 -262 -312 0
-221 -272 -315 0
-221 -272 -318 0
-221 -272 -320 0
-221 -265 -311 0
-221 -265 -320 0
-221 -265 -316 0
-221 -265 -321 0
-221 -265 -322 0
-221 -265 -313 0
-221 -273 -315 0
-221 -273 -316 0
-221 -273 -321 0
-221 -273 -322 0
-221 -266 -322 0
-221 -266 -319 0
-220 -262 0
-224 -259 -310 0
-224 -259 -309 0
-224 -261 -309 0
-224 -261 -312 0
-224 -261 -313 0
-224 -261 -314 0
-224 -265 -320 0
-224 -265 -316 0
-224 -265 -321 0
-224 -265 -322 0
-224 -265 -317 0
-224 -265 -313 0
-224 -269 -310 0
-224 -269 -312 0
-224 -269 -316 0
-224 -269 -315 0
-224 -271 -315 0
-224 -271 -313 0
-224 -271 -321 0
-224 -271 -320 0
-224 -264 -322 0
-224 -264 -315 0
-224 -264 -320 0
-224 -264 -318 0
-224 -268 -309 0
-224 -268 -310 0
-224 -268 -314 0
-224 -268 -313 0
-220 -265 0
-227 -262 -310 0
-227 -262 -313 0
-227 -262 -316 0
-227 -262 -317 0
-227 -262 -312 0
-227 -273 -317 0
-227 -273 -316 0
-227 -273 -321 0
-227 -273 -322 0
-227 -271 -311 0
-227 -271 -313 0
-227 -271 -321 0
-227 -271 -320 0
-227 -274 -316 0
-227 -274 -320 0
-227 -272 -317 0
-227 -272 -318 0
-227 -272 -320 0
-227 -264 -311 0
-227 -264 -322 0
-227 -264 -320 0
-227 -264 -318 0
-227 -269 -310 0
-227 -269 -311 0
-227 -269 -312 0
-227 -269 -316 0
-220 -266 0
-219 -264 -311 0
-219 -264 -322 0
-219 -264 -315 0
-219 -264 -320 0
-219 -272 -315 0
-219 -272 -317 0
-219 -272 -320 0
-220 -261 0
-223 -258 -309 0
-223 -259 -311 0
-223 -259 -309 0
-223 -263 -314 0
-223 -263 -312 0
-223 -262 -315 0
-223 -262 -313 0
-223 -262 -316 0
-223 -262 -317 0
-223 -262 -312 0
-223 -268 -309 0
-223 -268 -314 0
-223 -268 -313 0
-223 -268 -311 0
-223 -269 -311 0
-223 -269 -312 0
-223 -269 -316 0
-223 -269 -315 0
-223 -270 -309 0
-223 -270 -312 0
-220 -259 -334 0
-220 -259 -352 0
-220 -259 -328 0
-220 -262 -334 0
-220 -262 -371 0
-220 -262 -372 0
-220 -262 -373 0
-220 -262 -374 0
-220 -265 -352 0
-220 -265 -375 0
-220 -265 -373 0
-220 -265 -376 0
-220 -265 -377 0
-220 -265 -372 0
-220 -266 -377 0
-220 -266 -357 0
-220 -261 -328 0
-220 -261 -352 0
-220 -261 -374 0
-220 -261 -372 0
-220 -261 -378 0
-221 -262 0
-224 -259 -334 0
-224 -259 -328 0
-224 -260 -371 0
-224 -260 -367 0
-224 -260 -334 0
-224 -261 -328 0
-224 -261 -374 0
-224 -261 -372 0
-224 -261 -378 0
-224 -265 -375 0
-224 -265 -373 0
-224 -265 -376 0
-224 -265 -377 0
-224 -265 -372 0
-224 -269 -334 0
-224 -269 -374 0
-224 -269 -373 0
-224 -269 -371 0
-224 -271 -371 0
-224 -271 -372 0
-224 -271 -376 0
-224 -271 -375 0
-224 -268 -328 0
-224 -268 -334 0
-224 -268 -378 0
-224 -268 -372 0
-221 -272 0
-232 -265 -352 0
-232 -265 -375 0
-232 -265 -373 0
-232 -265 -376 0
-232 -265 -372 0
-232 -266 -357 0
-232 -273 -371 0
-232 -273 -373 0
-232 -273 -376 0
-221 -265 0
-227 -260 -352 0
-227 -260 -367 0
-227 -260 -334 0
-227 -262 -334 0
-227 -262 -372 0
-227 -262 -373 0
-227 -262 -374 0
-227 -273 -373 0
-227 -273 -376 0
-227 -273 -377 0
-227 -271 -352 0
-227 -271 -372 0
-227 -271 -376 0
-227 -271 -375 0
-227 -274 -373 0
-227 -274 -375 0
-227 -272 -367 0
-227 -272 -375 0
-227 -269 -334 0
-227 -269 -352 0
-227 -269 -374 0
-227 -269 -373 0
-221 -273 0
-235 -265 -352 0
-235 -265 -373 0
-235 -265 -376 0
-235 -265 -377 0
-235 -265 -372 0
-235 -271 -352 0
-235 -271 -371 0
-235 -271 -372 0
-235 -271 -376 0
-235 -274 -371 0
-235 -274 -373 0
-235 -272 -371 0
-235 -272 -367 0
-221 -266 0
-219 -260 -352 0
-219 -260 -371 0
-219 -260 -334 0
-219 -272 -371 0
-219 -272 -375 0
-222 -266 0
-219 -260 -357 0
-219 -260 -354 0
-219 -260 -359 0
-219 -260 -341 0
-219 -264 -354 0
-219 -264 -358 0
-219 -264 -359 0
-219 -264 -361 0
-219 -272 -359 0
-219 -272 -357 0
-219 -272 -361 0
-65 -113 0
-66 -114 0
-67 -115 0
-68 -116 0
-69 -117 0
-70 -118 0
-71 -119 0
-72 -120 0
-230 -266 -317 0
-230 -266 -319 0
-230 -293 -310 0
-230 -293 -311 0
-230 -293 -309 0
-230 -282 -309 0
-230 -282 -310 0
-218 -282 -309 0
-218 -282 -310 0
-218 -337 -309 0
-218 -337 -311 0
-218 -337 -312 0
-218 -337 -313 0
-218 -337 -314 0
-218 -349 -310 0
-218 -349 -315 0
-218 -349 -313 0
-218 -349 -316 0
-218 -349 -317 0
-218 -349 -312 0
-218 -266 -317 0
-218 -266 -319 0
-218 -331 -310 0
-218 -331 -314 0
-218 -331 -312 0
-220 -367 0
-221 -266 -319 0
-221 -349 -310 0
-221 -349 -315 0
-221 -349 -313 0
-221 -349 -316 0
-221 -349 -312 0
-221 -362 -315 0
-221 -362 -320 0
-221 -363 -311 0
-221 -363 -320 0
-221 -363 -316 0
-221 -363 -321 0
-221 -363 -322 0
-221 -363 -313 0
-221 -364 -315 0
-221 -364 -316 0
-221 -364 -321 0
-221 -364 -322 0
-220 -349 0
-224 -293 -310 0
-224 -293 -309 0
-224 -337 -309 0
-224 -337 -312 0
-224 -337 -313 0
-224 -337 -314 0
-224 -363 -320 0
-224 -363 -316 0
-224 -363 -321 0
-224 -363 -322 0
-224 -363 -317 0
-224 -363 -313 0
-224 -365 -310 0
-224 -365 -312 0
-224 -365 -316 0
-224 -365 -315 0
-224 -366 -315 0
-224 -366 -313 0
-224 -366 -321 0
-224 -366 -320 0
-224 -367 -322 0
-224 -367 -315 0
-224 -367 -320 0
-224 -368 -309 0
-224 -368 -310 0
-224 -368 -314 0
-224 -368 -313 0
-220 -363 0
-227 -349 -310 0
-227 -349 -313 0
-227 -349 -316 0
-227 -349 -317 0
-227 -349 -312 0
-227 -364 -317 0
-227 -364 -316 0
-227 -364 -321 0
-227 -364 -322 0
-227 -366 -311 0
-227 -366 -313 0
-227 -366 -321 0
-227 -366 -320 0
-227 -369 -316 0
-227 -369 -320 0
-227 -362 -317 0
-227 -362 -320 0
-227 -367 -311 0
-227 -367 -322 0
-227 -367 -320 0
-227 -365 -310 0
-227 -365 -311 0
-227 -365 -312 0
-227 -365 -316 0
-225 -293 -310 0
-225 -293 -311 0
-225 -293 -309 0
-225 -367 -311 0
-225 -367 -322 0
-225 -367 -315 0
-225 -367 -320 0
-220 -337 0
-223 -282 -309 0
-223 -293 -311 0
-223 -293 -309 0
-223 -331 -314 0
-223 -331 -312 0
-223 -349 -315 0
-223 -349 -313 0
-223 -349 -316 0
-223 -349 -317 0
-223 -349 -312 0
-223 -368 -309 0
-223 -368 -314 0
-223 -368 -313 0
-223 -368 -311 0
-223 -365 -311 0
-223 -365 -312 0
-223 -365 -316 0
-223 -365 -315 0
-223 -370 -309 0
-223 -370 -312 0
-230 -293 -261 0
-230 -293 -262 0
-230 -293 -263 0
-230 -318 -264 0
-230 -318 -262 0
-230 -318 -265 0
-230 -318 -261 0
-230 -282 -263 0
-230 -282 -261 0
-218 -282 -263 0
-218 -282 -261 0
-218 -318 -264 0
-218 -318 -262 0
-218 -318 -265 0
-218 -318 -261 0
-218 -337 -263 0
-218 -337 -262 0
-218 -337 -268 0
-218 -337 -269 0
-218 -337 -270 0
-218 -349 -261 0
-218 -349 -265 0
-218 -349 -269 0
-218 -349 -271 0
-218 -349 -264 0
-218 -349 -268 0
-218 -331 -261 0
-218 -331 -270 0
-218 -331 -268 0
-220 -293 -261 0
-220 -293 -262 0
-220 -293 -263 0
-220 -367 -262 0
-220 -367 -272 0
-220 -367 -265 0
-220 -367 -273 0
-220 -349 -261 0
-220 -349 -265 0
-220 -349 -269 0
-220 -349 -271 0
-220 -349 -264 0
-220 -349 -268 0
-220 -363 -262 0
-220 -363 -273 0
-220 -363 -271 0
-220 -363 -274 0
-220 -363 -272 0
-220 -363 -264 0
-220 -363 -269 0
-220 -337 -263 0
-220 -337 -262 0
-220 -337 -268 0
-220 -337 -269 0
-220 -337 -270 0
-225 -367 0
-221 -318 -262 0
-221 -318 -265 0
-221 -318 -261 0
-221 -349 -261 0
-221 -349 -265 0
-221 -349 -269 0
-221 -349 -271 0
-221 -349 -268 0
-221 -362 -265 0
-221 -362 -273 0
-221 -363 -262 0
-221 -363 -273 0
-221 -363 -271 0
-221 -363 -274 0
-221 -363 -272 0
-221 -363 -269 0
-221 -364 -265 0
-221 -364 -271 0
-221 -364 -274 0
-221 -364 -272 0
-225 -360 0
-220 -293 -334 0
-220 -293 -352 0
-220 -293 -328 0
-220 -349 -334 0
-220 -349 -371 0
-220 -349 -372 0
-220 -349 -373 0
-220 -349 -374 0
-220 -363 -352 0
-220 -363 -375 0
-220 -363 -373 0
-220 -363 -376 0
-220 -363 -377 0
-220 -363 -372 0
-220 -266 -357 0
-220 -337 -328 0
-220 -337 -352 0
-220 -337 -374 0
-220 -337 -372 0
-220 -337 -378 0
-225 -293 -334 0
-225 -293 -352 0
-225 -293 -328 0
-225 -318 -352 0
-225 -318 -371 0
-225 -318 -334 0
-221 -349 0
-224 -293 -334 0
-224 -293 -328 0
-224 -318 -371 0
-224 -318 -334 0
-224 -337 -328 0
-224 -337 -374 0
-224 -337 -372 0
-224 -337 -378 0
-224 -363 -375 0
-224 -363 -373 0
-224 -363 -376 0
-224 -363 -377 0
-224 -363 -372 0
-224 -365 -334 0
-224 -365 -374 0
-224 -365 -373 0
-224 -365 -371 0
-224 -366 -371 0
-224 -366 -372 0
-224 -366 -376 0
-224 -366 -375 0
-224 -368 -328 0
-224 -368 -334 0
-224 -368 -378 0
-224 -368 -372 0
-221 -362 0
-232 -363 -352 0
-232 -363 -375 0
-232 -363 -373 0
-232 -363 -376 0
-232 -363 -372 0
-232 -364 -371 0
-232 -364 -373 0
-232 -364 -376 0
-221 -363 0
-227 -318 -352 0
-227 -318 -334 0
-227 -349 -334 0
-227 -349 -372 0
-227 -349 -373 0
-227 -349 -374 0
-227 -364 -373 0
-227 -364 -376 0
-227 -364 -377 0
-227 -366 -352 0
-227 -366 -372 0
-227 -366 -376 0
-227 -366 -375 0
-227 -369 -373 0
-227 -369 -375 0
-227 -362 -375 0
-227 -365 -334 0
-227 -365 -352 0
-227 -365 -374 0
-227 -365 -373 0
-221 -364 0
-235 -363 -352 0
-235 -363 -373 0
-235 -363 -376 0
-235 -363 -377 0
-235 -363 -372 0
-235 -366 -352 0
-235 -366 -371 0
-235 -366 -372 0
-235 -366 -376 0
-235 -369 -371 0
-235 -369 -373 0
-235 -362 -371 0
-232 -363 0
-227 -318 -377 0
-227 -318 -346 0
-227 -318 -345 0
-227 -349 -345 0
-227 -349 -397 0
-227 -349 -399 0
-227 -349 -377 0
-227 -349 -393 0
-227 -364 -377 0
-227 -364 -399 0
-227 -364 -401 0
-227 -366 -346 0
-227 -366 -397 0
-227 -366 -401 0
-227 -366 -402 0
-227 -369 -399 0
-227 -369 -402 0
-227 -367 -346 0
-227 -367 -402 0
-227 -365 -345 0
-227 -365 -346 0
-227 -365 -393 0
-227 -365 -399 0
-232 -367 0
-221 -318 -346 0
-221 -318 -385 0
-221 -318 -345 0
-221 -266 -358 0
-221 -349 -345 0
-221 -349 -385 0
-221 -349 -397 0
-221 -349 -399 0
-221 -349 -393 0
-221 -363 -346 0
-221 -363 -402 0
-221 -363 -399 0
-221 -363 -401 0
-221 -363 -397 0
-221 -364 -385 0
-221 -364 -399 0
-221 -364 -401 0
-232 -364 0
-235 -363 -346 0
-235 -363 -399 0
-235 -363 -401 0
-235 -363 -377 0
-235 -363 -397 0
-235 -367 -346 0
-235 -367 -385 0
-235 -366 -346 0
-235 -366 -385 0
-235 -366 -397 0
-235 -366 -401 0
-235 -369 -385 0
-235 -369 -399 0
-225 -293 -341 0
-225 -293 -354 0
-225 -293 -333 0
-225 -318 -357 0
-225 -318 -354 0
-225 -318 -359 0
-225 -318 -341 0
-225 -367 -354 0
-225 -367 -358 0
-225 -367 -359 0
-225 -367 -361 0
-239 -258 -190 0
-239 -258 -192 0
-239 -258 -193 0
-239 -291 -197 0
-239 -291 -198 0
-239 -278 -192 0
-239 -278 -198 0
-239 -278 -202 0
-239 -278 -190 0
-239 -278 -197 0
-239 -217 -193 0
-239 -217 -190 0
-300 -278 -192 0
-300 -278 -198 0
-300 -278 -202 0
-300 -278 -190 0
-300 -278 -197 0
-300 -283 -198 0
-300 -283 -209 0
-300 -283 -211 0
-300 -283 -208 0
-300 -280 -197 0
-300 -280 -202 0
-300 -280 -211 0
-300 -280 -214 0
-300 -280 -192 0
-300 -280 -209 0
-300 -258 -190 0
-300 -258 -192 0
-300 -258 -193 0
-207 -217 -193 0
-207 -217 -190 0
-207 -258 -190 0
-207 -258 -192 0
-207 -258 -193 0
-239 -258 -293 0
-239 -258 -295 0
-239 -258 -296 0
-239 -278 -295 0
-239 -278 -297 0
-239 -278 -298 0
-239 -278 -293 0
-239 -278 -299 0
-239 -217 -296 0
-239 -217 -293 0
-309 -279 -297 0
-309 -279 -304 0
-309 -279 -298 0
-309 -279 -305 0
-309 -279 -293 0
-309 -280 -299 0
-309 -280 -298 0
-309 -280 -303 0
-309 -280 -306 0
-309 -280 -295 0
-309 -280 -302 0
-309 -281 -297 0
-309 -281 -305 0
-309 -281 -306 0
-309 -281 -307 0
-309 -281 -304 0
-309 -281 -295 0
-309 -281 -303 0
-309 -282 -295 0
-309 -282 -304 0
-309 -282 -296 0
-309 -258 -293 0
-309 -258 -295 0
-309 -258 -296 0
-309 -283 -297 0
-309 -283 -302 0
-309 -283 -303 0
-309 -283 -301 0
-300 -283 0
-332 -280 -298 0
-332 -280 -303 0
-332 -280 -306 0
-332 -280 -295 0
-332 -280 -302 0
-332 -285 -301 0
-332 -285 -303 0
-332 -285 -297 0
-332 -286 -297 0
-332 -286 -302 0
-332 -286 -306 0
-332 -286 -298 0
-332 -278 -295 0
-332 -278 -297 0
-332 -278 -298 0
-332 -278 -293 0
-332 -287 -302 0
-300 -280 0
-324 -278 -295 0
-324 -278 -298 0
-324 -278 -293 0
-324 -278 -299 0
-324 -283 -302 0
-324 -283 -303 0
-324 -283 -301 0
-324 -281 -305 0
-324 -281 -306 0
-324 -281 -307 0
-324 -281 -304 0
-324 -281 -295 0
-324 -281 -303 0
-324 -286 -299 0
-324 -286 -302 0
-324 -286 -306 0
-324 -286 -298 0
-324 -288 -298 0
-324 -288 -303 0
-324 -288 -307 0
-324 -288 -305 0
-324 -279 -304 0
-324 -279 -298 0
-324 -279 -305 0
-324 -279 -293 0
-324 -285 -299 0
-324 -285 -301 0
-324 -285 -303 0
-263 -282 -295 0
-263 -282 -304 0
-263 -282 -296 0
-263 -278 -295 0
-263 -278 -297 0
-263 -278 -298 0
-263 -278 -293 0
-263 -278 -299 0
-263 -279 -297 0
-263 -279 -304 0
-263 -279 -298 0
-263 -279 -305 0
-263 -279 -293 0
-263 -289 -293 0
-263 -217 -296 0
-263 -217 -293 0
-300 -278 -334 0
-300 -278 -335 0
-300 -278 -336 0
-300 -278 -337 0
-300 -280 -336 0
-300 -280 -338 0
-300 -280 -339 0
-300 -280 -334 0
-300 -280 -340 0
-300 -258 -337 0
-300 -258 -334 0
-300 -258 -341 0
-332 -280 0
-324 -278 -334 0
-324 -278 -336 0
-324 -278 -337 0
-324 -281 -343 0
-324 -281 -339 0
-324 -281 -344 0
-324 -281 -345 0
-324 -281 -334 0
-324 -281 -338 0
-324 -286 -340 0
-324 -286 -339 0
-324 -286 -336 0
-324 -288 -336 0
-324 -288 -338 0
-324 -288 -344 0
-324 -288 -343 0
-324 -279 -345 0
-324 -279 -336 0
-324 -279 -343 0
-324 -279 -337 0
-324 -285 -342 0
-324 -285 -338 0
-332 -285 0
-329 -286 -335 0
-329 -286 -339 0
-329 -286 -336 0
-329 -280 -336 0
-329 -280 -338 0
-329 -280 -339 0
-329 -280 -334 0
-332 -286 0
-326 -280 -336 0
-326 -280 -339 0
-326 -280 -334 0
-326 -280 -340 0
-326 -285 -342 0
-326 -285 -335 0
-326 -288 -335 0
-326 -288 -336 0
-326 -288 -344 0
-326 -288 -343 0
-326 -281 -335 0
-326 -281 -343 0
-326 -281 -339 0
-326 -281 -344 0
-326 -281 -345 0
-326 -281 -334 0
-309 -291 -335 0
-309 -279 -335 0
-309 -279 -345 0
-309 -279 -336 0
-309 -279 -343 0
-309 -279 -337 0
-309 -280 -336 0
-309 -280 -338 0
-309 -280 -339 0
-309 -280 -334 0
-309 -280 -340 0
-309 -281 -335 0
-309 -281 -343 0
-309 -281 -339 0
-309 -281 -344 0
-309 -281 -345 0
-309 -281 -334 0
-309 -281 -338 0
-309 -282 -334 0
-309 -282 -345 0
-309 -282 -341 0
-309 -258 -337 0
-309 -258 -334 0
-309 -258 -341 0
-332 -287 0
-330 -285 -338 0
-330 -285 -335 0
-200 -291 -240 0
-200 -291 -243 0
-207 -217 -247 0
-207 -217 -249 0
-207 -258 -249 0
-207 -258 -245 0
-207 -258 -247 0
-263 -291 -240 0
-263 -291 -243 0
-263 -282 -245 0
-263 -282 -246 0
-263 -282 -247 0
-263 -278 -245 0
-263 -278 -243 0
-263 -278 -248 0
-263 -278 -249 0
-263 -278 -240 0
-263 -279 -243 0
-263 -279 -246 0
-263 -279 -248 0
-263 -279 -250 0
-263 -279 -249 0
-263 -289 -249 0
-263 -217 -247 0
-263 -217 -249 0
-300 -278 -245 0
-300 -278 -243 0
-300 -278 -248 0
-300 -278 -249 0
-300 -278 -240 0
-300 -283 -243 0
-300 -283 -251 0
-300 -283 -252 0
-300 -283 -253 0
-300 -280 -240 0
-300 -280 -248 0
-300 -280 -252 0
-300 -280 -254 0
-300 -280 -245 0
-300 -280 -251 0
-300 -258 -249 0
-300 -258 -245 0
-300 -258 -247 0
-309 -291 -240 0
-309 -291 -243 0
-309 -279 -243 0
-309 -279 -246 0
-309 -279 -248 0
-309 -279 -250 0
-309 -279 -249 0
-309 -280 -240 0
-309 -280 -248 0
-309 -280 -252 0
-309 -280 -254 0
-309 -280 -245 0
-309 -280 -251 0
-309 -281 -243 0
-309 -281 -250 0
-309 -281 -254 0
-309 -281 -257 0
-309 -281 -246 0
-309 -281 -245 0
-309 -281 -252 0
-309 -282 -245 0
-309 -282 -246 0
-309 -282 -247 0
-309 -258 -249 0
-309 -258 -245 0
-309 -258 -247 0
-309 -283 -243 0
-309 -283 -251 0
-309 -283 -252 0
-309 -283 -253 0
-226 -289 -249 0
-226 -258 -249 0
-226 -258 -245 0
-226 -258 -247 0
-226 -282 -245 0
-226 -282 -246 0
-226 -282 -247 0
-73 -81 0
-74 -82 0
-75 -83 0
-76 -84 0
-77 -85 0
-78 -86 0
-79 -87 0
-80 -88 0
-200 -299 -280 0
-300 -310 -279 0
-300 -310 -280 0
-300 -310 -281 0
-300 -310 -282 0
-300 -335 -281 0
-300 -335 -286 0
-300 -335 -288 0
-300 -335 -279 0
-300 -335 -285 0
-300 -261 -282 0
-300 -261 -279 0
-300 -261 -289 0
-239 -261 -282 0
-239 -261 -279 0
-239 -261 -289 0
-239 -299 -280 0
-239 -310 -279 0
-239 -310 -280 0
-239 -310 -281 0
-239 -310 -282 0
-239 -223 -289 0
-239 -223 -282 0
-239 -261 -293 0
-239 -261 -295 0
-239 -261 -296 0
-239 -310 -295 0
-239 -310 -297 0
-239 -310 -298 0
-239 -310 -293 0
-239 -223 -296 0
-239 -223 -293 0
-309 -334 -297 0
-309 -334 -304 0
-309 -334 -298 0
-309 -334 -305 0
-309 -334 -293 0
-309 -335 -298 0
-309 -335 -303 0
-309 -335 -306 0
-309 -335 -295 0
-309 -335 -302 0
-309 -336 -297 0
-309 -336 -305 0
-309 -336 -306 0
-309 -336 -307 0
-309 -336 -304 0
-309 -336 -295 0
-309 -336 -303 0
-309 -337 -295 0
-309 -337 -304 0
-309 -337 -296 0
-309 -261 -293 0
-309 -261 -295 0
-309 -261 -296 0
-300 -335 0
-324 -310 -295 0
-324 -310 -298 0
-324 -310 -293 0
-324 -336 -305 0
-324 -336 -306 0
-324 -336 -307 0
-324 -336 -304 0
-324 -336 -295 0
-324 -336 -303 0
-324 -338 -302 0
-324 -338 -306 0
-324 -338 -298 0
-324 -339 -298 0
-324 -339 -303 0
-324 -339 -307 0
-324 -339 -305 0
-324 -334 -304 0
-324 -334 -298 0
-324 -334 -305 0
-324 -334 -293 0
-324 -340 -301 0
-324 -340 -303 0
-263 -337 -295 0
-263 -337 -304 0
-263 -337 -296 0
-263 -310 -295 0
-263 -310 -297 0
-263 -310 -298 0
-263 -310 -293 0
-263 -334 -297 0
-263 -334 -304 0
-263 -334 -298 0
-263 -334 -305 0
-263 -334 -293 0
-263 -341 -293 0
-263 -223 -296 0
-263 -223 -293 0
-300 -310 -352 0
-300 -310 -347 0
-300 -310 -349 0
-300 -261 -349 0
-300 -261 -352 0
-300 -261 -354 0
-309 -334 -346 0
-309 -334 -347 0
-309 -334 -348 0
-309 -334 -349 0
-309 -336 -348 0
-309 -336 -350 0
-309 -336 -351 0
-309 -336 -346 0
-309 -336 -352 0
-309 -336 -353 0
-309 -337 -352 0
-309 -337 -346 0
-309 -337 -354 0
-309 -261 -349 0
-309 -261 -352 0
-309 -261 -354 0
-324 -336 0
-325 -310 -352 0
-325 -310 -349 0
-325 -343 -352 0
-325 -343 -350 0
-325 -343 -351 0
-325 -343 -346 0
-325 -339 -353 0
-325 -339 -351 0
-325 -339 -348 0
-325 -344 -350 0
-325 -344 -348 0
-325 -345 -352 0
-325 -345 -349 0
-325 -345 -348 0
-325 -334 -346 0
-325 -334 -348 0
-325 -334 -349 0
-325 -338 -355 0
-325 -338 -350 0
-324 -338 0
-326 -340 -356 0
-326 -339 -347 0
-326 -339 -351 0
-326 -339 -348 0
-326 -336 -348 0
-326 -336 -350 0
-326 -336 -351 0
-326 -336 -346 0
-326 -336 -352 0
-324 -339 0
-327 -336 -348 0
-327 -336 -351 0
-327 -336 -346 0
-327 -336 -352 0
-327 -336 -353 0
-327 -338 -355 0
-327 -338 -347 0
-327 -344 -347 0
-327 -344 -348 0
-327 -343 -347 0
-327 -343 -352 0
-327 -343 -351 0
-327 -343 -346 0
-324 -334 0
-328 -310 -347 0
-328 -310 -349 0
-328 -261 -349 0
-328 -261 -354 0
-328 -345 -347 0
-328 -345 -349 0
-328 -345 -348 0
-328 -336 -348 0
-328 -336 -350 0
-328 -336 -351 0
-328 -336 -346 0
-328 -336 -353 0
-328 -343 -347 0
-328 -343 -350 0
-328 -343 -351 0
-328 -343 -346 0
-328 -337 -346 0
-328 -337 -354 0
-324 -340 0
-329 -338 -350 0
-329 -338 -347 0
-329 -342 0
-329 -338 0
-326 -335 -379 0
-326 -335 -390 0
-326 -335 -374 0
-326 -339 -355 0
-326 -339 -379 0
-326 -339 -391 0
-326 -339 -392 0
-326 -336 -355 0
-326 -336 -392 0
-326 -336 -390 0
-326 -336 -391 0
-326 -336 -393 0
-326 -336 -374 0
-329 -335 0
-324 -310 -374 0
-324 -310 -379 0
-324 -310 -368 0
-324 -336 -392 0
-324 -336 -390 0
-324 -336 -391 0
-324 -336 -393 0
-324 -336 -374 0
-324 -336 -389 0
-324 -338 -390 0
-324 -338 -379 0
-324 -339 -379 0
-324 -339 -389 0
-324 -339 -391 0
-324 -339 -392 0
-324 -334 -393 0
-324 -334 -379 0
-324 -334 -392 0
-324 -334 -368 0
-326 -335 0
-324 -310 -372 0
-324 -310 -380 0
-324 -310 -365 0
-324 -336 -394 0
-324 -336 -395 0
-324 -336 -396 0
-324 -336 -397 0
-324 -336 -372 0
-324 -339 -380 0
-324 -339 -396 0
-324 -339 -394 0
-324 -334 -397 0
-324 -334 -380 0
-324 -334 -394 0
-324 -334 -365 0
-324 -340 -386 0
-326 -340 0
-329 -335 -380 0
-329 -335 -395 0
-329 -335 -372 0
-326 -339 0
-327 -335 -380 0
-327 -335 -372 0
-327 -335 -389 0
-327 -336 -353 0
-327 -336 -394 0
-327 -336 -396 0
-327 -336 -397 0
-327 -336 -372 0
-327 -344 -380 0
-327 -344 -394 0
-327 -343 -380 0
-327 -343 -372 0
-327 -343 -396 0
-327 -343 -397 0
-326 -336 0
-325 -310 -372 0
-325 -310 -353 0
-325 -310 -365 0
-325 -335 -395 0
-325 -335 -372 0
-325 -335 -389 0
-325 -343 -372 0
-325 -343 -395 0
-325 -343 -396 0
-325 -343 -397 0
-325 -339 -353 0
-325 -339 -396 0
-325 -339 -394 0
-325 -344 -395 0
-325 -344 -394 0
-325 -345 -372 0
-325 -345 -365 0
-325 -345 -394 0
-325 -334 -353 0
-325 -334 -397 0
-325 -334 -394 0
-325 -334 -365 0
-239 -261 -318 0
-239 -261 -317 0
-239 -261 -319 0
-239 -299 -311 0
-239 -223 -319 0
-239 -223 -318 0
-300 -335 -315 0
-300 -335 -313 0
-300 -335 -316 0
-300 -335 -317 0
-300 -335 -312 0
-300 -261 -318 0
-300 -261 -317 0
-300 -261 -319 0
-309 -334 0
-328 -261 -318 0
-328 -261 -319 0
-328 -335 -315 0
-328 -335 -313 0
-328 -335 -316 0
-328 -335 -312 0
-328 -345 -315 0
-328 -345 -318 0
-328 -345 -320 0
-328 -336 -311 0
-328 -336 -320 0
-328 -336 -316 0
-328 -336 -321 0
-328 -336 -322 0
-328 -336 -313 0
-328 -343 -315 0
-328 -343 -316 0
-328 -343 -321 0
-328 -343 -322 0
-328 -337 -322 0
-328 -337 -319 0
-309 -335 0
-324 -336 -320 0
-324 -336 -316 0
-324 -336 -321 0
-324 -336 -322 0
-324 -336 -317 0
-324 -336 -313 0
-324 -338 -312 0
-324 -338 -316 0
-324 -338 -315 0
-324 -339 -315 0
-324 -339 -313 0
-324 -339 -321 0
-324 -339 -320 0
-324 -334 -322 0
-324 -334 -315 0
-324 -334 -320 0
-324 -334 -318 0
-324 -340 -314 0
-324 -340 -313 0
-309 -336 0
-325 -335 -313 0
-325 -335 -316 0
-325 -335 -317 0
-325 -335 -312 0
-325 -343 -317 0
-325 -343 -316 0
-325 -343 -321 0
-325 -343 -322 0
-325 -339 -311 0
-325 -339 -313 0
-325 -339 -321 0
-325 -339 -320 0
-325 -344 -316 0
-325 -344 -320 0
-325 -345 -317 0
-325 -345 -318 0
-325 -345 -320 0
-325 -334 -311 0
-325 -334 -322 0
-325 -334 -320 0
-325 -334 -318 0
-325 -338 -311 0
-325 -338 -312 0
-325 -338 -316 0
-309 -337 0
-331 -261 -317 0
-331 -261 -319 0
-331 -223 -319 0
-331 -334 -311 0
-331 -334 -322 0
-331 -334 -315 0
-331 -334 -320 0
-331 -345 -315 0
-331 -345 -317 0
-331 -345 -320 0
-263 -299 -311 0
-263 -337 -317 0
-263 -337 -322 0
-263 -337 -319 0
-263 -334 -311 0
-263 -334 -322 0
-263 -334 -315 0
-263 -334 -320 0
-263 -334 -318 0
-263 -341 -318 0
-263 -223 -319 0
-263 -223 -318 0
-330 -340 0
-329 -338 -356 0
-329 -338 -387 0
-329 -338 -381 0
-329 -335 -381 0
-329 -335 -386 0
-329 -335 -387 0
-329 -335 -378 0
-73 -129 0
-74 -130 0
-75 -131 0
-76 -132 0
-77 -133 0
-78 -134 0
-79 -135 0
-80 -136 0
-329 -342 0
-332 -301 -355 0
-332 -356 -379 0
-332 -356 -389 0
-332 -356 -390 0
-332 -356 -374 0
-332 -386 -355 0
-332 -386 -390 0
-332 -386 -379 0
-332 -314 -374 0
-332 -314 -355 0
-332 -314 -379 0
-332 -314 -368 0
-329 -386 0
-326 -342 -355 0
-326 -356 -340 0
-326 -356 -379 0
-326 -356 -390 0
-326 -356 -374 0
-326 -387 -355 0
-326 -387 -379 0
-326 -387 -391 0
-326 -387 -392 0
-326 -381 -355 0
-326 -381 -392 0
-326 -381 -390 0
-326 -381 -391 0
-326 -381 -393 0
-326 -381 -374 0
-329 -356 0
-324 -301 -340 0
-324 -314 -374 0
-324 -314 -379 0
-324 -314 -368 0
-324 -314 -340 0
-324 -342 -389 0
-324 -381 -392 0
-324 -381 -390 0
-324 -381 -391 0
-324 -381 -393 0
-324 -381 -374 0
-324 -381 -389 0
-324 -386 -340 0
-324 -386 -390 0
-324 -386 -379 0
-324 -387 -379 0
-324 -387 -389 0
-324 -387 -391 0
-324 -387 -392 0
-324 -378 -393 0
-324 -378 -379 0
-324 -378 -392 0
-324 -378 -368 0
-284 -301 -335 0
-300 -314 -334 0
-300 -314 -335 0
-300 -314 -336 0
-300 -314 -337 0
-300 -356 -336 0
-300 -356 -338 0
-300 -356 -339 0
-300 -356 -334 0
-300 -356 -340 0
-300 -270 -337 0
-300 -270 -334 0
-300 -270 -341 0
-332 -356 0
-324 -314 -334 0
-324 -314 -336 0
-324 -314 -337 0
-324 -381 -343 0
-324 -381 -339 0
-324 -381 -344 0
-324 -381 -345 0
-324 -381 -334 0
-324 -381 -338 0
-324 -386 -340 0
-324 -386 -339 0
-324 -386 -336 0
-324 -387 -336 0
-324 -387 -338 0
-324 -387 -344 0
-324 -387 -343 0
-324 -378 -345 0
-324 -378 -336 0
-324 -378 -343 0
-324 -378 -337 0
-324 -388 -338 0
-332 -388 0
-329 -386 -335 0
-329 -386 -339 0
-329 -386 -336 0
-329 -356 -336 0
-329 -356 -338 0
-329 -356 -339 0
-329 -356 -334 0
-332 -386 0
-326 -356 -336 0
-326 -356 -339 0
-326 -356 -334 0
-326 -356 -340 0
-326 -388 -335 0
-326 -387 -335 0
-326 -387 -336 0
-326 -387 -344 0
-326 -387 -343 0
-326 -381 -335 0
-326 -381 -343 0
-326 -381 -339 0
-326 -381 -344 0
-326 -381 -345 0
-326 -381 -334 0
-309 -301 -335 0
-309 -378 -335 0
-309 -378 -345 0
-309 -378 -336 0
-309 -378 -343 0
-309 -378 -337 0
-309 -356 -336 0
-309 -356 -338 0
-309 -356 -339 0
-309 -356 -334 0
-309 -356 -340 0
-309 -381 -335 0
-309 -381 -343 0
-309 -381 -339 0
-309 -381 -344 0
-309 -381 -345 0
-309 -381 -334 0
-309 -381 -338 0
-309 -370 -334 0
-309 -370 -345 0
-309 -370 -341 0
-309 -270 -337 0
-309 -270 -334 0
-309 -270 -341 0
-73 -137 0
-74 -138 0
-75 -139 0
-76 -140 0
-77 -141 0
-78 -142 0
-79 -143 0
-80 -144 0
-284 -302 -335 0
-300 -312 -334 0
-300 -312 -335 0
-300 -312 -336 0
-300 -312 -337 0
-300 -355 -336 0
-300 -355 -338 0
-300 -355 -339 0
-300 -355 -334 0
-300 -268 -337 0
-300 -268 -334 0
-300 -268 -341 0
-332 -355 0
-324 -312 -334 0
-324 -312 -336 0
-324 -312 -337 0
-324 -379 -343 0
-324 -379 -339 0
-324 -379 -344 0
-324 -379 -345 0
-324 -379 -334 0
-324 -379 -338 0
-324 -389 -339 0
-324 -389 -336 0
-324 -390 -336 0
-324 -390 -338 0
-324 -390 -344 0
-324 -390 -343 0
-324 -374 -345 0
-324 -374 -336 0
-324 -374 -343 0
-324 -374 -337 0
-332 -389 0
-326 -355 -336 0
-326 -355 -339 0
-326 -355 -334 0
-326 -390 -335 0
-326 -390 -336 0
-326 -390 -344 0
-326 -390 -343 0
-326 -379 -335 0
-326 -379 -343 0
-326 -379 -339 0
-326 -379 -344 0
-326 -379 -345 0
-326 -379 -334 0
-309 -302 -335 0
-309 -374 -335 0
-309 -374 -345 0
-309 -374 -336 0
-309 -374 -343 0
-309 -374 -337 0
-309 -355 -336 0
-309 -355 -338 0
-309 -355 -339 0
-309 -355 -334 0
-309 -379 -335 0
-309 -379 -343 0
-309 -379 -339 0
-309 -379 -344 0
-309 -379 -345 0
-309 -379 -334 0
-309 -379 -338 0
-309 -368 -334 0
-309 -368 -345 0
-309 -368 -341 0
-309 -268 -337 0
-309 -268 -334 0
-309 -268 -341 0
-332 -388 0
-330 -340 0
-332 -302 -356 0
-332 -355 -381 0
-332 -355 -386 0
-332 -355 -387 0
-332 -355 -378 0
-332 -389 -356 0
-332 -389 -387 0
-332 -389 -381 0
-332 -312 -378 0
-332 -312 -356 0
-332 -312 -381 0
-332 -312 -370 0
-326 -340 0
-332 -302 -353 0
-332 -355 -380 0
-332 -355 -395 0
-332 -355 -372 0
-332 -312 -372 0
-332 -312 -353 0
-332 -312 -380 0
-332 -312 -365 0
-326 -355 0
-324 -302 -338 0
-324 -312 -372 0
-324 -312 -380 0
-324 -312 -365 0
-324 -312 -338 0
-324 -340 -386 0
-324 -379 -394 0
-324 -379 -395 0
-324 -379 -396 0
-324 -379 -397 0
-324 -379 -372 0
-324 -390 -380 0
-324 -390 -396 0
-324 -390 -394 0
-324 -374 -397 0
-324 -374 -380 0
-324 -374 -394 0
-324 -374 -365 0
-326 -390 0
-327 -355 -338 0
-327 -355 -380 0
-327 -355 -372 0
-327 -379 -353 0
-327 -379 -394 0
-327 -379 -396 0
-327 -379 -397 0
-327 -379 -372 0
-327 -391 -380 0
-327 -391 -394 0
-327 -392 -380 0
-327 -392 -372 0
-327 -392 -396 0
-327 -392 -397 0
-326 -379 0
-325 -312 -372 0
-325 -312 -353 0
-325 -312 -365 0
-325 -312 -338 0
-325 -355 -338 0
-325 -355 -395 0
-325 -355 -372 0
-325 -392 -372 0
-325 -392 -395 0
-325 -392 -396 0
-325 -392 -397 0
-325 -390 -353 0
-325 -390 -396 0
-325 -390 -394 0
-325 -391 -395 0
-325 -391 -394 0
-325 -393 -372 0
-325 -393 -365 0
-325 -393 -394 0
-325 -374 -353 0
-325 -374 -397 0
-325 -374 -394 0
-325 -374 -365 0
-300 -285 -335 0
-300 -312 -352 0
-300 -312 -347 0
-300 -312 -349 0
-300 -312 -335 0
-300 -340 -353 0
-300 -340 -356 0
-300 -268 -349 0
-300 -268 -352 0
-300 -268 -354 0
-309 -302 -335 0
-309 -374 -346 0
-309 -374 -347 0
-309 -374 -348 0
-309 -374 -349 0
-309 -379 -348 0
-309 -379 -350 0
-309 -379 -351 0
-309 -379 -346 0
-309 -379 -352 0
-309 -379 -353 0
-309 -368 -352 0
-309 -368 -346 0
-309 -368 -354 0
-309 -268 -349 0
-309 -268 -352 0
-309 -268 -354 0
-309 -340 -353 0
-309 -340 -356 0
-324 -340 0
-332 -389 -350 0
-332 -389 -347 0
-332 -312 -352 0
-332 -312 -347 0
-332 -312 -349 0
-324 -379 0
-325 -312 -352 0
-325 -312 -349 0
-325 -312 -335 0
-325 -392 -352 0
-325 -392 -350 0
-325 -392 -351 0
-325 -392 -346 0
-325 -390 -353 0
-325 -390 -351 0
-325 -390 -348 0
-325 -391 -350 0
-325 -391 -348 0
-325 -393 -352 0
-325 -393 -349 0
-325 -393 -348 0
-325 -374 -346 0
-325 -374 -348 0
-325 -374 -349 0
-325 -389 -335 0
-325 -389 -350 0
-324 -389 0
-326 -340 -356 0
-326 -390 -347 0
-326 -390 -351 0
-326 -390 -348 0
-326 -379 -348 0
-326 -379 -350 0
-326 -379 -351 0
-326 -379 -346 0
-326 -379 -352 0
-324 -390 0
-327 -379 -348 0
-327 -379 -351 0
-327 -379 -346 0
-327 -379 -352 0
-327 -379 -353 0
-327 -389 -335 0
-327 -389 -347 0
-327 -391 -347 0
-327 -391 -348 0
-327 -392 -347 0
-327 -392 -352 0
-327 -392 -351 0
-327 -392 -346 0
-324 -374 0
-328 -312 -347 0
-328 -312 -349 0
-328 -312 -335 0
-328 -268 -349 0
-328 -268 -354 0
-328 -393 -347 0
-328 -393 -349 0
-328 -393 -348 0
-328 -379 -348 0
-328 -379 -350 0
-328 -379 -351 0
-328 -379 -346 0
-328 -379 -353 0
-328 -392 -347 0
-328 -392 -350 0
-328 -392 -351 0
-328 -392 -346 0
-328 -368 -346 0
-328 -368 -354 0
-239 -259 -190 0
-239 -259 -192 0
-239 -259 -193 0
-239 -294 -192 0
-239 -294 -198 0
-239 -294 -202 0
-239 -294 -190 0
-239 -294 -197 0
-239 -218 -193 0
-239 -218 -190 0
-239 -291 -197 0
-284 -299 -198 0
-284 -299 -209 0
-284 -299 -211 0
-284 -299 -208 0
-207 -218 -193 0
-207 -218 -190 0
-207 -259 -190 0
-207 -259 -192 0
-207 -259 -193 0
-200 -291 -240 0
-207 -218 -247 0
-207 -218 -249 0
-207 -259 -249 0
-207 -259 -245 0
-207 -259 -247 0
-263 -293 -245 0
-263 -293 -246 0
-263 -293 -247 0
-263 -294 -245 0
-263 -294 -243 0
-263 -294 -248 0
-263 -294 -249 0
-263 -294 -240 0
-263 -295 -243 0
-263 -295 -246 0
-263 -295 -248 0
-263 -295 -250 0
-263 -295 -249 0
-263 -296 -249 0
-263 -218 -247 0
-263 -218 -249 0
-309 -295 -243 0
-309 -295 -246 0
-309 -295 -248 0
-309 -295 -250 0
-309 -295 -249 0
-309 -297 -240 0
-309 -297 -248 0
-309 -297 -252 0
-309 -297 -254 0
-309 -297 -245 0
-309 -297 -251 0
-309 -298 -243 0
-309 -298 -250 0
-309 -298 -254 0
-309 -298 -257 0
-309 -298 -246 0
-309 -298 -245 0
-309 -298 -252 0
-309 -293 -245 0
-309 -293 -246 0
-309 -293 -247 0
-309 -259 -249 0
-309 -259 -245 0
-309 -259 -247 0
-309 -299 -243 0
-309 -299 -251 0
-309 -299 -252 0
-309 -299 -253 0
-226 -296 -249 0
-226 -259 -249 0
-226 -259 -245 0
-226 -259 -247 0
-226 -293 -245 0
-226 -293 -246 0
-226 -293 -247 0
-284 -299 -243 0
-284 -299 -251 0
-284 -299 -252 0
-284 -299 -253 0
-284 -299 0
-332 -297 -281 0
-332 -297 -286 0
-332 -297 -288 0
-332 -297 -279 0
-332 -297 -285 0
-332 -302 -287 0
-332 -302 -286 0
-332 -302 -280 0
-332 -303 -280 0
-332 -303 -285 0
-332 -303 -288 0
-332 -303 -281 0
-332 -294 -279 0
-332 -294 -280 0
-332 -294 -281 0
-332 -294 -282 0
-332 -301 -285 0
-239 -259 -282 0
-239 -259 -279 0
-239 -259 -289 0
-239 -294 -279 0
-239 -294 -280 0
-239 -294 -281 0
-239 -294 -282 0
-239 -294 -283 0
-239 -218 -289 0
-239 -218 -282 0
-239 -259 -318 0
-239 -259 -317 0
-239 -259 -319 0
-239 -218 -319 0
-239 -218 -318 0
-239 -291 -310 0
-309 -295 0
-328 -259 -318 0
-328 -259 -319 0
-328 -297 -310 0
-328 -297 -315 0
-328 -297 -313 0
-328 -297 -316 0
-328 -297 -312 0
-328 -304 -315 0
-328 -304 -318 0
-328 -304 -320 0
-328 -298 -311 0
-328 -298 -320 0
-328 -298 -316 0
-328 -298 -321 0
-328 -298 -322 0
-328 -298 -313 0
-328 -305 -315 0
-328 -305 -316 0
-328 -305 -321 0
-328 -305 -322 0
-328 -293 -322 0
-328 -293 -319 0
-309 -297 0
-324 -299 -312 0
-324 -299 -313 0
-324 -299 -314 0
-324 -298 -320 0
-324 -298 -316 0
-324 -298 -321 0
-324 -298 -322 0
-324 -298 -317 0
-324 -298 -313 0
-324 -303 -310 0
-324 -303 -312 0
-324 -303 -316 0
-324 -303 -315 0
-324 -306 -315 0
-324 -306 -313 0
-324 -306 -321 0
-324 -306 -320 0
-324 -295 -322 0
-324 -295 -315 0
-324 -295 -320 0
-324 -295 -318 0
-324 -302 -310 0
-324 -302 -314 0
-324 -302 -313 0
-309 -298 0
-325 -297 -310 0
-325 -297 -313 0
-325 -297 -316 0
-325 -297 -317 0
-325 -297 -312 0
-325 -305 -317 0
-325 -305 -316 0
-325 -305 -321 0
-325 -305 -322 0
-325 -306 -311 0
-325 -306 -313 0
-325 -306 -321 0
-325 -306 -320 0
-325 -307 -316 0
-325 -307 -320 0
-325 -304 -317 0
-325 -304 -318 0
-325 -304 -320 0
-325 -295 -311 0
-325 -295 -322 0
-325 -295 -320 0
-325 -295 -318 0
-325 -303 -310 0
-325 -303 -311 0
-325 -303 -312 0
-325 -303 -316 0
-309 -293 0
-331 -259 -317 0
-331 -259 -319 0
-331 -218 -319 0
-331 -295 -311 0
-331 -295 -322 0
-331 -295 -315 0
-331 -295 -320 0
-331 -304 -315 0
-331 -304 -317 0
-331 -304 -320 0
-263 -293 -317 0
-263 -293 -322 0
-263 -293 -319 0
-263 -295 -311 0
-263 -295 -322 0
-263 -295 -315 0
-263 -295 -320 0
-263 -295 -318 0
-263 -296 -318 0
-263 -218 -319 0
-263 -218 -318 0
-309 -299 0
-332 -297 -315 0
-332 -297 -313 0
-332 -297 -316 0
-332 -297 -317 0
-332 -297 -312 0
-332 -302 -314 0
-332 -302 -313 0
-332 -302 -311 0
-332 -303 -311 0
-332 -303 -312 0
-332 -303 -316 0
-332 -303 -315 0
-332 -301 -312 0
-332 -297 0
-324 -294 -334 0
-324 -294 -336 0
-324 -294 -337 0
-324 -298 -343 0
-324 -298 -339 0
-324 -298 -344 0
-324 -298 -345 0
-324 -298 -334 0
-324 -298 -338 0
-324 -303 -340 0
-324 -303 -339 0
-324 -303 -336 0
-324 -306 -336 0
-324 -306 -338 0
-324 -306 -344 0
-324 -306 -343 0
-324 -295 -345 0
-324 -295 -336 0
-324 -295 -343 0
-324 -295 -337 0
-324 -302 -342 0
-324 -302 -338 0
-332 -302 0
-329 -303 -335 0
-329 -303 -339 0
-329 -303 -336 0
-329 -297 -336 0
-329 -297 -338 0
-329 -297 -339 0
-329 -297 -334 0
-332 -303 0
-326 -297 -336 0
-326 -297 -339 0
-326 -297 -334 0
-326 -297 -340 0
-326 -302 -342 0
-326 -302 -335 0
-326 -306 -335 0
-326 -306 -336 0
-326 -306 -344 0
-326 -306 -343 0
-326 -298 -335 0
-326 -298 -343 0
-326 -298 -339 0
-326 -298 -344 0
-326 -298 -345 0
-326 -298 -334 0
-309 -295 -335 0
-309 -295 -345 0
-309 -295 -336 0
-309 -295 -343 0
-309 -295 -337 0
-309 -297 -336 0
-309 -297 -338 0
-309 -297 -339 0
-309 -297 -334 0
-309 -297 -340 0
-309 -298 -335 0
-309 -298 -343 0
-309 -298 -339 0
-309 -298 -344 0
-309 -298 -345 0
-309 -298 -334 0
-309 -298 -338 0
-309 -293 -334 0
-309 -293 -345 0
-309 -293 -341 0
-309 -259 -337 0
-309 -259 -334 0
-309 -259 -341 0
-332 -301 0
-330 -302 -338 0
-330 -302 -335 0
-309 -295 -346 0
-309 -295 -347 0
-309 -295 -348 0
-309 -295 -349 0
-309 -298 -348 0
-309 -298 -350 0
-309 -298 -351 0
-309 -298 -346 0
-309 -298 -352 0
-309 -298 -353 0
-309 -293 -352 0
-309 -293 -346 0
-309 -293 -354 0
-309 -259 -349 0
-309 -259 -352 0
-309 -259 -354 0
-309 -299 -355 0
-309 -299 -353 0
-309 -299 -356 0
-324 -299 0
-332 -302 -356 0
-332 -302 -353 0
-332 -303 -355 0
-332 -303 -350 0
-332 -303 -347 0
-332 -294 -352 0
-332 -294 -347 0
-332 -294 -349 0
-332 -301 -355 0
-324 -298 0
-325 -294 -352 0
-325 -294 -349 0
-325 -294 -335 0
-325 -305 -352 0
-325 -305 -350 0
-325 -305 -351 0
-325 -305 -346 0
-325 -306 -353 0
-325 -306 -351 0
-325 -306 -348 0
-325 -307 -350 0
-325 -307 -348 0
-325 -304 -352 0
-325 -304 -349 0
-325 -304 -348 0
-325 -295 -346 0
-325 -295 -348 0
-325 -295 -349 0
-325 -303 -335 0
-325 -303 -355 0
-325 -303 -350 0
-324 -303 0
-326 -299 -355 0
-326 -299 -356 0
-326 -302 -335 0
-326 -302 -356 0
-326 -306 -347 0
-326 -306 -351 0
-326 -306 -348 0
-326 -298 -348 0
-326 -298 -350 0
-326 -298 -351 0
-326 -298 -346 0
-326 -298 -352 0
-324 -306 0
-327 -298 -348 0
-327 -298 -351 0
-327 -298 -346 0
-327 -298 -352 0
-327 -298 -353 0
-327 -303 -335 0
-327 -303 -355 0
-327 -303 -347 0
-327 -307 -347 0
-327 -307 -348 0
-327 -305 -347 0
-327 -305 -352 0
-327 -305 -351 0
-327 -305 -346 0
-324 -295 0
-328 -294 -347 0
-328 -294 -349 0
-328 -294 -335 0
-328 -259 -349 0
-328 -259 -354 0
-328 -304 -347 0
-328 -304 -349 0
-328 -304 -348 0
-328 -298 -348 0
-328 -298 -350 0
-328 -298 -351 0
-328 -298 -346 0
-328 -298 -353 0
-328 -305 -347 0
-328 -305 -350 0
-328 -305 -351 0
-328 -305 -346 0
-328 -293 -346 0
-328 -293 -354 0
-324 -302 0
-329 -299 -353 0
-329 -299 -356 0
-329 -301 -335 0
-329 -303 -335 0
-329 -303 -350 0
-329 -303 -347 0
-207 -218 -267 0
-207 -218 -266 0
-239 -294 -264 0
-239 -294 -262 0
-239 -294 -265 0
-239 -294 -266 0
-239 -294 -261 0
-239 -218 -267 0
-239 -218 -266 0
-239 -291 -261 0
-263 -293 0
-331 -294 -264 0
-331 -294 -262 0
-331 -294 -265 0
-331 -294 -261 0
-331 -218 -267 0
-331 -295 -262 0
-331 -295 -272 0
-331 -295 -265 0
-331 -295 -273 0
-331 -304 -265 0
-331 -304 -264 0
-331 -304 -273 0
-309 -295 -262 0
-309 -295 -272 0
-309 -295 -265 0
-309 -295 -273 0
-309 -295 -266 0
-309 -297 -261 0
-309 -297 -265 0
-309 -297 -269 0
-309 -297 -271 0
-309 -297 -264 0
-309 -297 -268 0
-309 -298 -262 0
-309 -298 -273 0
-309 -298 -271 0
-309 -298 -274 0
-309 -298 -272 0
-309 -298 -264 0
-309 -298 -269 0
-309 -293 -264 0
-309 -293 -272 0
-309 -293 -267 0
-309 -299 -262 0
-309 -299 -268 0
-309 -299 -269 0
-309 -299 -270 0
-263 -295 0
-328 -294 -262 0
-328 -294 -265 0
-328 -294 -266 0
-328 -294 -261 0
-328 -297 -261 0
-328 -297 -265 0
-328 -297 -269 0
-328 -297 -271 0
-328 -297 -268 0
-328 -304 -265 0
-328 -304 -266 0
-328 -304 -273 0
-328 -298 -262 0
-328 -298 -273 0
-328 -298 -271 0
-328 -298 -274 0
-328 -298 -272 0
-328 -298 -269 0
-328 -305 -265 0
-328 -305 -271 0
-328 -305 -274 0
-328 -305 -272 0
-328 -293 -272 0
-328 -293 -267 0
-263 -296 0
-333 -218 -266 0
-333 -293 -264 0
-333 -293 -272 0
-226 -296 -266 0
-226 -293 -264 0
-226 -293 -272 0
-226 -293 -267 0
-240 -258 -190 0
-240 -258 -192 0
-240 -258 -193 0
-240 -291 -198 0
-240 -278 -192 0
-240 -278 -198 0
-240 -278 -202 0
-240 -278 -190 0
-240 -217 -193 0
-240 -217 -190 0
-299 -278 -192 0
-299 -278 -198 0
-299 -278 -202 0
-299 -278 -190 0
-299 -280 -202 0
-299 -280 -211 0
-299 -280 -214 0
-299 -280 -192 0
-299 -280 -209 0
-299 -258 -190 0
-299 -258 -192 0
-299 -258 -193 0
-299 -284 -208 0
-299 -284 -209 0
-210 -217 -193 0
-210 -217 -190 0
-210 -258 -190 0
-210 -258 -192 0
-210 -258 -193 0
-240 -258 -293 0
-240 -258 -295 0
-240 -258 -296 0
-240 -278 -295 0
-240 -278 -297 0
-240 -278 -298 0
-240 -278 -293 0
-240 -217 -296 0
-240 -217 -293 0
-310 -279 -297 0
-310 -279 -304 0
-310 -279 -298 0
-310 -279 -305 0
-310 -279 -293 0
-310 -280 -298 0
-310 -280 -303 0
-310 -280 -306 0
-310 -280 -295 0
-310 -280 -302 0
-310 -281 -297 0
-310 -281 -305 0
-310 -281 -306 0
-310 -281 -307 0
-310 -281 -304 0
-310 -281 -295 0
-310 -281 -303 0
-310 -282 -295 0
-310 -282 -304 0
-310 -282 -296 0
-310 -258 -293 0
-310 -258 -295 0
-310 -258 -296 0
-299 -280 0
-335 -278 -295 0
-335 -278 -298 0
-335 -278 -293 0
-335 -281 -305 0
-335 -281 -306 0
-335 -281 -307 0
-335 -281 -304 0
-335 -281 -295 0
-335 -281 -303 0
-335 -286 -302 0
-335 -286 -306 0
-335 -286 -298 0
-335 -288 -298 0
-335 -288 -303 0
-335 -288 -307 0
-335 -288 -305 0
-335 -279 -304 0
-335 -279 -298 0
-335 -279 -305 0
-335 -279 -293 0
-335 -285 -301 0
-335 -285 -303 0
-261 -282 -295 0
-261 -282 -304 0
-261 -282 -296 0
-261 -278 -295 0
-261 -278 -297 0
-261 -278 -298 0
-261 -278 -293 0
-261 -279 -297 0
-261 -279 -304 0
-261 -279 -298 0
-261 -279 -305 0
-261 -279 -293 0
-261 -289 -293 0
-261 -217 -296 0
-261 -217 -293 0
-332 -287 -302 0
-332 -285 -301 0
-332 -285 -303 0
-332 -285 -297 0
-332 -287 0
-342 -285 -326 0
-342 -285 -324 0
-332 -285 0
-340 -286 -324 0
-340 -286 -327 0
-340 -286 -325 0
-340 -280 -325 0
-340 -280 -326 0
-340 -280 -327 0
-340 -280 -328 0
-299 -278 -328 0
-299 -278 -324 0
-299 -278 -325 0
-299 -278 -331 0
-299 -280 -325 0
-299 -280 -326 0
-299 -280 -327 0
-299 -280 -328 0
-299 -280 -329 0
-299 -258 -331 0
-299 -258 -328 0
-299 -258 -333 0
-197 -291 -243 0
-210 -217 -247 0
-210 -217 -249 0
-210 -258 -249 0
-210 -258 -245 0
-210 -258 -247 0
-261 -291 -243 0
-261 -282 -245 0
-261 -282 -246 0
-261 -282 -247 0
-261 -278 -245 0
-261 -278 -243 0
-261 -278 -248 0
-261 -278 -249 0
-261 -279 -243 0
-261 -279 -246 0
-261 -279 -248 0
-261 -279 -250 0
-261 -279 -249 0
-261 -289 -249 0
-261 -217 -247 0
-261 -217 -249 0
-299 -278 -245 0
-299 -278 -243 0
-299 -278 -248 0
-299 -278 -249 0
-299 -280 -248 0
-299 -280 -252 0
-299 -280 -254 0
-299 -280 -245 0
-299 -280 -251 0
-299 -258 -249 0
-299 -258 -245 0
-299 -258 -247 0
-299 -284 -253 0
-299 -284 -251 0
-310 -291 -243 0
-310 -279 -243 0
-310 -279 -246 0
-310 -279 -248 0
-310 -279 -250 0
-310 -279 -249 0
-310 -280 -248 0
-310 -280 -252 0
-310 -280 -254 0
-310 -280 -245 0
-310 -280 -251 0
-310 -281 -243 0
-310 -281 -250 0
-310 -281 -254 0
-310 -281 -257 0
-310 -281 -246 0
-310 -281 -245 0
-310 -281 -252 0
-310 -282 -245 0
-310 -282 -246 0
-310 -282 -247 0
-310 -258 -249 0
-310 -258 -245 0
-310 -258 -247 0
-223 -289 -249 0
-223 -258 -249 0
-223 -258 -245 0
-223 -258 -247 0
-223 -282 -245 0
-223 -282 -246 0
-223 -282 -247 0
-240 -259 -190 0
-240 -259 -192 0
-240 -259 -193 0
-240 -294 -192 0
-240 -294 -198 0
-240 -294 -202 0
-240 -294 -190 0
-240 -218 -193 0
-240 -218 -190 0
-283 -300 -208 0
-283 -300 -209 0
-210 -218 -193 0
-210 -218 -190 0
-210 -259 -190 0
-210 -259 -192 0
-210 -259 -193 0
-210 -218 -247 0
-210 -218 -249 0
-210 -259 -249 0
-210 -259 -245 0
-210 -259 -247 0
-261 -293 -245 0
-261 -293 -246 0
-261 -293 -247 0
-261 -294 -245 0
-261 -294 -243 0
-261 -294 -248 0
-261 -294 -249 0
-261 -295 -243 0
-261 -295 -246 0
-261 -295 -248 0
-261 -295 -250 0
-261 -295 -249 0
-261 -296 -249 0
-261 -218 -247 0
-261 -218 -249 0
-310 -295 -243 0
-310 -295 -246 0
-310 -295 -248 0
-310 -295 -250 0
-310 -295 -249 0
-310 -297 -248 0
-310 -297 -252 0
-310 -297 -254 0
-310 -297 -245 0
-310 -297 -251 0
-310 -298 -243 0
-310 -298 -250 0
-310 -298 -254 0
-310 -298 -257 0
-310 -298 -246 0
-310 -298 -245 0
-310 -298 -252 0
-310 -293 -245 0
-310 -293 -246 0
-310 -293 -247 0
-310 -259 -249 0
-310 -259 -245 0
-310 -259 -247 0
-223 -296 -249 0
-223 -259 -249 0
-223 -259 -245 0
-223 -259 -247 0
-223 -293 -245 0
-223 -293 -246 0
-223 -293 -247 0
-283 -300 -253 0
-283 -300 -251 0
-332 -301 -285 0
-332 -302 -287 0
-332 -302 -286 0
-332 -302 -280 0
-240 -259 -282 0
-240 -259 -279 0
-240 -259 -289 0
-240 -294 -279 0
-240 -294 -280 0
-240 -294 -281 0
-240 -294 -282 0
-240 -218 -289 0
-240 -218 -282 0
-240 -259 -318 0
-240 -259 -317 0
-240 -259 -319 0
-240 -218 -319 0
-240 -218 -318 0
-310 -295 0
-334 -259 -318 0
-334 -259 -319 0
-334 -297 -315 0
-334 -297 -313 0
-334 -297 -316 0
-334 -297 -312 0
-334 -304 -315 0
-334 -304 -318 0
-334 -304 -320 0
-334 -298 -311 0
-334 -298 -320 0
-334 -298 -316 0
-334 -298 -321 0
-334 -298 -322 0
-334 -298 -313 0
-334 -305 -315 0
-334 -305 -316 0
-334 -305 -321 0
-334 -305 -322 0
-334 -293 -322 0
-334 -293 -319 0
-310 -297 0
-335 -298 -320 0
-335 -298 -316 0
-335 -298 -321 0
-335 -298 -322 0
-335 -298 -317 0
-335 -298 -313 0
-335 -303 -312 0
-335 -303 -316 0
-335 -303 -315 0
-335 -306 -315 0
-335 -306 -313 0
-335 -306 -321 0
-335 -306 -320 0
-335 -295 -322 0
-335 -295 -315 0
-335 -295 -320 0
-335 -295 -318 0
-335 -302 -314 0
-335 -302 -313 0
-310 -298 0
-336 -297 -313 0
-336 -297 -316 0
-336 -297 -317 0
-336 -297 -312 0
-336 -305 -317 0
-336 -305 -316 0
-336 -305 -321 0
-336 -305 -322 0
-336 -306 -311 0
-336 -306 -313 0
-336 -306 -321 0
-336 -306 -320 0
-336 -307 -316 0
-336 -307 -320 0
-336 -304 -317 0
-336 -304 -318 0
-336 -304 -320 0
-336 -295 -311 0
-336 -295 -322 0
-336 -295 -320 0
-336 -295 -318 0
-336 -303 -311 0
-336 -303 -312 0
-336 -303 -316 0
-310 -293 0
-337 -259 -317 0
-337 -259 -319 0
-337 -218 -319 0
-337 -295 -311 0
-337 -295 -322 0
-337 -295 -315 0
-337 -295 -320 0
-337 -304 -315 0
-337 -304 -317 0
-337 -304 -320 0
-261 -293 -317 0
-261 -293 -322 0
-261 -293 -319 0
-261 -295 -311 0
-261 -295 -322 0
-261 -295 -315 0
-261 -295 -320 0
-261 -295 -318 0
-261 -296 -318 0
-261 -218 -319 0
-261 -218 -318 0
-310 -295 -346 0
-310 -295 -347 0
-310 -295 -348 0
-310 -295 -349 0
-310 -298 -348 0
-310 -298 -350 0
-310 -298 -351 0
-310 -298 -346 0
-310 -298 -352 0
-310 -298 -353 0
-310 -293 -352 0
-310 -293 -346 0
-310 -293 -354 0
-310 -259 -349 0
-310 -259 -352 0
-310 -259 -354 0
-335 -298 0
-336 -294 -352 0
-336 -294 -349 0
-336 -305 -352 0
-336 -305 -350 0
-336 -305 -351 0
-336 -305 -346 0
-336 -306 -353 0
-336 -306 -351 0
-336 -306 -348 0
-336 -307 -350 0
-336 -307 -348 0
-336 -304 -352 0
-336 -304 -349 0
-336 -304 -348 0
-336 -295 -346 0
-336 -295 -348 0
-336 -295 -349 0
-336 -303 -355 0
-336 -303 -350 0
-335 -303 0
-338 -302 -356 0
-338 -306 -347 0
-338 -306 -351 0
-338 -306 -348 0
-338 -298 -348 0
-338 -298 -350 0
-338 -298 -351 0
-338 -298 -346 0
-338 -298 -352 0
-335 -306 0
-339 -298 -348 0
-339 -298 -351 0
-339 -298 -346 0
-339 -298 -352 0
-339 -298 -353 0
-339 -303 -355 0
-339 -303 -347 0
-339 -307 -347 0
-339 -307 -348 0
-339 -305 -347 0
-339 -305 -352 0
-339 -305 -351 0
-339 -305 -346 0
-335 -295 0
-334 -294 -347 0
-334 -294 -349 0
-334 -259 -349 0
-334 -259 -354 0
-334 -304 -347 0
-334 -304 -349 0
-334 -304 -348 0
-334 -298 -348 0
-334 -298 -350 0
-334 -298 -351 0
-334 -298 -346 0
-334 -298 -353 0
-334 -305 -347 0
-334 -305 -350 0
-334 -305 -351 0
-334 -305 -346 0
-334 -293 -346 0
-334 -293 -354 0
-335 -302 0
-340 -300 -356 0
-340 -303 -350 0
-340 -303 -347 0
-210 -218 -267 0
-210 -218 -266 0
-240 -294 -264 0
-240 -294 -262 0
-240 -294 -265 0
-240 -294 -266 0
-240 -218 -267 0
-240 -218 -266 0
-261 -293 0
-337 -294 -264 0
-337 -294 -262 0
-337 -294 -265 0
-337 -218 -267 0
-337 -295 -262 0
-337 -295 -272 0
-337 -295 -265 0
-337 -295 -273 0
-337 -304 -265 0
-337 -304 -264 0
-337 -304 -273 0
-310 -295 -262 0
-310 -295 -272 0
-310 -295 -265 0
-310 -295 -273 0
-310 -295 -266 0
-310 -297 -265 0
-310 -297 -269 0
-310 -297 -271 0
-310 -297 -264 0
-310 -297 -268 0
-310 -298 -262 0
-310 -298 -273 0
-310 -298 -271 0
-310 -298 -274 0
-310 -298 -272 0
-310 -298 -264 0
-310 -298 -269 0
-310 -293 -264 0
-310 -293 -272 0
-310 -293 -267 0
-261 -295 0
-334 -294 -262 0
-334 -294 -265 0
-334 -294 -266 0
-334 -297 -265 0
-334 -297 -269 0
-334 -297 -271 0
-334 -297 -268 0
-334 -304 -265 0
-334 -304 -266 0
-334 -304 -273 0
-334 -298 -262 0
-334 -298 -273 0
-334 -298 -271 0
-334 -298 -274 0
-334 -298 -272 0
-334 -298 -269 0
-334 -305 -265 0
-334 -305 -271 0
-334 -305 -274 0
-334 -305 -272 0
-334 -293 -272 0
-334 -293 -267 0
-261 -296 0
-341 -218 -266 0
-341 -293 -264 0
-341 -293 -272 0
-223 -296 -266 0
-223 -293 -264 0
-223 -293 -272 0
-223 -293 -267 0
-332 -301 0
-342 -302 -326 0
-342 -302 -324 0
-332 -302 0
-340 -303 -324 0
-340 -303 -327 0
-340 -303 -325 0
-340 -297 -325 0
-340 -297 -326 0
-340 -297 -327 0
-340 -297 -328 0
-197 -300 -280 0
-299 -309 -279 0
-299 -309 -280 0
-299 -309 -281 0
-299 -309 -282 0
-299 -324 -281 0
-299 -324 -286 0
-299 -324 -288 0
-299 -324 -279 0
-299 -324 -285 0
-299 -263 -282 0
-299 -263 -279 0
-299 -263 -289 0
-240 -263 -282 0
-240 -263 -279 0
-240 -263 -289 0
-240 -300 -280 0
-240 -309 -279 0
-240 -309 -280 0
-240 -309 -281 0
-240 -309 -282 0
-240 -226 -289 0
-240 -226 -282 0
-342 -329 0
-340 -326 -356 0
-340 -326 -387 0
-340 -326 -381 0
-340 -324 -381 0
-340 -324 -386 0
-340 -324 -387 0
-340 -324 -378 0
-340 -330 0
-340 -326 0
-338 -324 -379 0
-338 -324 -390 0
-338 -324 -374 0
-338 -327 -355 0
-338 -327 -379 0
-338 -327 -391 0
-338 -327 -392 0
-338 -325 -355 0
-338 -325 -392 0
-338 -325 -390 0
-338 -325 -391 0
-338 -325 -393 0
-338 -325 -374 0
-340 -324 0
-335 -309 -374 0
-335 -309 -379 0
-335 -309 -368 0
-335 -325 -392 0
-335 -325 -390 0
-335 -325 -391 0
-335 -325 -393 0
-335 -325 -374 0
-335 -325 -389 0
-335 -326 -390 0
-335 -326 -379 0
-335 -327 -379 0
-335 -327 -389 0
-335 -327 -391 0
-335 -327 -392 0
-335 -328 -393 0
-335 -328 -379 0
-335 -328 -392 0
-335 -328 -368 0
-240 -263 -293 0
-240 -263 -295 0
-240 -263 -296 0
-240 -309 -295 0
-240 -309 -297 0
-240 -309 -298 0
-240 -309 -293 0
-240 -226 -296 0
-240 -226 -293 0
-310 -328 -297 0
-310 -328 -304 0
-310 -328 -298 0
-310 -328 -305 0
-310 -328 -293 0
-310 -324 -298 0
-310 -324 -303 0
-310 -324 -306 0
-310 -324 -295 0
-310 -324 -302 0
-310 -325 -297 0
-310 -325 -305 0
-310 -325 -306 0
-310 -325 -307 0
-310 -325 -304 0
-310 -325 -295 0
-310 -325 -303 0
-310 -331 -295 0
-310 -331 -304 0
-310 -331 -296 0
-310 -263 -293 0
-310 -263 -295 0
-310 -263 -296 0
-299 -324 0
-335 -309 -295 0
-335 -309 -298 0
-335 -309 -293 0
-335 -325 -305 0
-335 -325 -306 0
-335 -325 -307 0
-335 -325 -304 0
-335 -325 -295 0
-335 -325 -303 0
-335 -326 -302 0
-335 -326 -306 0
-335 -326 -298 0
-335 -327 -298 0
-335 -327 -303 0
-335 -327 -307 0
-335 -327 -305 0
-335 -328 -304 0
-335 -328 -298 0
-335 -328 -305 0
-335 -328 -293 0
-335 -329 -301 0
-335 -329 -303 0
-261 -331 -295 0
-261 -331 -304 0
-261 -331 -296 0
-261 -309 -295 0
-261 -309 -297 0
-261 -309 -298 0
-261 -309 -293 0
-261 -328 -297 0
-261 -328 -304 0
-261 -328 -298 0
-261 -328 -305 0
-261 -328 -293 0
-261 -333 -293 0
-261 -226 -296 0
-261 -226 -293 0
-81 -89 0
-82 -90 0
-83 -91 0
-84 -92 0
-85 -93 0
-86 -94 0
-87 -95 0
-88 -96 0
-240 -262 -293 0
-240 -262 -295 0
-240 -262 -296 0
-240 -311 -295 0
-240 -311 -298 0
-240 -311 -293 0
-240 -224 -296 0
-240 -224 -293 0
-283 -324 -301 0
-283 -324 -302 0
-310 -352 -304 0
-310 -352 -298 0
-310 -352 -305 0
-310 -352 -293 0
-310 -347 -305 0
-310 -347 -306 0
-310 -347 -307 0
-310 -347 -304 0
-310 -347 -295 0
-310 -347 -303 0
-310 -349 -295 0
-310 -349 -304 0
-310 -349 -296 0
-310 -262 -293 0
-310 -262 -295 0
-310 -262 -296 0
-261 -349 -295 0
-261 -349 -304 0
-261 -349 -296 0
-261 -311 -295 0
-261 -311 -298 0
-261 -311 -293 0
-261 -352 -304 0
-261 -352 -298 0
-261 -352 -305 0
-261 -352 -293 0
-261 -354 -293 0
-261 -224 -296 0
-261 -224 -293 0
-332 -356 -302 0
-332 -355 -301 0
-332 -355 -303 0
-240 -262 -318 0
-240 -262 -317 0
-240 -262 -319 0
-240 -224 -319 0
-240 -224 -318 0
-299 -262 -318 0
-299 -262 -317 0
-299 -262 -319 0
-299 -324 -314 0
-299 -324 -312 0
-310 -352 0
-334 -262 -318 0
-334 -262 -319 0
-334 -346 -315 0
-334 -346 -318 0
-334 -346 -320 0
-334 -347 -320 0
-334 -347 -316 0
-334 -347 -321 0
-334 -347 -322 0
-334 -347 -313 0
-334 -348 -315 0
-334 -348 -316 0
-334 -348 -321 0
-334 -348 -322 0
-334 -349 -322 0
-334 -349 -319 0
-310 -347 0
-336 -348 -317 0
-336 -348 -316 0
-336 -348 -321 0
-336 -348 -322 0
-336 -350 -313 0
-336 -350 -321 0
-336 -350 -320 0
-336 -351 -316 0
-336 -351 -320 0
-336 -346 -317 0
-336 -346 -318 0
-336 -346 -320 0
-336 -352 -322 0
-336 -352 -320 0
-336 -352 -318 0
-336 -353 -312 0
-336 -353 -316 0
-310 -349 0
-337 -262 -317 0
-337 -262 -319 0
-337 -224 -319 0
-337 -352 -322 0
-337 -352 -315 0
-337 -352 -320 0
-337 -346 -315 0
-337 -346 -317 0
-337 -346 -320 0
-261 -349 -317 0
-261 -349 -322 0
-261 -349 -319 0
-261 -352 -322 0
-261 -352 -315 0
-261 -352 -320 0
-261 -352 -318 0
-261 -354 -318 0
-261 -224 -319 0
-261 -224 -318 0
-310 -352 -385 0
-310 -352 -384 0
-310 -352 -363 0
-310 -349 -371 0
-310 -349 -385 0
-310 -349 -359 0
-310 -262 -363 0
-310 -262 -371 0
-310 -262 -359 0
-336 -348 0
-343 -352 -385 0
-343 -352 -363 0
-343 -350 -380 0
-343 -350 -383 0
-343 -351 -382 0
-343 -346 -371 0
-343 -346 -363 0
-336 -350 0
-339 -353 -379 0
-339 -351 -384 0
-339 -348 -371 0
-339 -348 -383 0
-339 -348 -385 0
-336 -351 0
-344 -350 -380 0
-344 -350 -384 0
-344 -348 -371 0
-344 -348 -382 0
-344 -348 -385 0
-336 -346 0
-345 -352 -384 0
-345 -352 -363 0
-345 -349 -371 0
-345 -349 -359 0
-345 -348 -371 0
-345 -348 -382 0
-345 -348 -383 0
-336 -352 0
-334 -311 -363 0
-334 -262 -363 0
-334 -262 -359 0
-334 -346 -363 0
-334 -346 -384 0
-334 -348 -382 0
-334 -348 -383 0
-334 -348 -385 0
-334 -349 -385 0
-334 -349 -359 0
-336 -353 0
-338 -355 -381 0
-338 -350 -383 0
-338 -350 -384 0
-338 -355 0
-340 -324 -386 0
-338 -350 0
-339 -347 -394 0
-339 -347 -396 0
-339 -347 -397 0
-339 -347 -372 0
-339 -351 -380 0
-339 -351 -394 0
-339 -348 -380 0
-339 -348 -372 0
-339 -348 -396 0
-339 -348 -397 0
-338 -347 0
-336 -311 -372 0
-336 -311 -365 0
-336 -348 -372 0
-336 -348 -395 0
-336 -348 -396 0
-336 -348 -397 0
-336 -350 -396 0
-336 -350 -394 0
-336 -351 -395 0
-336 -351 -394 0
-336 -346 -372 0
-336 -346 -365 0
-336 -346 -394 0
-336 -352 -397 0
-336 -352 -394 0
-336 -352 -365 0
-339 -347 0
-336 -311 -373 0
-336 -311 -366 0
-336 -348 -373 0
-336 -348 -398 0
-336 -348 -399 0
-336 -351 -400 0
-336 -346 -373 0
-336 -346 -366 0
-336 -346 -400 0
-336 -352 -399 0
-336 -352 -400 0
-336 -352 -366 0
-336 -353 -390 0
-339 -353 0
-338 -355 -387 0
-338 -347 -400 0
-338 -347 -398 0
-338 -347 -399 0
-338 -347 -373 0
-339 -351 0
-344 -347 -400 0
-344 -347 -399 0
-344 -347 -373 0
-344 -347 -395 0
-344 -348 -382 0
-344 -348 -373 0
-344 -348 -399 0
-339 -348 0
-343 -347 -398 0
-343 -347 -399 0
-343 -347 -373 0
-343 -347 -395 0
-343 -352 -399 0
-343 -352 -382 0
-343 -352 -366 0
-343 -351 -382 0
-343 -346 -382 0
-343 -346 -373 0
-343 -346 -366 0
-310 -347 -375 0
-310 -347 -373 0
-310 -347 -376 0
-310 -347 -377 0
-310 -347 -372 0
-310 -349 -377 0
-310 -349 -357 0
-310 -262 -367 0
-310 -262 -357 0
-261 -349 -377 0
-261 -349 -357 0
-261 -311 -371 0
-261 -311 -367 0
-261 -354 -367 0
-261 -224 -357 0
-261 -224 -367 0
-334 -346 0
-345 -347 -375 0
-345 -347 -373 0
-345 -347 -376 0
-345 -347 -372 0
-345 -349 -357 0
-345 -348 -371 0
-345 -348 -373 0
-345 -348 -376 0
-334 -347 0
-336 -311 -367 0
-336 -348 -373 0
-336 -348 -376 0
-336 -348 -377 0
-336 -350 -372 0
-336 -350 -376 0
-336 -350 -375 0
-336 -351 -373 0
-336 -351 -375 0
-336 -346 -367 0
-336 -346 -375 0
-336 -353 -374 0
-336 -353 -373 0
-334 -348 0
-343 -347 -373 0
-343 -347 -376 0
-343 -347 -377 0
-343 -347 -372 0
-343 -350 -371 0
-343 -350 -372 0
-343 -350 -376 0
-343 -351 -371 0
-343 -351 -373 0
-343 -346 -371 0
-343 -346 -367 0
-334 -349 0
-337 -311 -371 0
-337 -262 -357 0
-337 -224 -357 0
-337 -346 -371 0
-337 -346 -375 0
-340 -356 0
-340 -353 0
-338 -350 -379 0
-338 -350 -391 0
-338 -350 -392 0
-338 -347 -392 0
-338 -347 -390 0
-338 -347 -391 0
-338 -347 -393 0
-338 -347 -374 0
-81 -137 0
-82 -138 0
-83 -139 0
-84 -140 0
-85 -141 0
-86 -142 0
-87 -143 0
-88 -144 0
-283 -302 -324 0
-332 -388 0
-299 -312 -328 0
-299 -312 -324 0
-299 -312 -325 0
-299 -312 -331 0
-299 -355 -325 0
-299 -355 -326 0
-299 -355 -327 0
-299 -355 -328 0
-299 -268 -331 0
-299 -268 -328 0
-299 -268 -333 0
-332 -302 -356 0
-338 -355 0
-335 -312 -372 0
-335 -312 -380 0
-335 -312 -365 0
-335 -379 -394 0
-335 -379 -395 0
-335 -379 -396 0
-335 -379 -397 0
-335 -379 -372 0
-335 -390 -380 0
-335 -390 -396 0
-335 -390 -394 0
-335 -374 -397 0
-335 -374 -380 0
-335 -374 -394 0
-335 -374 -365 0
-338 -390 0
-339 -355 -380 0
-339 -355 -372 0
-339 -379 -353 0
-339 -379 -394 0
-339 -379 -396 0
-339 -379 -397 0
-339 -379 -372 0
-339 -391 -380 0
-339 -391 -394 0
-339 -392 -380 0
-339 -392 -372 0
-339 -392 -396 0
-339 -392 -397 0
-338 -379 0
-336 -312 -372 0
-336 -312 -353 0
-336 -312 -365 0
-336 -355 -395 0
-336 -355 -372 0
-336 -392 -372 0
-336 -392 -395 0
-336 -392 -396 0
-336 -392 -397 0
-336 -390 -353 0
-336 -390 -396 0
-336 -390 -394 0
-336 -391 -395 0
-336 -391 -394 0
-336 -393 -372 0
-336 -393 -365 0
-336 -393 -394 0
-336 -374 -353 0
-336 -374 -397 0
-336 -374 -394 0
-336 -374 -365 0
-299 -312 -352 0
-299 -312 -347 0
-299 -312 -349 0
-299 -268 -349 0
-299 -268 -352 0
-299 -268 -354 0
-299 -329 -356 0
-310 -374 -346 0
-310 -374 -347 0
-310 -374 -348 0
-310 -374 -349 0
-310 -379 -348 0
-310 -379 -350 0
-310 -379 -351 0
-310 -379 -346 0
-310 -379 -352 0
-310 -379 -353 0
-310 -368 -352 0
-310 -368 -346 0
-310 -368 -354 0
-310 -268 -349 0
-310 -268 -352 0
-310 -268 -354 0
-335 -379 0
-336 -312 -352 0
-336 -312 -349 0
-336 -392 -352 0
-336 -392 -350 0
-336 -392 -351 0
-336 -392 -346 0
-336 -390 -353 0
-336 -390 -351 0
-336 -390 -348 0
-336 -391 -350 0
-336 -391 -348 0
-336 -393 -352 0
-336 -393 -349 0
-336 -393 -348 0
-336 -374 -346 0
-336 -374 -348 0
-336 -374 -349 0
-336 -389 -350 0
-335 -389 0
-338 -390 -347 0
-338 -390 -351 0
-338 -390 -348 0
-338 -379 -348 0
-338 -379 -350 0
-338 -379 -351 0
-338 -379 -346 0
-338 -379 -352 0
-335 -390 0
-339 -379 -348 0
-339 -379 -351 0
-339 -379 -346 0
-339 -379 -352 0
-339 -379 -353 0
-339 -389 -347 0
-339 -391 -347 0
-339 -391 -348 0
-339 -392 -347 0
-339 -392 -352 0
-339 -392 -351 0
-339 -392 -346 0
-335 -374 0
-334 -312 -347 0
-334 -312 -349 0
-334 -268 -349 0
-334 -268 -354 0
-334 -393 -347 0
-334 -393 -349 0
-334 -393 -348 0
-334 -379 -348 0
-334 -379 -350 0
-334 -379 -351 0
-334 -379 -346 0
-334 -379 -353 0
-334 -392 -347 0
-334 -392 -350 0
-334 -392 -351 0
-334 -392 -346 0
-334 -368 -346 0
-334 -368 -354 0
-81 -145 0
-82 -146 0
-83 -147 0
-84 -148 0
-85 -149 0
-86 -150 0
-87 -151 0
-88 -152 0
-299 -313 -352 0
-299 -313 -347 0
-299 -313 -349 0
-299 -269 -349 0
-299 -269 -352 0
-299 -269 -354 0
-299 -326 -356 0
-299 -326 -355 0
-310 -372 -346 0
-310 -372 -347 0
-310 -372 -348 0
-310 -372 -349 0
-310 -380 -348 0
-310 -380 -350 0
-310 -380 -351 0
-310 -380 -346 0
-310 -380 -352 0
-310 -365 -352 0
-310 -365 -346 0
-310 -365 -354 0
-310 -269 -349 0
-310 -269 -352 0
-310 -269 -354 0
-335 -380 0
-336 -313 -352 0
-336 -313 -349 0
-336 -394 -352 0
-336 -394 -350 0
-336 -394 -351 0
-336 -394 -346 0
-336 -395 -351 0
-336 -395 -348 0
-336 -396 -350 0
-336 -396 -348 0
-336 -397 -352 0
-336 -397 -349 0
-336 -397 -348 0
-336 -372 -346 0
-336 -372 -348 0
-336 -372 -349 0
-335 -395 0
-339 -380 -348 0
-339 -380 -351 0
-339 -380 -346 0
-339 -380 -352 0
-339 -396 -347 0
-339 -396 -348 0
-339 -394 -347 0
-339 -394 -352 0
-339 -394 -351 0
-339 -394 -346 0
-335 -372 0
-334 -313 -347 0
-334 -313 -349 0
-334 -269 -349 0
-334 -269 -354 0
-334 -397 -347 0
-334 -397 -349 0
-334 -397 -348 0
-334 -380 -348 0
-334 -380 -350 0
-334 -380 -351 0
-334 -380 -346 0
-334 -394 -347 0
-334 -394 -350 0
-334 -394 -351 0
-334 -394 -346 0
-334 -365 -346 0
-334 -365 -354 0
-335 -389 0
-340 -326 -356 0
-332 -303 -355 0
-340 -386 0
-340 -353 0
-335 -313 -374 0
-335 -313 -379 0
-335 -313 -368 0
-335 -380 -392 0
-335 -380 -390 0
-335 -380 -391 0
-335 -380 -393 0
-335 -380 -374 0
-335 -395 -379 0
-335 -395 -391 0
-335 -395 -392 0
-335 -372 -393 0
-335 -372 -379 0
-335 -372 -392 0
-335 -372 -368 0
-339 -353 0
-335 -313 -373 0
-335 -313 -382 0
-335 -313 -366 0
-335 -380 -400 0
-335 -380 -398 0
-335 -380 -399 0
-335 -380 -373 0
-335 -372 -399 0
-335 -372 -382 0
-335 -372 -400 0
-335 -372 -366 0
-335 -389 -387 0
-339 -380 0
-336 -313 -373 0
-336 -313 -350 0
-336 -313 -366 0
-336 -353 -373 0
-336 -353 -390 0
-336 -394 -373 0
-336 -394 -398 0
-336 -394 -399 0
-336 -396 -400 0
-336 -397 -373 0
-336 -397 -366 0
-336 -397 -400 0
-336 -372 -350 0
-336 -372 -399 0
-336 -372 -400 0
-336 -372 -366 0
-339 -396 0
-344 -380 -350 0
-344 -380 -400 0
-344 -380 -399 0
-344 -380 -373 0
-344 -394 -382 0
-344 -394 -373 0
-344 -394 -399 0
-339 -394 0
-343 -380 -350 0
-343 -380 -398 0
-343 -380 -399 0
-343 -380 -373 0
-343 -372 -350 0
-343 -372 -399 0
-343 -372 -382 0
-343 -372 -366 0
-343 -396 -382 0
-343 -397 -382 0
-343 -397 -373 0
-343 -397 -366 0
-310 -303 -347 0
-310 -372 -347 0
-310 -372 -385 0
-310 -372 -384 0
-310 -372 -363 0
-310 -353 -382 0
-310 -353 -371 0
-310 -353 -379 0
-310 -365 -371 0
-310 -365 -385 0
-310 -365 -359 0
-310 -269 -363 0
-310 -269 -371 0
-310 -269 -359 0
-336 -353 0
-335 -313 -371 0
-335 -313 -363 0
-335 -395 -383 0
-335 -395 -384 0
-335 -372 -385 0
-335 -372 -384 0
-335 -372 -363 0
-335 -389 -381 0
-336 -394 0
-343 -372 -347 0
-343 -372 -385 0
-343 -372 -363 0
-343 -395 -347 0
-343 -395 -383 0
-343 -396 -382 0
-343 -397 -371 0
-343 -397 -363 0
-336 -395 0
-339 -353 -371 0
-339 -353 -379 0
-339 -396 -384 0
-339 -394 -371 0
-339 -394 -383 0
-339 -394 -385 0
-336 -396 0
-344 -395 -347 0
-344 -395 -384 0
-344 -394 -371 0
-344 -394 -382 0
-344 -394 -385 0
-336 -397 0
-345 -372 -347 0
-345 -372 -384 0
-345 -372 -363 0
-345 -365 -371 0
-345 -365 -359 0
-345 -394 -371 0
-345 -394 -382 0
-345 -394 -383 0
-336 -372 0
-334 -313 -347 0
-334 -313 -363 0
-334 -269 -363 0
-334 -269 -359 0
-334 -353 -382 0
-334 -353 -379 0
-334 -397 -363 0
-334 -397 -384 0
-334 -394 -382 0
-334 -394 -383 0
-334 -394 -385 0
-334 -365 -385 0
-334 -365 -359 0
-197 -294 -243 0
-210 -220 -247 0
-210 -220 -249 0
-210 -260 -249 0
-210 -260 -245 0
-210 -260 -247 0
-261 -294 -243 0
-261 -318 -245 0
-261 -318 -246 0
-261 -318 -247 0
-261 -317 -243 0
-261 -317 -246 0
-261 -317 -248 0
-261 -317 -250 0
-261 -317 -249 0
-261 -319 -249 0
-261 -220 -247 0
-261 -220 -249 0
-299 -311 -248 0
-299 -311 -252 0
-299 -311 -254 0
-299 -311 -245 0
-299 -311 -251 0
-299 -260 -249 0
-299 -260 -245 0
-299 -260 -247 0
-299 -309 -253 0
-299 -309 -251 0
-223 -319 -249 0
-223 -260 -249 0
-223 -260 -245 0
-223 -260 -247 0
-223 -318 -245 0
-223 -318 -246 0
-223 -318 -247 0
-283 -294 -243 0
-283 -309 -253 0
-283 -309 -251 0
-240 -260 -293 0
-240 -260 -295 0
-240 -260 -296 0
-240 -220 -296 0
-240 -220 -293 0
-283 -309 -301 0
-283 -309 -302 0
-299 -311 0
-335 -315 -305 0
-335 -315 -306 0
-335 -315 -307 0
-335 -315 -304 0
-335 -315 -295 0
-335 -315 -303 0
-335 -313 -302 0
-335 -313 -306 0
-335 -313 -298 0
-335 -316 -298 0
-335 -316 -303 0
-335 -316 -307 0
-335 -316 -305 0
-335 -317 -304 0
-335 -317 -298 0
-335 -317 -305 0
-335 -317 -293 0
-335 -312 -301 0
-335 -312 -303 0
-261 -318 -295 0
-261 -318 -304 0
-261 -318 -296 0
-261 -317 -297 0
-261 -317 -304 0
-261 -317 -298 0
-261 -317 -305 0
-261 -317 -293 0
-261 -319 -293 0
-261 -220 -296 0
-261 -220 -293 0
-332 -314 -302 0
-332 -312 -301 0
-332 -312 -303 0
-332 -312 -297 0
-261 -294 -352 0
-261 -318 -377 0
-261 -318 -357 0
-261 -319 -367 0
-261 -220 -357 0
-261 -220 -367 0
-334 -311 0
-335 -315 -375 0
-335 -315 -373 0
-335 -315 -376 0
-335 -315 -377 0
-335 -315 -372 0
-335 -313 -374 0
-335 -313 -373 0
-335 -313 -371 0
-335 -316 -371 0
-335 -316 -372 0
-335 -316 -376 0
-335 -316 -375 0
-335 -312 -378 0
-335 -312 -372 0
-334 -322 0
-345 -315 -352 0
-345 -315 -375 0
-345 -315 -373 0
-345 -315 -376 0
-345 -315 -372 0
-345 -318 -357 0
-345 -320 -371 0
-345 -320 -373 0
-345 -320 -376 0
-334 -315 0
-336 -311 -372 0
-336 -311 -373 0
-336 -311 -374 0
-336 -320 -373 0
-336 -320 -376 0
-336 -320 -377 0
-336 -316 -352 0
-336 -316 -372 0
-336 -316 -376 0
-336 -316 -375 0
-336 -321 -373 0
-336 -321 -375 0
-336 -322 -367 0
-336 -322 -375 0
-336 -313 -352 0
-336 -313 -374 0
-336 -313 -373 0
-334 -320 0
-343 -315 -352 0
-343 -315 -373 0
-343 -315 -376 0
-343 -315 -377 0
-343 -315 -372 0
-343 -316 -352 0
-343 -316 -371 0
-343 -316 -372 0
-343 -316 -376 0
-343 -321 -371 0
-343 -321 -373 0
-343 -322 -371 0
-343 -322 -367 0
-334 -318 0
-337 -260 -357 0
-337 -220 -357 0
-337 -322 -371 0
-337 -322 -375 0
-299 -260 -349 0
-299 -260 -352 0
-299 -260 -354 0
-299 -309 -356 0
-299 -309 -355 0
-335 -315 0
-336 -320 -352 0
-336 -320 -350 0
-336 -320 -351 0
-336 -320 -346 0
-336 -316 -353 0
-336 -316 -351 0
-336 -316 -348 0
-336 -321 -350 0
-336 -321 -348 0
-336 -322 -352 0
-336 -322 -349 0
-336 -322 -348 0
-336 -317 -346 0
-336 -317 -348 0
-336 -317 -349 0
-336 -313 -355 0
-336 -313 -350 0
-335 -313 0
-338 -312 -356 0
-338 -316 -347 0
-338 -316 -351 0
-338 -316 -348 0
-338 -315 -348 0
-338 -315 -350 0
-338 -315 -351 0
-338 -315 -346 0
-338 -315 -352 0
-335 -316 0
-339 -315 -348 0
-339 -315 -351 0
-339 -315 -346 0
-339 -315 -352 0
-339 -315 -353 0
-339 -313 -355 0
-339 -313 -347 0
-339 -321 -347 0
-339 -321 -348 0
-339 -320 -347 0
-339 -320 -352 0
-339 -320 -351 0
-339 -320 -346 0
-335 -317 0
-334 -260 -349 0
-334 -260 -354 0
-334 -322 -347 0
-334 -322 -349 0
-334 -322 -348 0
-334 -315 -348 0
-334 -315 -350 0
-334 -315 -351 0
-334 -315 -346 0
-334 -315 -353 0
-334 -320 -347 0
-334 -320 -350 0
-334 -320 -351 0
-334 -320 -346 0
-334 -318 -346 0
-334 -318 -354 0
-335 -312 0
-340 -309 -356 0
-340 -313 -350 0
-340 -313 -347 0
-336 -311 0
-335 -313 -379 0
-335 -313 -382 0
-335 -316 -380 0
-335 -316 -383 0
-335 -316 -384 0
-335 -317 -385 0
-335 -317 -384 0
-335 -317 -363 0
-335 -312 -381 0
-335 -312 -380 0
-336 -320 0
-343 -317 -347 0
-343 -317 -385 0
-343 -317 -363 0
-343 -316 -347 0
-343 -316 -380 0
-343 -316 -383 0
-343 -321 -382 0
-343 -322 -371 0
-343 -322 -363 0
-336 -316 0
-339 -311 -380 0
-339 -311 -371 0
-339 -311 -379 0
-339 -313 -347 0
-339 -313 -379 0
-339 -321 -384 0
-339 -320 -371 0
-339 -320 -383 0
-339 -320 -385 0
-336 -321 0
-344 -316 -347 0
-344 -316 -380 0
-344 -316 -384 0
-344 -320 -371 0
-344 -320 -382 0
-344 -320 -385 0
-336 -322 0
-345 -317 -347 0
-345 -317 -384 0
-345 -317 -363 0
-345 -318 -371 0
-345 -318 -359 0
-345 -320 -371 0
-345 -320 -382 0
-345 -320 -383 0
-336 -317 0
-334 -260 -363 0
-334 -260 -359 0
-334 -311 -380 0
-334 -311 -382 0
-334 -311 -379 0
-334 -322 -363 0
-334 -322 -384 0
-334 -320 -382 0
-334 -320 -383 0
-334 -320 -385 0
-334 -318 -385 0
-334 -318 -359 0
-336 -313 0
-338 -311 -382 0
-338 -311 -371 0
-338 -311 -379 0
-338 -312 -381 0
-338 -312 -347 0
-338 -316 -347 0
-338 -316 -383 0
-338 -316 -384 0
-261 -294 -349 0
-261 -317 -349 0
-261 -317 -362 0
-261 -317 -363 0
-261 -317 -364 0
-261 -220 -360 0
-223 -260 -367 0
-223 -260 -360 0
-337 -317 0
-334 -260 -360 0
-334 -311 -363 0
-334 -311 -365 0
-334 -311 -366 0
-334 -311 -368 0
-334 -322 -363 0
-334 -322 -364 0
-334 -315 -349 0
-334 -315 -364 0
-334 -315 -366 0
-334 -315 -369 0
-334 -315 -362 0
-334 -315 -365 0
-334 -320 -363 0
-334 -320 -366 0
-334 -320 -369 0
-334 -320 -362 0
-337 -322 0
-345 -315 -349 0
-345 -315 -364 0
-345 -315 -366 0
-345 -315 -369 0
-345 -315 -367 0
-345 -315 -365 0
-345 -317 -349 0
-345 -317 -363 0
-345 -317 -364 0
-345 -320 -363 0
-345 -320 -367 0
-345 -320 -366 0
-345 -320 -369 0
-337 -319 0
-341 -260 -367 0
-210 -220 -267 0
-210 -220 -266 0
-240 -294 -262 0
-240 -220 -267 0
-240 -220 -266 0
-299 -311 -265 0
-299 -311 -269 0
-299 -311 -271 0
-299 -311 -264 0
-299 -311 -268 0
-299 -309 -270 0
-299 -309 -268 0
-261 -318 0
-337 -220 -267 0
-337 -317 -262 0
-337 -317 -272 0
-337 -317 -265 0
-337 -317 -273 0
-337 -322 -265 0
-337 -322 -264 0
-337 -322 -273 0
-261 -317 0
-334 -311 -265 0
-334 -311 -269 0
-334 -311 -271 0
-334 -311 -268 0
-334 -322 -265 0
-334 -322 -266 0
-334 -322 -273 0
-334 -315 -262 0
-334 -315 -273 0
-334 -315 -271 0
-334 -315 -274 0
-334 -315 -272 0
-334 -315 -269 0
-334 -320 -265 0
-334 -320 -271 0
-334 -320 -274 0
-334 -320 -272 0
-334 -318 -272 0
-334 -318 -267 0
-261 -319 0
-341 -220 -266 0
-341 -318 -264 0
-341 -318 -272 0
-223 -319 -266 0
-223 -318 -264 0
-223 -318 -272 0
-223 -318 -267 0
-81 -129 0
-82 -130 0
-83 -131 0
-84 -132 0
-85 -133 0
-86 -134 0
-87 -135 0
-88 -136 0
-283 -301 -324 0
-332 -388 0
-340 -386 -324 0
-340 -386 -327 0
-340 -386 -325 0
-340 -356 -325 0
-340 -356 -326 0
-340 -356 -327 0
-340 -356 -328 0
-299 -314 -328 0
-299 -314 -324 0
-299 -314 -325 0
-299 -314 -331 0
-299 -356 -325 0
-299 -356 -326 0
-299 -356 -327 0
-299 -356 -328 0
-299 -356 -329 0
-299 -270 -331 0
-299 -270 -328 0
-299 -270 -333 0
-332 -301 -355 0
-340 -386 0
-338 -356 -379 0
-338 -356 -390 0
-338 -356 -374 0
-338 -387 -355 0
-338 -387 -379 0
-338 -387 -391 0
-338 -387 -392 0
-338 -381 -355 0
-338 -381 -392 0
-338 -381 -390 0
-338 -381 -391 0
-338 -381 -393 0
-338 -381 -374 0
-340 -356 0
-335 -314 -374 0
-335 -314 -379 0
-335 -314 -368 0
-335 -381 -392 0
-335 -381 -390 0
-335 -381 -391 0
-335 -381 -393 0
-335 -381 -374 0
-335 -381 -389 0
-335 -386 -390 0
-335 -386 -379 0
-335 -387 -379 0
-335 -387 -389 0
-335 -387 -391 0
-335 -387 -392 0
-335 -378 -393 0
-335 -378 -379 0
-335 -378 -392 0
-335 -378 -368 0
-243 -259 -190 0
-243 -259 -192 0
-243 -259 -193 0
-243 -294 -192 0
-243 -294 -202 0
-243 -294 -190 0
-243 -218 -193 0
-243 -218 -190 0
-280 -300 -208 0
-280 -300 -209 0
-280 -299 -209 0
-280 -299 -211 0
-280 -299 -208 0
-213 -218 -193 0
-213 -218 -190 0
-213 -259 -190 0
-213 -259 -192 0
-213 -259 -193 0
-213 -218 -247 0
-213 -218 -249 0
-213 -259 -249 0
-213 -259 -245 0
-213 -259 -247 0
-262 -293 -245 0
-262 -293 -246 0
-262 -293 -247 0
-262 -294 -245 0
-262 -294 -248 0
-262 -294 -249 0
-262 -295 -246 0
-262 -295 -248 0
-262 -295 -250 0
-262 -295 -249 0
-262 -296 -249 0
-262 -218 -247 0
-262 -218 -249 0
-311 -295 -246 0
-311 -295 -248 0
-311 -295 -250 0
-311 -295 -249 0
-311 -298 -250 0
-311 -298 -254 0
-311 -298 -257 0
-311 -298 -246 0
-311 -298 -245 0
-311 -298 -252 0
-311 -293 -245 0
-311 -293 -246 0
-311 -293 -247 0
-311 -259 -249 0
-311 -259 -245 0
-311 -259 -247 0
-311 -299 -251 0
-311 -299 -252 0
-311 -299 -253 0
-224 -296 -249 0
-224 -259 -249 0
-224 -259 -245 0
-224 -259 -247 0
-224 -293 -245 0
-224 -293 -246 0
-224 -293 -247 0
-280 -300 -253 0
-280 -300 -251 0
-280 -299 -251 0
-280 -299 -252 0
-280 -299 -253 0
-324 -299 -285 0
-324 -299 -286 0
-324 -299 -287 0
-324 -301 -285 0
-324 -302 -287 0
-324 -302 -286 0
-335 -300 -287 0
-335 -300 -285 0
-335 -302 -287 0
-335 -302 -286 0
-335 -303 -285 0
-335 -303 -288 0
-335 -303 -281 0
-335 -294 -279 0
-335 -294 -281 0
-335 -294 -282 0
-335 -301 -285 0
-243 -259 -282 0
-243 -259 -279 0
-243 -259 -289 0
-243 -294 -279 0
-243 -294 -281 0
-243 -294 -282 0
-243 -218 -289 0
-243 -218 -282 0
-243 -259 -318 0
-243 -259 -317 0
-243 -259 -319 0
-243 -218 -319 0
-243 -218 -318 0
-311 -295 0
-352 -259 -318 0
-352 -259 -319 0
-352 -304 -315 0
-352 -304 -318 0
-352 -304 -320 0
-352 -298 -320 0
-352 -298 -316 0
-352 -298 -321 0
-352 -298 -322 0
-352 -298 -313 0
-352 -305 -315 0
-352 -305 -316 0
-352 -305 -321 0
-352 -305 -322 0
-352 -293 -322 0
-352 -293 -319 0
-311 -298 0
-347 -305 -317 0
-347 -305 -316 0
-347 -305 -321 0
-347 -305 -322 0
-347 -306 -313 0
-347 -306 -321 0
-347 -306 -320 0
-347 -307 -316 0
-347 -307 -320 0
-347 -304 -317 0
-347 -304 -318 0
-347 -304 -320 0
-347 -295 -322 0
-347 -295 -320 0
-347 -295 -318 0
-347 -303 -312 0
-347 -303 -316 0
-311 -293 0
-349 -259 -317 0
-349 -259 -319 0
-349 -218 -319 0
-349 -295 -322 0
-349 -295 -315 0
-349 -295 -320 0
-349 -304 -315 0
-349 -304 -317 0
-349 -304 -320 0
-262 -293 -317 0
-262 -293 -322 0
-262 -293 -319 0
-262 -295 -322 0
-262 -295 -315 0
-262 -295 -320 0
-262 -295 -318 0
-262 -296 -318 0
-262 -218 -319 0
-262 -218 -318 0
-335 -300 -314 0
-335 -300 -312 0
-335 -302 -314 0
-335 -302 -313 0
-335 -303 -312 0
-335 -303 -316 0
-335 -303 -315 0
-335 -301 -312 0
-280 -300 -342 0
-280 -300 -340 0
-324 -301 -340 0
-324 -302 -342 0
-324 -302 -338 0
-335 -302 0
-355 -300 -342 0
-355 -303 -339 0
-355 -303 -336 0
-335 -303 0
-353 -302 -342 0
-353 -306 -336 0
-353 -306 -344 0
-353 -306 -343 0
-353 -298 -343 0
-353 -298 -339 0
-353 -298 -344 0
-353 -298 -345 0
-353 -298 -334 0
-311 -295 -345 0
-311 -295 -336 0
-311 -295 -343 0
-311 -295 -337 0
-311 -298 -343 0
-311 -298 -339 0
-311 -298 -344 0
-311 -298 -345 0
-311 -298 -334 0
-311 -298 -338 0
-311 -293 -334 0
-311 -293 -345 0
-311 -293 -341 0
-311 -259 -337 0
-311 -259 -334 0
-311 -259 -341 0
-335 -301 0
-356 -300 -340 0
-356 -302 -338 0
-213 -218 -267 0
-213 -218 -266 0
-243 -294 -264 0
-243 -294 -265 0
-243 -294 -266 0
-243 -218 -267 0
-243 -218 -266 0
-262 -293 0
-349 -294 -264 0
-349 -294 -265 0
-349 -218 -267 0
-349 -295 -272 0
-349 -295 -265 0
-349 -295 -273 0
-349 -304 -265 0
-349 -304 -264 0
-349 -304 -273 0
-311 -295 -272 0
-311 -295 -265 0
-311 -295 -273 0
-311 -295 -266 0
-311 -298 -273 0
-311 -298 -271 0
-311 -298 -274 0
-311 -298 -272 0
-311 -298 -264 0
-311 -298 -269 0
-311 -293 -264 0
-311 -293 -272 0
-311 -293 -267 0
-311 -299 -268 0
-311 -299 -269 0
-311 -299 -270 0
-262 -295 0
-352 -294 -265 0
-352 -294 -266 0
-352 -304 -265 0
-352 -304 -266 0
-352 -304 -273 0
-352 -298 -273 0
-352 -298 -271 0
-352 -298 -274 0
-352 -298 -272 0
-352 -298 -269 0
-352 -305 -265 0
-352 -305 -271 0
-352 -305 -274 0
-352 -305 -272 0
-352 -293 -272 0
-352 -293 -267 0
-262 -296 0
-354 -218 -266 0
-354 -293 -264 0
-354 -293 -272 0
-224 -296 -266 0
-224 -293 -264 0
-224 -293 -272 0
-224 -293 -267 0
-280 -299 -329 0
-280 -299 -326 0
-280 -299 -330 0
-335 -302 -330 0
-335 -302 -326 0
-335 -303 -329 0
-335 -303 -327 0
-335 -303 -325 0
-335 -294 -328 0
-335 -294 -325 0
-335 -294 -331 0
-335 -301 -329 0
-324 -301 0
-356 -302 -326 0
-356 -299 -329 0
-356 -299 -326 0
-324 -302 0
-355 -299 -326 0
-355 -299 -330 0
-355 -303 -327 0
-355 -303 -325 0
-213 -220 -247 0
-213 -220 -249 0
-213 -260 -249 0
-213 -260 -245 0
-213 -260 -247 0
-262 -318 -245 0
-262 -318 -246 0
-262 -318 -247 0
-262 -317 -246 0
-262 -317 -248 0
-262 -317 -250 0
-262 -317 -249 0
-262 -319 -249 0
-262 -220 -247 0
-262 -220 -249 0
-297 -310 -251 0
-297 -310 -252 0
-297 -310 -253 0
-297 -260 -249 0
-297 -260 -245 0
-297 -260 -247 0
-297 -309 -253 0
-297 -309 -251 0
-224 -319 -249 0
-224 -260 -249 0
-224 -260 -245 0
-224 -260 -247 0
-224 -318 -245 0
-224 -318 -246 0
-224 -318 -247 0
-280 -309 -253 0
-280 -309 -251 0
-280 -310 -251 0
-280 -310 -252 0
-280 -310 -253 0
-243 -260 -293 0
-243 -260 -295 0
-243 -260 -296 0
-243 -220 -296 0
-243 -220 -293 0
-280 -309 -301 0
-280 -309 -302 0
-280 -310 -302 0
-280 -310 -303 0
-280 -310 -301 0
-335 -309 -301 0
-335 -309 -302 0
-335 -312 -301 0
-335 -312 -303 0
-335 -313 -302 0
-335 -313 -306 0
-335 -313 -298 0
-335 -314 -302 0
-262 -318 -295 0
-262 -318 -304 0
-262 -318 -296 0
-262 -317 -304 0
-262 -317 -298 0
-262 -317 -305 0
-262 -317 -293 0
-262 -319 -293 0
-262 -220 -296 0
-262 -220 -293 0
-324 -310 -302 0
-324 -310 -303 0
-324 -310 -301 0
-324 -314 -302 0
-324 -312 -301 0
-324 -312 -303 0
-262 -318 -377 0
-262 -318 -357 0
-262 -319 -367 0
-262 -220 -357 0
-262 -220 -367 0
-352 -322 0
-346 -315 -375 0
-346 -315 -373 0
-346 -315 -376 0
-346 -315 -372 0
-346 -318 -357 0
-346 -320 -371 0
-346 -320 -373 0
-346 -320 -376 0
-352 -315 0
-347 -320 -373 0
-347 -320 -376 0
-347 -320 -377 0
-347 -316 -372 0
-347 -316 -376 0
-347 -316 -375 0
-347 -321 -373 0
-347 -321 -375 0
-347 -322 -367 0
-347 -322 -375 0
-347 -313 -374 0
-347 -313 -373 0
-352 -320 0
-348 -315 -373 0
-348 -315 -376 0
-348 -315 -377 0
-348 -315 -372 0
-348 -316 -371 0
-348 -316 -372 0
-348 -316 -376 0
-348 -321 -371 0
-348 -321 -373 0
-348 -322 -371 0
-348 -322 -367 0
-352 -318 0
-349 -260 -357 0
-349 -220 -357 0
-349 -322 -371 0
-349 -322 -375 0
-347 -320 0
-348 -317 -385 0
-348 -317 -363 0
-348 -316 -380 0
-348 -316 -383 0
-348 -321 -382 0
-348 -322 -371 0
-348 -322 -363 0
-347 -316 0
-350 -313 -379 0
-350 -321 -384 0
-350 -320 -371 0
-350 -320 -383 0
-350 -320 -385 0
-347 -321 0
-351 -316 -380 0
-351 -316 -384 0
-351 -320 -371 0
-351 -320 -382 0
-351 -320 -385 0
-347 -322 0
-346 -317 -384 0
-346 -317 -363 0
-346 -318 -371 0
-346 -318 -359 0
-346 -320 -371 0
-346 -320 -382 0
-346 -320 -383 0
-347 -317 0
-352 -260 -363 0
-352 -260 -359 0
-352 -322 -363 0
-352 -322 -384 0
-352 -320 -382 0
-352 -320 -383 0
-352 -320 -385 0
-352 -318 -385 0
-352 -318 -359 0
-347 -313 0
-353 -310 -379 0
-353 -310 -381 0
-353 -312 -381 0
-353 -316 -383 0
-353 -316 -384 0
-262 -317 -362 0
-262 -317 -363 0
-262 -317 -364 0
-262 -220 -360 0
-224 -260 -367 0
-224 -260 -360 0
-349 -317 0
-352 -260 -360 0
-352 -322 -363 0
-352 -322 -364 0
-352 -315 -364 0
-352 -315 -366 0
-352 -315 -369 0
-352 -315 -362 0
-352 -315 -365 0
-352 -320 -363 0
-352 -320 -366 0
-352 -320 -369 0
-352 -320 -362 0
-349 -322 0
-346 -315 -364 0
-346 -315 -366 0
-346 -315 -369 0
-346 -315 -367 0
-346 -315 -365 0
-346 -317 -363 0
-346 -317 -364 0
-346 -320 -363 0
-346 -320 -367 0
-346 -320 -366 0
-346 -320 -369 0
-349 -319 0
-354 -260 -367 0
-213 -220 -267 0
-213 -220 -266 0
-243 -220 -267 0
-243 -220 -266 0
-297 -310 -268 0
-297 -310 -269 0
-297 -310 -270 0
-297 -309 -270 0
-297 -309 -268 0
-262 -318 0
-349 -220 -267 0
-349 -317 -272 0
-349 -317 -265 0
-349 -317 -273 0
-349 -322 -265 0
-349 -322 -264 0
-349 -322 -273 0
-262 -317 0
-352 -322 -265 0
-352 -322 -266 0
-352 -322 -273 0
-352 -315 -273 0
-352 -315 -271 0
-352 -315 -274 0
-352 -315 -272 0
-352 -315 -269 0
-352 -320 -265 0
-352 -320 -271 0
-352 -320 -274 0
-352 -320 -272 0
-352 -318 -272 0
-352 -318 -267 0
-262 -319 0
-354 -220 -266 0
-354 -318 -264 0
-354 -318 -272 0
-224 -319 -266 0
-224 -318 -264 0
-224 -318 -272 0
-224 -318 -267 0
-280 -309 -342 0
-280 -309 -340 0
-297 -260 -337 0
-297 -260 -334 0
-297 -260 -341 0
-297 -309 -342 0
-297 -309 -340 0
-324 -314 -340 0
-324 -312 -342 0
-324 -312 -338 0
-335 -312 0
-355 -309 -342 0
-355 -313 -339 0
-355 -313 -336 0
-335 -313 0
-353 -312 -342 0
-353 -316 -336 0
-353 -316 -344 0
-353 -316 -343 0
-353 -315 -343 0
-353 -315 -339 0
-353 -315 -344 0
-353 -315 -345 0
-353 -315 -334 0
-335 -314 0
-356 -309 -340 0
-356 -312 -338 0
-297 -310 -279 0
-297 -310 -281 0
-297 -310 -282 0
-297 -261 -282 0
-297 -261 -279 0
-297 -261 -289 0
-297 -332 -287 0
-297 -332 -285 0
-324 -342 -285 0
-324 -340 -287 0
-324 -340 -286 0
-243 -261 -282 0
-243 -261 -279 0
-243 -261 -289 0
-243 -310 -279 0
-243 -310 -281 0
-243 -310 -282 0
-243 -223 -289 0
-243 -223 -282 0
-243 -261 -293 0
-243 -261 -295 0
-243 -261 -296 0
-243 -310 -295 0
-243 -310 -298 0
-243 -310 -293 0
-243 -223 -296 0
-243 -223 -293 0
-280 -332 -301 0
-280 -332 -302 0
-311 -334 -304 0
-311 -334 -298 0
-311 -334 -305 0
-311 -334 -293 0
-311 -336 -305 0
-311 -336 -306 0
-311 -336 -307 0
-311 -336 -304 0
-311 -336 -295 0
-311 -336 -303 0
-311 -337 -295 0
-311 -337 -304 0
-311 -337 -296 0
-311 -261 -293 0
-311 -261 -295 0
-311 -261 -296 0
-262 -337 -295 0
-262 -337 -304 0
-262 -337 -296 0
-262 -310 -295 0
-262 -310 -298 0
-262 -310 -293 0
-262 -334 -304 0
-262 -334 -298 0
-262 -334 -305 0
-262 -334 -293 0
-262 -341 -293 0
-262 -223 -296 0
-262 -223 -293 0
-324 -342 -302 0
-324 -340 -301 0
-324 -340 -303 0
-324 -342 0
-356 -340 -326 0
-324 -340 0
-355 -338 -327 0
-355 -338 -325 0
-297 -310 -328 0
-297 -310 -325 0
-297 -310 -331 0
-297 -261 -331 0
-297 -261 -328 0
-297 -261 -333 0
-355 -342 0
-355 -338 0
-353 -339 -379 0
-353 -339 -391 0
-353 -339 -392 0
-353 -336 -392 0
-353 -336 -390 0
-353 -336 -391 0
-353 -336 -393 0
-353 -336 -374 0
-353 -340 0
-355 -332 -386 0
-353 -339 0
-350 -336 -394 0
-350 -336 -396 0
-350 -336 -397 0
-350 -336 -372 0
-350 -344 -380 0
-350 -344 -394 0
-350 -343 -380 0
-350 -343 -372 0
-350 -343 -396 0
-350 -343 -397 0
-353 -336 0
-347 -310 -372 0
-347 -310 -365 0
-347 -343 -372 0
-347 -343 -395 0
-347 -343 -396 0
-347 -343 -397 0
-347 -339 -396 0
-347 -339 -394 0
-347 -344 -395 0
-347 -344 -394 0
-347 -345 -372 0
-347 -345 -365 0
-347 -345 -394 0
-347 -334 -397 0
-347 -334 -394 0
-347 -334 -365 0
-243 -261 -318 0
-243 -261 -317 0
-243 -261 -319 0
-243 -223 -319 0
-243 -223 -318 0
-297 -261 -318 0
-297 -261 -317 0
-297 -261 -319 0
-297 -332 -314 0
-297 -332 -312 0
-311 -334 0
-352 -261 -318 0
-352 -261 -319 0
-352 -345 -315 0
-352 -345 -318 0
-352 -345 -320 0
-352 -336 -320 0
-352 -336 -316 0
-352 -336 -321 0
-352 -336 -322 0
-352 -336 -313 0
-352 -343 -315 0
-352 -343 -316 0
-352 -343 -321 0
-352 -343 -322 0
-352 -337 -322 0
-352 -337 -319 0
-311 -336 0
-347 -343 -317 0
-347 -343 -316 0
-347 -343 -321 0
-347 -343 -322 0
-347 -339 -313 0
-347 -339 -321 0
-347 -339 -320 0
-347 -344 -316 0
-347 -344 -320 0
-347 -345 -317 0
-347 -345 -318 0
-347 -345 -320 0
-347 -334 -322 0
-347 -334 -320 0
-347 -334 -318 0
-347 -338 -312 0
-347 -338 -316 0
-311 -337 0
-349 -261 -317 0
-349 -261 -319 0
-349 -223 -319 0
-349 -334 -322 0
-349 -334 -315 0
-349 -334 -320 0
-349 -345 -315 0
-349 -345 -317 0
-349 -345 -320 0
-262 -337 -317 0
-262 -337 -322 0
-262 -337 -319 0
-262 -334 -322 0
-262 -334 -315 0
-262 -334 -320 0
-262 -334 -318 0
-262 -341 -318 0
-262 -223 -319 0
-262 -223 -318 0
-324 -340 -386 0
-356 -340 0
-355 -338 -387 0
-355 -338 -381 0
-89 -97 0
-90 -98 0
-91 -99 0
-92 -100 0
-93 -101 0
-94 -102 0
-95 -103 0
-96 -104 0
-243 -265 -318 0
-243 -265 -317 0
-243 -265 -319 0
-243 -227 -319 0
-243 -227 -318 0
-297 -336 -312 0
-297 -336 -313 0
-297 -336 -314 0
-297 -265 -318 0
-297 -265 -317 0
-297 -265 -319 0
-297 -325 -314 0
-297 -325 -312 0
-311 -371 0
-352 -265 -318 0
-352 -265 -319 0
-352 -385 -318 0
-352 -385 -320 0
-352 -384 -316 0
-352 -384 -321 0
-352 -384 -322 0
-352 -363 -322 0
-352 -363 -319 0
-311 -363 0
-349 -265 -317 0
-349 -265 -319 0
-349 -227 -319 0
-349 -371 -322 0
-349 -371 -320 0
-349 -385 -317 0
-349 -385 -320 0
-262 -363 -317 0
-262 -363 -322 0
-262 -363 -319 0
-262 -371 -322 0
-262 -371 -320 0
-262 -371 -318 0
-262 -359 -318 0
-262 -227 -319 0
-262 -227 -318 0
-335 -325 -314 0
-335 -325 -312 0
-335 -379 -314 0
-335 -379 -313 0
-335 -380 -312 0
-335 -380 -316 0
-335 -381 -312 0
-348 -371 0
-352 -315 -364 0
-352 -265 -364 0
-352 -265 -361 0
-352 -385 -364 0
-352 -363 -402 0
-352 -363 -361 0
-348 -382 0
-350 -380 -392 0
-348 -383 0
-351 -382 -394 0
-348 -385 0
-346 -371 -364 0
-346 -363 -375 0
-346 -363 -361 0
-350 -380 0
-353 -336 -390 0
-353 -336 -387 0
-353 -379 -387 0
-350 -383 0
-351 -384 -373 0
-351 -384 -399 0
-350 -384 0
-348 -371 -399 0
-348 -371 -366 0
-348 -385 -373 0
-348 -385 -366 0
-351 -382 0
-350 -380 -391 0
-350 -384 -376 0
-350 -384 -401 0
-351 -384 0
-348 -371 -401 0
-348 -371 -369 0
-348 -382 -396 0
-348 -385 -376 0
-348 -385 -369 0
-346 -371 0
-352 -315 -362 0
-352 -265 -362 0
-352 -265 -358 0
-352 -384 -399 0
-352 -384 -401 0
-352 -363 -358 0
-346 -363 0
-349 -315 -377 0
-349 -265 -377 0
-349 -265 -358 0
-349 -227 -358 0
-349 -371 -402 0
-346 -384 0
-348 -371 -362 0
-348 -382 -397 0
-348 -382 -401 0
-348 -383 -399 0
-311 -363 -377 0
-311 -363 -357 0
-311 -265 -367 0
-311 -265 -357 0
-311 -336 -374 0
-311 -336 -372 0
-311 -336 -378 0
-262 -363 -377 0
-262 -363 -357 0
-262 -315 -367 0
-262 -359 -367 0
-262 -227 -357 0
-262 -227 -367 0
-352 -385 0
-346 -363 -357 0
-346 -384 -373 0
-346 -384 -376 0
-352 -384 0
-348 -382 -372 0
-348 -382 -376 0
-348 -383 -373 0
-348 -385 -367 0
-352 -363 0
-349 -265 -357 0
-349 -227 -357 0
-349 -385 -375 0
-335 -325 -386 0
-335 -325 -389 0
-335 -379 -386 0
-335 -315 -372 0
-335 -315 -365 0
-335 -381 -389 0
-353 -379 0
-355 -325 -386 0
-355 -336 -386 0
-353 -382 0
-350 -383 -394 0
-350 -384 -372 0
-350 -384 -396 0
-350 -384 -397 0
-89 -145 0
-90 -146 0
-91 -147 0
-92 -148 0
-93 -149 0
-94 -150 0
-95 -151 0
-96 -152 0
-280 -326 -342 0
-280 -326 -340 0
-297 -313 -334 0
-297 -313 -336 0
-297 -313 -337 0
-297 -269 -337 0
-297 -269 -334 0
-297 -269 -341 0
-297 -326 -342 0
-297 -326 -340 0
-324 -386 -340 0
-324 -389 -342 0
-335 -389 0
-355 -326 -342 0
-311 -372 -345 0
-311 -372 -336 0
-311 -372 -343 0
-311 -372 -337 0
-311 -380 -343 0
-311 -380 -339 0
-311 -380 -344 0
-311 -380 -345 0
-311 -380 -334 0
-311 -365 -334 0
-311 -365 -345 0
-311 -365 -341 0
-311 -269 -337 0
-311 -269 -334 0
-311 -269 -341 0
-335 -386 0
-356 -326 -340 0
-324 -338 -388 0
-335 -326 -388 0
-335 -313 -374 0
-335 -313 -379 0
-335 -313 -368 0
-355 -386 0
-350 -380 0
-347 -313 -373 0
-347 -313 -366 0
-347 -394 -373 0
-347 -394 -398 0
-347 -394 -399 0
-347 -396 -400 0
-347 -397 -373 0
-347 -397 -366 0
-347 -397 -400 0
-347 -372 -399 0
-347 -372 -400 0
-347 -372 -366 0
-350 -396 0
-351 -380 -400 0
-351 -380 -399 0
-351 -380 -373 0
-351 -394 -382 0
-351 -394 -373 0
-351 -394 -399 0
-350 -394 0
-348 -380 -398 0
-348 -380 -399 0
-348 -380 -373 0
-348 -372 -399 0
-348 -372 -382 0
-348 -372 -366 0
-348 -396 -382 0
-348 -397 -382 0
-348 -397 -373 0
-348 -397 -366 0
-311 -372 -385 0
-311 -372 -384 0
-311 -372 -363 0
-311 -365 -371 0
-311 -365 -385 0
-311 -365 -359 0
-311 -269 -363 0
-311 -269 -371 0
-311 -269 -359 0
-311 -338 -379 0
-311 -338 -381 0
-347 -394 0
-348 -372 -385 0
-348 -372 -363 0
-348 -395 -383 0
-348 -396 -382 0
-348 -397 -371 0
-348 -397 -363 0
-347 -395 0
-350 -396 -384 0
-350 -394 -371 0
-350 -394 -383 0
-350 -394 -385 0
-347 -396 0
-351 -395 -384 0
-351 -394 -371 0
-351 -394 -382 0
-351 -394 -385 0
-347 -397 0
-346 -372 -384 0
-346 -372 -363 0
-346 -365 -371 0
-346 -365 -359 0
-346 -394 -371 0
-346 -394 -382 0
-346 -394 -383 0
-347 -372 0
-352 -313 -363 0
-352 -269 -363 0
-352 -269 -359 0
-352 -397 -363 0
-352 -397 -384 0
-352 -394 -382 0
-352 -394 -383 0
-352 -394 -385 0
-352 -365 -385 0
-352 -365 -359 0
-89 -153 0
-90 -154 0
-91 -155 0
-92 -156 0
-93 -157 0
-94 -158 0
-95 -159 0
-96 -160 0
-311 -373 -385 0
-311 -373 -384 0
-311 -373 -363 0
-311 -366 -371 0
-311 -366 -385 0
-311 -366 -359 0
-311 -271 -363 0
-311 -271 -371 0
-311 -271 -359 0
-311 -339 -379 0
-311 -339 -380 0
-311 -339 -381 0
-347 -400 0
-348 -373 -385 0
-348 -373 -363 0
-348 -399 -371 0
-348 -399 -363 0
-347 -398 0
-351 -400 -371 0
-351 -400 -385 0
-347 -399 0
-346 -373 -384 0
-346 -373 -363 0
-346 -366 -371 0
-346 -366 -359 0
-346 -400 -371 0
-346 -400 -383 0
-347 -373 0
-352 -316 -363 0
-352 -271 -363 0
-352 -271 -359 0
-352 -399 -363 0
-352 -399 -384 0
-352 -400 -383 0
-352 -400 -385 0
-352 -366 -385 0
-352 -366 -359 0
-347 -395 0
-353 -339 -379 0
-353 -339 -381 0
-353 -390 -381 0
-335 -327 -386 0
-335 -327 -389 0
-335 -390 -386 0
-335 -316 -372 0
-335 -316 -380 0
-335 -316 -365 0
-335 -387 -389 0
-353 -390 0
-355 -327 -386 0
-355 -339 -386 0
-353 -382 0
-347 -316 -372 0
-347 -316 -365 0
-347 -400 -372 0
-347 -400 -396 0
-347 -400 -397 0
-347 -398 -394 0
-347 -399 -372 0
-347 -399 -365 0
-347 -399 -394 0
-347 -373 -397 0
-347 -373 -394 0
-347 -373 -365 0
-351 -382 0
-347 -316 -376 0
-347 -316 -369 0
-347 -400 -376 0
-347 -400 -401 0
-347 -399 -376 0
-347 -399 -369 0
-347 -399 -403 0
-347 -373 -401 0
-347 -373 -403 0
-347 -373 -369 0
-347 -395 -391 0
-351 -400 0
-348 -382 -401 0
-348 -382 -376 0
-348 -382 -396 0
-348 -373 -401 0
-348 -373 -383 0
-348 -373 -369 0
-348 -399 -383 0
-348 -399 -376 0
-348 -399 -369 0
-348 -382 0
-347 -316 -375 0
-347 -316 -364 0
-347 -399 -375 0
-347 -399 -364 0
-347 -373 -402 0
-347 -373 -364 0
-347 -395 -392 0
-348 -373 0
-352 -316 -384 0
-352 -316 -364 0
-352 -271 -364 0
-352 -271 -361 0
-352 -399 -384 0
-352 -399 -364 0
-352 -382 -403 0
-352 -382 -402 0
-352 -382 -394 0
-352 -366 -402 0
-352 -366 -361 0
-348 -398 0
-351 -382 -402 0
-351 -382 -375 0
-351 -382 -394 0
-348 -399 0
-346 -382 -403 0
-346 -382 -375 0
-346 -382 -394 0
-346 -373 -384 0
-346 -373 -364 0
-346 -366 -375 0
-346 -366 -361 0
-89 -105 0
-90 -106 0
-91 -107 0
-92 -108 0
-93 -109 0
-94 -110 0
-95 -111 0
-96 -112 0
-243 -264 -318 0
-243 -264 -319 0
-243 -221 -319 0
-243 -221 -318 0
-297 -334 -312 0
-297 -334 -313 0
-297 -334 -314 0
-297 -264 -318 0
-297 -264 -319 0
-297 -328 -314 0
-297 -328 -312 0
-311 -371 0
-347 -375 -316 0
-347 -375 -321 0
-347 -375 -322 0
-347 -373 -313 0
-347 -373 -321 0
-347 -373 -320 0
-347 -376 -316 0
-347 -376 -320 0
-347 -377 -318 0
-347 -377 -320 0
-347 -372 -312 0
-347 -372 -316 0
-311 -367 0
-349 -264 -319 0
-349 -221 -319 0
-349 -377 -315 0
-349 -377 -320 0
-262 -367 -322 0
-262 -367 -319 0
-262 -357 -318 0
-262 -221 -319 0
-262 -221 -318 0
-335 -328 -314 0
-335 -328 -312 0
-335 -374 -314 0
-335 -374 -313 0
-335 -372 -312 0
-335 -372 -316 0
-335 -372 -315 0
-335 -378 -312 0
-213 -221 -267 0
-213 -221 -266 0
-243 -317 -265 0
-243 -317 -266 0
-243 -221 -267 0
-243 -221 -266 0
-297 -317 -265 0
-297 -317 -266 0
-297 -334 -268 0
-297 -334 -269 0
-297 -334 -270 0
-297 -328 -270 0
-297 -328 -268 0
-262 -367 0
-349 -317 -265 0
-349 -221 -267 0
-349 -377 -265 0
-349 -377 -273 0
-311 -371 -273 0
-311 -371 -271 0
-311 -371 -274 0
-311 -371 -272 0
-311 -371 -269 0
-311 -367 -272 0
-311 -367 -267 0
-311 -334 -268 0
-311 -334 -269 0
-311 -334 -270 0
-262 -357 0
-354 -221 -266 0
-354 -367 -272 0
-224 -357 -266 0
-224 -367 -272 0
-224 -367 -267 0
-346 -371 0
-347 -317 -362 0
-347 -375 -399 0
-347 -375 -401 0
-347 -373 -397 0
-347 -373 -401 0
-347 -373 -402 0
-347 -376 -399 0
-347 -376 -402 0
-347 -372 -393 0
-347 -372 -399 0
-346 -367 0
-349 -317 -385 0
-349 -264 -358 0
-349 -221 -358 0
-346 -375 0
-348 -371 -399 0
-348 -371 -401 0
-348 -371 -397 0
-348 -373 -385 0
-348 -373 -397 0
-348 -373 -401 0
-348 -376 -385 0
-348 -376 -399 0
-311 -367 -385 0
-311 -367 -359 0
-311 -264 -363 0
-311 -264 -359 0
-311 -334 -379 0
-311 -334 -380 0
-311 -334 -381 0
-347 -375 0
-348 -373 -380 0
-348 -373 -383 0
-348 -376 -382 0
-348 -377 -363 0
-347 -373 0
-350 -372 -379 0
-350 -376 -384 0
-350 -375 -383 0
-350 -375 -385 0
-347 -376 0
-351 -373 -380 0
-351 -373 -384 0
-351 -375 -382 0
-351 -375 -385 0
-347 -377 0
-346 -367 -359 0
-346 -375 -382 0
-346 -375 -383 0
-347 -372 0
-353 -334 -379 0
-353 -334 -381 0
-353 -374 -381 0
-353 -373 -383 0
-353 -373 -384 0
-348 -371 0
-347 -317 -364 0
-347 -373 -394 0
-347 -373 -403 0
-347 -376 -400 0
-347 -377 -364 0
-347 -372 -392 0
-347 -372 -400 0
-348 -373 0
-350 -371 -403 0
-350 -371 -402 0
-350 -371 -394 0
-350 -372 -392 0
-350 -372 -384 0
-350 -376 -384 0
-348 -376 0
-351 -371 -400 0
-351 -371 -402 0
-351 -371 -394 0
-351 -373 -384 0
-351 -373 -394 0
-348 -377 0
-346 -371 -400 0
-346 -371 -403 0
-346 -371 -394 0
-346 -367 -361 0
-311 -371 -364 0
-311 -371 -366 0
-311 -371 -369 0
-311 -371 -362 0
-311 -371 -365 0
-311 -264 -360 0
-311 -334 -368 0
-311 -334 -365 0
-311 -334 -370 0
-262 -317 -363 0
-262 -221 -360 0
-224 -264 -360 0
-349 -377 0
-346 -371 -364 0
-346 -371 -366 0
-346 -371 -369 0
-346 -371 -365 0
-346 -375 -363 0
-346 -375 -366 0
-346 -375 -369 0
-349 -357 0
-89 -137 0
-90 -138 0
-91 -139 0
-92 -140 0
-93 -141 0
-94 -142 0
-95 -143 0
-96 -144 0
-280 -340 -326 0
-280 -340 -330 0
-335 -389 -327 0
-335 -389 -325 0
-335 -312 -328 0
-335 -312 -325 0
-335 -312 -331 0
-324 -388 0
-356 -340 -326 0
-297 -312 -328 0
-297 -312 -325 0
-297 -312 -331 0
-297 -340 -326 0
-297 -340 -330 0
-297 -268 -331 0
-297 -268 -328 0
-297 -268 -333 0
-280 -329 -342 0
-297 -312 -334 0
-297 -312 -336 0
-297 -312 -337 0
-297 -268 -337 0
-297 -268 -334 0
-297 -268 -341 0
-297 -329 -342 0
-335 -389 0
-353 -390 -336 0
-353 -390 -344 0
-353 -390 -343 0
-353 -379 -343 0
-353 -379 -339 0
-353 -379 -344 0
-353 -379 -345 0
-353 -379 -334 0
-311 -374 -345 0
-311 -374 -336 0
-311 -374 -343 0
-311 -374 -337 0
-311 -379 -343 0
-311 -379 -339 0
-311 -379 -344 0
-311 -379 -345 0
-311 -379 -334 0
-311 -379 -338 0
-311 -368 -334 0
-311 -368 -345 0
-311 -368 -341 0
-311 -268 -337 0
-311 -268 -334 0
-311 -268 -341 0
-335 -388 0
-324 -340 -386 0
-335 -389 -387 0
-335 -389 -381 0
-335 -312 -378 0
-335 -312 -381 0
-335 -312 -370 0
-335 -329 -386 0
-335 -312 -372 0
-335 -312 -380 0
-335 -312 -365 0
-353 -390 0
-350 -379 -394 0
-350 -379 -396 0
-350 -379 -397 0
-350 -379 -372 0
-350 -391 -380 0
-350 -391 -394 0
-350 -392 -380 0
-350 -392 -372 0
-350 -392 -396 0
-350 -392 -397 0
-353 -379 0
-347 -312 -372 0
-347 -312 -365 0
-347 -392 -372 0
-347 -392 -395 0
-347 -392 -396 0
-347 -392 -397 0
-347 -390 -396 0
-347 -390 -394 0
-347 -391 -395 0
-347 -391 -394 0
-347 -393 -372 0
-347 -393 -365 0
-347 -393 -394 0
-347 -374 -397 0
-347 -374 -394 0
-347 -374 -365 0
-256 -220 -247 0
-256 -220 -249 0
-256 -260 -249 0
-256 -260 -245 0
-256 -260 -247 0
-265 -318 -245 0
-265 -318 -246 0
-265 -318 -247 0
-265 -317 -246 0
-265 -317 -250 0
-265 -317 -249 0
-265 -319 -249 0
-265 -220 -247 0
-265 -220 -249 0
-298 -310 -251 0
-298 -310 -252 0
-298 -310 -253 0
-298 -311 -252 0
-298 -311 -254 0
-298 -311 -245 0
-298 -311 -251 0
-298 -260 -249 0
-298 -260 -245 0
-298 -260 -247 0
-298 -309 -253 0
-298 -309 -251 0
-227 -319 -249 0
-227 -260 -249 0
-227 -260 -245 0
-227 -260 -247 0
-227 -318 -245 0
-227 -318 -246 0
-227 -318 -247 0
-281 -309 -253 0
-281 -309 -251 0
-281 -310 -251 0
-281 -310 -252 0
-281 -310 -253 0
-248 -260 -293 0
-248 -260 -295 0
-248 -260 -296 0
-248 -220 -296 0
-248 -220 -293 0
-281 -309 -301 0
-281 -309 -302 0
-281 -310 -302 0
-281 -310 -303 0
-281 -310 -301 0
-336 -309 -301 0
-336 -309 -302 0
-336 -311 -303 0
-336 -311 -306 0
-336 -311 -295 0
-336 -311 -302 0
-336 -312 -301 0
-336 -312 -303 0
-336 -313 -302 0
-336 -313 -306 0
-336 -314 -302 0
-347 -310 -302 0
-347 -310 -303 0
-347 -310 -301 0
-347 -313 -302 0
-347 -313 -306 0
-347 -316 -303 0
-347 -316 -307 0
-347 -316 -305 0
-347 -317 -304 0
-347 -317 -305 0
-347 -317 -293 0
-347 -312 -301 0
-347 -312 -303 0
-265 -318 -295 0
-265 -318 -304 0
-265 -318 -296 0
-265 -317 -304 0
-265 -317 -305 0
-265 -317 -293 0
-265 -319 -293 0
-265 -220 -296 0
-265 -220 -293 0
-325 -310 -302 0
-325 -310 -303 0
-325 -310 -301 0
-325 -314 -302 0
-325 -312 -301 0
-325 -312 -303 0
-265 -318 -377 0
-265 -318 -357 0
-265 -319 -367 0
-265 -220 -357 0
-265 -220 -367 0
-347 -310 -374 0
-347 -310 -372 0
-347 -310 -378 0
-347 -313 -374 0
-347 -313 -373 0
-347 -316 -372 0
-347 -316 -376 0
-347 -316 -375 0
-347 -312 -378 0
-347 -312 -372 0
-371 -322 0
-385 -318 -357 0
-385 -320 -373 0
-385 -320 -376 0
-371 -320 0
-384 -316 -372 0
-384 -316 -376 0
-384 -321 -373 0
-384 -322 -367 0
-371 -318 0
-363 -260 -357 0
-363 -220 -357 0
-363 -322 -375 0
-298 -310 -355 0
-298 -310 -353 0
-298 -310 -356 0
-298 -260 -349 0
-298 -260 -352 0
-298 -260 -354 0
-298 -309 -356 0
-298 -309 -355 0
-336 -309 -356 0
-336 -309 -355 0
-336 -312 -356 0
-336 -312 -353 0
-336 -313 -355 0
-336 -313 -350 0
-336 -314 -355 0
-347 -313 0
-380 -310 -355 0
-380 -310 -356 0
-380 -312 -356 0
-380 -316 -351 0
-380 -316 -348 0
-347 -316 0
-382 -313 -355 0
-382 -321 -348 0
-382 -320 -352 0
-382 -320 -351 0
-382 -320 -346 0
-347 -317 0
-371 -260 -349 0
-371 -260 -354 0
-371 -322 -349 0
-371 -322 -348 0
-371 -320 -350 0
-371 -320 -351 0
-371 -320 -346 0
-371 -318 -346 0
-371 -318 -354 0
-347 -312 0
-379 -309 -356 0
-379 -310 -353 0
-379 -310 -356 0
-379 -313 -350 0
-265 -317 -362 0
-265 -317 -364 0
-265 -220 -360 0
-227 -260 -367 0
-227 -260 -360 0
-363 -317 0
-371 -260 -360 0
-371 -311 -365 0
-371 -311 -366 0
-371 -311 -368 0
-371 -322 -364 0
-371 -320 -366 0
-371 -320 -369 0
-371 -320 -362 0
-363 -322 0
-385 -317 -364 0
-385 -320 -367 0
-385 -320 -366 0
-385 -320 -369 0
-363 -319 0
-359 -260 -367 0
-256 -220 -267 0
-256 -220 -266 0
-248 -220 -267 0
-248 -220 -266 0
-298 -310 -268 0
-298 -310 -269 0
-298 -310 -270 0
-298 -311 -269 0
-298 -311 -271 0
-298 -311 -264 0
-298 -311 -268 0
-298 -309 -270 0
-298 -309 -268 0
-265 -318 0
-363 -220 -267 0
-363 -317 -272 0
-363 -317 -273 0
-363 -322 -264 0
-363 -322 -273 0
-265 -317 0
-371 -311 -269 0
-371 -311 -271 0
-371 -311 -268 0
-371 -322 -266 0
-371 -322 -273 0
-371 -320 -271 0
-371 -320 -274 0
-371 -320 -272 0
-371 -318 -272 0
-371 -318 -267 0
-265 -319 0
-359 -220 -266 0
-359 -318 -264 0
-359 -318 -272 0
-227 -319 -266 0
-227 -318 -264 0
-227 -318 -272 0
-227 -318 -267 0
-281 -309 -342 0
-281 -309 -340 0
-298 -311 -338 0
-298 -311 -339 0
-298 -311 -334 0
-298 -311 -340 0
-298 -260 -337 0
-298 -260 -334 0
-298 -260 -341 0
-298 -309 -342 0
-298 -309 -340 0
-325 -314 -340 0
-325 -312 -342 0
-325 -312 -338 0
-347 -313 -340 0
-347 -313 -339 0
-347 -316 -338 0
-347 -316 -344 0
-347 -316 -343 0
-347 -317 -345 0
-347 -317 -343 0
-347 -317 -337 0
-347 -312 -342 0
-347 -312 -338 0
-336 -312 0
-379 -309 -342 0
-379 -313 -339 0
-379 -311 -338 0
-379 -311 -339 0
-379 -311 -334 0
-336 -313 0
-380 -311 -339 0
-380 -311 -334 0
-380 -311 -340 0
-380 -312 -342 0
-380 -316 -344 0
-380 -316 -343 0
-336 -314 0
-381 -309 -340 0
-381 -312 -338 0
-248 -262 -293 0
-248 -262 -295 0
-248 -262 -296 0
-248 -311 -295 0
-248 -311 -293 0
-248 -224 -296 0
-248 -224 -293 0
-281 -324 -301 0
-281 -324 -302 0
-281 -335 -302 0
-281 -335 -303 0
-281 -335 -301 0
-315 -352 -304 0
-315 -352 -305 0
-315 -352 -293 0
-315 -349 -295 0
-315 -349 -304 0
-315 -349 -296 0
-315 -262 -293 0
-315 -262 -295 0
-315 -262 -296 0
-315 -335 -302 0
-315 -335 -303 0
-315 -335 -301 0
-336 -324 -301 0
-336 -324 -302 0
-336 -355 -301 0
-336 -355 -303 0
-336 -353 -302 0
-336 -353 -306 0
-336 -311 -295 0
-336 -311 -293 0
-336 -356 -302 0
-265 -349 -295 0
-265 -349 -304 0
-265 -349 -296 0
-265 -311 -295 0
-265 -311 -293 0
-265 -352 -304 0
-265 -352 -305 0
-265 -352 -293 0
-265 -354 -293 0
-265 -224 -296 0
-265 -224 -293 0
-325 -335 -302 0
-325 -335 -303 0
-325 -335 -301 0
-325 -356 -302 0
-325 -355 -301 0
-325 -355 -303 0
-248 -262 -318 0
-248 -262 -317 0
-248 -262 -319 0
-248 -224 -319 0
-248 -224 -318 0
-298 -335 -312 0
-298 -335 -313 0
-298 -335 -314 0
-298 -262 -318 0
-298 -262 -317 0
-298 -262 -319 0
-298 -324 -314 0
-298 -324 -312 0
-315 -352 0
-371 -262 -318 0
-371 -262 -319 0
-371 -346 -318 0
-371 -346 -320 0
-371 -348 -316 0
-371 -348 -321 0
-371 -348 -322 0
-371 -349 -322 0
-371 -349 -319 0
-315 -349 0
-363 -262 -317 0
-363 -262 -319 0
-363 -224 -319 0
-363 -352 -322 0
-363 -352 -320 0
-363 -346 -317 0
-363 -346 -320 0
-265 -349 -317 0
-265 -349 -322 0
-265 -349 -319 0
-265 -352 -322 0
-265 -352 -320 0
-265 -352 -318 0
-265 -354 -318 0
-265 -224 -319 0
-265 -224 -318 0
-336 -324 -314 0
-336 -324 -312 0
-336 -355 -314 0
-336 -355 -313 0
-336 -353 -312 0
-336 -353 -316 0
-336 -356 -312 0
-281 -324 -342 0
-281 -324 -340 0
-298 -311 -334 0
-298 -311 -337 0
-298 -262 -337 0
-298 -262 -334 0
-298 -262 -341 0
-298 -324 -342 0
-298 -324 -340 0
-325 -356 -340 0
-325 -355 -342 0
-325 -355 -338 0
-336 -355 0
-379 -324 -342 0
-379 -353 -339 0
-336 -353 0
-380 -355 -342 0
-380 -350 -344 0
-380 -350 -343 0
-315 -352 -345 0
-315 -352 -343 0
-315 -352 -337 0
-315 -349 -334 0
-315 -349 -345 0
-315 -349 -341 0
-315 -262 -337 0
-315 -262 -334 0
-315 -262 -341 0
-336 -356 0
-381 -324 -340 0
-381 -355 -338 0
-336 -324 -386 0
-336 -324 -389 0
-336 -355 -386 0
-336 -311 -372 0
-336 -311 -365 0
-336 -356 -389 0
-380 -355 0
-379 -324 -386 0
-379 -335 -386 0
-380 -350 0
-382 -351 -394 0
-382 -348 -372 0
-382 -348 -396 0
-382 -348 -397 0
-382 -353 0
-380 -335 -390 0
-380 -335 -387 0
-380 -355 -387 0
-382 -351 0
-383 -348 -373 0
-383 -348 -399 0
-382 -348 0
-384 -352 -399 0
-384 -352 -366 0
-384 -346 -373 0
-384 -346 -366 0
-315 -349 -377 0
-315 -349 -357 0
-315 -262 -367 0
-315 -262 -357 0
-315 -335 -374 0
-315 -335 -372 0
-315 -335 -378 0
-265 -349 -377 0
-265 -349 -357 0
-265 -311 -367 0
-265 -354 -367 0
-265 -224 -357 0
-265 -224 -367 0
-371 -346 0
-385 -349 -357 0
-385 -348 -373 0
-385 -348 -376 0
-371 -348 0
-384 -350 -372 0
-384 -350 -376 0
-384 -351 -373 0
-384 -346 -367 0
-371 -349 0
-363 -262 -357 0
-363 -224 -357 0
-363 -346 -375 0
-325 -335 -389 0
-325 -335 -388 0
-336 -324 -388 0
-336 -353 -390 0
-336 -311 -374 0
-336 -311 -368 0
-379 -356 0
-381 -335 -389 0
-379 -353 0
-380 -335 -388 0
-380 -350 -391 0
-380 -350 -392 0
-97 -169 0
-98 -170 0
-99 -171 0
-100 -172 0
-101 -173 0
-102 -174 0
-103 -175 0
-104 -176 0
-315 -348 -372 0
-315 -348 -373 0
-315 -348 -374 0
-315 -364 -377 0
-315 -364 -357 0
-315 -273 -367 0
-315 -273 -357 0
-315 -343 -374 0
-315 -343 -372 0
-315 -343 -378 0
-265 -364 -377 0
-265 -364 -357 0
-265 -320 -367 0
-265 -361 -367 0
-265 -235 -357 0
-265 -235 -367 0
-347 -320 -367 0
-347 -343 -374 0
-347 -343 -372 0
-347 -343 -378 0
-347 -394 -374 0
-347 -394 -373 0
-347 -400 -372 0
-347 -400 -376 0
-347 -392 -378 0
-347 -392 -372 0
-371 -402 0
-385 -364 -357 0
-371 -364 0
-363 -273 -357 0
-363 -235 -357 0
-347 -320 -373 0
-347 -320 -366 0
-347 -343 -390 0
-347 -343 -395 0
-347 -343 -387 0
-347 -394 -390 0
-347 -375 -399 0
-347 -375 -366 0
-347 -392 -387 0
-347 -392 -395 0
-382 -394 0
-380 -343 -390 0
-380 -343 -387 0
-380 -348 -373 0
-380 -348 -390 0
-380 -392 -387 0
-382 -403 0
-383 -400 0
-382 -348 -396 0
-382 -348 -376 0
-382 -348 -391 0
-382 -394 -391 0
-385 -375 0
-371 -320 -362 0
-371 -273 -362 0
-371 -273 -358 0
-371 -348 -397 0
-371 -348 -399 0
-371 -348 -393 0
-371 -364 -358 0
-385 -364 0
-363 -320 -377 0
-363 -273 -377 0
-363 -273 -358 0
-363 -235 -358 0
-97 -153 0
-98 -154 0
-99 -155 0
-100 -156 0
-101 -157 0
-102 -158 0
-103 -159 0
-104 -160 0
-298 -316 -352 0
-298 -316 -349 0
-298 -339 -355 0
-298 -339 -353 0
-298 -339 -356 0
-298 -271 -349 0
-298 -271 -352 0
-298 -271 -354 0
-298 -327 -356 0
-298 -327 -355 0
-315 -373 -346 0
-315 -373 -348 0
-315 -373 -349 0
-315 -366 -352 0
-315 -366 -346 0
-315 -366 -354 0
-315 -271 -349 0
-315 -271 -352 0
-315 -271 -354 0
-315 -339 -355 0
-315 -339 -353 0
-315 -339 -356 0
-336 -327 -356 0
-336 -327 -355 0
-336 -390 -356 0
-336 -390 -353 0
-336 -395 -355 0
-336 -316 -352 0
-336 -316 -349 0
-336 -387 -355 0
-347 -395 0
-380 -339 -355 0
-380 -339 -356 0
-380 -390 -356 0
-347 -373 0
-371 -316 -349 0
-371 -271 -349 0
-371 -271 -354 0
-371 -399 -349 0
-371 -399 -348 0
-371 -400 -351 0
-371 -400 -346 0
-371 -366 -346 0
-371 -366 -354 0
-347 -390 0
-379 -327 -356 0
-379 -339 -353 0
-379 -339 -356 0
-336 -327 -386 0
-336 -327 -389 0
-336 -350 -372 0
-336 -350 -389 0
-336 -390 -386 0
-336 -316 -372 0
-336 -316 -365 0
-336 -387 -389 0
-347 -316 -372 0
-347 -316 -365 0
-347 -339 -389 0
-347 -339 -386 0
-347 -373 -397 0
-347 -373 -394 0
-347 -373 -365 0
-347 -390 -386 0
-380 -390 0
-379 -327 -386 0
-379 -339 -386 0
-379 -350 -372 0
-383 -400 0
-384 -373 -401 0
-384 -373 -369 0
-384 -399 -376 0
-384 -399 -369 0
-384 -373 0
-371 -316 -364 0
-371 -271 -364 0
-371 -271 -361 0
-371 -350 -394 0
-371 -350 -392 0
-371 -399 -364 0
-371 -366 -402 0
-371 -366 -361 0
-384 -398 0
-384 -399 0
-385 -373 -364 0
-385 -366 -375 0
-385 -366 -361 0
-97 -161 0
-98 -162 0
-99 -163 0
-100 -164 0
-101 -165 0
-102 -166 0
-103 -167 0
-104 -168 0
-347 -321 -373 0
-347 -321 -366 0
-347 -344 -390 0
-347 -344 -395 0
-347 -344 -387 0
-347 -396 -390 0
-347 -376 -399 0
-347 -376 -400 0
-347 -376 -366 0
-347 -391 -387 0
-347 -391 -395 0
-382 -396 0
-380 -344 -390 0
-380 -344 -387 0
-380 -351 -373 0
-380 -351 -390 0
-380 -391 -387 0
-382 -403 0
-384 -376 -399 0
-384 -376 -366 0
-384 -401 -373 0
-384 -401 -366 0
-384 -376 0
-371 -321 -364 0
-371 -274 -364 0
-371 -274 -361 0
-371 -351 -394 0
-371 -351 -400 0
-371 -351 -392 0
-371 -401 -364 0
-371 -369 -402 0
-371 -369 -361 0
-384 -398 0
-382 -351 -394 0
-382 -351 -375 0
-382 -351 -392 0
-382 -396 -392 0
-384 -401 0
-385 -376 -364 0
-385 -369 -375 0
-385 -369 -361 0
-97 -177 0
-98 -178 0
-99 -179 0
-100 -180 0
-101 -181 0
-102 -182 0
-103 -183 0
-104 -184 0
-315 -346 -372 0
-315 -346 -373 0
-315 -346 -374 0
-315 -362 -357 0
-315 -272 -367 0
-315 -272 -357 0
-315 -345 -374 0
-315 -345 -372 0
-315 -345 -378 0
-265 -362 -357 0
-265 -322 -367 0
-265 -358 -367 0
-265 -232 -357 0
-265 -232 -367 0
-347 -322 -367 0
-347 -345 -374 0
-347 -345 -372 0
-347 -345 -378 0
-347 -397 -374 0
-347 -397 -373 0
-347 -399 -372 0
-347 -399 -376 0
-347 -399 -375 0
-347 -393 -378 0
-347 -393 -372 0
-371 -402 0
-384 -399 -372 0
-384 -399 -376 0
-384 -401 -373 0
-371 -362 0
-363 -272 -357 0
-363 -232 -357 0
-315 -377 -364 0
-315 -346 -365 0
-315 -346 -366 0
-315 -346 -367 0
-315 -346 -368 0
-315 -272 -367 0
-315 -272 -360 0
-315 -345 -368 0
-315 -345 -365 0
-315 -345 -370 0
-265 -322 -367 0
-265 -377 -364 0
-265 -232 -360 0
-227 -272 -367 0
-227 -272 -360 0
-363 -377 0
-371 -272 -360 0
-371 -346 -365 0
-371 -346 -366 0
-371 -346 -368 0
-371 -402 -366 0
-371 -402 -369 0
-363 -358 0
-359 -272 -367 0
-384 -377 0
-371 -322 -364 0
-371 -272 -364 0
-371 -272 -361 0
-371 -346 -394 0
-371 -346 -400 0
-371 -346 -392 0
-371 -362 -361 0
-384 -399 0
-382 -346 -394 0
-382 -346 -375 0
-382 -346 -392 0
-382 -397 -392 0
-384 -401 0
-383 -399 -394 0
-97 -105 0
-98 -106 0
-99 -107 0
-100 -108 0
-101 -109 0
-102 -110 0
-103 -111 0
-104 -112 0
-248 -264 -318 0
-248 -264 -319 0
-248 -221 -319 0
-248 -221 -318 0
-298 -334 -312 0
-298 -334 -313 0
-298 -334 -314 0
-298 -352 -313 0
-298 -352 -316 0
-298 -352 -312 0
-298 -264 -318 0
-298 -264 -319 0
-298 -328 -314 0
-298 -328 -312 0
-347 -334 -312 0
-347 -334 -313 0
-347 -334 -314 0
-347 -372 -312 0
-347 -372 -316 0
-347 -373 -313 0
-347 -373 -321 0
-347 -373 -320 0
-347 -374 -314 0
-347 -374 -313 0
-315 -367 0
-363 -264 -319 0
-363 -221 -319 0
-363 -377 -320 0
-265 -367 -322 0
-265 -367 -319 0
-265 -357 -318 0
-265 -221 -319 0
-265 -221 -318 0
-336 -328 -314 0
-336 -328 -312 0
-336 -352 -313 0
-336 -352 -316 0
-336 -352 -312 0
-336 -374 -314 0
-336 -374 -313 0
-336 -372 -312 0
-336 -372 -316 0
-336 -378 -312 0
-256 -221 -267 0
-256 -221 -266 0
-248 -317 -266 0
-248 -221 -267 0
-248 -221 -266 0
-298 -317 -266 0
-298 -334 -268 0
-298 -334 -269 0
-298 -334 -270 0
-298 -352 -269 0
-298 -352 -271 0
-298 -352 -268 0
-298 -328 -270 0
-298 -328 -268 0
-265 -367 0
-363 -221 -267 0
-363 -377 -273 0
-315 -352 -269 0
-315 -352 -271 0
-315 -352 -268 0
-315 -367 -272 0
-315 -367 -267 0
-315 -334 -268 0
-315 -334 -269 0
-315 -334 -270 0
-265 -357 0
-359 -221 -266 0
-359 -367 -272 0
-227 -357 -266 0
-227 -367 -272 0
-227 -367 -267 0
-298 -317 -349 0
-298 -334 -355 0
-298 -334 -353 0
-298 -334 -356 0
-298 -264 -349 0
-298 -264 -354 0
-298 -328 -356 0
-298 -328 -355 0
-315 -367 -346 0
-315 -367 -354 0
-315 -264 -349 0
-315 -264 -354 0
-315 -334 -355 0
-315 -334 -353 0
-315 -334 -356 0
-336 -328 -356 0
-336 -328 -355 0
-336 -374 -356 0
-336 -374 -353 0
-336 -372 -355 0
-336 -372 -350 0
-336 -317 -349 0
-336 -378 -355 0
-347 -372 0
-380 -334 -355 0
-380 -334 -356 0
-380 -374 -356 0
-380 -373 -351 0
-380 -373 -348 0
-347 -373 0
-382 -372 -355 0
-382 -376 -348 0
-382 -375 -351 0
-382 -375 -346 0
-347 -374 0
-379 -328 -356 0
-379 -334 -353 0
-379 -334 -356 0
-379 -372 -350 0
-385 -367 0
-363 -264 -358 0
-363 -221 -358 0
-385 -375 0
-384 -373 -397 0
-384 -373 -401 0
-384 -376 -399 0
-384 -373 0
-382 -352 -394 0
-382 -352 -392 0
-382 -372 -392 0
-384 -376 0
-383 -373 -394 0
-384 -377 0
-385 -367 -361 0
-315 -352 -365 0
-315 -352 -366 0
-315 -352 -368 0
-315 -264 -360 0
-315 -334 -368 0
-315 -334 -365 0
-315 -334 -370 0
-265 -221 -360 0
-227 -264 -360 0
-363 -377 0
-385 -375 -366 0
-385 -375 -369 0
-363 -357 0
-97 -145 0
-98 -146 0
-99 -147 0
-100 -148 0
-101 -149 0
-102 -150 0
-103 -151 0
-104 -152 0
-281 -326 -342 0
-281 -326 -340 0
-298 -313 -334 0
-298 -313 -337 0
-298 -353 -339 0
-298 -353 -334 0
-298 -353 -340 0
-298 -269 -337 0
-298 -269 -334 0
-298 -269 -341 0
-298 -326 -342 0
-298 -326 -340 0
-325 -386 -340 0
-325 -389 -342 0
-347 -313 -334 0
-347 -313 -337 0
-347 -395 -344 0
-347 -395 -343 0
-347 -372 -345 0
-347 -372 -343 0
-347 -372 -337 0
-347 -389 -342 0
-336 -389 0
-379 -326 -342 0
-379 -353 -339 0
-379 -353 -334 0
-315 -372 -345 0
-315 -372 -343 0
-315 -372 -337 0
-315 -353 -339 0
-315 -353 -334 0
-315 -353 -340 0
-315 -365 -334 0
-315 -365 -345 0
-315 -365 -341 0
-315 -269 -337 0
-315 -269 -334 0
-315 -269 -341 0
-336 -386 0
-381 -326 -340 0
-298 -313 -352 0
-298 -313 -349 0
-298 -338 -355 0
-298 -338 -356 0
-298 -269 -349 0
-298 -269 -352 0
-298 -269 -354 0
-298 -326 -356 0
-298 -326 -355 0
-315 -372 -346 0
-315 -372 -348 0
-315 -372 -349 0
-315 -365 -352 0
-315 -365 -346 0
-315 -365 -354 0
-315 -269 -349 0
-315 -269 -352 0
-315 -269 -354 0
-315 -338 -355 0
-315 -338 -356 0
-336 -326 -356 0
-336 -326 -355 0
-336 -389 -356 0
-336 -313 -352 0
-336 -313 -349 0
-336 -386 -355 0
-347 -395 0
-382 -396 -348 0
-382 -394 -352 0
-382 -394 -351 0
-382 -394 -346 0
-347 -372 0
-371 -313 -349 0
-371 -269 -349 0
-371 -269 -354 0
-371 -397 -349 0
-371 -397 -348 0
-371 -394 -350 0
-371 -394 -351 0
-371 -394 -346 0
-371 -365 -346 0
-371 -365 -354 0
-347 -389 0
-379 -326 -356 0
-379 -338 -356 0
-325 -338 -388 0
-336 -326 -388 0
-336 -353 -390 0
-336 -353 -374 0
-336 -313 -374 0
-336 -313 -368 0
-379 -386 0
-347 -313 -374 0
-347 -313 -368 0
-347 -338 -388 0
-347 -395 -391 0
-347 -395 -392 0
-347 -372 -393 0
-347 -372 -392 0
-347 -372 -368 0
-347 -313 -373 0
-347 -313 -366 0
-347 -338 -390 0
-347 -338 -387 0
-347 -372 -399 0
-347 -372 -400 0
-347 -372 -366 0
-347 -389 -387 0
-382 -396 0
-383 -394 -373 0
-383 -394 -399 0
-382 -394 0
-384 -372 -399 0
-384 -372 -366 0
-384 -397 -373 0
-384 -397 -366 0
-234 -220 -247 0
-234 -220 -249 0
-234 -260 -249 0
-234 -260 -247 0
-264 -318 -246 0
-264 -318 -247 0
-264 -319 -249 0
-264 -220 -247 0
-264 -220 -249 0
-295 -310 -251 0
-295 -310 -252 0
-295 -310 -253 0
-295 -311 -252 0
-295 -311 -254 0
-295 -311 -251 0
-295 -260 -249 0
-295 -260 -247 0
-295 -309 -253 0
-295 -309 -251 0
-221 -319 -249 0
-221 -260 -249 0
-221 -260 -247 0
-221 -318 -246 0
-221 -318 -247 0
-279 -309 -253 0
-279 -309 -251 0
-279 -310 -251 0
-279 -310 -252 0
-279 -310 -253 0
-245 -260 -293 0
-245 -260 -296 0
-245 -220 -296 0
-245 -220 -293 0
-279 -309 -301 0
-279 -309 -302 0
-279 -310 -302 0
-279 -310 -303 0
-279 -310 -301 0
-334 -309 -301 0
-334 -309 -302 0
-334 -311 -303 0
-334 -311 -306 0
-334 -311 -302 0
-334 -312 -301 0
-334 -312 -303 0
-334 -313 -302 0
-334 -313 -306 0
-334 -314 -302 0
-352 -310 -302 0
-352 -310 -303 0
-352 -310 -301 0
-352 -315 -305 0
-352 -315 -306 0
-352 -315 -307 0
-352 -315 -304 0
-352 -315 -303 0
-352 -313 -302 0
-352 -313 -306 0
-352 -316 -303 0
-352 -316 -307 0
-352 -316 -305 0
-352 -312 -301 0
-352 -312 -303 0
-264 -318 -304 0
-264 -318 -296 0
-264 -319 -293 0
-264 -220 -296 0
-264 -220 -293 0
-328 -310 -302 0
-328 -310 -303 0
-328 -310 -301 0
-328 -314 -302 0
-328 -312 -301 0
-328 -312 -303 0
-295 -310 -355 0
-295 -310 -353 0
-295 -310 -356 0
-295 -260 -349 0
-295 -260 -354 0
-295 -309 -356 0
-295 -309 -355 0
-334 -309 -356 0
-334 -309 -355 0
-334 -312 -356 0
-334 -312 -353 0
-334 -313 -355 0
-334 -313 -350 0
-334 -314 -355 0
-371 -320 -350 0
-371 -320 -351 0
-371 -320 -346 0
-371 -316 -353 0
-371 -316 -351 0
-371 -316 -348 0
-371 -321 -350 0
-371 -321 -348 0
-371 -322 -349 0
-371 -322 -348 0
-371 -313 -355 0
-371 -313 -350 0
-352 -313 0
-372 -310 -355 0
-372 -310 -356 0
-372 -312 -356 0
-372 -316 -351 0
-372 -316 -348 0
-372 -315 -348 0
-372 -315 -350 0
-372 -315 -351 0
-372 -315 -346 0
-352 -316 0
-373 -315 -348 0
-373 -315 -351 0
-373 -315 -346 0
-373 -315 -353 0
-373 -313 -355 0
-373 -321 -348 0
-373 -320 -351 0
-373 -320 -346 0
-352 -312 0
-374 -309 -356 0
-374 -310 -353 0
-374 -310 -356 0
-374 -313 -350 0
-352 -310 -379 0
-352 -310 -380 0
-352 -310 -381 0
-352 -313 -379 0
-352 -313 -382 0
-352 -316 -380 0
-352 -316 -383 0
-352 -316 -384 0
-352 -312 -381 0
-352 -312 -380 0
-371 -320 0
-375 -316 -380 0
-375 -316 -383 0
-375 -321 -382 0
-375 -322 -363 0
-371 -316 0
-373 -311 -380 0
-373 -311 -379 0
-373 -313 -379 0
-373 -321 -384 0
-373 -320 -383 0
-373 -320 -385 0
-371 -321 0
-376 -316 -380 0
-376 -316 -384 0
-376 -320 -382 0
-376 -320 -385 0
-371 -322 0
-377 -318 -359 0
-377 -320 -382 0
-377 -320 -383 0
-371 -313 0
-372 -310 -379 0
-372 -310 -381 0
-372 -311 -382 0
-372 -311 -379 0
-372 -312 -381 0
-372 -316 -383 0
-372 -316 -384 0
-264 -220 -360 0
-221 -260 -360 0
-367 -322 0
-377 -315 -364 0
-377 -315 -366 0
-377 -315 -369 0
-377 -315 -365 0
-377 -320 -366 0
-377 -320 -369 0
-367 -319 0
-234 -220 -267 0
-234 -220 -266 0
-245 -220 -267 0
-245 -220 -266 0
-295 -310 -268 0
-295 -310 -269 0
-295 -310 -270 0
-295 -311 -269 0
-295 -311 -271 0
-295 -311 -268 0
-295 -309 -270 0
-295 -309 -268 0
-264 -318 0
-367 -220 -267 0
-367 -322 -273 0
-264 -319 0
-357 -220 -266 0
-357 -318 -272 0
-221 -319 -266 0
-221 -318 -272 0
-221 -318 -267 0
-279 -309 -342 0
-279 -309 -340 0
-295 -311 -338 0
-295 -311 -339 0
-295 -311 -340 0
-295 -260 -337 0
-295 -260 -341 0
-295 -309 -342 0
-295 -309 -340 0
-328 -314 -340 0
-328 -312 -342 0
-328 -312 -338 0
-352 -315 -343 0
-352 -315 -339 0
-352 -315 -344 0
-352 -315 -345 0
-352 -315 -338 0
-352 -313 -340 0
-352 -313 -339 0
-352 -316 -338 0
-352 -316 -344 0
-352 -316 -343 0
-352 -312 -342 0
-352 -312 -338 0
-334 -312 0
-374 -309 -342 0
-374 -313 -339 0
-374 -311 -338 0
-374 -311 -339 0
-334 -313 0
-372 -311 -339 0
-372 -311 -340 0
-372 -312 -342 0
-372 -316 -344 0
-372 -316 -343 0
-372 -315 -343 0
-372 -315 -339 0
-372 -315 -344 0
-372 -315 -345 0
-334 -314 0
-378 -309 -340 0
-378 -312 -338 0
-221 -267 -231 0
-221 -266 -237 0
-221 -266 -228 0
-245 -260 -231 0
-245 -225 -228 0
-245 -225 -231 0
-234 -225 -247 0
-234 -225 -249 0
-295 -260 -249 0
-295 -261 -251 0
-295 -261 -252 0
-295 -261 -253 0
-295 -262 -252 0
-295 -262 -254 0
-295 -262 -251 0
-295 -263 -253 0
-295 -263 -251 0
-317 -262 -252 0
-317 -262 -254 0
-317 -262 -251 0
-317 -265 -250 0
-317 -265 -254 0
-317 -265 -257 0
-317 -265 -246 0
-317 -265 -252 0
-317 -266 -246 0
-317 -266 -247 0
-317 -261 -251 0
-317 -261 -252 0
-317 -261 -253 0
-221 -267 -249 0
-221 -266 -246 0
-221 -266 -247 0
-279 -263 -253 0
-279 -263 -251 0
-279 -261 -251 0
-279 -261 -252 0
-279 -261 -253 0
-245 -260 -293 0
-245 -225 -296 0
-245 -225 -293 0
-279 -263 -301 0
-279 -263 -302 0
-279 -261 -302 0
-279 -261 -303 0
-279 -261 -301 0
-317 -262 -303 0
-317 -262 -306 0
-317 -262 -302 0
-317 -265 -305 0
-317 -265 -306 0
-317 -265 -307 0
-317 -265 -304 0
-317 -265 -303 0
-317 -266 -304 0
-317 -266 -296 0
-317 -261 -302 0
-317 -261 -303 0
-317 -261 -301 0
-334 -263 -301 0
-334 -263 -302 0
-334 -262 -303 0
-334 -262 -306 0
-334 -262 -302 0
-334 -268 -301 0
-334 -268 -303 0
-334 -269 -302 0
-334 -269 -306 0
-334 -260 -293 0
-334 -270 -302 0
-352 -260 -293 0
-352 -261 -302 0
-352 -261 -303 0
-352 -261 -301 0
-352 -265 -305 0
-352 -265 -306 0
-352 -265 -307 0
-352 -265 -304 0
-352 -265 -303 0
-352 -269 -302 0
-352 -269 -306 0
-352 -271 -303 0
-352 -271 -307 0
-352 -271 -305 0
-352 -268 -301 0
-352 -268 -303 0
-328 -261 -302 0
-328 -261 -303 0
-328 -261 -301 0
-328 -270 -302 0
-328 -268 -301 0
-328 -268 -303 0
-317 -262 -365 0
-317 -262 -366 0
-317 -262 -368 0
-317 -265 -364 0
-317 -265 -366 0
-317 -265 -369 0
-317 -265 -362 0
-317 -265 -365 0
-317 -261 -368 0
-317 -261 -365 0
-317 -261 -370 0
-367 -272 0
-377 -265 -364 0
-377 -265 -366 0
-377 -265 -369 0
-377 -265 -365 0
-377 -273 -366 0
-377 -273 -369 0
-367 -267 0
-245 -225 -319 0
-245 -225 -318 0
-295 -261 -312 0
-295 -261 -313 0
-295 -261 -314 0
-295 -262 -313 0
-295 -262 -316 0
-295 -262 -312 0
-295 -263 -314 0
-295 -263 -312 0
-352 -261 -312 0
-352 -261 -313 0
-352 -261 -314 0
-352 -265 -320 0
-352 -265 -316 0
-352 -265 -321 0
-352 -265 -322 0
-352 -265 -313 0
-352 -269 -312 0
-352 -269 -316 0
-352 -271 -313 0
-352 -271 -321 0
-352 -271 -320 0
-352 -268 -314 0
-352 -268 -313 0
-371 -262 -313 0
-371 -262 -316 0
-371 -262 -312 0
-371 -273 -316 0
-371 -273 -321 0
-371 -273 -322 0
-371 -271 -313 0
-371 -271 -321 0
-371 -271 -320 0
-371 -274 -316 0
-371 -274 -320 0
-371 -272 -318 0
-371 -272 -320 0
-371 -269 -312 0
-371 -269 -316 0
-317 -266 0
-367 -225 -319 0
-367 -272 -320 0
-334 -263 -314 0
-334 -263 -312 0
-334 -262 -313 0
-334 -262 -316 0
-334 -262 -312 0
-334 -268 -314 0
-334 -268 -313 0
-334 -269 -312 0
-334 -269 -316 0
-334 -270 -312 0
-221 -266 -358 0
-357 -266 0
-367 -272 -361 0
-245 -260 -219 0
-221 -267 0
-357 -266 -232 0
-221 -266 0
-367 -272 -235 0
-245 -262 -293 0
-245 -262 -296 0
-245 -311 -293 0
-245 -224 -296 0
-245 -224 -293 0
-279 -324 -301 0
-279 -324 -302 0
-279 -335 -302 0
-279 -335 -303 0
-279 -335 -301 0
-317 -347 -305 0
-317 -347 -306 0
-317 -347 -307 0
-317 -347 -304 0
-317 -347 -303 0
-317 -349 -304 0
-317 -349 -296 0
-317 -262 -293 0
-317 -262 -296 0
-317 -335 -302 0
-317 -335 -303 0
-317 -335 -301 0
-334 -324 -301 0
-334 -324 -302 0
-334 -355 -301 0
-334 -355 -303 0
-334 -353 -302 0
-334 -353 -306 0
-334 -311 -293 0
-334 -356 -302 0
-264 -349 -304 0
-264 -349 -296 0
-264 -311 -293 0
-264 -354 -293 0
-264 -224 -296 0
-264 -224 -293 0
-328 -335 -302 0
-328 -335 -303 0
-328 -335 -301 0
-328 -356 -302 0
-328 -355 -301 0
-328 -355 -303 0
-245 -262 -318 0
-245 -262 -319 0
-245 -224 -319 0
-245 -224 -318 0
-295 -335 -312 0
-295 -335 -313 0
-295 -335 -314 0
-295 -262 -318 0
-295 -262 -319 0
-295 -324 -314 0
-295 -324 -312 0
-371 -348 -316 0
-371 -348 -321 0
-371 -348 -322 0
-371 -350 -313 0
-371 -350 -321 0
-371 -350 -320 0
-371 -351 -316 0
-371 -351 -320 0
-371 -346 -318 0
-371 -346 -320 0
-371 -353 -312 0
-371 -353 -316 0
-317 -349 0
-367 -262 -319 0
-367 -224 -319 0
-367 -346 -320 0
-264 -349 -322 0
-264 -349 -319 0
-264 -354 -318 0
-264 -224 -319 0
-264 -224 -318 0
-334 -324 -314 0
-334 -324 -312 0
-334 -355 -314 0
-334 -355 -313 0
-334 -353 -312 0
-334 -353 -316 0
-334 -356 -312 0
-279 -324 -342 0
-279 -324 -340 0
-295 -311 -337 0
-295 -262 -337 0
-295 -262 -341 0
-295 -324 -342 0
-295 -324 -340 0
-328 -356 -340 0
-328 -355 -342 0
-328 -355 -338 0
-334 -355 0
-374 -324 -342 0
-374 -353 -339 0
-334 -353 0
-372 -355 -342 0
-372 -350 -344 0
-372 -350 -343 0
-372 -347 -343 0
-372 -347 -339 0
-372 -347 -344 0
-372 -347 -345 0
-317 -347 -343 0
-317 -347 -339 0
-317 -347 -344 0
-317 -347 -345 0
-317 -347 -338 0
-317 -349 -345 0
-317 -349 -341 0
-317 -262 -337 0
-317 -262 -341 0
-334 -356 0
-378 -324 -340 0
-378 -355 -338 0
-317 -349 -385 0
-317 -349 -359 0
-317 -262 -363 0
-317 -262 -359 0
-317 -335 -379 0
-317 -335 -380 0
-317 -335 -381 0
-371 -348 0
-375 -350 -380 0
-375 -350 -383 0
-375 -351 -382 0
-375 -346 -363 0
-371 -350 0
-373 -353 -379 0
-373 -351 -384 0
-373 -348 -383 0
-373 -348 -385 0
-371 -351 0
-376 -350 -380 0
-376 -350 -384 0
-376 -348 -382 0
-376 -348 -385 0
-371 -346 0
-377 -349 -359 0
-377 -348 -382 0
-377 -348 -383 0
-371 -353 0
-372 -335 -379 0
-372 -335 -381 0
-372 -355 -381 0
-372 -350 -383 0
-372 -350 -384 0
-334 -324 -386 0
-334 -324 -389 0
-334 -355 -386 0
-334 -311 -365 0
-334 -356 -389 0
-372 -355 0
-374 -324 -386 0
-374 -335 -386 0
-372 -350 0
-373 -347 -394 0
-373 -347 -396 0
-373 -347 -397 0
-373 -351 -394 0
-373 -348 -396 0
-373 -348 -397 0
-371 -311 -365 0
-371 -348 -395 0
-371 -348 -396 0
-371 -348 -397 0
-371 -350 -396 0
-371 -350 -394 0
-371 -351 -395 0
-371 -351 -394 0
-371 -346 -365 0
-371 -346 -394 0
-371 -311 -366 0
-371 -348 -398 0
-371 -348 -399 0
-371 -351 -400 0
-371 -346 -366 0
-371 -346 -400 0
-371 -353 -390 0
-373 -353 0
-372 -335 -390 0
-372 -335 -387 0
-372 -355 -387 0
-372 -347 -400 0
-372 -347 -398 0
-372 -347 -399 0
-373 -351 0
-376 -347 -400 0
-376 -347 -399 0
-376 -347 -395 0
-376 -348 -399 0
-373 -348 0
-375 -347 -398 0
-375 -347 -399 0
-375 -347 -395 0
-375 -346 -366 0
-328 -335 -389 0
-328 -335 -388 0
-334 -324 -388 0
-334 -353 -390 0
-334 -311 -368 0
-374 -356 0
-378 -335 -389 0
-374 -353 0
-372 -335 -388 0
-372 -350 -391 0
-372 -350 -392 0
-372 -347 -392 0
-372 -347 -390 0
-372 -347 -391 0
-372 -347 -393 0
-105 -177 0
-106 -178 0
-107 -179 0
-108 -180 0
-109 -181 0
-110 -182 0
-111 -183 0
-112 -184 0
-317 -346 -380 0
-317 -346 -382 0
-317 -346 -379 0
-317 -362 -359 0
-317 -272 -363 0
-317 -272 -359 0
-317 -345 -379 0
-317 -345 -380 0
-317 -345 -381 0
-352 -322 -363 0
-352 -345 -379 0
-352 -345 -380 0
-352 -345 -381 0
-352 -397 -379 0
-352 -397 -382 0
-352 -399 -380 0
-352 -399 -383 0
-352 -399 -384 0
-352 -393 -381 0
-352 -393 -380 0
-371 -402 0
-375 -399 -380 0
-375 -399 -383 0
-375 -401 -382 0
-371 -399 0
-373 -346 -380 0
-373 -346 -379 0
-373 -397 -379 0
-373 -401 -384 0
-373 -402 -383 0
-371 -401 0
-376 -399 -380 0
-376 -399 -384 0
-376 -402 -382 0
-371 -397 0
-372 -345 -379 0
-372 -345 -381 0
-372 -346 -382 0
-372 -346 -379 0
-372 -393 -381 0
-372 -399 -383 0
-372 -399 -384 0
-317 -346 -365 0
-317 -346 -366 0
-317 -346 -368 0
-317 -385 -364 0
-317 -385 -366 0
-317 -385 -369 0
-317 -385 -365 0
-317 -272 -360 0
-317 -345 -368 0
-317 -345 -365 0
-317 -345 -370 0
-264 -232 -360 0
-221 -272 -360 0
-367 -358 0
-371 -322 -364 0
-371 -346 -394 0
-371 -346 -400 0
-371 -346 -392 0
-371 -399 -394 0
-371 -399 -403 0
-371 -401 -400 0
-371 -397 -392 0
-371 -397 -400 0
-375 -399 0
-373 -346 -394 0
-373 -346 -392 0
-373 -385 -403 0
-373 -385 -394 0
-373 -397 -392 0
-375 -401 0
-376 -385 -400 0
-376 -385 -394 0
-376 -399 -394 0
-245 -265 -318 0
-245 -265 -319 0
-245 -227 -319 0
-245 -227 -318 0
-295 -336 -312 0
-295 -336 -313 0
-295 -336 -314 0
-295 -347 -313 0
-295 -347 -316 0
-295 -347 -312 0
-295 -265 -318 0
-295 -265 -319 0
-295 -325 -314 0
-295 -325 -312 0
-352 -336 -312 0
-352 -336 -313 0
-352 -336 -314 0
-352 -380 -312 0
-352 -380 -316 0
-352 -382 -313 0
-352 -382 -321 0
-352 -382 -320 0
-352 -379 -314 0
-352 -379 -313 0
-317 -363 0
-367 -265 -319 0
-367 -227 -319 0
-367 -385 -320 0
-264 -363 -322 0
-264 -363 -319 0
-264 -359 -318 0
-264 -227 -319 0
-264 -227 -318 0
-334 -325 -314 0
-334 -325 -312 0
-334 -347 -313 0
-334 -347 -316 0
-334 -347 -312 0
-334 -379 -314 0
-334 -379 -313 0
-334 -380 -312 0
-334 -380 -316 0
-334 -381 -312 0
-295 -315 -349 0
-295 -336 -355 0
-295 -336 -353 0
-295 -336 -356 0
-295 -265 -349 0
-295 -265 -354 0
-295 -325 -356 0
-295 -325 -355 0
-317 -363 -346 0
-317 -363 -354 0
-317 -265 -349 0
-317 -265 -354 0
-317 -336 -355 0
-317 -336 -353 0
-317 -336 -356 0
-334 -325 -356 0
-334 -325 -355 0
-334 -379 -356 0
-334 -379 -353 0
-334 -380 -355 0
-334 -380 -350 0
-334 -315 -349 0
-334 -381 -355 0
-352 -380 0
-372 -336 -355 0
-372 -336 -356 0
-372 -379 -356 0
-372 -382 -351 0
-372 -382 -348 0
-352 -382 0
-373 -380 -355 0
-373 -383 -348 0
-373 -384 -351 0
-373 -384 -346 0
-352 -379 0
-374 -325 -356 0
-374 -336 -353 0
-374 -336 -356 0
-374 -380 -350 0
-375 -382 0
-373 -347 -394 0
-373 -347 -392 0
-373 -380 -392 0
-375 -383 0
-376 -382 -394 0
-375 -385 0
-377 -363 -361 0
-352 -315 -366 0
-352 -336 -390 0
-352 -336 -395 0
-352 -336 -387 0
-352 -380 -390 0
-352 -379 -387 0
-352 -379 -395 0
-373 -380 0
-372 -336 -390 0
-372 -336 -387 0
-372 -347 -390 0
-372 -379 -387 0
-373 -383 0
-376 -384 -399 0
-373 -384 0
-375 -385 -366 0
-376 -382 0
-373 -347 -396 0
-373 -347 -391 0
-373 -380 -391 0
-373 -384 -401 0
-376 -384 0
-375 -382 -396 0
-375 -385 -369 0
-377 -363 0
-367 -265 -358 0
-367 -227 -358 0
-377 -384 0
-375 -382 -397 0
-375 -382 -401 0
-375 -383 -399 0
-334 -325 -386 0
-334 -325 -389 0
-334 -347 -395 0
-334 -347 -389 0
-334 -379 -386 0
-334 -315 -365 0
-334 -381 -389 0
-352 -315 -365 0
-352 -336 -389 0
-352 -336 -386 0
-352 -382 -396 0
-352 -382 -394 0
-352 -379 -386 0
-372 -379 0
-374 -325 -386 0
-374 -336 -386 0
-374 -347 -395 0
-372 -382 0
-373 -347 -389 0
-373 -383 -394 0
-373 -384 -396 0
-373 -384 -397 0
-105 -169 0
-106 -170 0
-107 -171 0
-108 -172 0
-109 -173 0
-110 -174 0
-111 -175 0
-112 -176 0
-317 -348 -380 0
-317 -348 -382 0
-317 -348 -379 0
-317 -364 -385 0
-317 -364 -359 0
-317 -273 -363 0
-317 -273 -359 0
-317 -343 -379 0
-317 -343 -380 0
-317 -343 -381 0
-352 -320 -363 0
-352 -343 -379 0
-352 -343 -380 0
-352 -343 -381 0
-352 -394 -379 0
-352 -394 -382 0
-352 -400 -380 0
-352 -400 -383 0
-352 -392 -381 0
-352 -392 -380 0
-371 -400 0
-373 -348 -380 0
-373 -348 -379 0
-373 -394 -379 0
-371 -403 0
-376 -400 -380 0
-371 -402 0
-377 -364 -359 0
-371 -394 0
-372 -343 -379 0
-372 -343 -381 0
-372 -348 -382 0
-372 -348 -379 0
-372 -392 -381 0
-372 -400 -383 0
-352 -320 -366 0
-352 -343 -390 0
-352 -343 -395 0
-352 -343 -387 0
-352 -384 -398 0
-352 -384 -399 0
-352 -384 -395 0
-352 -394 -390 0
-352 -392 -387 0
-352 -392 -395 0
-371 -320 -366 0
-371 -348 -395 0
-371 -348 -390 0
-371 -402 -366 0
-371 -394 -390 0
-373 -394 0
-372 -343 -390 0
-372 -343 -387 0
-372 -348 -390 0
-372 -392 -387 0
-372 -384 -398 0
-372 -384 -399 0
-373 -403 0
-376 -384 -399 0
-376 -384 -395 0
-371 -320 -369 0
-371 -348 -396 0
-371 -348 -398 0
-371 -348 -391 0
-371 -400 -396 0
-371 -402 -369 0
-371 -394 -391 0
-371 -394 -398 0
-376 -400 0
-373 -348 -396 0
-373 -348 -391 0
-373 -384 -401 0
-373 -384 -396 0
-373 -394 -391 0
-371 -320 -362 0
-371 -348 -397 0
-371 -348 -399 0
-371 -348 -393 0
-371 -400 -397 0
-371 -400 -401 0
-371 -403 -399 0
-371 -394 -393 0
-371 -394 -399 0
-377 -364 0
-367 -273 -358 0
-367 -235 -358 0
-105 -113 0
-106 -114 0
-107 -115 0
-108 -116 0
-109 -117 0
-110 -118 0
-111 -119 0
-112 -120 0
-245 -266 -319 0
-245 -219 -319 0
-295 -337 -312 0
-295 -337 -313 0
-295 -337 -314 0
-295 -349 -313 0
-295 -349 -316 0
-295 -349 -312 0
-295 -266 -319 0
-295 -331 -314 0
-295 -331 -312 0
-352 -337 -312 0
-352 -337 -313 0
-352 -337 -314 0
-352 -363 -320 0
-352 -363 -316 0
-352 -363 -321 0
-352 -363 -322 0
-352 -363 -313 0
-352 -365 -312 0
-352 -365 -316 0
-352 -366 -313 0
-352 -366 -321 0
-352 -366 -320 0
-352 -368 -314 0
-352 -368 -313 0
-371 -349 -313 0
-371 -349 -316 0
-371 -349 -312 0
-371 -364 -316 0
-371 -364 -321 0
-371 -364 -322 0
-371 -366 -313 0
-371 -366 -321 0
-371 -366 -320 0
-371 -369 -316 0
-371 -369 -320 0
-371 -362 -320 0
-371 -365 -312 0
-371 -365 -316 0
-264 -219 -319 0
-334 -331 -314 0
-334 -331 -312 0
-334 -349 -313 0
-334 -349 -316 0
-334 -349 -312 0
-334 -368 -314 0
-334 -368 -313 0
-334 -365 -312 0
-334 -365 -316 0
-334 -370 -312 0
-234 -219 -267 0
-245 -219 -267 0
-295 -337 -268 0
-295 -337 -269 0
-295 -337 -270 0
-295 -349 -269 0
-295 -349 -271 0
-295 -349 -268 0
-295 -331 -270 0
-295 -331 -268 0
-317 -349 -269 0
-317 -349 -271 0
-317 -349 -268 0
-317 -363 -273 0
-317 -363 -271 0
-317 -363 -274 0
-317 -363 -272 0
-317 -363 -269 0
-317 -337 -268 0
-317 -337 -269 0
-317 -337 -270 0
-264 -360 0
-234 -266 -222 0
-245 -266 -222 0
-221 -360 0
-371 -349 -397 0
-371 -349 -399 0
-371 -349 -393 0
-371 -364 -399 0
-371 -364 -401 0
-371 -366 -397 0
-371 -366 -401 0
-371 -366 -402 0
-371 -369 -399 0
-371 -369 -402 0
-371 -365 -393 0
-371 -365 -399 0
-377 -364 0
-375 -363 -399 0
-375 -363 -401 0
-375 -363 -397 0
-375 -366 -397 0
-375 -366 -401 0
-375 -369 -399 0
-231 -220 -247 0
-231 -260 -247 0
-266 -317 -246 0
-266 -317 -250 0
-266 -220 -247 0
-293 -310 -251 0
-293 -310 -252 0
-293 -310 -253 0
-293 -311 -252 0
-293 -311 -254 0
-293 -311 -251 0
-293 -260 -247 0
-293 -309 -253 0
-293 -309 -251 0
-219 -260 -247 0
-282 -309 -253 0
-282 -309 -251 0
-282 -310 -251 0
-282 -310 -252 0
-282 -310 -253 0
-249 -260 -296 0
-249 -220 -296 0
-282 -309 -301 0
-282 -309 -302 0
-282 -310 -302 0
-282 -310 -303 0
-282 -310 -301 0
-337 -309 -301 0
-337 -309 -302 0
-337 -311 -303 0
-337 -311 -306 0
-337 -311 -302 0
-337 -312 -301 0
-337 -312 -303 0
-337 -313 -302 0
-337 -313 -306 0
-337 -314 -302 0
-349 -310 -302 0
-349 -310 -303 0
-349 -310 -301 0
-349 -315 -305 0
-349 -315 -306 0
-349 -315 -307 0
-349 -315 -304 0
-349 -315 -303 0
-349 -313 -302 0
-349 -313 -306 0
-349 -316 -303 0
-349 -316 -307 0
-349 -316 -305 0
-349 -317 -304 0
-349 -317 -305 0
-349 -312 -301 0
-349 -312 -303 0
-266 -317 -304 0
-266 -317 -305 0
-266 -220 -296 0
-331 -310 -302 0
-331 -310 -303 0
-331 -310 -301 0
-331 -314 -302 0
-331 -312 -301 0
-331 -312 -303 0
-266 -220 -357 0
-349 -310 -374 0
-349 -310 -372 0
-349 -310 -378 0
-349 -315 -375 0
-349 -315 -373 0
-349 -315 -376 0
-349 -315 -377 0
-349 -315 -372 0
-349 -313 -374 0
-349 -313 -373 0
-349 -316 -372 0
-349 -316 -376 0
-349 -316 -375 0
-349 -312 -378 0
-349 -312 -372 0
-367 -322 0
-362 -315 -375 0
-362 -315 -373 0
-362 -315 -376 0
-362 -315 -372 0
-362 -320 -373 0
-362 -320 -376 0
-363 -311 -372 0
-363 -311 -373 0
-363 -311 -374 0
-363 -320 -373 0
-363 -320 -376 0
-363 -320 -377 0
-363 -316 -372 0
-363 -316 -376 0
-363 -316 -375 0
-363 -321 -373 0
-363 -321 -375 0
-363 -322 -375 0
-363 -313 -374 0
-363 -313 -373 0
-367 -320 0
-364 -315 -373 0
-364 -315 -376 0
-364 -315 -377 0
-364 -315 -372 0
-364 -316 -372 0
-364 -316 -376 0
-364 -321 -373 0
-293 -310 -355 0
-293 -310 -353 0
-293 -310 -356 0
-293 -260 -354 0
-293 -309 -356 0
-293 -309 -355 0
-337 -309 -356 0
-337 -309 -355 0
-337 -312 -356 0
-337 -312 -353 0
-337 -313 -355 0
-337 -313 -350 0
-337 -314 -355 0
-363 -320 -350 0
-363 -320 -351 0
-363 -320 -346 0
-363 -316 -353 0
-363 -316 -351 0
-363 -316 -348 0
-363 -321 -350 0
-363 -321 -348 0
-363 -322 -348 0
-363 -317 -346 0
-363 -317 -348 0
-363 -313 -355 0
-363 -313 -350 0
-349 -313 0
-365 -310 -355 0
-365 -310 -356 0
-365 -312 -356 0
-365 -316 -351 0
-365 -316 -348 0
-365 -315 -348 0
-365 -315 -350 0
-365 -315 -351 0
-365 -315 -346 0
-349 -316 0
-366 -315 -348 0
-366 -315 -351 0
-366 -315 -346 0
-366 -315 -353 0
-366 -313 -355 0
-366 -321 -348 0
-366 -320 -351 0
-366 -320 -346 0
-367 -260 -354 0
-367 -322 -348 0
-367 -315 -348 0
-367 -315 -350 0
-367 -315 -351 0
-367 -315 -346 0
-367 -315 -353 0
-367 -320 -350 0
-367 -320 -351 0
-367 -320 -346 0
-349 -312 0
-368 -309 -356 0
-368 -310 -353 0
-368 -310 -356 0
-368 -313 -350 0
-349 -310 -379 0
-349 -310 -380 0
-349 -310 -381 0
-349 -313 -379 0
-349 -313 -382 0
-349 -316 -380 0
-349 -316 -383 0
-349 -316 -384 0
-349 -317 -385 0
-349 -317 -384 0
-349 -312 -381 0
-349 -312 -380 0
-363 -320 0
-364 -317 -385 0
-364 -316 -380 0
-364 -316 -383 0
-364 -321 -382 0
-363 -316 0
-366 -311 -380 0
-366 -311 -379 0
-366 -313 -379 0
-366 -321 -384 0
-366 -320 -383 0
-366 -320 -385 0
-363 -321 0
-369 -316 -380 0
-369 -316 -384 0
-369 -320 -382 0
-369 -320 -385 0
-363 -322 0
-362 -317 -384 0
-362 -320 -382 0
-362 -320 -383 0
-367 -260 -359 0
-367 -311 -380 0
-367 -311 -382 0
-367 -311 -379 0
-367 -322 -384 0
-367 -320 -382 0
-367 -320 -383 0
-367 -320 -385 0
-363 -313 0
-365 -310 -379 0
-365 -310 -381 0
-365 -311 -382 0
-365 -311 -379 0
-365 -312 -381 0
-365 -316 -383 0
-365 -316 -384 0
-231 -220 -267 0
-249 -220 -267 0
-293 -310 -268 0
-293 -310 -269 0
-293 -310 -270 0
-293 -311 -269 0
-293 -311 -271 0
-293 -311 -268 0
-293 -309 -270 0
-293 -309 -268 0
-367 -311 -269 0
-367 -311 -271 0
-367 -311 -268 0
-367 -322 -273 0
-367 -315 -273 0
-367 -315 -271 0
-367 -315 -274 0
-367 -315 -272 0
-367 -315 -269 0
-367 -320 -271 0
-367 -320 -274 0
-367 -320 -272 0
-266 -319 0
-282 -309 -342 0
-282 -309 -340 0
-293 -311 -338 0
-293 -311 -339 0
-293 -311 -340 0
-293 -260 -341 0
-293 -309 -342 0
-293 -309 -340 0
-331 -314 -340 0
-331 -312 -342 0
-331 -312 -338 0
-349 -315 -343 0
-349 -315 -339 0
-349 -315 -344 0
-349 -315 -345 0
-349 -315 -338 0
-349 -313 -340 0
-349 -313 -339 0
-349 -316 -338 0
-349 -316 -344 0
-349 -316 -343 0
-349 -317 -345 0
-349 -317 -343 0
-349 -312 -342 0
-349 -312 -338 0
-337 -312 0
-368 -309 -342 0
-368 -313 -339 0
-368 -311 -338 0
-368 -311 -339 0
-337 -313 0
-365 -311 -339 0
-365 -311 -340 0
-365 -312 -342 0
-365 -316 -344 0
-365 -316 -343 0
-365 -315 -343 0
-365 -315 -339 0
-365 -315 -344 0
-365 -315 -345 0
-337 -314 0
-370 -309 -340 0
-370 -312 -338 0
-249 -225 -228 0
-231 -225 -247 0
-293 -261 -251 0
-293 -261 -252 0
-293 -261 -253 0
-293 -262 -252 0
-293 -262 -254 0
-293 -262 -251 0
-293 -263 -253 0
-293 -263 -251 0
-318 -264 -246 0
-318 -264 -250 0
-318 -262 -252 0
-318 -262 -254 0
-318 -262 -251 0
-318 -265 -250 0
-318 -265 -254 0
-318 -265 -257 0
-318 -265 -246 0
-318 -265 -252 0
-318 -261 -251 0
-318 -261 -252 0
-318 -261 -253 0
-282 -263 -253 0
-282 -263 -251 0
-282 -261 -251 0
-282 -261 -252 0
-282 -261 -253 0
-249 -225 -296 0
-282 -263 -301 0
-282 -263 -302 0
-282 -261 -302 0
-282 -261 -303 0
-282 -261 -301 0
-318 -264 -304 0
-318 -264 -305 0
-318 -262 -303 0
-318 -262 -306 0
-318 -262 -302 0
-318 -265 -305 0
-318 -265 -306 0
-318 -265 -307 0
-318 -265 -304 0
-318 -265 -303 0
-318 -261 -302 0
-318 -261 -303 0
-318 -261 -301 0
-337 -263 -301 0
-337 -263 -302 0
-337 -262 -303 0
-337 -262 -306 0
-337 -262 -302 0
-337 -268 -301 0
-337 -268 -303 0
-337 -269 -302 0
-337 -269 -306 0
-337 -270 -302 0
-349 -261 -302 0
-349 -261 -303 0
-349 -261 -301 0
-349 -265 -305 0
-349 -265 -306 0
-349 -265 -307 0
-349 -265 -304 0
-349 -265 -303 0
-349 -269 -302 0
-349 -269 -306 0
-349 -271 -303 0
-349 -271 -307 0
-349 -271 -305 0
-349 -264 -304 0
-349 -264 -305 0
-349 -268 -301 0
-349 -268 -303 0
-331 -261 -302 0
-331 -261 -303 0
-331 -261 -301 0
-331 -270 -302 0
-331 -268 -301 0
-331 -268 -303 0
-249 -225 -319 0
-293 -261 -312 0
-293 -261 -313 0
-293 -261 -314 0
-293 -262 -313 0
-293 -262 -316 0
-293 -262 -312 0
-293 -263 -314 0
-293 -263 -312 0
-367 -262 -313 0
-367 -262 -316 0
-367 -262 -312 0
-367 -272 -320 0
-367 -265 -320 0
-367 -265 -316 0
-367 -265 -321 0
-367 -265 -322 0
-367 -265 -313 0
-367 -273 -316 0
-367 -273 -321 0
-367 -273 -322 0
-349 -261 -312 0
-349 -261 -313 0
-349 -261 -314 0
-349 -265 -320 0
-349 -265 -316 0
-349 -265 -321 0
-349 -265 -322 0
-349 -265 -313 0
-349 -269 -312 0
-349 -269 -316 0
-349 -271 -313 0
-349 -271 -321 0
-349 -271 -320 0
-349 -264 -322 0
-349 -264 -320 0
-349 -268 -314 0
-349 -268 -313 0
-363 -262 -313 0
-363 -262 -316 0
-363 -262 -312 0
-363 -273 -316 0
-363 -273 -321 0
-363 -273 -322 0
-363 -271 -313 0
-363 -271 -321 0
-363 -271 -320 0
-363 -274 -316 0
-363 -274 -320 0
-363 -272 -320 0
-363 -264 -322 0
-363 -264 -320 0
-363 -269 -312 0
-363 -269 -316 0
-337 -263 -314 0
-337 -263 -312 0
-337 -262 -313 0
-337 -262 -316 0
-337 -262 -312 0
-337 -268 -314 0
-337 -268 -313 0
-337 -269 -312 0
-337 -269 -316 0
-337 -270 -312 0
-318 -262 -372 0
-318 -262 -373 0
-318 -262 -374 0
-318 -265 -375 0
-318 -265 -373 0
-318 -265 -376 0
-318 -265 -377 0
-318 -265 -372 0
-318 -261 -374 0
-318 -261 -372 0
-318 -261 -378 0
-349 -261 -374 0
-349 -261 -372 0
-349 -261 -378 0
-349 -265 -375 0
-349 -265 -373 0
-349 -265 -376 0
-349 -265 -377 0
-349 -265 -372 0
-349 -269 -374 0
-349 -269 -373 0
-349 -271 -372 0
-349 -271 -376 0
-349 -271 -375 0
-349 -268 -378 0
-349 -268 -372 0
-367 -272 0
-362 -265 -375 0
-362 -265 -373 0
-362 -265 -376 0
-362 -265 -372 0
-362 -273 -373 0
-362 -273 -376 0
-363 -262 -372 0
-363 -262 -373 0
-363 -262 -374 0
-363 -273 -373 0
-363 -273 -376 0
-363 -273 -377 0
-363 -271 -372 0
-363 -271 -376 0
-363 -271 -375 0
-363 -274 -373 0
-363 -274 -375 0
-363 -272 -375 0
-363 -269 -374 0
-363 -269 -373 0
-367 -273 0
-364 -265 -373 0
-364 -265 -376 0
-364 -265 -377 0
-364 -265 -372 0
-364 -271 -372 0
-364 -271 -376 0
-364 -274 -373 0
-219 -267 0
-249 -225 -228 0
-266 -221 -237 0
-266 -221 -276 0
-231 -225 -247 0
-266 -221 -246 0
-266 -221 -250 0
-293 -223 -251 0
-293 -223 -252 0
-293 -223 -253 0
-293 -224 -252 0
-293 -224 -254 0
-293 -224 -251 0
-293 -225 -247 0
-293 -226 -253 0
-293 -226 -251 0
-318 -221 -246 0
-318 -221 -250 0
-318 -224 -252 0
-318 -224 -254 0
-318 -224 -251 0
-318 -227 -250 0
-318 -227 -254 0
-318 -227 -257 0
-318 -227 -246 0
-318 -227 -252 0
-318 -225 -247 0
-318 -223 -251 0
-318 -223 -252 0
-318 -223 -253 0
-282 -226 -253 0
-282 -226 -251 0
-282 -223 -251 0
-282 -223 -252 0
-282 -223 -253 0
-266 -221 -358 0
-266 -221 -361 0
-293 -223 -268 0
-293 -223 -269 0
-293 -223 -270 0
-293 -224 -269 0
-293 -224 -271 0
-293 -224 -268 0
-293 -226 -270 0
-293 -226 -268 0
-318 -221 -272 0
-318 -221 -273 0
-318 -224 -269 0
-318 -224 -271 0
-318 -224 -268 0
-318 -227 -273 0
-318 -227 -271 0
-318 -227 -274 0
-318 -227 -272 0
-318 -227 -269 0
-318 -223 -268 0
-318 -223 -269 0
-318 -223 -270 0
-367 -224 -269 0
-367 -224 -271 0
-367 -224 -268 0
-367 -232 -273 0
-367 -227 -273 0
-367 -227 -271 0
-367 -227 -274 0
-367 -227 -272 0
-367 -227 -269 0
-367 -235 -271 0
-367 -235 -274 0
-367 -235 -272 0
-266 -222 0
-249 -264 -319 0
-249 -221 -319 0
-293 -334 -312 0
-293 -334 -313 0
-293 -334 -314 0
-293 -352 -313 0
-293 -352 -316 0
-293 -352 -312 0
-293 -264 -319 0
-293 -328 -314 0
-293 -328 -312 0
-349 -334 -312 0
-349 -334 -313 0
-349 -334 -314 0
-349 -371 -320 0
-349 -371 -316 0
-349 -371 -321 0
-349 -371 -322 0
-349 -371 -313 0
-349 -372 -312 0
-349 -372 -316 0
-349 -373 -313 0
-349 -373 -321 0
-349 -373 -320 0
-349 -374 -314 0
-349 -374 -313 0
-363 -352 -313 0
-363 -352 -316 0
-363 -352 -312 0
-363 -375 -316 0
-363 -375 -321 0
-363 -375 -322 0
-363 -373 -313 0
-363 -373 -321 0
-363 -373 -320 0
-363 -376 -316 0
-363 -376 -320 0
-363 -377 -320 0
-363 -372 -312 0
-363 -372 -316 0
-266 -221 -319 0
-337 -328 -314 0
-337 -328 -312 0
-337 -352 -313 0
-337 -352 -316 0
-337 -352 -312 0
-337 -374 -314 0
-337 -374 -313 0
-337 -372 -312 0
-337 -372 -316 0
-337 -378 -312 0
-231 -221 -267 0
-249 -221 -267 0
-293 -334 -268 0
-293 -334 -269 0
-293 -334 -270 0
-293 -352 -269 0
-293 -352 -271 0
-293 -352 -268 0
-293 -328 -270 0
-293 -328 -268 0
-318 -352 -269 0
-318 -352 -271 0
-318 -352 -268 0
-318 -371 -273 0
-318 -371 -271 0
-318 -371 -274 0
-318 -371 -272 0
-318 -371 -269 0
-318 -334 -268 0
-318 -334 -269 0
-318 -334 -270 0
-266 -357 0
-293 -334 -355 0
-293 -334 -353 0
-293 -334 -356 0
-293 -264 -354 0
-293 -328 -356 0
-293 -328 -355 0
-318 -371 -348 0
-318 -371 -350 0
-318 -371 -351 0
-318 -371 -346 0
-318 -371 -353 0
-318 -264 -354 0
-318 -334 -355 0
-318 -334 -353 0
-318 -334 -356 0
-337 -328 -356 0
-337 -328 -355 0
-337 -374 -356 0
-337 -374 -353 0
-337 -372 -355 0
-337 -372 -350 0
-337 -378 -355 0
-363 -375 -350 0
-363 -375 -351 0
-363 -375 -346 0
-363 -373 -353 0
-363 -373 -351 0
-363 -373 -348 0
-363 -376 -350 0
-363 -376 -348 0
-363 -377 -348 0
-363 -372 -355 0
-363 -372 -350 0
-349 -372 0
-365 -334 -355 0
-365 -334 -356 0
-365 -374 -356 0
-365 -373 -351 0
-365 -373 -348 0
-365 -371 -348 0
-365 -371 -350 0
-365 -371 -351 0
-365 -371 -346 0
-349 -373 0
-366 -371 -348 0
-366 -371 -351 0
-366 -371 -346 0
-366 -371 -353 0
-366 -372 -355 0
-366 -376 -348 0
-366 -375 -351 0
-366 -375 -346 0
-349 -374 0
-368 -328 -356 0
-368 -334 -353 0
-368 -334 -356 0
-368 -372 -350 0
-363 -352 -397 0
-363 -352 -399 0
-363 -352 -393 0
-363 -375 -399 0
-363 -375 -401 0
-363 -373 -397 0
-363 -373 -401 0
-363 -373 -402 0
-363 -376 -399 0
-363 -376 -402 0
-363 -372 -393 0
-363 -372 -399 0
-362 -375 0
-364 -371 -399 0
-364 -371 -401 0
-364 -371 -397 0
-364 -373 -397 0
-364 -373 -401 0
-364 -376 -399 0
-318 -352 -380 0
-318 -352 -382 0
-318 -352 -379 0
-318 -264 -359 0
-318 -334 -379 0
-318 -334 -380 0
-318 -334 -381 0
-349 -334 -379 0
-349 -334 -380 0
-349 -334 -381 0
-349 -372 -379 0
-349 -372 -382 0
-349 -373 -380 0
-349 -373 -383 0
-349 -373 -384 0
-349 -374 -381 0
-349 -374 -380 0
-363 -375 0
-364 -373 -380 0
-364 -373 -383 0
-364 -376 -382 0
-363 -373 0
-366 -352 -380 0
-366 -352 -379 0
-366 -372 -379 0
-366 -376 -384 0
-366 -375 -383 0
-366 -375 -385 0
-363 -376 0
-369 -373 -380 0
-369 -373 -384 0
-369 -375 -382 0
-369 -375 -385 0
-363 -377 0
-362 -375 -382 0
-362 -375 -383 0
-363 -372 0
-365 -334 -379 0
-365 -334 -381 0
-365 -352 -382 0
-365 -352 -379 0
-365 -374 -381 0
-365 -373 -383 0
-365 -373 -384 0
-363 -352 -394 0
-363 -352 -400 0
-363 -352 -392 0
-363 -373 -394 0
-363 -373 -403 0
-363 -376 -400 0
-363 -372 -392 0
-363 -372 -400 0
-364 -373 0
-366 -352 -394 0
-366 -352 -392 0
-366 -371 -403 0
-366 -371 -402 0
-366 -371 -394 0
-366 -372 -392 0
-364 -376 0
-369 -371 -400 0
-369 -371 -402 0
-369 -371 -394 0
-369 -373 -394 0
-364 -377 0
-362 -371 -400 0
-362 -371 -403 0
-362 -371 -394 0
-113 -177 0
-114 -178 0
-115 -179 0
-116 -180 0
-117 -181 0
-118 -182 0
-119 -183 0
-120 -184 0
-318 -377 -384 0
-318 -346 -380 0
-318 -346 -382 0
-318 -346 -379 0
-318 -272 -359 0
-318 -345 -379 0
-318 -345 -380 0
-318 -345 -381 0
-349 -345 -379 0
-349 -345 -380 0
-349 -345 -381 0
-349 -397 -379 0
-349 -397 -382 0
-349 -399 -380 0
-349 -399 -383 0
-349 -399 -384 0
-349 -377 -384 0
-349 -393 -381 0
-349 -393 -380 0
-363 -402 0
-364 -399 -380 0
-364 -399 -383 0
-364 -401 -382 0
-363 -399 0
-366 -346 -380 0
-366 -346 -379 0
-366 -397 -379 0
-366 -401 -384 0
-366 -402 -383 0
-363 -401 0
-369 -399 -380 0
-369 -399 -384 0
-369 -402 -382 0
-367 -272 -359 0
-367 -346 -380 0
-367 -346 -382 0
-367 -346 -379 0
-367 -402 -382 0
-367 -402 -383 0
-363 -397 0
-365 -345 -379 0
-365 -345 -381 0
-365 -346 -382 0
-365 -346 -379 0
-365 -393 -381 0
-365 -399 -383 0
-365 -399 -384 0
-318 -346 -372 0
-318 -346 -373 0
-318 -346 -374 0
-318 -385 -375 0
-318 -385 -373 0
-318 -385 -376 0
-318 -385 -372 0
-318 -272 -357 0
-318 -345 -374 0
-318 -345 -372 0
-318 -345 -378 0
-266 -232 -357 0
-349 -345 -374 0
-349 -345 -372 0
-349 -345 -378 0
-349 -385 -375 0
-349 -385 -373 0
-349 -385 -376 0
-349 -385 -372 0
-349 -397 -374 0
-349 -397 -373 0
-349 -399 -372 0
-349 -399 -376 0
-349 -399 -375 0
-349 -393 -378 0
-349 -393 -372 0
-363 -346 -372 0
-363 -346 -373 0
-363 -346 -374 0
-363 -402 -373 0
-363 -402 -376 0
-363 -399 -372 0
-363 -399 -376 0
-363 -399 -375 0
-363 -401 -373 0
-363 -401 -375 0
-363 -397 -374 0
-363 -397 -373 0
-367 -402 0
-364 -385 -373 0
-364 -385 -376 0
-364 -385 -372 0
-364 -399 -372 0
-364 -399 -376 0
-364 -401 -373 0
-363 -346 -394 0
-363 -346 -400 0
-363 -346 -392 0
-363 -399 -394 0
-363 -399 -403 0
-363 -401 -400 0
-363 -397 -392 0
-363 -397 -400 0
-367 -272 -361 0
-367 -346 -394 0
-367 -346 -400 0
-367 -346 -392 0
-367 -385 -400 0
-367 -385 -403 0
-367 -385 -394 0
-364 -399 0
-366 -346 -394 0
-366 -346 -392 0
-366 -385 -403 0
-366 -385 -394 0
-366 -397 -392 0
-364 -401 0
-369 -385 -400 0
-369 -385 -394 0
-369 -399 -394 0
-113 -121 0
-114 -122 0
-115 -123 0
-116 -124 0
-117 -125 0
-118 -126 0
-119 -127 0
-120 -128 0
-293 -341 -268 0
-293 -341 -269 0
-293 -341 -270 0
-293 -354 -269 0
-293 -354 -271 0
-293 -354 -268 0
-293 -333 -270 0
-293 -333 -268 0
-318 -357 -272 0
-318 -357 -273 0
-318 -354 -269 0
-318 -354 -271 0
-318 -354 -268 0
-318 -359 -273 0
-318 -359 -271 0
-318 -359 -274 0
-318 -359 -272 0
-318 -359 -269 0
-318 -341 -268 0
-318 -341 -269 0
-318 -341 -270 0
-367 -354 -269 0
-367 -354 -271 0
-367 -354 -268 0
-367 -358 -273 0
-367 -359 -273 0
-367 -359 -271 0
-367 -359 -274 0
-367 -359 -272 0
-367 -359 -269 0
-367 -361 -271 0
-367 -361 -274 0
-367 -361 -272 0
-266 -357 -232 0
-266 -357 -235 0
-222 -266 -237 0
-296 -261 -251 0
-296 -261 -252 0
-296 -261 -253 0
-296 -262 -252 0
-296 -262 -254 0
-296 -262 -251 0
-296 -263 -253 0
-296 -263 -251 0
-319 -264 -246 0
-319 -264 -250 0
-319 -262 -252 0
-319 -262 -254 0
-319 -262 -251 0
-319 -265 -250 0
-319 -265 -254 0
-319 -265 -257 0
-319 -265 -246 0
-319 -265 -252 0
-319 -266 -246 0
-319 -261 -251 0
-319 -261 -252 0
-319 -261 -253 0
-222 -266 -246 0
-289 -263 -253 0
-289 -263 -251 0
-289 -261 -251 0
-289 -261 -252 0
-289 -261 -253 0
-289 -263 -301 0
-289 -263 -302 0
-289 -261 -302 0
-289 -261 -303 0
-289 -261 -301 0
-319 -264 -304 0
-319 -264 -305 0
-319 -262 -303 0
-319 -262 -306 0
-319 -262 -302 0
-319 -265 -305 0
-319 -265 -306 0
-319 -265 -307 0
-319 -265 -304 0
-319 -265 -303 0
-319 -266 -304 0
-319 -261 -302 0
-319 -261 -303 0
-319 -261 -301 0
-341 -263 -301 0
-341 -263 -302 0
-341 -262 -303 0
-341 -262 -306 0
-341 -262 -302 0
-341 -268 -301 0
-341 -268 -303 0
-341 -269 -302 0
-341 -269 -306 0
-341 -270 -302 0
-354 -261 -302 0
-354 -261 -303 0
-354 -261 -301 0
-354 -265 -305 0
-354 -265 -306 0
-354 -265 -307 0
-354 -265 -304 0
-354 -265 -303 0
-354 -269 -302 0
-354 -269 -306 0
-354 -271 -303 0
-354 -271 -307 0
-354 -271 -305 0
-354 -264 -304 0
-354 -264 -305 0
-354 -268 -301 0
-354 -268 -303 0
-333 -261 -302 0
-333 -261 -303 0
-333 -261 -301 0
-333 -270 -302 0
-333 -268 -301 0
-333 -268 -303 0
-319 -264 -362 0
-319 -264 -364 0
-319 -262 -365 0
-319 -262 -366 0
-319 -262 -368 0
-319 -265 -364 0
-319 -265 -366 0
-319 -265 -369 0
-319 -265 -362 0
-319 -265 -365 0
-319 -261 -368 0
-319 -261 -365 0
-319 -261 -370 0
-357 -262 -365 0
-357 -262 -366 0
-357 -262 -368 0
-357 -272 -364 0
-357 -265 -364 0
-357 -265 -366 0
-357 -265 -369 0
-357 -265 -362 0
-357 -265 -365 0
-357 -273 -366 0
-357 -273 -369 0
-357 -273 -362 0
-360 -272 0
-358 -265 -364 0
-358 -265 -366 0
-358 -265 -369 0
-358 -265 -365 0
-358 -264 -364 0
-358 -273 -366 0
-358 -273 -369 0
-296 -261 -312 0
-296 -261 -313 0
-296 -261 -314 0
-296 -262 -313 0
-296 -262 -316 0
-296 -262 -312 0
-296 -263 -314 0
-296 -263 -312 0
-357 -262 -313 0
-357 -262 -316 0
-357 -262 -312 0
-357 -272 -320 0
-357 -265 -320 0
-357 -265 -316 0
-357 -265 -321 0
-357 -265 -322 0
-357 -265 -313 0
-357 -273 -316 0
-357 -273 -321 0
-357 -273 -322 0
-357 -266 -322 0
-354 -261 -312 0
-354 -261 -313 0
-354 -261 -314 0
-354 -265 -320 0
-354 -265 -316 0
-354 -265 -321 0
-354 -265 -322 0
-354 -265 -313 0
-354 -269 -312 0
-354 -269 -316 0
-354 -271 -313 0
-354 -271 -321 0
-354 -271 -320 0
-354 -264 -322 0
-354 -264 -320 0
-354 -268 -314 0
-354 -268 -313 0
-359 -262 -313 0
-359 -262 -316 0
-359 -262 -312 0
-359 -273 -316 0
-359 -273 -321 0
-359 -273 -322 0
-359 -271 -313 0
-359 -271 -321 0
-359 -271 -320 0
-359 -274 -316 0
-359 -274 -320 0
-359 -272 -320 0
-359 -264 -322 0
-359 -264 -320 0
-359 -269 -312 0
-359 -269 -316 0
-360 -264 -322 0
-360 -264 -320 0
-360 -272 -320 0
-341 -263 -314 0
-341 -263 -312 0
-341 -262 -313 0
-341 -262 -316 0
-341 -262 -312 0
-341 -268 -314 0
-341 -268 -313 0
-341 -269 -312 0
-341 -269 -316 0
-341 -270 -312 0
-319 -262 -372 0
-319 -262 -373 0
-319 -262 -374 0
-319 -265 -375 0
-319 -265 -373 0
-319 -265 -376 0
-319 -265 -377 0
-319 -265 -372 0
-319 -266 -377 0
-319 -261 -374 0
-319 -261 -372 0
-319 -261 -378 0
-354 -261 -374 0
-354 -261 -372 0
-354 -261 -378 0
-354 -265 -375 0
-354 -265 -373 0
-354 -265 -376 0
-354 -265 -377 0
-354 -265 -372 0
-354 -269 -374 0
-354 -269 -373 0
-354 -271 -372 0
-354 -271 -376 0
-354 -271 -375 0
-354 -268 -378 0
-354 -268 -372 0
-357 -272 0
-358 -265 -375 0
-358 -265 -373 0
-358 -265 -376 0
-358 -265 -372 0
-358 -273 -373 0
-358 -273 -376 0
-359 -262 -372 0
-359 -262 -373 0
-359 -262 -374 0
-359 -273 -373 0
-359 -273 -376 0
-359 -273 -377 0
-359 -271 -372 0
-359 -271 -376 0
-359 -271 -375 0
-359 -274 -373 0
-359 -274 -375 0
-359 -272 -375 0
-359 -269 -374 0
-359 -269 -373 0
-357 -273 0
-361 -265 -373 0
-361 -265 -376 0
-361 -265 -377 0
-361 -265 -372 0
-361 -271 -372 0
-361 -271 -376 0
-361 -274 -373 0
-360 -272 -375 0
-360 -264 -232 0
-360 -264 -235 0
-360 -272 -235 0
-267 -219 -237 0
-267 -221 -237 0
-267 -221 -276 0
-267 -219 -246 0
-267 -221 -246 0
-267 -221 -250 0
-296 -223 -251 0
-296 -223 -252 0
-296 -223 -253 0
-296 -224 -252 0
-296 -224 -254 0
-296 -224 -251 0
-296 -226 -253 0
-296 -226 -251 0
-319 -221 -246 0
-319 -221 -250 0
-319 -224 -252 0
-319 -224 -254 0
-319 -224 -251 0
-319 -227 -250 0
-319 -227 -254 0
-319 -227 -257 0
-319 -227 -246 0
-319 -227 -252 0
-319 -219 -246 0
-319 -223 -251 0
-319 -223 -252 0
-319 -223 -253 0
-289 -226 -253 0
-289 -226 -251 0
-289 -223 -251 0
-289 -223 -252 0
-289 -223 -253 0
-296 -223 -268 0
-296 -223 -269 0
-296 -223 -270 0
-296 -224 -269 0
-296 -224 -271 0
-296 -224 -268 0
-296 -226 -270 0
-296 -226 -268 0
-360 -221 -272 0
-360 -221 -273 0
-360 -232 -273 0
-319 -221 -272 0
-319 -221 -273 0
-319 -224 -269 0
-319 -224 -271 0
-319 -224 -268 0
-319 -227 -273 0
-319 -227 -271 0
-319 -227 -274 0
-319 -227 -272 0
-319 -227 -269 0
-319 -219 -272 0
-319 -223 -268 0
-319 -223 -269 0
-319 -223 -270 0
-357 -224 -269 0
-357 -224 -271 0
-357 -224 -268 0
-357 -232 -273 0
-357 -227 -273 0
-357 -227 -271 0
-357 -227 -274 0
-357 -227 -272 0
-357 -227 -269 0
-357 -235 -271 0
-357 -235 -274 0
-357 -235 -272 0
-357 -219 -272 0
-319 -221 -362 0
-319 -221 -364 0
-319 -224 -365 0
-319 -224 -366 0
-319 -224 -368 0
-319 -227 -364 0
-319 -227 -366 0
-319 -227 -369 0
-319 -227 -362 0
-319 -227 -365 0
-319 -223 -368 0
-319 -223 -365 0
-319 -223 -370 0
-267 -221 -362 0
-267 -221 -364 0
-357 -224 -365 0
-357 -224 -366 0
-357 -224 -368 0
-357 -232 -364 0
-357 -227 -364 0
-357 -227 -366 0
-357 -227 -369 0
-357 -227 -362 0
-357 -227 -365 0
-357 -235 -366 0
-357 -235 -369 0
-357 -235 -362 0
-360 -232 0
-358 -227 -364 0
-358 -227 -366 0
-358 -227 -369 0
-358 -227 -365 0
-358 -221 -364 0
-358 -235 -366 0
-358 -235 -369 0
-296 -337 -312 0
-296 -337 -313 0
-296 -337 -314 0
-296 -349 -313 0
-296 -349 -316 0
-296 -349 -312 0
-296 -331 -314 0
-296 -331 -312 0
-357 -349 -313 0
-357 -349 -316 0
-357 -349 -312 0
-357 -362 -320 0
-357 -363 -320 0
-357 -363 -316 0
-357 -363 -321 0
-357 -363 -322 0
-357 -363 -313 0
-357 -364 -316 0
-357 -364 -321 0
-357 -364 -322 0
-354 -337 -312 0
-354 -337 -313 0
-354 -337 -314 0
-354 -363 -320 0
-354 -363 -316 0
-354 -363 -321 0
-354 -363 -322 0
-354 -363 -313 0
-354 -365 -312 0
-354 -365 -316 0
-354 -366 -313 0
-354 -366 -321 0
-354 -366 -320 0
-354 -367 -322 0
-354 -367 -320 0
-354 -368 -314 0
-354 -368 -313 0
-359 -349 -313 0
-359 -349 -316 0
-359 -349 -312 0
-359 -364 -316 0
-359 -364 -321 0
-359 -364 -322 0
-359 -366 -313 0
-359 -366 -321 0
-359 -366 -320 0
-359 -369 -316 0
-359 -369 -320 0
-359 -362 -320 0
-359 -367 -322 0
-359 -367 -320 0
-359 -365 -312 0
-359 -365 -316 0
-267 -367 -322 0
-267 -367 -320 0
-341 -331 -314 0
-341 -331 -312 0
-341 -349 -313 0
-341 -349 -316 0
-341 -349 -312 0
-341 -368 -314 0
-341 -368 -313 0
-341 -365 -312 0
-341 -365 -316 0
-341 -370 -312 0
-296 -337 -268 0
-296 -337 -269 0
-296 -337 -270 0
-296 -349 -269 0
-296 -349 -271 0
-296 -349 -268 0
-296 -331 -270 0
-296 -331 -268 0
-319 -367 -272 0
-319 -367 -273 0
-319 -349 -269 0
-319 -349 -271 0
-319 -349 -268 0
-319 -363 -273 0
-319 -363 -271 0
-319 -363 -274 0
-319 -363 -272 0
-319 -363 -269 0
-319 -337 -268 0
-319 -337 -269 0
-319 -337 -270 0
-357 -349 -269 0
-357 -349 -271 0
-357 -349 -268 0
-357 -362 -273 0
-357 -363 -273 0
-357 -363 -271 0
-357 -363 -274 0
-357 -363 -272 0
-357 -363 -269 0
-357 -364 -271 0
-357 -364 -274 0
-357 -364 -272 0
-267 -367 -232 0
-267 -367 -235 0
-319 -349 -372 0
-319 -349 -373 0
-319 -349 -374 0
-319 -363 -375 0
-319 -363 -373 0
-319 -363 -376 0
-319 -363 -377 0
-319 -363 -372 0
-319 -337 -374 0
-319 -337 -372 0
-319 -337 -378 0
-354 -337 -374 0
-354 -337 -372 0
-354 -337 -378 0
-354 -363 -375 0
-354 -363 -373 0
-354 -363 -376 0
-354 -363 -377 0
-354 -363 -372 0
-354 -365 -374 0
-354 -365 -373 0
-354 -366 -372 0
-354 -366 -376 0
-354 -366 -375 0
-354 -368 -378 0
-354 -368 -372 0
-357 -362 0
-358 -363 -375 0
-358 -363 -373 0
-358 -363 -376 0
-358 -363 -372 0
-358 -364 -373 0
-358 -364 -376 0
-359 -349 -372 0
-359 -349 -373 0
-359 -349 -374 0
-359 -364 -373 0
-359 -364 -376 0
-359 -364 -377 0
-359 -366 -372 0
-359 -366 -376 0
-359 -366 -375 0
-359 -369 -373 0
-359 -369 -375 0
-359 -362 -375 0
-359 -365 -374 0
-359 -365 -373 0
-357 -364 0
-361 -363 -373 0
-361 -363 -376 0
-361 -363 -377 0
-361 -363 -372 0
-361 -366 -372 0
-361 -366 -376 0
-361 -369 -373 0
-359 -349 -397 0
-359 -349 -399 0
-359 -349 -393 0
-359 -364 -399 0
-359 -364 -401 0
-359 -366 -397 0
-359 -366 -401 0
-359 -366 -402 0
-359 -369 -399 0
-359 -369 -402 0
-359 -367 -402 0
-359 -365 -393 0
-359 -365 -399 0
-357 -349 -397 0
-357 -349 -399 0
-357 -349 -393 0
-357 -363 -402 0
-357 -363 -399 0
-357 -363 -401 0
-357 -363 -397 0
-357 -364 -399 0
-357 -364 -401 0
-358 -364 0
-361 -363 -399 0
-361 -363 -401 0
-361 -363 -397 0
-361 -366 -397 0
-361 -366 -401 0
-361 -369 -399 0
-301 -332 -285 0
-301 -332 -286 0
-301 -324 -286 0
-301 -324 -288 0
-301 -324 -285 0
-342 -324 -286 0
-342 -324 -288 0
-342 -324 -285 0
-342 -329 -286 0
-342 -326 -285 0
-342 -326 -288 0
-301 -324 -338 0
-301 -324 -339 0
-301 -324 -340 0
-356 -325 -343 0
-356 -325 -339 0
-356 -325 -344 0
-356 -325 -345 0
-356 -325 -338 0
-356 -326 -340 0
-356 -326 -339 0
-356 -327 -338 0
-356 -327 -344 0
-356 -327 -343 0
-356 -328 -345 0
-356 -328 -343 0
-356 -329 -338 0
-342 -329 0
-388 -326 -339 0
-388 -324 -338 0
-388 -324 -339 0
-342 -326 0
-386 -324 -339 0
-386 -324 -340 0
-386 -327 -344 0
-386 -327 -343 0
-386 -325 -343 0
-386 -325 -339 0
-386 -325 -344 0
-386 -325 -345 0
-314 -328 -345 0
-314 -328 -343 0
-314 -324 -338 0
-314 -324 -339 0
-314 -324 -340 0
-314 -325 -343 0
-314 -325 -339 0
-314 -325 -344 0
-314 -325 -345 0
-314 -325 -338 0
-314 -331 -345 0
-342 -324 -389 0
-342 -324 -390 0
-342 -326 -390 0
-388 -326 0
-386 -324 -390 0
-386 -327 -391 0
-386 -327 -392 0
-386 -325 -392 0
-386 -325 -390 0
-386 -325 -391 0
-386 -325 -393 0
-356 -332 -389 0
-356 -325 -392 0
-356 -325 -390 0
-356 -325 -391 0
-356 -325 -393 0
-356 -325 -389 0
-356 -326 -390 0
-356 -327 -389 0
-356 -327 -391 0
-356 -327 -392 0
-356 -328 -393 0
-356 -328 -392 0
-287 -332 -302 0
-287 -332 -303 0
-314 -328 -304 0
-314 -328 -305 0
-314 -324 -303 0
-314 -324 -306 0
-314 -324 -302 0
-314 -325 -305 0
-314 -325 -306 0
-314 -325 -307 0
-314 -325 -304 0
-314 -325 -303 0
-314 -331 -304 0
-314 -332 -302 0
-314 -332 -303 0
-342 -324 -303 0
-342 -324 -306 0
-342 -324 -302 0
-342 -329 -303 0
-342 -326 -302 0
-342 -326 -306 0
-356 -332 -302 0
-356 -332 -303 0
-356 -325 -305 0
-356 -325 -306 0
-356 -325 -307 0
-356 -325 -304 0
-356 -325 -303 0
-356 -326 -302 0
-356 -326 -306 0
-356 -327 -303 0
-356 -327 -307 0
-356 -327 -305 0
-356 -328 -304 0
-356 -328 -305 0
-356 -329 -303 0
-270 -331 -304 0
-270 -328 -304 0
-270 -328 -305 0
-129 -137 0
-130 -138 0
-131 -139 0
-132 -140 0
-133 -141 0
-134 -142 0
-135 -143 0
-136 -144 0
-287 -340 -326 0
-342 -355 -326 0
-342 -355 -327 0
-342 -389 -327 0
-301 -340 -326 0
-301 -355 -326 0
-301 -355 -327 0
-301 -355 -338 0
-301 -355 -339 0
-356 -379 -343 0
-356 -379 -339 0
-356 -379 -344 0
-356 -379 -345 0
-356 -379 -338 0
-356 -389 -339 0
-356 -390 -338 0
-356 -390 -344 0
-356 -390 -343 0
-356 -374 -345 0
-356 -374 -343 0
-342 -389 0
-386 -355 -339 0
-386 -390 -344 0
-386 -390 -343 0
-386 -379 -343 0
-386 -379 -339 0
-386 -379 -344 0
-386 -379 -345 0
-314 -374 -345 0
-314 -374 -343 0
-314 -355 -338 0
-314 -355 -339 0
-314 -379 -343 0
-314 -379 -339 0
-314 -379 -344 0
-314 -379 -345 0
-314 -379 -338 0
-314 -368 -345 0
-342 -355 -395 0
-356 -379 -394 0
-356 -379 -395 0
-356 -379 -396 0
-356 -379 -397 0
-356 -390 -396 0
-356 -390 -394 0
-356 -374 -397 0
-356 -374 -394 0
-386 -390 0
-387 -379 -394 0
-387 -379 -396 0
-387 -379 -397 0
-387 -391 -394 0
-387 -392 -396 0
-387 -392 -397 0
-381 -355 -395 0
-381 -392 -395 0
-381 -392 -396 0
-381 -392 -397 0
-381 -390 -396 0
-381 -390 -394 0
-381 -391 -395 0
-381 -391 -394 0
-381 -393 -394 0
-381 -374 -397 0
-381 -374 -394 0
-301 -340 -353 0
-314 -374 -346 0
-314 -374 -348 0
-314 -379 -348 0
-314 -379 -350 0
-314 -379 -351 0
-314 -379 -346 0
-314 -379 -353 0
-314 -368 -346 0
-314 -340 -353 0
-342 -389 -350 0
-381 -392 -350 0
-381 -392 -351 0
-381 -392 -346 0
-381 -390 -353 0
-381 -390 -351 0
-381 -390 -348 0
-381 -391 -350 0
-381 -391 -348 0
-381 -393 -348 0
-381 -374 -346 0
-381 -374 -348 0
-381 -389 -350 0
-356 -389 0
-386 -390 -351 0
-386 -390 -348 0
-386 -379 -348 0
-386 -379 -350 0
-386 -379 -351 0
-386 -379 -346 0
-356 -390 0
-387 -379 -348 0
-387 -379 -351 0
-387 -379 -346 0
-387 -379 -353 0
-387 -391 -348 0
-387 -392 -351 0
-387 -392 -346 0
-378 -393 -348 0
-378 -379 -348 0
-378 -379 -350 0
-378 -379 -351 0
-378 -379 -346 0
-378 -379 -353 0
-378 -392 -350 0
-378 -392 -351 0
-378 -392 -346 0
-378 -368 -346 0
-301 -335 -286 0
-301 -335 -288 0
-301 -335 -285 0
-301 -332 -285 0
-330 -340 -286 0
-287 -332 -302 0
-314 -334 -304 0
-314 -334 -305 0
-314 -335 -303 0
-314 -335 -306 0
-314 -335 -302 0
-314 -336 -305 0
-314 -336 -306 0
-314 -336 -307 0
-314 -336 -304 0
-314 -336 -303 0
-314 -337 -304 0
-356 -336 -305 0
-356 -336 -306 0
-356 -336 -307 0
-356 -336 -304 0
-356 -336 -303 0
-356 -338 -302 0
-356 -338 -306 0
-356 -339 -303 0
-356 -339 -307 0
-356 -339 -305 0
-356 -334 -304 0
-356 -334 -305 0
-356 -340 -303 0
-270 -337 -304 0
-270 -334 -304 0
-270 -334 -305 0
-330 -340 -303 0
-330 -340 0
-388 -338 -327 0
-388 -335 -326 0
-388 -335 -327 0
-301 -335 -326 0
-301 -335 -327 0
-301 -335 -329 0
-301 -332 -355 0
-314 -334 -346 0
-314 -334 -348 0
-314 -336 -348 0
-314 -336 -350 0
-314 -336 -351 0
-314 -336 -346 0
-314 -336 -353 0
-314 -337 -346 0
-381 -343 -350 0
-381 -343 -351 0
-381 -343 -346 0
-381 -339 -353 0
-381 -339 -351 0
-381 -339 -348 0
-381 -344 -350 0
-381 -344 -348 0
-381 -345 -348 0
-381 -334 -346 0
-381 -334 -348 0
-381 -338 -355 0
-381 -338 -350 0
-356 -338 0
-386 -339 -351 0
-386 -339 -348 0
-386 -336 -348 0
-386 -336 -350 0
-386 -336 -351 0
-386 -336 -346 0
-356 -339 0
-387 -336 -348 0
-387 -336 -351 0
-387 -336 -346 0
-387 -336 -353 0
-387 -338 -355 0
-387 -344 -348 0
-387 -343 -351 0
-387 -343 -346 0
-378 -345 -348 0
-378 -336 -348 0
-378 -336 -350 0
-378 -336 -351 0
-378 -336 -346 0
-378 -336 -353 0
-378 -343 -350 0
-378 -343 -351 0
-378 -343 -346 0
-378 -337 -346 0
-356 -340 0
-388 -338 -350 0
-388 -338 0
-386 -335 -390 0
-386 -339 -391 0
-386 -339 -392 0
-386 -336 -392 0
-386 -336 -390 0
-386 -336 -391 0
-386 -336 -393 0
-356 -336 -392 0
-356 -336 -390 0
-356 -336 -391 0
-356 -336 -393 0
-356 -336 -389 0
-356 -338 -390 0
-356 -339 -389 0
-356 -339 -391 0
-356 -339 -392 0
-356 -334 -393 0
-356 -334 -392 0
-356 -336 -394 0
-356 -336 -395 0
-356 -336 -396 0
-356 -336 -397 0
-356 -339 -396 0
-356 -339 -394 0
-356 -334 -397 0
-356 -334 -394 0
-386 -340 0
-388 -335 -395 0
-386 -339 0
-387 -335 -389 0
-387 -336 -394 0
-387 -336 -396 0
-387 -336 -397 0
-387 -344 -394 0
-387 -343 -396 0
-387 -343 -397 0
-381 -335 -395 0
-381 -335 -389 0
-381 -343 -395 0
-381 -343 -396 0
-381 -343 -397 0
-381 -339 -396 0
-381 -339 -394 0
-381 -344 -395 0
-381 -344 -394 0
-381 -345 -394 0
-381 -334 -397 0
-381 -334 -394 0
-301 -335 -313 0
-301 -335 -316 0
-301 -335 -312 0
-301 -332 -312 0
-378 -335 -313 0
-378 -335 -316 0
-378 -335 -312 0
-378 -345 -320 0
-378 -336 -320 0
-378 -336 -316 0
-378 -336 -321 0
-378 -336 -322 0
-378 -336 -313 0
-378 -343 -316 0
-378 -343 -321 0
-378 -343 -322 0
-378 -337 -322 0
-356 -336 -320 0
-356 -336 -316 0
-356 -336 -321 0
-356 -336 -322 0
-356 -336 -313 0
-356 -338 -312 0
-356 -338 -316 0
-356 -339 -313 0
-356 -339 -321 0
-356 -339 -320 0
-356 -334 -322 0
-356 -334 -320 0
-356 -340 -313 0
-381 -335 -313 0
-381 -335 -316 0
-381 -335 -312 0
-381 -343 -316 0
-381 -343 -321 0
-381 -343 -322 0
-381 -339 -313 0
-381 -339 -321 0
-381 -339 -320 0
-381 -344 -316 0
-381 -344 -320 0
-381 -345 -320 0
-381 -334 -322 0
-381 -334 -320 0
-381 -338 -312 0
-381 -338 -316 0
-370 -334 -322 0
-370 -334 -320 0
-370 -345 -320 0
-270 -337 -322 0
-270 -334 -322 0
-270 -334 -320 0
-302 -332 -286 0
-302 -324 -286 0
-302 -324 -288 0
-340 -324 -286 0
-340 -324 -288 0
-340 -326 -288 0
-302 -324 -338 0
-302 -324 -339 0
-355 -325 -343 0
-355 -325 -339 0
-355 -325 -344 0
-355 -325 -345 0
-355 -325 -338 0
-355 -326 -339 0
-355 -327 -338 0
-355 -327 -344 0
-355 -327 -343 0
-355 -328 -345 0
-355 -328 -343 0
-340 -326 0
-389 -324 -339 0
-389 -327 -344 0
-389 -327 -343 0
-389 -325 -343 0
-389 -325 -339 0
-389 -325 -344 0
-389 -325 -345 0
-312 -328 -345 0
-312 -328 -343 0
-312 -324 -338 0
-312 -324 -339 0
-312 -325 -343 0
-312 -325 -339 0
-312 -325 -344 0
-312 -325 -345 0
-312 -325 -338 0
-312 -331 -345 0
-340 -324 -386 0
-340 -324 -387 0
-340 -326 -387 0
-285 -332 -303 0
-312 -328 -304 0
-312 -328 -305 0
-312 -324 -303 0
-312 -324 -306 0
-312 -325 -305 0
-312 -325 -306 0
-312 -325 -307 0
-312 -325 -304 0
-312 -325 -303 0
-312 -331 -304 0
-312 -332 -303 0
-340 -324 -303 0
-340 -324 -306 0
-340 -326 -306 0
-355 -332 -303 0
-355 -325 -305 0
-355 -325 -306 0
-355 -325 -307 0
-355 -325 -304 0
-355 -325 -303 0
-355 -326 -306 0
-355 -327 -303 0
-355 -327 -307 0
-355 -327 -305 0
-355 -328 -304 0
-355 -328 -305 0
-268 -331 -304 0
-268 -328 -304 0
-268 -328 -305 0
-302 -335 -286 0
-302 -335 -288 0
-312 -334 -304 0
-312 -334 -305 0
-312 -335 -303 0
-312 -335 -306 0
-312 -336 -305 0
-312 -336 -306 0
-312 -336 -307 0
-312 -336 -304 0
-312 -336 -303 0
-312 -337 -304 0
-355 -336 -305 0
-355 -336 -306 0
-355 -336 -307 0
-355 -336 -304 0
-355 -336 -303 0
-355 -338 -306 0
-355 -339 -303 0
-355 -339 -307 0
-355 -339 -305 0
-355 -334 -304 0
-355 -334 -305 0
-268 -337 -304 0
-268 -334 -304 0
-268 -334 -305 0
-302 -335 -326 0
-302 -335 -327 0
-312 -334 -346 0
-312 -334 -348 0
-312 -336 -348 0
-312 -336 -350 0
-312 -336 -351 0
-312 -336 -346 0
-312 -336 -353 0
-312 -337 -346 0
-379 -343 -350 0
-379 -343 -351 0
-379 -343 -346 0
-379 -339 -353 0
-379 -339 -351 0
-379 -339 -348 0
-379 -344 -350 0
-379 -344 -348 0
-379 -345 -348 0
-379 -334 -346 0
-379 -334 -348 0
-379 -338 -350 0
-355 -338 0
-389 -339 -351 0
-389 -339 -348 0
-389 -336 -348 0
-389 -336 -350 0
-389 -336 -351 0
-389 -336 -346 0
-355 -339 0
-390 -336 -348 0
-390 -336 -351 0
-390 -336 -346 0
-390 -336 -353 0
-390 -344 -348 0
-390 -343 -351 0
-390 -343 -346 0
-374 -345 -348 0
-374 -336 -348 0
-374 -336 -350 0
-374 -336 -351 0
-374 -336 -346 0
-374 -336 -353 0
-374 -343 -350 0
-374 -343 -351 0
-374 -343 -346 0
-374 -337 -346 0
-355 -336 -394 0
-355 -336 -395 0
-355 -336 -396 0
-355 -336 -397 0
-355 -339 -396 0
-355 -339 -394 0
-355 -334 -397 0
-355 -334 -394 0
-389 -339 0
-390 -336 -394 0
-390 -336 -396 0
-390 -336 -397 0
-390 -344 -394 0
-390 -343 -396 0
-390 -343 -397 0
-379 -335 -395 0
-379 -343 -395 0
-379 -343 -396 0
-379 -343 -397 0
-379 -339 -396 0
-379 -339 -394 0
-379 -344 -395 0
-379 -344 -394 0
-379 -345 -394 0
-379 -334 -397 0
-379 -334 -394 0
-302 -335 -313 0
-302 -335 -316 0
-374 -335 -313 0
-374 -335 -316 0
-374 -345 -320 0
-374 -336 -320 0
-374 -336 -316 0
-374 -336 -321 0
-374 -336 -322 0
-374 -336 -313 0
-374 -343 -316 0
-374 -343 -321 0
-374 -343 -322 0
-374 -337 -322 0
-355 -336 -320 0
-355 -336 -316 0
-355 -336 -321 0
-355 -336 -322 0
-355 -336 -313 0
-355 -338 -316 0
-355 -339 -313 0
-355 -339 -321 0
-355 -339 -320 0
-355 -334 -322 0
-355 -334 -320 0
-379 -335 -313 0
-379 -335 -316 0
-379 -343 -316 0
-379 -343 -321 0
-379 -343 -322 0
-379 -339 -313 0
-379 -339 -321 0
-379 -339 -320 0
-379 -344 -316 0
-379 -344 -320 0
-379 -345 -320 0
-379 -334 -322 0
-379 -334 -320 0
-379 -338 -316 0
-368 -334 -322 0
-368 -334 -320 0
-368 -345 -320 0
-268 -337 -322 0
-268 -334 -322 0
-268 -334 -320 0
-285 -342 -326 0
-340 -356 -326 0
-340 -356 -327 0
-340 -386 -327 0
-302 -342 -326 0
-302 -356 -326 0
-302 -356 -327 0
-302 -356 -338 0
-302 -356 -339 0
-355 -381 -343 0
-355 -381 -339 0
-355 -381 -344 0
-355 -381 -345 0
-355 -381 -338 0
-355 -386 -339 0
-355 -387 -338 0
-355 -387 -344 0
-355 -387 -343 0
-355 -378 -345 0
-355 -378 -343 0
-340 -386 0
-389 -356 -339 0
-389 -387 -344 0
-389 -387 -343 0
-389 -381 -343 0
-389 -381 -339 0
-389 -381 -344 0
-389 -381 -345 0
-312 -378 -345 0
-312 -378 -343 0
-312 -356 -338 0
-312 -356 -339 0
-312 -381 -343 0
-312 -381 -339 0
-312 -381 -344 0
-312 -381 -345 0
-312 -381 -338 0
-312 -370 -345 0
-137 -145 0
-138 -146 0
-139 -147 0
-140 -148 0
-141 -149 0
-142 -150 0
-143 -151 0
-144 -152 0
-302 -353 -339 0
-355 -380 -343 0
-355 -380 -339 0
-355 -380 -344 0
-355 -380 -345 0
-355 -395 -344 0
-355 -395 -343 0
-355 -372 -345 0
-355 -372 -343 0
-312 -372 -345 0
-312 -372 -343 0
-312 -353 -339 0
-312 -380 -343 0
-312 -380 -339 0
-312 -380 -344 0
-312 -380 -345 0
-312 -365 -345 0
-312 -372 -346 0
-312 -372 -348 0
-312 -380 -348 0
-312 -380 -350 0
-312 -380 -351 0
-312 -380 -346 0
-312 -365 -346 0
-379 -394 -350 0
-379 -394 -351 0
-379 -394 -346 0
-379 -395 -351 0
-379 -395 -348 0
-379 -396 -350 0
-379 -396 -348 0
-379 -397 -348 0
-379 -372 -346 0
-379 -372 -348 0
-355 -395 0
-390 -380 -348 0
-390 -380 -351 0
-390 -380 -346 0
-390 -396 -348 0
-390 -394 -351 0
-390 -394 -346 0
-374 -397 -348 0
-374 -380 -348 0
-374 -380 -350 0
-374 -380 -351 0
-374 -380 -346 0
-374 -394 -350 0
-374 -394 -351 0
-374 -394 -346 0
-374 -365 -346 0
-355 -380 -400 0
-355 -380 -398 0
-355 -380 -399 0
-355 -372 -399 0
-355 -372 -400 0
-379 -394 -398 0
-379 -394 -399 0
-379 -396 -400 0
-379 -397 -400 0
-379 -372 -399 0
-379 -372 -400 0
-390 -396 0
-391 -380 -400 0
-391 -380 -399 0
-391 -394 -399 0
-390 -394 0
-392 -380 -398 0
-392 -380 -399 0
-392 -372 -399 0
-312 -372 -385 0
-312 -372 -384 0
-312 -353 -382 0
-312 -365 -385 0
-355 -395 -383 0
-355 -395 -384 0
-355 -372 -385 0
-355 -372 -384 0
-379 -394 0
-392 -372 -385 0
-392 -395 -383 0
-392 -396 -382 0
-379 -395 0
-390 -396 -384 0
-390 -394 -383 0
-390 -394 -385 0
-379 -396 0
-391 -395 -384 0
-391 -394 -382 0
-391 -394 -385 0
-379 -397 0
-393 -372 -384 0
-393 -394 -382 0
-393 -394 -383 0
-374 -353 -382 0
-374 -397 -384 0
-374 -394 -382 0
-374 -394 -383 0
-374 -394 -385 0
-374 -365 -385 0
-285 -335 -303 0
-312 -352 -304 0
-312 -352 -305 0
-312 -347 -305 0
-312 -347 -306 0
-312 -347 -307 0
-312 -347 -304 0
-312 -347 -303 0
-312 -349 -304 0
-312 -335 -303 0
-340 -353 -306 0
-268 -349 -304 0
-268 -352 -304 0
-268 -352 -305 0
-329 -335 -303 0
-302 -335 -313 0
-374 -346 -320 0
-374 -347 -320 0
-374 -347 -316 0
-374 -347 -321 0
-374 -347 -322 0
-374 -347 -313 0
-374 -348 -316 0
-374 -348 -321 0
-374 -348 -322 0
-374 -349 -322 0
-379 -348 -316 0
-379 -348 -321 0
-379 -348 -322 0
-379 -350 -313 0
-379 -350 -321 0
-379 -350 -320 0
-379 -351 -316 0
-379 -351 -320 0
-379 -346 -320 0
-379 -352 -322 0
-379 -352 -320 0
-379 -353 -316 0
-368 -352 -322 0
-368 -352 -320 0
-368 -346 -320 0
-268 -349 -322 0
-268 -352 -322 0
-268 -352 -320 0
-340 -353 -316 0
-340 -353 0
-389 -350 -344 0
-389 -350 -343 0
-389 -347 -343 0
-389 -347 -339 0
-389 -347 -344 0
-389 -347 -345 0
-312 -352 -345 0
-312 -352 -343 0
-312 -347 -343 0
-312 -347 -339 0
-312 -347 -344 0
-312 -347 -345 0
-312 -347 -338 0
-312 -349 -345 0
-312 -352 -385 0
-312 -352 -384 0
-312 -349 -385 0
-312 -335 -380 0
-379 -348 0
-392 -352 -385 0
-392 -350 -380 0
-392 -350 -383 0
-392 -351 -382 0
-379 -350 0
-390 -351 -384 0
-390 -348 -383 0
-390 -348 -385 0
-379 -351 0
-391 -350 -380 0
-391 -350 -384 0
-391 -348 -382 0
-391 -348 -385 0
-379 -346 0
-393 -352 -384 0
-393 -348 -382 0
-393 -348 -383 0
-374 -346 -384 0
-374 -348 -382 0
-374 -348 -383 0
-374 -348 -385 0
-374 -349 -385 0
-379 -353 0
-389 -350 -383 0
-389 -350 -384 0
-389 -350 0
-390 -347 -394 0
-390 -347 -396 0
-390 -347 -397 0
-390 -351 -394 0
-390 -348 -396 0
-390 -348 -397 0
-379 -348 -395 0
-379 -348 -396 0
-379 -348 -397 0
-379 -350 -396 0
-379 -350 -394 0
-379 -351 -395 0
-379 -351 -394 0
-379 -346 -394 0
-379 -352 -397 0
-379 -352 -394 0
-379 -348 -398 0
-379 -348 -399 0
-379 -351 -400 0
-379 -346 -400 0
-379 -352 -399 0
-379 -352 -400 0
-390 -353 0
-389 -347 -400 0
-389 -347 -398 0
-389 -347 -399 0
-390 -351 0
-391 -347 -400 0
-391 -347 -399 0
-391 -347 -395 0
-391 -348 -399 0
-390 -348 0
-392 -347 -398 0
-392 -347 -399 0
-392 -347 -395 0
-392 -352 -399 0
-312 -347 -375 0
-312 -347 -373 0
-312 -347 -376 0
-312 -347 -377 0
-312 -347 -372 0
-312 -349 -377 0
-312 -335 -372 0
-268 -349 -377 0
-374 -346 0
-393 -347 -375 0
-393 -347 -373 0
-393 -347 -376 0
-393 -347 -372 0
-393 -348 -373 0
-393 -348 -376 0
-379 -348 -373 0
-379 -348 -376 0
-379 -348 -377 0
-379 -350 -372 0
-379 -350 -376 0
-379 -350 -375 0
-379 -351 -373 0
-379 -351 -375 0
-379 -346 -375 0
-379 -353 -373 0
-374 -348 0
-392 -347 -373 0
-392 -347 -376 0
-392 -347 -377 0
-392 -347 -372 0
-392 -350 -372 0
-392 -350 -376 0
-392 -351 -373 0
-368 -346 -375 0
-303 -335 -288 0
-313 -334 -304 0
-313 -334 -305 0
-313 -335 -306 0
-313 -336 -305 0
-313 -336 -306 0
-313 -336 -307 0
-313 -336 -304 0
-313 -337 -304 0
-353 -336 -305 0
-353 -336 -306 0
-353 -336 -307 0
-353 -336 -304 0
-353 -339 -307 0
-353 -339 -305 0
-353 -334 -304 0
-353 -334 -305 0
-269 -337 -304 0
-269 -334 -304 0
-269 -334 -305 0
-389 -335 -327 0
-303 -335 -327 0
-313 -334 -346 0
-313 -334 -348 0
-313 -336 -348 0
-313 -336 -350 0
-313 -336 -351 0
-313 -336 -346 0
-313 -337 -346 0
-380 -343 -350 0
-380 -343 -351 0
-380 -343 -346 0
-380 -339 -351 0
-380 -339 -348 0
-380 -344 -350 0
-380 -344 -348 0
-380 -345 -348 0
-380 -334 -346 0
-380 -334 -348 0
-353 -339 0
-395 -336 -348 0
-395 -336 -351 0
-395 -336 -346 0
-395 -344 -348 0
-395 -343 -351 0
-395 -343 -346 0
-372 -345 -348 0
-372 -336 -348 0
-372 -336 -350 0
-372 -336 -351 0
-372 -336 -346 0
-372 -343 -350 0
-372 -343 -351 0
-372 -343 -346 0
-372 -337 -346 0
-353 -336 -392 0
-353 -336 -390 0
-353 -336 -391 0
-353 -336 -393 0
-353 -339 -391 0
-353 -339 -392 0
-353 -334 -393 0
-353 -334 -392 0
-303 -335 -316 0
-372 -335 -316 0
-372 -345 -320 0
-372 -336 -320 0
-372 -336 -316 0
-372 -336 -321 0
-372 -336 -322 0
-372 -343 -316 0
-372 -343 -321 0
-372 -343 -322 0
-372 -337 -322 0
-353 -336 -320 0
-353 -336 -316 0
-353 -336 -321 0
-353 -336 -322 0
-353 -339 -321 0
-353 -339 -320 0
-353 -334 -322 0
-353 -334 -320 0
-380 -335 -316 0
-380 -343 -316 0
-380 -343 -321 0
-380 -343 -322 0
-380 -339 -321 0
-380 -339 -320 0
-380 -344 -316 0
-380 -344 -320 0
-380 -345 -320 0
-380 -334 -322 0
-380 -334 -320 0
-365 -334 -322 0
-365 -334 -320 0
-365 -345 -320 0
-269 -337 -322 0
-269 -334 -322 0
-269 -334 -320 0
-389 -335 -387 0
-313 -352 -304 0
-313 -352 -305 0
-313 -347 -305 0
-313 -347 -306 0
-313 -347 -307 0
-313 -347 -304 0
-313 -349 -304 0
-269 -349 -304 0
-269 -352 -304 0
-269 -352 -305 0
-372 -346 -320 0
-372 -347 -320 0
-372 -347 -316 0
-372 -347 -321 0
-372 -347 -322 0
-372 -348 -316 0
-372 -348 -321 0
-372 -348 -322 0
-372 -349 -322 0
-380 -348 -316 0
-380 -348 -321 0
-380 -348 -322 0
-380 -350 -321 0
-380 -350 -320 0
-380 -351 -316 0
-380 -351 -320 0
-380 -346 -320 0
-380 -352 -322 0
-380 -352 -320 0
-365 -352 -322 0
-365 -352 -320 0
-365 -346 -320 0
-269 -349 -322 0
-269 -352 -322 0
-269 -352 -320 0
-313 -352 -345 0
-313 -352 -343 0
-313 -347 -343 0
-313 -347 -339 0
-313 -347 -344 0
-313 -347 -345 0
-313 -349 -345 0
-313 -352 -385 0
-313 -352 -384 0
-313 -349 -385 0
-380 -348 0
-394 -352 -385 0
-394 -350 -383 0
-394 -351 -382 0
-380 -350 0
-395 -351 -384 0
-395 -348 -383 0
-395 -348 -385 0
-380 -351 0
-396 -350 -384 0
-396 -348 -382 0
-396 -348 -385 0
-380 -346 0
-397 -352 -384 0
-397 -348 -382 0
-397 -348 -383 0
-372 -346 -384 0
-372 -348 -382 0
-372 -348 -383 0
-372 -348 -385 0
-372 -349 -385 0
-380 -348 -398 0
-380 -348 -399 0
-380 -351 -400 0
-380 -346 -400 0
-380 -352 -399 0
-380 -352 -400 0
-395 -351 0
-396 -347 -400 0
-396 -347 -399 0
-396 -348 -399 0
-395 -348 0
-394 -347 -398 0
-394 -347 -399 0
-394 -352 -399 0
-313 -347 -375 0
-313 -347 -373 0
-313 -347 -376 0
-313 -347 -377 0
-313 -349 -377 0
-269 -349 -377 0
-372 -346 0
-397 -347 -375 0
-397 -347 -373 0
-397 -347 -376 0
-397 -348 -373 0
-397 -348 -376 0
-380 -348 -373 0
-380 -348 -376 0
-380 -348 -377 0
-380 -350 -376 0
-380 -350 -375 0
-380 -351 -373 0
-380 -351 -375 0
-380 -346 -375 0
-372 -348 0
-394 -347 -373 0
-394 -347 -376 0
-394 -347 -377 0
-394 -350 -376 0
-394 -351 -373 0
-365 -346 -375 0
-338 -355 -327 0
-303 -355 -327 0
-303 -355 -339 0
-353 -379 -343 0
-353 -379 -339 0
-353 -379 -344 0
-353 -379 -345 0
-353 -390 -344 0
-353 -390 -343 0
-353 -374 -345 0
-353 -374 -343 0
-313 -374 -345 0
-313 -374 -343 0
-313 -355 -339 0
-313 -379 -343 0
-313 -379 -339 0
-313 -379 -344 0
-313 -379 -345 0
-313 -368 -345 0
-338 -355 -387 0
-313 -374 -346 0
-313 -374 -348 0
-313 -379 -348 0
-313 -379 -350 0
-313 -379 -351 0
-313 -379 -346 0
-313 -368 -346 0
-380 -392 -350 0
-380 -392 -351 0
-380 -392 -346 0
-380 -390 -351 0
-380 -390 -348 0
-380 -391 -350 0
-380 -391 -348 0
-380 -393 -348 0
-380 -374 -346 0
-380 -374 -348 0
-353 -390 0
-395 -379 -348 0
-395 -379 -351 0
-395 -379 -346 0
-395 -391 -348 0
-395 -392 -351 0
-395 -392 -346 0
-372 -393 -348 0
-372 -379 -348 0
-372 -379 -350 0
-372 -379 -351 0
-372 -379 -346 0
-372 -392 -350 0
-372 -392 -351 0
-372 -392 -346 0
-372 -368 -346 0
-145 -153 0
-146 -154 0
-147 -155 0
-148 -156 0
-149 -157 0
-150 -158 0
-151 -159 0
-152 -160 0
-313 -373 -346 0
-313 -373 -348 0
-313 -382 -348 0
-313 -382 -351 0
-313 -382 -346 0
-313 -366 -346 0
-380 -400 -351 0
-380 -400 -346 0
-380 -398 -348 0
-380 -399 -348 0
-380 -373 -346 0
-380 -373 -348 0
-372 -399 -348 0
-372 -382 -348 0
-372 -382 -351 0
-372 -382 -346 0
-372 -400 -351 0
-372 -400 -346 0
-372 -366 -346 0
-313 -373 -385 0
-313 -373 -384 0
-313 -366 -385 0
-353 -373 -385 0
-353 -373 -384 0
-380 -400 0
-394 -373 -385 0
-380 -398 0
-396 -400 -385 0
-380 -399 0
-397 -373 -384 0
-397 -400 -383 0
-372 -399 -384 0
-372 -400 -383 0
-372 -400 -385 0
-372 -366 -385 0
-380 -400 -401 0
-380 -399 -403 0
-380 -373 -401 0
-380 -373 -403 0
-396 -400 0
-394 -382 -401 0
-394 -373 -401 0
-380 -373 -402 0
-372 -382 -403 0
-372 -382 -402 0
-372 -366 -402 0
-394 -398 0
-396 -382 -402 0
-394 -399 0
-397 -382 -403 0
-303 -347 -316 0
-372 -347 -316 0
-372 -385 -320 0
-372 -384 -316 0
-372 -384 -321 0
-372 -384 -322 0
-372 -363 -322 0
-353 -382 -321 0
-353 -382 -320 0
-353 -371 -322 0
-353 -371 -320 0
-365 -371 -322 0
-365 -371 -320 0
-365 -385 -320 0
-269 -363 -322 0
-269 -371 -322 0
-269 -371 -320 0
-338 -347 -316 0
-313 -371 -346 0
-313 -371 -348 0
-313 -363 -346 0
-353 -382 0
-395 -383 -348 0
-395 -384 -351 0
-395 -384 -346 0
-372 -385 -348 0
-372 -384 -350 0
-372 -384 -351 0
-372 -384 -346 0
-372 -363 -346 0
-372 -347 -400 0
-372 -363 -402 0
-394 -382 0
-394 -383 0
-394 -385 0
-353 -371 -399 0
-353 -371 -400 0
-395 -383 0
-396 -384 -399 0
-395 -384 0
-394 -371 -399 0
-396 -382 0
-395 -384 -401 0
-396 -384 0
-394 -371 -401 0
-372 -347 -399 0
-372 -384 -399 0
-372 -384 -401 0
-365 -371 -402 0
-397 -384 0
-394 -382 -401 0
-394 -383 -399 0
-313 -347 -373 0
-313 -363 -377 0
-269 -363 -377 0
-353 -382 -376 0
-353 -382 -375 0
-372 -385 0
-397 -384 -373 0
-397 -384 -376 0
-372 -384 0
-394 -382 -376 0
-394 -383 -373 0
-365 -385 -375 0
-316 -352 -304 0
-316 -352 -305 0
-316 -347 -305 0
-316 -347 -307 0
-316 -347 -304 0
-316 -349 -304 0
-271 -349 -304 0
-271 -352 -304 0
-271 -352 -305 0
-373 -346 -320 0
-373 -347 -320 0
-373 -347 -321 0
-373 -347 -322 0
-373 -348 -321 0
-373 -348 -322 0
-373 -349 -322 0
-382 -348 -321 0
-382 -348 -322 0
-382 -351 -320 0
-382 -346 -320 0
-382 -352 -322 0
-382 -352 -320 0
-366 -352 -322 0
-366 -352 -320 0
-366 -346 -320 0
-271 -349 -322 0
-271 -352 -322 0
-271 -352 -320 0
-395 -347 -343 0
-395 -347 -344 0
-395 -347 -345 0
-316 -352 -345 0
-316 -352 -343 0
-316 -347 -343 0
-316 -347 -344 0
-316 -347 -345 0
-316 -349 -345 0
-316 -352 -385 0
-316 -352 -384 0
-316 -349 -385 0
-382 -348 0
-400 -352 -385 0
-382 -351 0
-398 -348 -385 0
-382 -346 0
-399 -352 -384 0
-399 -348 -383 0
-373 -346 -384 0
-373 -348 -383 0
-373 -348 -385 0
-373 -349 -385 0
-382 -348 -396 0
-382 -348 -397 0
-382 -351 -394 0
-382 -346 -394 0
-382 -352 -397 0
-382 -352 -394 0
-316 -347 -375 0
-316 -347 -376 0
-316 -347 -377 0
-316 -349 -377 0
-271 -349 -377 0
-373 -346 0
-399 -347 -375 0
-399 -347 -376 0
-399 -348 -376 0
-382 -348 -376 0
-382 -348 -377 0
-382 -351 -375 0
-382 -346 -375 0
-373 -348 0
-400 -347 -376 0
-400 -347 -377 0
-366 -346 -375 0
-395 -347 -392 0
-395 -347 -391 0
-395 -347 -393 0
-373 -385 -320 0
-373 -384 -321 0
-373 -384 -322 0
-373 -363 -322 0
-350 -371 -322 0
-350 -371 -320 0
-366 -371 -322 0
-366 -371 -320 0
-366 -385 -320 0
-271 -363 -322 0
-271 -371 -322 0
-271 -371 -320 0
-316 -371 -346 0
-316 -371 -348 0
-316 -363 -346 0
-373 -385 -348 0
-373 -384 -351 0
-373 -384 -346 0
-373 -363 -346 0
-373 -363 -402 0
-400 -383 0
-400 -385 0
-398 -384 0
-400 -371 -401 0
-373 -384 -401 0
-366 -371 -402 0
-399 -384 0
-316 -363 -377 0
-271 -363 -377 0
-373 -385 0
-399 -384 -376 0
-373 -384 0
-366 -385 -375 0
-350 -371 -397 0
-350 -371 -394 0
-350 -380 -343 0
-350 -380 -344 0
-350 -380 -345 0
-350 -372 -345 0
-350 -372 -343 0
-316 -372 -345 0
-316 -372 -343 0
-316 -380 -343 0
-316 -380 -344 0
-316 -380 -345 0
-316 -365 -345 0
-316 -372 -346 0
-316 -372 -348 0
-316 -380 -348 0
-316 -380 -351 0
-316 -380 -346 0
-316 -365 -346 0
-382 -394 -351 0
-382 -394 -346 0
-382 -396 -348 0
-382 -397 -348 0
-382 -372 -346 0
-382 -372 -348 0
-373 -397 -348 0
-373 -380 -348 0
-373 -380 -351 0
-373 -380 -346 0
-373 -394 -351 0
-373 -394 -346 0
-373 -365 -346 0
-350 -380 -392 0
-350 -380 -391 0
-350 -380 -393 0
-350 -372 -393 0
-350 -372 -392 0
-316 -372 -385 0
-316 -372 -384 0
-316 -365 -385 0
-350 -372 -385 0
-350 -372 -384 0
-382 -394 0
-400 -372 -385 0
-382 -396 0
-398 -394 -385 0
-382 -397 0
-399 -372 -384 0
-399 -394 -383 0
-373 -397 -384 0
-373 -394 -383 0
-373 -394 -385 0
-373 -365 -385 0
-153 -161 0
-154 -162 0
-155 -163 0
-156 -164 0
-157 -165 0
-158 -166 0
-159 -167 0
-160 -168 0
-316 -376 -385 0
-316 -376 -384 0
-316 -369 -385 0
-350 -376 -385 0
-350 -376 -384 0
-382 -403 0
-400 -376 -385 0
-382 -401 0
-399 -376 -384 0
-373 -401 -384 0
-373 -403 -385 0
-373 -369 -385 0
-382 -376 -402 0
-373 -383 -402 0
-373 -369 -402 0
-400 -401 0
-153 -169 0
-154 -170 0
-155 -171 0
-156 -172 0
-157 -173 0
-158 -174 0
-159 -175 0
-160 -176 0
-316 -375 -385 0
-316 -364 -385 0
-350 -375 -385 0
-382 -403 0
-382 -402 0
-373 -364 -385 0
-316 -384 -376 0
-316 -384 -377 0
-316 -364 -377 0
-271 -364 -377 0
-350 -384 -376 0
-350 -384 -377 0
-373 -402 0
-399 -384 -376 0
-382 -375 -401 0
-373 -384 -401 0
-376 -385 -320 0
-376 -384 -322 0
-376 -363 -322 0
-351 -382 -320 0
-351 -371 -322 0
-351 -371 -320 0
-369 -371 -322 0
-369 -371 -320 0
-369 -385 -320 0
-274 -363 -322 0
-274 -371 -322 0
-274 -371 -320 0
-321 -371 -346 0
-321 -371 -348 0
-321 -363 -346 0
-396 -382 -348 0
-398 -384 -346 0
-376 -385 -348 0
-376 -384 -346 0
-376 -363 -346 0
-376 -363 -402 0
-403 -385 0
-351 -371 -399 0
-351 -371 -400 0
-398 -384 0
-403 -371 -399 0
-369 -371 -402 0
-401 -384 0
-321 -363 -377 0
-274 -363 -377 0
-351 -382 -375 0
-376 -385 0
-376 -384 0
-369 -385 -375 0
-351 -382 -394 0
-351 -371 -397 0
-351 -371 -394 0
-398 -384 -397 0
-321 -373 -346 0
-321 -373 -348 0
-321 -382 -348 0
-321 -382 -346 0
-321 -366 -346 0
-383 -400 -346 0
-383 -399 -348 0
-383 -373 -346 0
-383 -373 -348 0
-396 -382 -348 0
-396 -382 -346 0
-376 -399 -348 0
-376 -382 -348 0
-376 -382 -346 0
-376 -400 -346 0
-376 -366 -346 0
-321 -373 -385 0
-321 -373 -384 0
-321 -366 -385 0
-351 -373 -385 0
-351 -373 -384 0
-383 -400 0
-403 -373 -385 0
-383 -399 0
-401 -373 -384 0
-376 -399 -384 0
-376 -400 -385 0
-376 -366 -385 0
-351 -382 -394 0
-351 -382 -397 0
-351 -373 -397 0
-351 -373 -394 0
-383 -400 -397 0
-383 -399 -394 0
-383 -373 -397 0
-383 -373 -394 0
-383 -373 -402 0
-376 -382 -402 0
-376 -366 -402 0
-403 -399 0
-161 -169 0
-162 -170 0
-163 -171 0
-164 -172 0
-165 -173 0
-166 -174 0
-167 -175 0
-168 -176 0
-321 -375 -385 0
-321 -364 -385 0
-351 -375 -385 0
-383 -402 0
-376 -364 -385 0
-321 -384 -377 0
-321 -364 -377 0
-274 -364 -377 0
-351 -384 -377 0
-376 -402 0
-351 -384 -399 0
-351 -375 -399 0
-383 -375 -399 0
-396 -384 -399 0
-375 -363 -322 0
-348 -371 -322 0
-364 -371 -322 0
-273 -363 -322 0
-273 -371 -322 0
-320 -371 -346 0
-320 -363 -346 0
-375 -363 -346 0
-348 -371 -399 0
-320 -363 -377 0
-273 -363 -377 0
-375 -385 0
-348 -371 -397 0
-348 -371 -322 0
-273 -367 -322 0
-320 -371 -272 0
-320 -367 -272 0
-361 -367 -272 0
-235 -367 -272 0
-320 -371 -346 0
-320 -367 -346 0
-394 -371 -346 0
-400 -371 -346 0
-320 -367 -385 0
-384 -377 0
-320 -371 -362 0
-364 -377 0
-320 -373 -346 0
-320 -382 -346 0
-320 -366 -346 0
-384 -373 -346 0
-394 -382 -346 0
-375 -382 -346 0
-375 -366 -346 0
-320 -373 -385 0
-320 -366 -385 0
-348 -373 -385 0
-384 -399 0
-375 -366 -385 0
-348 -382 -397 0
-348 -373 -397 0
-384 -373 -397 0
-384 -373 -401 0
-320 -376 -385 0
-320 -369 -385 0
-348 -376 -385 0
-384 -401 0
-375 -369 -385 0
-348 -383 -399 0
-348 -376 -399 0
-384 -376 -399 0
-394 -383 -399 0
-169 -177 0
-170 -178 0
-171 -179 0
-172 -180 0
-173 -181 0
-174 -182 0
-175 -183 0
-176 -184 0
49 0
26 0
42 43 0
-17 -145 404 0
-18 -146 404 0
-19 -147 404 0
-20 -148 404 0
-21 -149 404 0
-22 -150 404 0
-23 -151 404 0
-24 -152 404 0
-290 -240 -404 -202 -288 0
-33 -177 405 0
-34 -178 405 0
-35 -179 405 0
-36 -180 405 0
-37 -181 405 0
-38 -182 405 0
-39 -183 405 0
-40 -184 405 0
-290 -240 -404 -202 -405 0
-290 -240 -404 -202 -405 -293 0
-290 -240 -268 -404 -202 -288 0
-290 -240 -268 -404 -202 -405 0
-290 -240 -268 -404 -202 -405 -293 0
-65 -129 406 0
-66 -130 406 0
-67 -131 406 0
-68 -132 406 0
-69 -133 406 0
-70 -134 406 0
-71 -135 406 0
-72 -136 406 0
-290 -240 -406 -268 -404 -202 -288 0
-290 -240 -406 -268 -404 -202 -405 0
-290 -240 -406 -268 -404 -202 -405 -293 0
-308 -404 -202 -405 -293 0
-308 -234 -202 -405 -293 0
-308 -202 -405 -293 0
-308 -240 -404 -202 -405 -293 0
-308 -240 -268 -404 -202 -405 -293 0
-308 -240 -268 -372 0
-308 -240 -406 -268 -404 -202 -405 -293 0
-308 -240 -406 -268 -372 0
-202 -308 -240 -268 -372 0
-202 -308 -240 -268 -372 -399 0
-202 -308 -240 -406 -268 -372 0
-202 -308 -240 -406 -268 -372 -399 0
-234 -308 -240 -268 0
-234 -308 -240 -406 -268 0
-234 -202 -308 -240 -268 0
-234 -202 -308 -240 -406 -268 0
-240 -308 -404 -202 -288 0
-73 -161 407 0
-74 -162 407 0
-75 -163 407 0
-76 -164 407 0
-77 -165 407 0
-78 -166 407 0
-79 -167 407 0
-80 -168 407 0
-240 -308 -404 -202 -288 -407 0
-240 -308 -404 -202 -405 0
-240 -308 -404 -202 -405 -293 0
-240 -308 -234 -202 -288 0
-240 -308 -234 -202 -288 -407 0
-240 -308 -234 -202 -405 0
-240 -308 -234 -202 -405 -293 0
-240 -308 -202 -288 0
-240 -308 -202 -288 -407 0
-240 -308 -202 -405 0
-240 -308 -202 -405 -293 0
-240 -404 -308 -202 -288 0
-240 -404 -308 -202 -288 -407 0
-240 -404 -308 -202 -405 0
-240 -404 -308 -202 -405 -293 0
-240 -404 -202 -288 0
-240 -404 -202 -288 -324 0
-240 -404 -202 -288 -407 0
-240 -404 -202 -405 0
-240 -404 -202 -405 -293 0
-240 -268 -404 -308 -202 -288 0
-240 -268 -404 -308 -202 -288 -407 0
-240 -268 -404 -308 -202 -405 0
-240 -268 -404 -308 -202 -405 -293 0
-240 -268 -404 -202 -288 0
-240 -268 -404 -202 -288 -324 0
-240 -268 -404 -202 -288 -407 0
-240 -268 -404 -202 -405 0
-240 -268 -404 -202 -405 -293 0
-240 -406 -268 -404 -308 -202 -288 0
-240 -406 -268 -404 -308 -202 -288 -407 0
-240 -406 -268 -404 -308 -202 -405 0
-240 -406 -268 -404 -308 -202 -405 -293 0
-240 -406 -268 -404 -202 -288 0
-240 -406 -268 -404 -202 -288 -324 0
-240 -406 -268 -404 -202 -288 -407 0
-240 -406 -268 -404 -202 -405 0
-240 -406 -268 -404 -202 -405 -293 0
-405 -202 -308 -240 -268 -372 0
-405 -202 -308 -240 -406 -268 -372 0
-293 -405 -202 -308 -404 -240 -268 0
-293 -405 -202 -308 -404 -240 -268 -406 0
-293 -405 -202 -308 -404 -240 -406 0
-293 -405 -202 -308 -404 -240 -406 -268 0
-293 -405 -202 -308 -404 -268 0
-293 -405 -202 -308 -404 -268 -240 -406 0
-293 -405 -202 -308 -404 -268 -406 0
-293 -405 -202 -308 -240 -404 -268 0
-293 -405 -202 -308 -240 -404 -268 -406 0
-293 -405 -202 -308 -240 -268 0
-293 -405 -202 -308 -240 -268 -372 0
-293 -405 -202 -308 -240 -268 -406 0
-293 -405 -202 -308 -240 -406 0
-293 -405 -202 -308 -240 -406 -268 0
-293 -405 -202 -308 -240 -406 -268 -372 0
-293 -405 -202 -234 -308 -240 -268 0
-293 -405 -202 -234 -308 -240 -268 -406 0
-293 -405 -202 -234 -308 -240 -406 0
-293 -405 -202 -234 -308 -240 -406 -268 0
-293 -405 -202 -404 -308 -240 -268 0
-293 -405 -202 -404 -308 -240 -268 -406 0
-293 -405 -202 -404 -308 -240 -406 0
-293 -405 -202 -404 -308 -240 -406 -268 0
-293 -405 -202 -404 -240 -268 0
-293 -405 -202 -404 -240 -268 -406 0
-293 -405 -202 -404 -240 -406 0
-293 -405 -202 -404 -240 -406 -268 0
-293 -405 -202 -404 -268 0
-293 -405 -202 -404 -268 -240 -406 0
-293 -405 -202 -404 -268 -406 0
-268 -404 -308 -202 -288 -407 0
-268 -404 -202 -288 -324 0
-268 -404 -202 -288 -407 0
-268 -404 -240 -308 -202 -288 -407 0
-268 -240 -308 -404 -202 -288 -407 0
-268 -240 -308 -234 -202 -288 -407 0
-268 -240 -308 -202 -288 -407 0
-268 -240 -404 -308 -202 -288 -407 0
-268 -240 -404 -202 -288 -324 0
-268 -240 -404 -202 -288 -407 0
-268 -406 -240 -308 -404 -202 -288 -407 0
-268 -406 -240 -308 -234 -202 -288 -407 0
-268 -406 -240 -308 -202 -288 -407 0
-268 -406 -240 -404 -308 -202 -288 -407 0
-268 -406 -240 -404 -202 -288 -324 0
-268 -406 -240 -404 -202 -288 -407 0
-406 -240 -308 -404 -202 -288 -407 0
-406 -240 -308 -234 -202 -288 -407 0
-406 -240 -308 -202 -288 -407 0
-406 -240 -404 -308 -202 -288 -407 0
-406 -240 -404 -202 -288 -324 0
-406 -240 -404 -202 -288 -407 0
-406 -240 -268 -404 -308 -202 -288 -407 0
-406 -240 -268 -404 -202 -288 -324 0
-406 -240 -268 -404 -202 -288 -407 0
-406 -268 -404 -308 -202 -288 -407 0
-406 -268 -404 -202 -288 -324 0
-406 -268 -404 -202 -288 -407 0
-406 -268 -404 -240 -308 -202 -288 -407 0
-406 -268 -240 -308 -404 -202 -288 -407 0
-406 -268 -240 -308 -234 -202 -288 -407 0
-406 -268 -240 -308 -202 -288 -407 0
-406 -268 -240 -404 -308 -202 -288 -407 0
-406 -268 -240 -404 -202 -288 -324 0
-406 -268 -240 -404 -202 -288 -407 0
-1 -161 408 0
-2 -162 408 0
-3 -163 408 0
-4 -164 408 0
-5 -165 408 0
-6 -166 408 0
-7 -167 408 0
-8 -168 408 0
-137 -65 409 0
-138 -66 409 0
-139 -67 409 0
-140 -68 409 0
-141 -69 409 0
-142 -70 409 0
-143 -71 409 0
-144 -72 409 0
-408 -250 -405 -293 -333 -409 -269 -373 0
-1 -137 410 0
-2 -138 410 0
-3 -139 410 0
-4 -140 410 0
-5 -141 410 0
-6 -142 410 0
-7 -143 410 0
-8 -144 410 0
-201 -198 -410 -253 0
-201 -198 -285 -253 0
-250 -405 -293 -333 -409 -269 -373 0
-65 -161 411 0
-66 -162 411 0
-67 -163 411 0
-68 -164 411 0
-69 -165 411 0
-70 -166 411 0
-71 -167 411 0
-72 -168 411 0
-293 -405 -250 -411 0
-121 -153 412 0
-122 -154 412 0
-123 -155 412 0
-124 -156 412 0
-125 -157 412 0
-126 -158 412 0
-127 -159 412 0
-128 -160 412 0
-293 -405 -250 -411 -412 0
-293 -405 -250 -411 -412 -269 0
-293 -328 -405 -250 -411 0
-293 -328 -405 -250 -411 -412 0
-293 -328 -405 -250 -411 -412 -269 0
-33 -161 413 0
-34 -162 413 0
-35 -163 413 0
-36 -164 413 0
-37 -165 413 0
-38 -166 413 0
-39 -167 413 0
-40 -168 413 0
-293 -328 -336 -413 -250 -232 0
-293 -328 -336 -405 -250 -411 0
-293 -328 -336 -405 -250 -411 -412 0
-293 -328 -336 -405 -250 -411 -412 -269 0
-269 -412 -411 -250 -405 -293 -328 -336 0
-269 -412 -411 -250 -405 -328 -336 0
-269 -412 -411 -250 -405 -336 0
-269 -409 -333 -293 -405 -336 0
-328 -405 -250 -411 -412 -269 0
-328 -336 -405 -250 -411 -412 -269 0
-328 -293 -405 -250 -411 -412 -269 0
-333 -293 -405 -250 -411 0
-336 -405 -293 -333 -409 -269 -373 0
-169 -129 414 0
-170 -130 414 0
-171 -131 414 0
-172 -132 414 0
-173 -133 414 0
-174 -134 414 0
-175 -135 414 0
-176 -136 414 0
-373 -269 -409 -333 -293 -405 -336 -414 0
-293 -333 -409 -253 0
-293 -333 -409 -269 0
-253 -409 -333 -293 -405 0
-409 -333 -293 -405 -250 0
-269 -409 -333 -293 -405 -250 0
-1 -145 415 0
-2 -146 415 0
-3 -147 415 0
-4 -148 415 0
-5 -149 415 0
-6 -150 415 0
-7 -151 415 0
-8 -152 415 0
-415 -202 -254 -305 -405 -337 0
-415 -202 -254 -305 -405 -337 -333 -406 -268 0
-415 -202 -254 -305 -405 -337 -333 -268 0
-415 -202 -254 -305 -405 -337 -354 0
-415 -202 -254 -305 -405 -337 -354 -268 0
-415 -202 -254 -305 -405 -337 -268 0
-415 -202 -254 -305 -405 -337 -268 -354 0
-415 -202 -254 -305 -405 -337 -406 -333 -268 0
-415 -202 -254 -305 -405 -337 -406 -268 0
-415 -202 -254 -305 -405 -337 -406 -268 -354 0
-415 -202 -245 -305 -405 -337 0
-415 -202 -245 -305 -405 -337 -333 -406 -268 0
-415 -202 -245 -305 -405 -337 -333 -268 0
-415 -202 -245 -305 -405 -337 -354 0
-415 -202 -245 -305 -405 -337 -354 -268 0
-415 -202 -245 -305 -405 -337 -268 0
-415 -202 -245 -305 -405 -337 -268 -354 0
-415 -202 -245 -305 -405 -337 -406 -333 -268 0
-415 -202 -245 -305 -405 -337 -406 -268 0
-415 -202 -245 -305 -405 -337 -406 -268 -354 0
-415 -202 -245 -405 -337 0
-415 -202 -245 -405 -337 -333 -406 -268 0
-415 -202 -245 -405 -337 -333 -268 0
-415 -202 -245 -405 -337 -354 0
-415 -202 -245 -405 -337 -354 -268 0
-415 -202 -245 -405 -337 -268 0
-415 -202 -245 -405 -337 -268 -354 0
-415 -202 -245 -405 -337 -406 -333 -268 0
-415 -202 -245 -405 -337 -406 -268 0
-415 -202 -245 -405 -337 -406 -268 -354 0
-415 -202 -405 -337 0
-415 -202 -405 -337 -333 -406 -268 0
-415 -202 -405 -337 -333 -268 0
-415 -202 -405 -337 -354 0
-415 -202 -405 -337 -354 -268 0
-415 -202 -405 -337 -268 0
-415 -202 -405 -337 -268 -354 0
-415 -202 -405 -337 -406 -333 -268 0
-415 -202 -405 -337 -406 -268 0
-415 -202 -405 -337 -406 -268 -354 0
-415 -202 -305 -245 -405 -337 0
-415 -202 -305 -245 -405 -337 -333 -406 -268 0
-415 -202 -305 -245 -405 -337 -333 -268 0
-415 -202 -305 -245 -405 -337 -354 0
-415 -202 -305 -245 -405 -337 -354 -268 0
-415 -202 -305 -245 -405 -337 -268 0
-415 -202 -305 -245 -405 -337 -268 -354 0
-415 -202 -305 -245 -405 -337 -406 -333 -268 0
-415 -202 -305 -245 -405 -337 -406 -268 0
-415 -202 -305 -245 -405 -337 -406 -268 -354 0
-415 -202 -305 -405 -337 0
-415 -202 -305 -405 -337 -333 -406 -268 0
-415 -202 -305 -405 -337 -333 -268 0
-415 -202 -305 -405 -337 -354 0
-415 -202 -305 -405 -337 -354 -268 0
-415 -202 -305 -405 -337 -268 0
-415 -202 -305 -405 -337 -268 -354 0
-415 -202 -305 -405 -337 -406 -333 -268 0
-415 -202 -305 -405 -337 -406 -268 0
-415 -202 -305 -405 -337 -406 -268 -354 0
-415 -202 -276 -245 -405 -337 0
-415 -202 -276 -245 -405 -337 -333 -406 -268 0
-415 -202 -276 -245 -405 -337 -333 -268 0
-415 -202 -276 -245 -405 -337 -354 0
-415 -202 -276 -245 -405 -337 -354 -268 0
-415 -202 -276 -245 -405 -337 -268 0
-415 -202 -276 -245 -405 -337 -268 -354 0
-415 -202 -276 -245 -405 -337 -406 -333 -268 0
-415 -202 -276 -245 -405 -337 -406 -268 0
-415 -202 -276 -245 -405 -337 -406 -268 -354 0
-415 -254 -202 -405 -337 0
-415 -254 -202 -405 -337 -333 -406 -268 0
-415 -254 -202 -405 -337 -333 -268 0
-415 -254 -202 -405 -337 -354 0
-415 -254 -202 -405 -337 -354 -268 0
-415 -254 -202 -405 -337 -268 0
-415 -254 -202 -405 -337 -268 -354 0
-415 -254 -202 -405 -337 -406 -333 -268 0
-415 -254 -202 -405 -337 -406 -268 0
-415 -254 -202 -405 -337 -406 -268 -354 0
-415 -254 -202 -305 -405 -337 0
-415 -254 -202 -305 -405 -337 -333 -406 -268 0
-415 -254 -202 -305 -405 -337 -333 -268 0
-415 -254 -202 -305 -405 -337 -354 0
-415 -254 -202 -305 -405 -337 -354 -268 0
-415 -254 -202 -305 -405 -337 -268 0
-415 -254 -202 -305 -405 -337 -268 -354 0
-415 -254 -202 -305 -405 -337 -406 -333 -268 0
-415 -254 -202 -305 -405 -337 -406 -268 0
-415 -254 -202 -305 -405 -337 -406 -268 -354 0
-415 -254 -276 -202 -405 -337 0
-415 -254 -276 -202 -405 -337 -333 -406 -268 0
-415 -254 -276 -202 -405 -337 -333 -268 0
-415 -254 -276 -202 -405 -337 -354 0
-415 -254 -276 -202 -405 -337 -354 -268 0
-415 -254 -276 -202 -405 -337 -268 0
-415 -254 -276 -202 -405 -337 -268 -354 0
-415 -254 -276 -202 -405 -337 -406 -333 -268 0
-415 -254 -276 -202 -405 -337 -406 -268 0
-415 -254 -276 -202 -405 -337 -406 -268 -354 0
-415 -254 -305 -202 -405 -337 0
-415 -254 -305 -202 -405 -337 -333 -406 -268 0
-415 -254 -305 -202 -405 -337 -333 -268 0
-415 -254 -305 -202 -405 -337 -354 0
-415 -254 -305 -202 -405 -337 -354 -268 0
-415 -254 -305 -202 -405 -337 -268 0
-415 -254 -305 -202 -405 -337 -268 -354 0
-415 -254 -305 -202 -405 -337 -406 -333 -268 0
-415 -254 -305 -202 -405 -337 -406 -268 0
-415 -254 -305 -202 -405 -337 -406 -268 -354 0
-415 -254 -305 -405 -337 0
-415 -254 -305 -405 -337 -333 -406 -268 0
-415 -254 -305 -405 -337 -333 -268 0
-415 -254 -305 -405 -337 -354 0
-415 -254 -305 -405 -337 -354 -268 0
-415 -254 -305 -405 -337 -268 0
-415 -254 -305 -405 -337 -268 -354 0
-415 -254 -305 -405 -337 -406 -333 -268 0
-415 -254 -305 -405 -337 -406 -268 0
-415 -254 -305 -405 -337 -406 -268 -354 0
-415 -254 -411 -276 -202 -405 -337 0
-415 -254 -411 -276 -202 -405 -337 -333 -268 0
-415 -254 -411 -276 -202 -405 -337 -354 0
-415 -254 -411 -276 -202 -405 -337 -354 -268 0
-415 -254 -411 -276 -202 -405 -337 -268 0
-415 -254 -411 -276 -202 -405 -337 -268 -354 0
-145 -65 416 0
-146 -66 416 0
-147 -67 416 0
-148 -68 416 0
-149 -69 416 0
-150 -70 416 0
-151 -71 416 0
-152 -72 416 0
-408 -276 -202 -405 -337 -333 -268 -416 -254 0
-408 -276 -202 -405 -337 -354 -416 -254 0
-408 -276 -202 -405 -337 -354 -268 -416 -254 0
-408 -276 -202 -405 -337 -268 -416 -254 0
-408 -276 -202 -405 -337 -268 -354 -416 -254 0
-408 -276 -202 -405 -337 -416 -254 0
-408 -276 -254 -416 -354 -268 -337 -405 -202 0
-408 -276 -254 -416 -354 -337 -405 -202 0
-408 -276 -254 -416 -268 -337 -405 -202 0
-408 -276 -254 -416 -268 -333 -337 -405 -202 0
-408 -276 -254 -416 -268 -354 -337 -405 -202 0
-408 -276 -254 -416 -337 -405 -202 0
-408 -202 -254 -416 -354 -268 -337 -405 -305 0
-408 -202 -254 -416 -354 -337 -405 -305 0
-408 -202 -254 -416 -268 -337 -405 -305 0
-408 -202 -254 -416 -268 -333 -337 -405 -305 0
-408 -202 -254 -416 -268 -354 -337 -405 -305 0
-408 -202 -254 -416 -337 -405 -305 0
-408 -202 -405 -337 -333 -268 -416 -254 0
-408 -202 -405 -337 -333 -268 -416 -254 -276 0
-408 -202 -405 -337 -333 -268 -416 -254 -305 0
-408 -202 -405 -337 -354 -416 -254 0
-408 -202 -405 -337 -354 -416 -254 -276 0
-408 -202 -405 -337 -354 -416 -254 -305 0
-408 -202 -405 -337 -354 -268 -416 -254 0
-408 -202 -405 -337 -354 -268 -416 -254 -276 0
-408 -202 -405 -337 -354 -268 -416 -254 -305 0
-408 -202 -405 -337 -268 -416 -254 0
-408 -202 -405 -337 -268 -416 -254 -276 0
-408 -202 -405 -337 -268 -416 -254 -305 0
-408 -202 -405 -337 -268 -354 -416 -254 0
-408 -202 -405 -337 -268 -354 -416 -254 -276 0
-408 -202 -405 -337 -268 -354 -416 -254 -305 0
-408 -202 -405 -337 -416 -254 0
-408 -202 -405 -337 -416 -254 -276 0
-408 -202 -405 -337 -416 -254 -305 0
-408 -202 -305 -405 -337 -333 -268 -416 -254 0
-408 -202 -305 -405 -337 -354 -416 -254 0
-408 -202 -305 -405 -337 -354 -268 -416 -254 0
-408 -202 -305 -405 -337 -268 -416 -254 0
-408 -202 -305 -405 -337 -268 -354 -416 -254 0
-408 -202 -305 -405 -337 -416 -254 0
-408 -254 -416 -354 -268 -337 -405 -202 0
-408 -254 -416 -354 -268 -337 -405 -202 -305 0
-408 -254 -416 -354 -268 -337 -405 -202 -276 0
-408 -254 -416 -354 -268 -337 -405 -305 0
-408 -254 -416 -354 -268 -337 -405 -305 -202 0
-408 -254 -416 -354 -337 -405 -202 0
-408 -254 -416 -354 -337 -405 -202 -305 0
-408 -254 -416 -354 -337 -405 -202 -276 0
-408 -254 -416 -354 -337 -405 -305 0
-408 -254 -416 -354 -337 -405 -305 -202 0
-408 -254 -416 -268 -337 -405 -202 0
-408 -254 -416 -268 -337 -405 -202 -305 0
-408 -254 -416 -268 -337 -405 -202 -276 0
-408 -254 -416 -268 -337 -405 -305 0
-408 -254 -416 -268 -337 -405 -305 -202 0
-408 -254 -416 -268 -333 -337 -405 -202 0
-408 -254 -416 -268 -333 -337 -405 -202 -305 0
-408 -254 -416 -268 -333 -337 -405 -202 -276 0
-408 -254 -416 -268 -333 -337 -405 -305 0
-408 -254 -416 -268 -333 -337 -405 -305 -202 0
-408 -254 -416 -268 -354 -337 -405 -202 0
-408 -254 -416 -268 -354 -337 -405 -202 -305 0
-408 -254 -416 -268 -354 -337 -405 -202 -276 0
-408 -254 -416 -268 -354 -337 -405 -305 0
-408 -254 -416 -268 -354 -337 -405 -305 -202 0
-408 -254 -416 -337 -405 -202 0
-408 -254 -416 -337 -405 -202 -305 0
-408 -254 -416 -337 -405 -202 -276 0
-408 -254 -416 -337 -405 -305 0
-408 -254 -416 -337 -405 -305 -202 0
-1 -177 417 0
-2 -178 417 0
-3 -179 417 0
-4 -180 417 0
-5 -181 417 0
-6 -182 417 0
-7 -183 417 0
-8 -184 417 0
-417 -276 -202 -254 -416 -354 -268 -337 0
-417 -276 -202 -254 -416 -354 -337 0
-417 -276 -202 -254 -416 -268 -337 0
-417 -276 -202 -254 -416 -268 -333 -337 0
-417 -276 -202 -254 -416 -268 -354 -337 0
-417 -276 -202 -254 -416 -337 0
-417 -276 -202 -413 -254 -416 -354 -268 -337 0
-417 -276 -202 -413 -254 -416 -354 -337 0
-417 -276 -202 -413 -254 -416 -268 -337 0
-417 -276 -202 -413 -254 -416 -268 -333 -337 0
-417 -276 -202 -413 -254 -416 -268 -354 -337 0
-417 -276 -202 -413 -254 -416 -337 0
-417 -276 -254 -416 -354 -268 -337 0
-417 -276 -254 -416 -354 -337 0
-417 -276 -254 -416 -268 -337 0
-417 -276 -254 -416 -268 -333 -337 0
-417 -276 -254 -416 -268 -354 -337 0
-417 -276 -254 -416 -337 0
-417 -202 -254 -416 -354 -268 -337 0
-417 -202 -254 -416 -354 -337 0
-417 -202 -254 -416 -268 -337 0
-417 -202 -254 -416 -268 -333 -337 0
-417 -202 -254 -416 -268 -354 -337 0
-417 -202 -254 -416 -337 0
-417 -202 -413 -305 -254 -416 -354 -268 -337 0
-417 -202 -413 -305 -254 -416 -354 -337 0
-417 -202 -413 -305 -254 -416 -268 -337 0
-417 -202 -413 -305 -254 -416 -268 -333 -337 0
-417 -202 -413 -305 -254 -416 -268 -354 -337 0
-417 -202 -413 -305 -254 -416 -337 0
-417 -202 -413 -254 -416 -354 -268 -337 0
-417 -202 -413 -254 -416 -354 -337 0
-417 -202 -413 -254 -416 -268 -337 0
-417 -202 -413 -254 -416 -268 -333 -337 0
-417 -202 -413 -254 -416 -268 -354 -337 0
-417 -202 -413 -254 -416 -337 0
-417 -202 -305 -254 -416 -354 -268 -337 0
-417 -202 -305 -254 -416 -354 -337 0
-417 -202 -305 -254 -416 -268 -337 0
-417 -202 -305 -254 -416 -268 -333 -337 0
-417 -202 -305 -254 -416 -268 -354 -337 0
-417 -202 -305 -254 -416 -337 0
-417 -202 -305 -413 -254 -416 -354 -268 -337 0
-417 -202 -305 -413 -254 -416 -354 -337 0
-417 -202 -305 -413 -254 -416 -268 -337 0
-417 -202 -305 -413 -254 -416 -268 -333 -337 0
-417 -202 -305 -413 -254 -416 -268 -354 -337 0
-417 -202 -305 -413 -254 -416 -337 0
-417 -202 -276 -254 -416 -354 -268 -337 0
-417 -202 -276 -254 -416 -354 -337 0
-417 -202 -276 -254 -416 -268 -337 0
-417 -202 -276 -254 -416 -268 -333 -337 0
-417 -202 -276 -254 -416 -268 -354 -337 0
-417 -202 -276 -254 -416 -337 0
-202 -408 -276 -245 -405 -337 -333 -268 -416 0
-202 -408 -276 -245 -405 -337 -354 0
-202 -408 -276 -245 -405 -337 -354 -416 0
-202 -408 -276 -245 -405 -337 -354 -268 -416 0
-202 -408 -276 -245 -405 -337 -268 -416 0
-202 -408 -276 -245 -405 -337 -268 -416 -354 0
-202 -408 -276 -245 -405 -337 -268 -354 0
-202 -408 -276 -245 -405 -337 -268 -354 -416 0
-202 -408 -276 -245 -405 -337 -416 0
-202 -408 -276 -245 -405 -337 -416 -354 0
-202 -408 -276 -245 -405 -337 -416 -268 -354 0
-202 -408 -276 -245 -405 -337 -406 -268 -354 0
-202 -408 -276 -254 -416 -354 -268 -337 -405 0
-177 -129 418 0
-178 -130 418 0
-179 -131 418 0
-180 -132 418 0
-181 -133 418 0
-182 -134 418 0
-183 -135 418 0
-184 -136 418 0
-202 -408 -276 -254 -416 -354 -268 -337 -418 0
-202 -408 -276 -254 -416 -354 -337 -405 0
-202 -408 -276 -254 -416 -354 -337 -418 0
-202 -408 -276 -254 -416 -268 -337 -405 0
-202 -408 -276 -254 -416 -268 -337 -418 0
-202 -408 -276 -254 -416 -268 -333 -337 -405 0
-202 -408 -276 -254 -416 -268 -333 -337 -418 0
-202 -408 -276 -254 -416 -268 -354 -337 -405 0
-202 -408 -276 -254 -416 -268 -354 -337 -418 0
-202 -408 -276 -254 -416 -337 -405 0
-202 -408 -276 -254 -416 -337 -418 0
-202 -408 -254 -305 -405 -337 -333 -268 -416 0
-202 -408 -254 -305 -405 -337 -354 0
-202 -408 -254 -305 -405 -337 -354 -416 0
-202 -408 -254 -305 -405 -337 -354 -268 -416 0
-202 -408 -254 -305 -405 -337 -268 -416 0
-202 -408 -254 -305 -405 -337 -268 -416 -354 0
-202 -408 -254 -305 -405 -337 -268 -354 0
-202 -408 -254 -305 -405 -337 -268 -354 -416 0
-202 -408 -254 -305 -405 -337 -416 0
-202 -408 -254 -305 -405 -337 -416 -354 0
-202 -408 -254 -305 -405 -337 -416 -268 -354 0
-202 -408 -254 -305 -405 -337 -406 -268 -354 0
-202 -408 -254 -416 -354 -268 -337 -405 0
-202 -408 -254 -416 -354 -268 -337 -405 -305 0
-202 -408 -254 -416 -354 -268 -337 -418 0
-202 -408 -254 -416 -354 -337 -405 0
-202 -408 -254 -416 -354 -337 -405 -305 0
-202 -408 -254 -416 -354 -337 -418 0
-202 -408 -254 -416 -268 -337 -405 0
-202 -408 -254 -416 -268 -337 -405 -305 0
-202 -408 -254 -416 -268 -337 -418 0
-202 -408 -254 -416 -268 -333 -337 -405 0
-202 -408 -254 -416 -268 -333 -337 -405 -305 0
-202 -408 -254 -416 -268 -333 -337 -418 0
-202 -408 -254 -416 -268 -354 -337 -405 0
-202 -408 -254 -416 -268 -354 -337 -405 -305 0
-202 -408 -254 -416 -268 -354 -337 -418 0
-202 -408 -254 -416 -337 -405 0
-202 -408 -254 -416 -337 -405 -305 0
-202 -408 -254 -416 -337 -418 0
-202 -415 -254 -305 -405 -337 -354 0
-202 -415 -254 -305 -405 -337 -268 -354 0
-202 -415 -254 -305 -405 -337 -406 -268 -354 0
-202 -254 -305 -405 -337 -333 -268 -416 0
-202 -254 -305 -405 -337 -354 0
-202 -254 -305 -405 -337 -354 -416 0
-202 -254 -305 -405 -337 -354 -268 -416 0
-202 -254 -305 -405 -337 -268 -416 0
-202 -254 -305 -405 -337 -268 -416 -354 0
-202 -254 -305 -405 -337 -268 -354 0
-202 -254 -305 -405 -337 -268 -354 -416 0
-202 -254 -305 -405 -337 -416 0
-202 -254 -305 -405 -337 -416 -354 0
-202 -254 -305 -405 -337 -416 -268 -354 0
-202 -254 -305 -405 -337 -406 -268 -354 0
-202 -254 -416 -354 -268 -337 -405 0
-202 -254 -416 -354 -268 -337 -405 -305 0
-202 -254 -416 -354 -268 -337 -418 0
-202 -254 -416 -354 -337 -405 0
-202 -254 -416 -354 -337 -405 -305 0
-202 -254 -416 -354 -337 -418 0
-202 -254 -416 -268 -337 -405 0
-202 -254 -416 -268 -337 -405 -305 0
-202 -254 -416 -268 -337 -418 0
-202 -254 -416 -268 -333 -337 -405 0
-202 -254 -416 -268 -333 -337 -405 -305 0
-202 -254 -416 -268 -333 -337 -418 0
-202 -254 -416 -268 -354 -337 -405 0
-202 -254 -416 -268 -354 -337 -405 -305 0
-202 -254 -416 -268 -354 -337 -418 0
-202 -254 -416 -337 -405 0
-202 -254 -416 -337 -405 -305 0
-202 -254 -416 -337 -418 0
-202 -245 -305 -405 -337 -333 -268 -416 0
-202 -245 -305 -405 -337 -354 0
-202 -245 -305 -405 -337 -354 -416 0
-202 -245 -305 -405 -337 -354 -268 -416 0
-202 -245 -305 -405 -337 -268 -416 0
-202 -245 -305 -405 -337 -268 -416 -354 0
-202 -245 -305 -405 -337 -268 -354 0
-202 -245 -305 -405 -337 -268 -354 -416 0
-202 -245 -305 -405 -337 -416 0
-202 -245 -305 -405 -337 -416 -354 0
-202 -245 -305 -405 -337 -416 -268 -354 0
-202 -245 -305 -405 -337 -406 -268 -354 0
-202 -245 -405 -337 -333 -268 -416 0
-202 -245 -405 -337 -354 0
-202 -245 -405 -337 -354 -416 0
-202 -245 -405 -337 -354 -268 -416 0
-202 -245 -405 -337 -268 -416 0
-202 -245 -405 -337 -268 -416 -354 0
-202 -245 -405 -337 -268 -354 0
-202 -245 -405 -337 -268 -354 -416 0
-202 -245 -405 -337 -416 0
-202 -245 -405 -337 -416 -354 0
-202 -245 -405 -337 -416 -268 -354 0
-202 -245 -405 -337 -406 -268 -354 0
-202 -413 -305 -254 -416 -354 -268 -337 -418 0
-202 -413 -305 -254 -416 -354 -337 -418 0
-202 -413 -305 -254 -416 -268 -337 -418 0
-202 -413 -305 -254 -416 -268 -333 -337 -418 0
-202 -413 -305 -254 -416 -268 -354 -337 -418 0
-202 -413 -305 -254 -416 -337 -418 0
-202 -413 -254 -416 -354 -268 -337 -418 0
-202 -413 -254 -416 -354 -337 -418 0
-202 -413 -254 -416 -268 -337 -418 0
-202 -413 -254 -416 -268 -333 -337 -418 0
-202 -413 -254 -416 -268 -354 -337 -418 0
-202 -413 -254 -416 -337 -418 0
-202 -405 -337 -333 -268 -416 0
-202 -405 -337 -333 -268 -416 -254 0
-202 -405 -337 -333 -268 -416 -254 -408 -276 0
-202 -405 -337 -333 -268 -416 -254 -276 0
-202 -405 -337 -333 -268 -416 -254 -305 0
-202 -405 -337 -354 0
-202 -405 -337 -354 -416 0
-202 -405 -337 -354 -416 -254 0
-202 -405 -337 -354 -416 -254 -408 -276 0
-202 -405 -337 -354 -416 -254 -276 0
-202 -405 -337 -354 -416 -254 -305 0
-202 -405 -337 -354 -268 -416 0
-202 -405 -337 -354 -268 -416 -254 0
-202 -405 -337 -354 -268 -416 -254 -408 -276 0
-202 -405 -337 -354 -268 -416 -254 -276 0
-202 -405 -337 -354 -268 -416 -254 -305 0
-202 -405 -337 -268 -416 0
-202 -405 -337 -268 -416 -354 0
-202 -405 -337 -268 -416 -254 0
-202 -405 -337 -268 -416 -254 -408 -276 0
-202 -405 -337 -268 -416 -254 -276 0
-202 -405 -337 -268 -416 -254 -305 0
-202 -405 -337 -268 -354 0
-202 -405 -337 -268 -354 -416 0
-202 -405 -337 -268 -354 -416 -254 0
-202 -405 -337 -268 -354 -416 -254 -408 -276 0
-202 -405 -337 -268 -354 -416 -254 -276 0
-202 -405 -337 -268 -354 -416 -254 -305 0
-202 -405 -337 -416 0
-202 -405 -337 -416 -354 0
-202 -405 -337 -416 -268 -354 0
-202 -405 -337 -416 -254 0
-202 -405 -337 -416 -254 -408 -276 0
-202 -405 -337 -416 -254 -276 0
-202 -405 -337 -416 -254 -305 0
-202 -405 -337 -406 -268 -354 0
-202 -305 -245 -405 -337 -333 -268 -416 0
-202 -305 -245 -405 -337 -354 0
-202 -305 -245 -405 -337 -354 -416 0
-202 -305 -245 -405 -337 -354 -268 -416 0
-202 -305 -245 -405 -337 -268 -416 0
-202 -305 -245 -405 -337 -268 -416 -354 0
-202 -305 -245 -405 -337 -268 -354 0
-202 -305 -245 -405 -337 -268 -354 -416 0
-202 -305 -245 -405 -337 -416 0
-202 -305 -245 -405 -337 -416 -354 0
-202 -305 -245 -405 -337 -416 -268 -354 0
-202 -305 -245 -405 -337 -406 -268 -354 0
-202 -305 -254 -416 -354 -268 -337 -405 0
-202 -305 -254 -416 -354 -268 -337 -418 0
-202 -305 -254 -416 -354 -337 -405 0
-202 -305 -254 -416 -354 -337 -418 0
-202 -305 -254 -416 -268 -337 -405 0
-202 -305 -254 -416 -268 -337 -418 0
-202 -305 -254 -416 -268 -333 -337 -405 0
-202 -305 -254 -416 -268 -333 -337 -418 0
-202 -305 -254 -416 -268 -354 -337 -405 0
-202 -305 -254 -416 -268 -354 -337 -418 0
-202 -305 -254 -416 -337 -405 0
-202 -305 -254 -416 -337 -418 0
-202 -305 -413 -254 -416 -354 -268 -337 -418 0
-202 -305 -413 -254 -416 -354 -337 -418 0
-202 -305 -413 -254 -416 -268 -337 -418 0
-202 -305 -413 -254 -416 -268 -333 -337 -418 0
-202 -305 -413 -254 -416 -268 -354 -337 -418 0
-202 -305 -413 -254 -416 -337 -418 0
-202 -305 -405 -337 -333 -268 -416 0
-202 -305 -405 -337 -333 -268 -416 -254 0
-202 -305 -405 -337 -354 0
-202 -305 -405 -337 -354 -416 0
-202 -305 -405 -337 -354 -416 -254 0
-202 -305 -405 -337 -354 -268 -416 0
-202 -305 -405 -337 -354 -268 -416 -254 0
-202 -305 -405 -337 -268 -416 0
-202 -305 -405 -337 -268 -416 -354 0
-202 -305 -405 -337 -268 -416 -254 0
-202 -305 -405 -337 -268 -354 0
-202 -305 -405 -337 -268 -354 -416 0
-202 -305 -405 -337 -268 -354 -416 -254 0
-202 -305 -405 -337 -416 0
-202 -305 -405 -337 -416 -354 0
-202 -305 -405 -337 -416 -268 -354 0
-202 -305 -405 -337 -416 -254 0
-202 -305 -405 -337 -406 -268 -354 0
-202 -276 -408 -254 -416 -354 -268 -337 -405 0
-202 -276 -408 -254 -416 -354 -268 -337 -418 0
-202 -276 -408 -254 -416 -354 -337 -405 0
-202 -276 -408 -254 -416 -354 -337 -418 0
-202 -276 -408 -254 -416 -268 -337 -405 0
-202 -276 -408 -254 -416 -268 -337 -418 0
-202 -276 -408 -254 -416 -268 -333 -337 -405 0
-202 -276 -408 -254 -416 -268 -333 -337 -418 0
-202 -276 -408 -254 -416 -268 -354 -337 -405 0
-202 -276 -408 -254 -416 -268 -354 -337 -418 0
-202 -276 -408 -254 -416 -337 -405 0
-202 -276 -408 -254 -416 -337 -418 0
-202 -276 -245 -405 -337 -333 -268 -416 0
-202 -276 -245 -405 -337 -354 0
-202 -276 -245 -405 -337 -354 -416 0
-202 -276 -245 -405 -337 -354 -268 -416 0
-202 -276 -245 -405 -337 -268 -416 0
-202 -276 -245 -405 -337 -268 -416 -354 0
-202 -276 -245 -405 -337 -268 -354 0
-202 -276 -245 -405 -337 -268 -354 -416 0
-202 -276 -245 -405 -337 -416 0
-202 -276 -245 -405 -337 -416 -354 0
-202 -276 -245 -405 -337 -416 -268 -354 0
-202 -276 -245 -405 -337 -406 -268 -354 0
-202 -276 -254 -416 -354 -268 -337 -405 0
-202 -276 -254 -416 -354 -268 -337 -418 0
-202 -276 -254 -416 -354 -337 -405 0
-202 -276 -254 -416 -354 -337 -418 0
-202 -276 -254 -416 -268 -337 -405 0
-202 -276 -254 -416 -268 -337 -418 0
-202 -276 -254 -416 -268 -333 -337 -405 0
-202 -276 -254 -416 -268 -333 -337 -418 0
-202 -276 -254 -416 -268 -354 -337 -405 0
-202 -276 -254 -416 -268 -354 -337 -418 0
-202 -276 -254 -416 -337 -405 0
-202 -276 -254 -416 -337 -418 0
-195 -217 -333 -268 0
-195 -217 -333 -337 -268 0
-195 -217 -337 -268 0
-195 -217 -337 -333 -268 0
-195 -217 -337 -354 -268 0
-276 -408 -202 -254 -416 -354 -268 -337 -405 0
-276 -408 -202 -254 -416 -354 -268 -337 -418 0
-276 -408 -202 -254 -416 -354 -337 -405 0
-276 -408 -202 -254 -416 -354 -337 -418 0
-276 -408 -202 -254 -416 -268 -337 -405 0
-276 -408 -202 -254 -416 -268 -337 -418 0
-276 -408 -202 -254 -416 -268 -333 -337 -405 0
-276 -408 -202 -254 -416 -268 -333 -337 -418 0
-276 -408 -202 -254 -416 -268 -354 -337 -405 0
-276 -408 -202 -254 -416 -268 -354 -337 -418 0
-276 -408 -202 -254 -416 -337 -405 0
-276 -408 -202 -254 -416 -337 -418 0
-276 -408 -202 -405 -337 -333 -268 -416 -254 0
-276 -408 -202 -405 -337 -354 -416 -254 0
-276 -408 -202 -405 -337 -354 -268 -416 -254 0
-276 -408 -202 -405 -337 -268 -416 -254 0
-276 -408 -202 -405 -337 -268 -354 -416 -254 0
-276 -408 -202 -405 -337 -416 -254 0
-276 -408 -254 -416 -354 -268 -337 -405 0
-276 -408 -254 -416 -354 -268 -337 -418 0
-276 -408 -254 -416 -354 -337 -405 0
-276 -408 -254 -416 -354 -337 -418 0
-276 -408 -254 -416 -268 -337 -405 0
-276 -408 -254 -416 -268 -337 -418 0
-276 -408 -254 -416 -268 -333 -337 -405 0
-276 -408 -254 -416 -268 -333 -337 -418 0
-276 -408 -254 -416 -268 -354 -337 -405 0
-276 -408 -254 -416 -268 -354 -337 -418 0
-276 -408 -254 -416 -337 -405 0
-276 -408 -254 -416 -337 -418 0
-276 -202 -408 -254 -416 -354 -268 -337 -405 0
-276 -202 -408 -254 -416 -354 -268 -337 -418 0
-276 -202 -408 -254 -416 -354 -337 -405 0
-276 -202 -408 -254 -416 -354 -337 -418 0
-276 -202 -408 -254 -416 -268 -337 -405 0
-276 -202 -408 -254 -416 -268 -337 -418 0
-276 -202 -408 -254 -416 -268 -333 -337 -405 0
-276 -202 -408 -254 -416 -268 -333 -337 -418 0
-276 -202 -408 -254 -416 -268 -354 -337 -405 0
-276 -202 -408 -254 -416 -268 -354 -337 -418 0
-276 -202 -408 -254 -416 -337 -405 0
-276 -202 -408 -254 -416 -337 -418 0
-276 -202 -254 -416 -354 -268 -337 -405 0
-276 -202 -254 -416 -354 -268 -337 -418 0
-276 -202 -254 -416 -354 -337 -405 0
-276 -202 -254 -416 -354 -337 -418 0
-276 -202 -254 -416 -268 -337 -405 0
-276 -202 -254 -416 -268 -337 -418 0
-276 -202 -254 -416 -268 -333 -337 -405 0
-276 -202 -254 -416 -268 -333 -337 -418 0
-276 -202 -254 -416 -268 -354 -337 -405 0
-276 -202 -254 -416 -268 -354 -337 -418 0
-276 -202 -254 -416 -337 -405 0
-276 -202 -254 -416 -337 -418 0
-276 -202 -413 -254 -416 -354 -268 -337 -418 0
-276 -202 -413 -254 -416 -354 -337 -418 0
-276 -202 -413 -254 -416 -268 -337 -418 0
-276 -202 -413 -254 -416 -268 -333 -337 -418 0
-276 -202 -413 -254 -416 -268 -354 -337 -418 0
-276 -202 -413 -254 -416 -337 -418 0
-276 -202 -405 -337 -333 -268 -416 -254 0
-276 -202 -405 -337 -354 -416 -254 0
-276 -202 -405 -337 -354 -268 -416 -254 0
-276 -202 -405 -337 -268 -416 -254 0
-276 -202 -405 -337 -268 -354 -416 -254 0
-276 -202 -405 -337 -416 -254 0
-276 -254 -416 -354 -268 -337 -405 0
-276 -254 -416 -354 -268 -337 -418 0
-276 -254 -416 -354 -337 -405 0
-276 -254 -416 -354 -337 -418 0
-276 -254 -416 -268 -337 -405 0
-276 -254 -416 -268 -337 -418 0
-276 -254 -416 -268 -333 -337 -405 0
-276 -254 -416 -268 -333 -337 -418 0
-276 -254 -416 -268 -354 -337 -405 0
-276 -254 -416 -268 -354 -337 -418 0
-276 -254 -416 -337 -405 0
-276 -254 -416 -337 -418 0
-245 -202 -405 -337 -354 0
-245 -202 -405 -337 -268 -416 -354 0
-245 -202 -405 -337 -268 -354 0
-245 -202 -405 -337 -416 -354 0
-245 -202 -405 -337 -416 -268 -354 0
-245 -202 -405 -337 -406 -268 -354 0
-245 -202 -305 -405 -337 -354 0
-245 -202 -305 -405 -337 -268 -416 -354 0
-245 -202 -305 -405 -337 -268 -354 0
-245 -202 -305 -405 -337 -416 -354 0
-245 -202 -305 -405 -337 -416 -268 -354 0
-245 -202 -305 -405 -337 -406 -268 -354 0
-245 -276 -408 -202 -405 -337 -354 0
-245 -276 -408 -202 -405 -337 -268 -416 -354 0
-245 -276 -408 -202 -405 -337 -268 -354 0
-245 -276 -408 -202 -405 -337 -416 -354 0
-245 -276 -408 -202 -405 -337 -416 -268 -354 0
-245 -276 -408 -202 -405 -337 -406 -268 -354 0
-245 -276 -202 -405 -337 -354 0
-245 -276 -202 -405 -337 -268 -416 -354 0
-245 -276 -202 -405 -337 -268 -354 0
-245 -276 -202 -405 -337 -416 -354 0
-245 -276 -202 -405 -337 -416 -268 -354 0
-245 -276 -202 -405 -337 -406 -268 -354 0
-245 -305 -202 -405 -337 -354 0
-245 -305 -202 -405 -337 -268 -416 -354 0
-245 -305 -202 -405 -337 -268 -354 0
-245 -305 -202 -405 -337 -416 -354 0
-245 -305 -202 -405 -337 -416 -268 -354 0
-245 -305 -202 -405 -337 -406 -268 -354 0
-245 -305 -405 -337 -354 0
-245 -305 -405 -337 -268 -416 -354 0
-245 -305 -405 -337 -268 -354 0
-245 -305 -405 -337 -416 -354 0
-245 -305 -405 -337 -416 -268 -354 0
-245 -305 -405 -337 -406 -268 -354 0
-245 -405 -337 -354 0
-245 -405 -337 -268 -416 -354 0
-245 -405 -337 -268 -354 0
-245 -405 -337 -416 -354 0
-245 -405 -337 -416 -268 -354 0
-245 -405 -337 -406 -268 -354 0
-254 -415 -202 -405 -337 -354 0
-254 -415 -202 -405 -337 -268 -354 0
-254 -415 -202 -405 -337 -406 -268 -354 0
-254 -415 -202 -305 -405 -337 -354 0
-254 -415 -202 -305 -405 -337 -268 -354 0
-254 -415 -202 -305 -405 -337 -406 -268 -354 0
-254 -408 -276 -202 -405 -337 -333 -268 -416 0
-254 -408 -276 -202 -405 -337 -354 0
-254 -408 -276 -202 -405 -337 -354 -416 0
-254 -408 -276 -202 -405 -337 -354 -268 -416 0
-254 -408 -276 -202 -405 -337 -268 -416 0
-254 -408 -276 -202 -405 -337 -268 -416 -354 0
-254 -408 -276 -202 -405 -337 -268 -354 0
-254 -408 -276 -202 -405 -337 -268 -354 -416 0
-254 -408 -276 -202 -405 -337 -416 0
-254 -408 -276 -202 -405 -337 -416 -354 0
-254 -408 -276 -202 -405 -337 -416 -268 -354 0
-254 -408 -276 -202 -405 -337 -406 -268 -354 0
-254 -408 -202 -405 -337 -333 -268 -416 0
-254 -408 -202 -405 -337 -354 0
-254 -408 -202 -405 -337 -354 -416 0
-254 -408 -202 -405 -337 -354 -268 -416 0
-254 -408 -202 -405 -337 -268 -416 0
-254 -408 -202 -405 -337 -268 -416 -354 0
-254 -408 -202 -405 -337 -268 -354 0
-254 -408 -202 -405 -337 -268 -354 -416 0
-254 -408 -202 -405 -337 -416 0
-254 -408 -202 -405 -337 -416 -354 0
-254 -408 -202 -405 -337 -416 -268 -354 0
-254 -408 -202 -405 -337 -406 -268 -354 0
-254 -408 -202 -305 -405 -337 -333 -268 -416 0
-254 -408 -202 -305 -405 -337 -354 0
-254 -408 -202 -305 -405 -337 -354 -416 0
-254 -408 -202 -305 -405 -337 -354 -268 -416 0
-254 -408 -202 -305 -405 -337 -268 -416 0
-254 -408 -202 -305 -405 -337 -268 -416 -354 0
-254 -408 -202 -305 -405 -337 -268 -354 0
-254 -408 -202 -305 -405 -337 -268 -354 -416 0
-254 -408 -202 -305 -405 -337 -416 0
-254 -408 -202 -305 -405 -337 -416 -354 0
-254 -408 -202 -305 -405 -337 -416 -268 -354 0
-254 -408 -202 -305 -405 -337 -406 -268 -354 0
-254 -202 -405 -337 -333 -268 -416 0
-254 -202 -405 -337 -354 0
-254 -202 -405 -337 -354 -416 0
-254 -202 -405 -337 -354 -268 -416 0
-254 -202 -405 -337 -268 -416 0
-254 -202 -405 -337 -268 -416 -354 0
-254 -202 -405 -337 -268 -354 0
-254 -202 -405 -337 -268 -354 -416 0
-254 -202 -405 -337 -416 0
-254 -202 -405 -337 -416 -354 0
-254 -202 -405 -337 -416 -268 -354 0
-254 -202 -405 -337 -406 -268 -354 0
-254 -202 -305 -405 -337 -333 -268 -416 0
-254 -202 -305 -405 -337 -354 0
-254 -202 -305 -405 -337 -354 -416 0
-254 -202 -305 -405 -337 -354 -268 -416 0
-254 -202 -305 -405 -337 -268 -416 0
-254 -202 -305 -405 -337 -268 -416 -354 0
-254 -202 -305 -405 -337 -268 -354 0
-254 -202 -305 -405 -337 -268 -354 -416 0
-254 -202 -305 -405 -337 -416 0
-254 -202 -305 -405 -337 -416 -354 0
-254 -202 -305 -405 -337 -416 -268 -354 0
-254 -202 -305 -405 -337 -406 -268 -354 0
-254 -276 -408 -202 -405 -337 -333 -268 -416 0
-254 -276 -408 -202 -405 -337 -354 0
-254 -276 -408 -202 -405 -337 -354 -416 0
-254 -276 -408 -202 -405 -337 -354 -268 -416 0
-254 -276 -408 -202 -405 -337 -268 -416 0
-254 -276 -408 -202 -405 -337 -268 -416 -354 0
-254 -276 -408 -202 -405 -337 -268 -354 0
-254 -276 -408 -202 -405 -337 -268 -354 -416 0
-254 -276 -408 -202 -405 -337 -416 0
-254 -276 -408 -202 -405 -337 -416 -354 0
-254 -276 -408 -202 -405 -337 -416 -268 -354 0
-254 -276 -408 -202 -405 -337 -406 -268 -354 0
-254 -276 -202 -405 -337 -333 -268 -416 0
-254 -276 -202 -405 -337 -354 0
-254 -276 -202 -405 -337 -354 -416 0
-254 -276 -202 -405 -337 -354 -268 -416 0
-254 -276 -202 -405 -337 -268 -416 0
-254 -276 -202 -405 -337 -268 -416 -354 0
-254 -276 -202 -405 -337 -268 -354 0
-254 -276 -202 -405 -337 -268 -354 -416 0
-254 -276 -202 -405 -337 -416 0
-254 -276 -202 -405 -337 -416 -354 0
-254 -276 -202 -405 -337 -416 -268 -354 0
-254 -276 -202 -405 -337 -406 -268 -354 0
-254 -305 -202 -405 -337 -333 -268 -416 0
-254 -305 -202 -405 -337 -354 0
-254 -305 -202 -405 -337 -354 -416 0
-254 -305 -202 -405 -337 -354 -268 -416 0
-254 -305 -202 -405 -337 -268 -416 0
-254 -305 -202 -405 -337 -268 -416 -354 0
-254 -305 -202 -405 -337 -268 -354 0
-254 -305 -202 -405 -337 -268 -354 -416 0
-254 -305 -202 -405 -337 -416 0
-254 -305 -202 -405 -337 -416 -354 0
-254 -305 -202 -405 -337 -416 -268 -354 0
-254 -305 -202 -405 -337 -406 -268 -354 0
-254 -305 -405 -337 -333 -268 -416 0
-254 -305 -405 -337 -354 0
-254 -305 -405 -337 -354 -416 0
-254 -305 -405 -337 -354 -268 -416 0
-254 -305 -405 -337 -268 -416 0
-254 -305 -405 -337 -268 -416 -354 0
-254 -305 -405 -337 -268 -354 0
-254 -305 -405 -337 -268 -354 -416 0
-254 -305 -405 -337 -416 0
-254 -305 -405 -337 -416 -354 0
-254 -305 -405 -337 -416 -268 -354 0
-254 -305 -405 -337 -406 -268 -354 0
-254 -416 -354 -268 -337 -405 -202 -305 0
-254 -416 -354 -268 -337 -405 -305 0
-254 -416 -354 -337 -405 -202 -305 0
-254 -416 -354 -337 -405 -305 0
-254 -416 -268 -337 -405 -202 -305 0
-254 -416 -268 -337 -405 -305 0
-254 -416 -268 -333 -337 -405 -202 -305 0
-254 -416 -268 -333 -337 -405 -305 0
-254 -416 -268 -354 -337 -405 -202 -305 0
-254 -416 -268 -354 -337 -405 -305 0
-254 -416 -337 -405 -202 -305 0
-254 -416 -337 -405 -305 0
-254 -411 -276 -202 -405 -337 -354 0
-254 -411 -276 -202 -405 -337 -268 -354 0
-405 -202 -408 -276 -254 -416 -354 -268 -337 0
-405 -202 -408 -276 -254 -416 -354 -337 0
-405 -202 -408 -276 -254 -416 -268 -337 0
-405 -202 -408 -276 -254 -416 -268 -333 -337 0
-405 -202 -408 -276 -254 -416 -268 -354 -337 0
-405 -202 -408 -276 -254 -416 -337 0
-405 -202 -408 -254 -416 -354 -268 -337 0
-405 -202 -408 -254 -416 -354 -337 0
-405 -202 -408 -254 -416 -268 -337 0
-405 -202 -408 -254 -416 -268 -333 -337 0
-405 -202 -408 -254 -416 -268 -354 -337 0
-405 -202 -408 -254 -416 -337 0
-405 -202 -254 -416 -354 -268 -337 0
-405 -202 -254 -416 -354 -337 0
-405 -202 -254 -416 -268 -337 0
-405 -202 -254 -416 -268 -333 -337 0
-405 -202 -254 -416 -268 -354 -337 0
-405 -202 -254 -416 -337 0
-405 -202 -305 -254 -416 -354 -268 -337 0
-405 -202 -305 -254 -416 -354 -337 0
-405 -202 -305 -254 -416 -268 -337 0
-405 -202 -305 -254 -416 -268 -333 -337 0
-405 -202 -305 -254 -416 -268 -354 -337 0
-405 -202 -305 -254 -416 -337 0
-405 -202 -276 -408 -254 -416 -354 -268 -337 0
-405 -202 -276 -408 -254 -416 -354 -337 0
-405 -202 -276 -408 -254 -416 -268 -337 0
-405 -202 -276 -408 -254 -416 -268 -333 -337 0
-405 -202 -276 -408 -254 -416 -268 -354 -337 0
-405 -202 -276 -408 -254 -416 -337 0
-405 -202 -276 -254 -416 -354 -268 -337 0
-405 -202 -276 -254 -416 -354 -337 0
-405 -202 -276 -254 -416 -268 -337 0
-405 -202 -276 -254 -416 -268 -333 -337 0
-405 -202 -276 -254 -416 -268 -354 -337 0
-405 -202 -276 -254 -416 -337 0
-405 -305 -202 -408 -254 -416 -354 -268 -337 0
-405 -305 -202 -408 -254 -416 -354 -337 0
-405 -305 -202 -408 -254 -416 -268 -337 0
-405 -305 -202 -408 -254 -416 -268 -333 -337 0
-405 -305 -202 -408 -254 -416 -268 -354 -337 0
-405 -305 -202 -408 -254 -416 -337 0
-405 -305 -202 -254 -416 -354 -268 -337 0
-405 -305 -202 -254 -416 -354 -337 0
-405 -305 -202 -254 -416 -268 -337 0
-405 -305 -202 -254 -416 -268 -333 -337 0
-405 -305 -202 -254 -416 -268 -354 -337 0
-405 -305 -202 -254 -416 -337 0
-405 -305 -254 -416 -354 -268 -337 0
-405 -305 -254 -416 -354 -337 0
-405 -305 -254 -416 -268 -337 0
-405 -305 -254 -416 -268 -333 -337 0
-405 -305 -254 -416 -268 -354 -337 0
-405 -305 -254 -416 -337 0
-405 -337 -333 -268 -416 -254 -202 -305 0
-405 -337 -333 -268 -416 -254 -408 -202 -305 0
-405 -337 -333 -268 -416 -254 -305 0
-405 -337 -354 -416 -254 -202 -305 0
-405 -337 -354 -416 -254 -408 -202 -305 0
-405 -337 -354 -416 -254 -305 0
-405 -337 -354 -268 -416 -254 -202 -305 0
-405 -337 -354 -268 -416 -254 -408 -202 -305 0
-405 -337 -354 -268 -416 -254 -305 0
-405 -337 -268 -416 -254 -202 -305 0
-405 -337 -268 -416 -254 -408 -202 -305 0
-405 -337 -268 -416 -254 -305 0
-405 -337 -268 -354 -416 -254 -202 -305 0
-405 -337 -268 -354 -416 -254 -408 -202 -305 0
-405 -337 -268 -354 -416 -254 -305 0
-405 -337 -416 -254 -202 -305 0
-405 -337 -416 -254 -408 -202 -305 0
-405 -337 -416 -254 -305 0
-305 -202 -408 -254 -416 -354 -268 -337 -418 0
-305 -202 -408 -254 -416 -354 -337 -418 0
-305 -202 -408 -254 -416 -268 -337 -418 0
-305 -202 -408 -254 -416 -268 -333 -337 -418 0
-305 -202 -408 -254 -416 -268 -354 -337 -418 0
-305 -202 -408 -254 -416 -337 -418 0
-305 -202 -254 -416 -354 -268 -337 -418 0
-305 -202 -254 -416 -354 -337 -418 0
-305 -202 -254 -416 -268 -337 -418 0
-305 -202 -254 -416 -268 -333 -337 -418 0
-305 -202 -254 -416 -268 -354 -337 -418 0
-305 -202 -254 -416 -337 -418 0
-305 -202 -413 -254 -416 -354 -268 -337 -418 0
-305 -202 -413 -254 -416 -354 -337 -418 0
-305 -202 -413 -254 -416 -268 -337 -418 0
-305 -202 -413 -254 -416 -268 -333 -337 -418 0
-305 -202 -413 -254 -416 -268 -354 -337 -418 0
-305 -202 -413 -254 -416 -337 -418 0
-305 -254 -416 -354 -268 -337 -418 0
-305 -254 -416 -354 -337 -418 0
-305 -254 -416 -268 -337 -418 0
-305 -254 -416 -268 -333 -337 -418 0
-305 -254 -416 -268 -354 -337 -418 0
-305 -254 -416 -337 -418 0
-305 -413 -202 -254 -416 -354 -268 -337 -418 0
-305 -413 -202 -254 -416 -354 -337 -418 0
-305 -413 -202 -254 -416 -268 -337 -418 0
-305 -413 -202 -254 -416 -268 -333 -337 -418 0
-305 -413 -202 -254 -416 -268 -354 -337 -418 0
-305 -413 -202 -254 -416 -337 -418 0
-305 -413 -254 -416 -354 -268 -337 -418 0
-305 -413 -254 -416 -354 -337 -418 0
-305 -413 -254 -416 -268 -337 -418 0
-305 -413 -254 -416 -268 -333 -337 -418 0
-305 -413 -254 -416 -268 -354 -337 -418 0
-305 -413 -254 -416 -337 -418 0
-268 -337 -405 -202 -305 -254 -416 0
-268 -337 -405 -202 -305 -254 -416 -354 0
-268 -337 -405 -202 -276 -254 -416 0
-268 -337 -405 -202 -276 -254 -416 -354 0
-268 -337 -405 -202 -276 -408 -254 -416 0
-268 -337 -405 -202 -276 -408 -254 -416 -354 0
-268 -337 -405 -202 -254 -416 0
-268 -337 -405 -202 -254 -416 -354 0
-268 -337 -405 -202 -408 -254 -416 0
-268 -337 -405 -202 -408 -254 -416 -354 0
-268 -337 -405 -202 -408 -276 -254 -416 0
-268 -337 -405 -202 -408 -276 -254 -416 -354 0
-268 -337 -405 -305 -202 -254 -416 0
-268 -337 -405 -305 -202 -254 -416 -354 0
-268 -337 -405 -305 -202 -408 -254 -416 0
-268 -337 -405 -305 -202 -408 -254 -416 -354 0
-268 -337 -405 -305 -254 -416 0
-268 -337 -405 -305 -254 -416 -354 0
-268 -333 -337 -405 -202 -305 -254 -416 0
-268 -333 -337 -405 -202 -276 -254 -416 0
-268 -333 -337 -405 -202 -276 -408 -254 -416 0
-268 -333 -337 -405 -202 -254 -416 0
-268 -333 -337 -405 -202 -408 -254 -416 0
-268 -333 -337 -405 -202 -408 -276 -254 -416 0
-268 -333 -337 -405 -305 -202 -254 -416 0
-268 -333 -337 -405 -305 -202 -408 -254 -416 0
-268 -333 -337 -405 -305 -254 -416 0
-268 -354 -416 -254 -408 -276 -202 -405 -337 0
-268 -354 -416 -254 -408 -202 -405 -337 0
-268 -354 -416 -254 -408 -202 -305 -405 -337 0
-268 -354 -416 -254 -202 -405 -337 0
-268 -354 -416 -254 -202 -305 -405 -337 0
-268 -354 -416 -254 -276 -408 -202 -405 -337 0
-268 -354 -416 -254 -276 -202 -405 -337 0
-268 -354 -416 -254 -305 -202 -405 -337 0
-268 -354 -416 -254 -305 -405 -337 0
-268 -354 -337 -405 -202 -305 -254 -416 0
-268 -354 -337 -405 -202 -276 -254 -416 0
-268 -354 -337 -405 -202 -276 -408 -254 -416 0
-268 -354 -337 -405 -202 -254 -416 0
-268 -354 -337 -405 -202 -408 -254 -416 0
-268 -354 -337 -405 -202 -408 -276 -254 -416 0
-268 -354 -337 -405 -305 -202 -254 -416 0
-268 -354 -337 -405 -305 -202 -408 -254 -416 0
-268 -354 -337 -405 -305 -254 -416 0
-268 -416 -254 -408 -276 -202 -405 -337 0
-268 -416 -254 -408 -276 -202 -405 -337 -333 0
-268 -416 -254 -408 -276 -202 -405 -337 -354 0
-268 -416 -254 -408 -202 -405 -337 0
-268 -416 -254 -408 -202 -405 -337 -333 0
-268 -416 -254 -408 -202 -405 -337 -354 0
-268 -416 -254 -408 -202 -305 -405 -337 0
-268 -416 -254 -408 -202 -305 -405 -337 -333 0
-268 -416 -254 -408 -202 -305 -405 -337 -354 0
-268 -416 -254 -202 -405 -337 0
-268 -416 -254 -202 -405 -337 -333 0
-268 -416 -254 -202 -405 -337 -354 0
-268 -416 -254 -202 -305 -405 -337 0
-268 -416 -254 -202 -305 -405 -337 -333 0
-268 -416 -254 -202 -305 -405 -337 -354 0
-268 -416 -254 -276 -408 -202 -405 -337 0
-268 -416 -254 -276 -408 -202 -405 -337 -333 0
-268 -416 -254 -276 -408 -202 -405 -337 -354 0
-268 -416 -254 -276 -202 -405 -337 0
-268 -416 -254 -276 -202 -405 -337 -333 0
-268 -416 -254 -276 -202 -405 -337 -354 0
-268 -416 -254 -305 -202 -405 -337 0
-268 -416 -254 -305 -202 -405 -337 -333 0
-268 -416 -254 -305 -202 -405 -337 -354 0
-268 -416 -254 -305 -405 -337 0
-268 -416 -254 -305 -405 -337 -333 0
-268 -416 -254 -305 -405 -337 -354 0
-416 -254 -408 -276 -202 -405 -337 0
-416 -254 -408 -276 -202 -405 -337 -354 0
-416 -254 -408 -276 -202 -405 -337 -268 -354 0
-416 -254 -408 -202 -405 -337 0
-416 -254 -408 -202 -405 -337 -354 0
-416 -254 -408 -202 -405 -337 -268 -354 0
-416 -254 -408 -202 -305 -405 -337 0
-416 -254 -408 -202 -305 -405 -337 -354 0
-416 -254 -408 -202 -305 -405 -337 -268 -354 0
-416 -254 -202 -405 -337 0
-416 -254 -202 -405 -337 -354 0
-416 -254 -202 -405 -337 -268 -354 0
-416 -254 -202 -305 -405 -337 0
-416 -254 -202 -305 -405 -337 -354 0
-416 -254 -202 -305 -405 -337 -268 -354 0
-416 -254 -276 -408 -202 -405 -337 0
-416 -254 -276 -408 -202 -405 -337 -354 0
-416 -254 -276 -408 -202 -405 -337 -268 -354 0
-416 -254 -276 -202 -405 -337 0
-416 -254 -276 -202 -405 -337 -354 0
-416 -254 -276 -202 -405 -337 -268 -354 0
-416 -254 -305 -202 -405 -337 0
-416 -254 -305 -202 -405 -337 -354 0
-416 -254 -305 -202 -405 -337 -268 -354 0
-416 -254 -305 -405 -337 0
-416 -254 -305 -405 -337 -354 0
-416 -254 -305 -405 -337 -268 -354 0
-324 -286 -202 -408 -254 -305 0
-324 -286 -202 -417 -245 -305 0
-324 -286 -202 -254 -305 0
-324 -286 -202 -245 -305 0
-324 -286 -202 -305 0
-324 -286 -254 -408 -202 -305 0
-324 -286 -254 -202 -305 0
-324 -286 -254 -305 0
-333 -337 -405 -202 -408 -276 -254 -416 0
-333 -337 -405 -202 -408 -276 -254 -416 -268 0
-333 -337 -405 -202 -408 -254 -416 0
-333 -337 -405 -202 -408 -254 -416 -268 0
-333 -337 -405 -202 -415 -254 -276 -411 0
-333 -337 -405 -202 -415 -254 -411 0
-333 -337 -405 -202 -254 -276 -411 0
-333 -337 -405 -202 -254 -416 0
-333 -337 -405 -202 -254 -416 -268 0
-333 -337 -405 -202 -254 -411 0
-333 -337 -405 -202 -245 -276 -411 0
-333 -337 -405 -202 -305 -254 -416 0
-333 -337 -405 -202 -305 -254 -416 -268 0
-333 -337 -405 -202 -305 -254 -411 0
-333 -337 -405 -202 -276 -408 -254 -416 0
-333 -337 -405 -202 -276 -408 -254 -416 -268 0
-333 -337 -405 -202 -276 -411 0
-333 -337 -405 -202 -276 -254 -416 0
-333 -337 -405 -202 -276 -254 -416 -268 0
-333 -337 -405 -202 -276 -254 -411 0
-333 -337 -405 -305 -202 -408 -254 -416 0
-333 -337 -405 -305 -202 -408 -254 -416 -268 0
-333 -337 -405 -305 -202 -415 -254 -411 0
-333 -337 -405 -305 -202 -254 -416 0
-333 -337 -405 -305 -202 -254 -416 -268 0
-333 -337 -405 -305 -202 -254 -411 0
-333 -337 -405 -305 -254 -416 0
-333 -337 -405 -305 -254 -416 -268 0
-333 -337 -405 -305 -254 -411 0
-333 -337 -405 -245 -202 -276 -411 0
-333 -337 -405 -245 -276 -411 0
-333 -268 -337 -405 -202 -408 -276 -254 -416 0
-333 -268 -337 -405 -202 -408 -254 -416 0
-333 -268 -337 -405 -202 -415 -254 -276 -411 0
-333 -268 -337 -405 -202 -415 -254 -411 0
-333 -268 -337 -405 -202 -254 -276 -411 0
-333 -268 -337 -405 -202 -254 -416 0
-333 -268 -337 -405 -202 -254 -411 0
-333 -268 -337 -405 -202 -245 -276 -411 0
-333 -268 -337 -405 -202 -305 -254 -416 0
-333 -268 -337 -405 -202 -305 -254 -411 0
-333 -268 -337 -405 -202 -276 -408 -254 -416 0
-333 -268 -337 -405 -202 -276 -411 0
-333 -268 -337 -405 -202 -276 -254 -416 0
-333 -268 -337 -405 -202 -276 -254 -411 0
-333 -268 -337 -405 -305 -202 -408 -254 -416 0
-333 -268 -337 -405 -305 -202 -415 -254 -411 0
-333 -268 -337 -405 -305 -202 -254 -416 0
-333 -268 -337 -405 -305 -202 -254 -411 0
-333 -268 -337 -405 -305 -254 -416 0
-333 -268 -337 -405 -305 -254 -411 0
-333 -268 -337 -405 -245 -202 -276 -411 0
-333 -268 -337 -405 -245 -276 -411 0
-333 -268 -416 -254 -202 -305 -405 -337 0
-333 -268 -416 -254 -202 -405 -337 0
-333 -268 -416 -254 -408 -202 -305 -405 -337 0
-333 -268 -416 -254 -408 -202 -405 -337 0
-333 -268 -416 -254 -408 -276 -202 -405 -337 0
-333 -268 -416 -254 -276 -202 -405 -337 0
-333 -268 -416 -254 -276 -408 -202 -405 -337 0
-333 -268 -416 -254 -305 -202 -405 -337 0
-333 -268 -416 -254 -305 -405 -337 0
-337 -405 -202 -408 -276 -254 -416 0
-337 -405 -202 -408 -276 -254 -416 -354 0
-337 -405 -202 -408 -276 -254 -416 -354 -268 0
-337 -405 -202 -408 -276 -254 -416 -268 0
-337 -405 -202 -408 -276 -254 -416 -268 -354 0
-337 -405 -202 -408 -254 -416 0
-337 -405 -202 -408 -254 -416 -354 0
-337 -405 -202 -408 -254 -416 -354 -268 0
-337 -405 -202 -408 -254 -416 -268 0
-337 -405 -202 -408 -254 -416 -268 -354 0
-337 -405 -202 -415 -254 -276 -411 0
-337 -405 -202 -415 -254 -411 0
-337 -405 -202 -254 -276 -411 0
-337 -405 -202 -254 -416 0
-337 -405 -202 -254 -416 -354 0
-337 -405 -202 -254 -416 -354 -268 0
-337 -405 -202 -254 -416 -268 0
-337 -405 -202 -254 -416 -268 -354 0
-337 -405 -202 -254 -411 0
-337 -405 -202 -245 -276 -411 0
-337 -405 -202 -305 -254 -416 0
-337 -405 -202 -305 -254 -416 -354 0
-337 -405 -202 -305 -254 -416 -354 -268 0
-337 -405 -202 -305 -254 -416 -268 0
-337 -405 -202 -305 -254 -416 -268 -354 0
-337 -405 -202 -305 -254 -411 0
-337 -405 -202 -276 -408 -254 -416 0
-337 -405 -202 -276 -408 -254 -416 -354 0
-337 -405 -202 -276 -408 -254 -416 -354 -268 0
-337 -405 -202 -276 -408 -254 -416 -268 0
-337 -405 -202 -276 -408 -254 -416 -268 -354 0
-337 -405 -202 -276 -411 0
-337 -405 -202 -276 -254 -416 0
-337 -405 -202 -276 -254 -416 -354 0
-337 -405 -202 -276 -254 -416 -354 -268 0
-337 -405 -202 -276 -254 -416 -268 0
-337 -405 -202 -276 -254 -416 -268 -354 0
-337 -405 -202 -276 -254 -411 0
-337 -405 -305 -202 -408 -254 -416 0
-337 -405 -305 -202 -408 -254 -416 -354 0
-337 -405 -305 -202 -408 -254 -416 -354 -268 0
-337 -405 -305 -202 -408 -254 -416 -268 0
-337 -405 -305 -202 -408 -254 -416 -268 -354 0
-337 -405 -305 -202 -415 -254 -411 0
-337 -405 -305 -202 -254 -416 0
-337 -405 -305 -202 -254 -416 -354 0
-337 -405 -305 -202 -254 -416 -354 -268 0
-337 -405 -305 -202 -254 -416 -268 0
-337 -405 -305 -202 -254 -416 -268 -354 0
-337 -405 -305 -202 -254 -411 0
-337 -405 -305 -254 -416 0
-337 -405 -305 -254 -416 -354 0
-337 -405 -305 -254 -416 -354 -268 0
-337 -405 -305 -254 -416 -268 0
-337 -405 -305 -254 -416 -268 -354 0
-337 -405 -305 -254 -411 0
-337 -405 -245 -202 -276 -411 0
-337 -405 -245 -276 -411 0
-354 -337 -405 -202 -408 -276 -254 -416 0
-354 -337 -405 -202 -408 -276 -254 -416 -268 0
-354 -337 -405 -202 -408 -254 -416 0
-354 -337 -405 -202 -408 -254 -416 -268 0
-354 -337 -405 -202 -415 -254 -276 -411 0
-354 -337 -405 -202 -415 -254 -411 0
-354 -337 -405 -202 -254 -276 -411 0
-354 -337 -405 -202 -254 -416 0
-354 -337 -405 -202 -254 -416 -268 0
-354 -337 -405 -202 -254 -411 0
-354 -337 -405 -202 -245 -276 -411 0
-354 -337 -405 -202 -305 -254 -416 0
-354 -337 -405 -202 -305 -254 -416 -268 0
-354 -337 -405 -202 -305 -254 -411 0
-354 -337 -405 -202 -276 -408 -254 -416 0
-354 -337 -405 -202 -276 -408 -254 -416 -268 0
-354 -337 -405 -202 -276 -411 0
-354 -337 -405 -202 -276 -254 -416 0
-354 -337 -405 -202 -276 -254 -416 -268 0
-354 -337 -405 -202 -276 -254 -411 0
-354 -337 -405 -305 -202 -408 -254 -416 0
-354 -337 -405 -305 -202 -408 -254 -416 -268 0
-354 -337 -405 -305 -202 -415 -254 -411 0
-354 -337 -405 -305 -202 -254 -416 0
-354 -337 -405 -305 -202 -254 -416 -268 0
-354 -337 -405 -305 -202 -254 -411 0
-354 -337 -405 -305 -254 -416 0
-354 -337 -405 -305 -254 -416 -268 0
-354 -337 -405 -305 -254 -411 0
-354 -337 -405 -245 -202 -276 -411 0
-354 -337 -405 -245 -276 -411 0
-354 -416 -254 -202 -305 -405 -337 -268 0
-354 -416 -254 -202 -405 -337 -268 0
-354 -416 -254 -408 -202 -305 -405 -337 -268 0
-354 -416 -254 -408 -202 -405 -337 -268 0
-354 -416 -254 -408 -276 -202 -405 -337 -268 0
-354 -416 -254 -276 -202 -405 -337 -268 0
-354 -416 -254 -276 -408 -202 -405 -337 -268 0
-354 -416 -254 -305 -202 -405 -337 -268 0
-354 -416 -254 -305 -405 -337 -268 0
-354 -268 -337 -405 -202 -408 -276 -254 -416 0
-354 -268 -337 -405 -202 -408 -254 -416 0
-354 -268 -337 -405 -202 -415 -254 -276 -411 0
-354 -268 -337 -405 -202 -415 -254 -411 0
-354 -268 -337 -405 -202 -254 -276 -411 0
-354 -268 -337 -405 -202 -254 -416 0
-354 -268 -337 -405 -202 -254 -411 0
-354 -268 -337 -405 -202 -245 -276 -411 0
-354 -268 -337 -405 -202 -305 -254 -416 0
-354 -268 -337 -405 -202 -305 -254 -411 0
-354 -268 -337 -405 -202 -276 -408 -254 -416 0
-354 -268 -337 -405 -202 -276 -411 0
-354 -268 -337 -405 -202 -276 -254 -416 0
-354 -268 -337 -405 -202 -276 -254 -411 0
-354 -268 -337 -405 -305 -202 -408 -254 -416 0
-354 -268 -337 -405 -305 -202 -415 -254 -411 0
-354 -268 -337 -405 -305 -202 -254 -416 0
-354 -268 -337 -405 -305 -202 -254 -411 0
-354 -268 -337 -405 -305 -254 -416 0
-354 -268 -337 -405 -305 -254 -411 0
-354 -268 -337 -405 -245 -202 -276 -411 0
-354 -268 -337 -405 -245 -276 -411 0
-202 -305 -254 -416 -337 -405 0
-202 -305 -254 -416 -354 -337 -405 0
-202 -305 -254 -416 -354 -268 -337 -405 0
-202 -305 -254 -416 -268 -333 -337 -405 0
-202 -305 -254 -416 -268 -337 -405 0
-202 -305 -254 -416 -268 -354 -337 -405 0
-202 -305 -405 -337 -268 -354 -416 -254 0
-202 -305 -405 -337 -268 -354 -416 -254 -408 0
-202 -305 -405 -337 -268 -416 -254 0
-202 -305 -405 -337 -268 -416 -254 -408 0
-202 -305 -405 -337 -416 -254 0
-202 -305 -405 -337 -416 -254 -408 0
-202 -305 -405 -337 -333 -268 -416 -254 0
-202 -305 -405 -337 -333 -268 -416 -254 -408 0
-202 -305 -405 -337 -354 -268 -416 -254 0
-202 -305 -405 -337 -354 -268 -416 -254 -408 0
-202 -305 -405 -337 -354 -416 -254 0
-202 -305 -405 -337 -354 -416 -254 -408 0
-202 -276 -254 -416 -337 -405 0
-202 -276 -254 -416 -354 -337 -405 0
-202 -276 -254 -416 -354 -268 -337 -405 0
-202 -276 -254 -416 -268 -333 -337 -405 0
-202 -276 -254 -416 -268 -337 -405 0
-202 -276 -254 -416 -268 -354 -337 -405 0
-202 -276 -408 -254 -416 -337 -405 0
-202 -276 -408 -254 -416 -354 -337 -405 0
-202 -276 -408 -254 -416 -354 -268 -337 -405 0
-202 -276 -408 -254 -416 -268 -333 -337 -405 0
-202 -276 -408 -254 -416 -268 -337 -405 0
-202 -276 -408 -254 -416 -268 -354 -337 -405 0
-202 -254 -416 -337 -405 0
-202 -254 -416 -337 -405 -305 0
-202 -254 -416 -354 -337 -405 0
-202 -254 -416 -354 -337 -405 -305 0
-202 -254 -416 -354 -268 -337 -405 0
-202 -254 -416 -354 -268 -337 -405 -305 0
-202 -254 -416 -268 -333 -337 -405 0
-202 -254 -416 -268 -333 -337 -405 -305 0
-202 -254 -416 -268 -337 -405 0
-202 -254 -416 -268 -337 -405 -305 0
-202 -254 -416 -268 -354 -337 -405 0
-202 -254 -416 -268 -354 -337 -405 -305 0
-202 -408 -254 -416 -337 -405 0
-202 -408 -254 -416 -337 -405 -305 0
-202 -408 -254 -416 -354 -337 -405 0
-202 -408 -254 -416 -354 -337 -405 -305 0
-202 -408 -254 -416 -354 -268 -337 -405 0
-202 -408 -254 -416 -354 -268 -337 -405 -305 0
-202 -408 -254 -416 -268 -333 -337 -405 0
-202 -408 -254 -416 -268 -333 -337 -405 -305 0
-202 -408 -254 -416 -268 -337 -405 0
-202 -408 -254 -416 -268 -337 -405 -305 0
-202 -408 -254 -416 -268 -354 -337 -405 0
-202 -408 -254 -416 -268 -354 -337 -405 -305 0
-202 -408 -276 -254 -416 -337 -405 0
-202 -408 -276 -254 -416 -354 -337 -405 0
-202 -408 -276 -254 -416 -354 -268 -337 -405 0
-202 -408 -276 -254 -416 -268 -333 -337 -405 0
-202 -408 -276 -254 -416 -268 -337 -405 0
-202 -408 -276 -254 -416 -268 -354 -337 -405 0
-202 -405 -337 -268 -354 -416 -254 0
-202 -405 -337 -268 -354 -416 -254 -408 0
-202 -405 -337 -268 -354 -416 -254 -408 -276 0
-202 -405 -337 -268 -354 -416 -254 -276 0
-202 -405 -337 -268 -354 -416 -254 -276 -408 0
-202 -405 -337 -268 -354 -416 -254 -305 0
-202 -405 -337 -268 -416 -254 0
-202 -405 -337 -268 -416 -254 -408 0
-202 -405 -337 -268 -416 -254 -408 -276 0
-202 -405 -337 -268 -416 -254 -276 0
-202 -405 -337 -268 -416 -254 -276 -408 0
-202 -405 -337 -268 -416 -254 -305 0
-202 -405 -337 -416 -254 0
-202 -405 -337 -416 -254 -408 0
-202 -405 -337 -416 -254 -408 -276 0
-202 -405 -337 -416 -254 -276 0
-202 -405 -337 -416 -254 -276 -408 0
-202 -405 -337 -416 -254 -305 0
-202 -405 -337 -333 -268 -416 -254 0
-202 -405 -337 -333 -268 -416 -254 -408 0
-202 -405 -337 -333 -268 -416 -254 -408 -276 0
-202 -405 -337 -333 -268 -416 -254 -276 0
-202 -405 -337 -333 -268 -416 -254 -276 -408 0
-202 -405 -337 -333 -268 -416 -254 -305 0
-202 -405 -337 -354 -268 -416 -254 0
-202 -405 -337 -354 -268 -416 -254 -408 0
-202 -405 -337 -354 -268 -416 -254 -408 -276 0
-202 -405 -337 -354 -268 -416 -254 -276 0
-202 -405 -337 -354 -268 -416 -254 -276 -408 0
-202 -405 -337 -354 -268 -416 -254 -305 0
-202 -405 -337 -354 -416 -254 0
-202 -405 -337 -354 -416 -254 -408 0
-202 -405 -337 -354 -416 -254 -408 -276 0
-202 -405 -337 -354 -416 -254 -276 0
-202 -405 -337 -354 -416 -254 -276 -408 0
-202 -405 -337 -354 -416 -254 -305 0
-245 -405 -337 -268 0
-245 -405 -337 -268 -333 -406 0
-245 -405 -337 -268 -354 -416 0
-245 -405 -337 -268 -406 0
-245 -405 -337 -268 -416 0
-245 -405 -337 -416 0
-245 -405 -337 -416 -354 -268 0
-245 -405 -337 -416 -268 0
-245 -405 -337 -406 0
-245 -405 -337 -406 -333 -268 0
-245 -405 -337 -406 -268 0
-245 -405 -337 -333 -268 0
-245 -405 -337 -333 -268 -406 0
-245 -405 -337 -333 -268 -416 0
-245 -405 -337 -333 -406 0
-245 -405 -337 -333 -406 -268 0
-245 -405 -337 -354 -268 0
-245 -405 -337 -354 -268 -406 0
-245 -405 -337 -354 -268 -416 0
-245 -405 -337 -354 -416 0
-245 -405 -337 -354 -416 -268 0
-245 -202 -305 -405 -337 -268 0
-245 -202 -305 -405 -337 -268 -333 -406 0
-245 -202 -305 -405 -337 -268 -354 -416 0
-245 -202 -305 -405 -337 -268 -406 0
-245 -202 -305 -405 -337 -268 -416 0
-245 -202 -305 -405 -337 -416 0
-245 -202 -305 -405 -337 -416 -354 -268 0
-245 -202 -305 -405 -337 -416 -268 0
-245 -202 -305 -405 -337 -406 0
-245 -202 -305 -405 -337 -406 -333 -268 0
-245 -202 -305 -405 -337 -406 -268 0
-245 -202 -305 -405 -337 -333 -268 0
-245 -202 -305 -405 -337 -333 -268 -406 0
-245 -202 -305 -405 -337 -333 -268 -416 0
-245 -202 -305 -405 -337 -333 -406 0
-245 -202 -305 -405 -337 -333 -406 -268 0
-245 -202 -305 -405 -337 -354 -268 0
-245 -202 -305 -405 -337 -354 -268 -406 0
-245 -202 -305 -405 -337 -354 -268 -416 0
-245 -202 -305 -405 -337 -354 -416 0
-245 -202 -305 -405 -337 -354 -416 -268 0
-245 -202 -405 -337 -268 0
-245 -202 -405 -337 -268 -333 -406 0
-245 -202 -405 -337 -268 -354 -416 0
-245 -202 -405 -337 -268 -406 0
-245 -202 -405 -337 -268 -416 0
-245 -202 -405 -337 -416 0
-245 -202 -405 -337 -416 -354 -268 0
-245 -202 -405 -337 -416 -268 0
-245 -202 -405 -337 -406 0
-245 -202 -405 -337 -406 -333 -268 0
-245 -202 -405 -337 -406 -268 0
-245 -202 -405 -337 -333 -268 0
-245 -202 -405 -337 -333 -268 -406 0
-245 -202 -405 -337 -333 -268 -416 0
-245 -202 -405 -337 -333 -406 0
-245 -202 -405 -337 -333 -406 -268 0
-245 -202 -405 -337 -354 -268 0
-245 -202 -405 -337 -354 -268 -406 0
-245 -202 -405 -337 -354 -268 -416 0
-245 -202 -405 -337 -354 -416 0
-245 -202 -405 -337 -354 -416 -268 0
-245 -276 -202 -405 -337 -268 0
-245 -276 -202 -405 -337 -268 -333 -406 0
-245 -276 -202 -405 -337 -268 -354 -416 0
-245 -276 -202 -405 -337 -268 -406 0
-245 -276 -202 -405 -337 -268 -416 0
-245 -276 -202 -405 -337 -416 0
-245 -276 -202 -405 -337 -416 -354 -268 0
-245 -276 -202 -405 -337 -416 -268 0
-245 -276 -202 -405 -337 -406 0
-245 -276 -202 -405 -337 -406 -333 -268 0
-245 -276 -202 -405 -337 -406 -268 0
-245 -276 -202 -405 -337 -333 -268 0
-245 -276 -202 -405 -337 -333 -268 -406 0
-245 -276 -202 -405 -337 -333 -268 -416 0
-245 -276 -202 -405 -337 -333 -406 0
-245 -276 -202 -405 -337 -333 -406 -268 0
-245 -276 -202 -405 -337 -354 -268 0
-245 -276 -202 -405 -337 -354 -268 -406 0
-245 -276 -202 -405 -337 -354 -268 -416 0
-245 -276 -202 -405 -337 -354 -416 0
-245 -276 -202 -405 -337 -354 -416 -268 0
-245 -276 -408 -202 -405 -337 -268 0
-245 -276 -408 -202 -405 -337 -268 -333 -406 0
-245 -276 -408 -202 -405 -337 -268 -354 -416 0
-245 -276 -408 -202 -405 -337 -268 -406 0
-245 -276 -408 -202 -405 -337 -268 -416 0
-245 -276 -408 -202 -405 -337 -416 0
-245 -276 -408 -202 -405 -337 -416 -354 -268 0
-245 -276 -408 -202 -405 -337 -416 -268 0
-245 -276 -408 -202 -405 -337 -406 0
-245 -276 -408 -202 -405 -337 -406 -333 -268 0
-245 -276 -408 -202 -405 -337 -406 -268 0
-245 -276 -408 -202 -405 -337 -333 -268 0
-245 -276 -408 -202 -405 -337 -333 -268 -406 0
-245 -276 -408 -202 -405 -337 -333 -268 -416 0
-245 -276 -408 -202 -405 -337 -333 -406 0
-245 -276 -408 -202 -405 -337 -333 -406 -268 0
-245 -276 -408 -202 -405 -337 -354 -268 0
-245 -276 -408 -202 -405 -337 -354 -268 -406 0
-245 -276 -408 -202 -405 -337 -354 -268 -416 0
-245 -276 -408 -202 -405 -337 -354 -416 0
-245 -276 -408 -202 -405 -337 -354 -416 -268 0
-245 -305 -202 -405 -337 -268 0
-245 -305 -202 -405 -337 -268 -333 -406 0
-245 -305 -202 -405 -337 -268 -354 -416 0
-245 -305 -202 -405 -337 -268 -406 0
-245 -305 -202 -405 -337 -268 -416 0
-245 -305 -202 -405 -337 -416 0
-245 -305 -202 -405 -337 -416 -354 -268 0
-245 -305 -202 -405 -337 -416 -268 0
-245 -305 -202 -405 -337 -406 0
-245 -305 -202 -405 -337 -406 -333 -268 0
-245 -305 -202 -405 -337 -406 -268 0
-245 -305 -202 -405 -337 -333 -268 0
-245 -305 -202 -405 -337 -333 -268 -406 0
-245 -305 -202 -405 -337 -333 -268 -416 0
-245 -305 -202 -405 -337 -333 -406 0
-245 -305 -202 -405 -337 -333 -406 -268 0
-245 -305 -202 -405 -337 -354 -268 0
-245 -305 -202 -405 -337 -354 -268 -406 0
-245 -305 -202 -405 -337 -354 -268 -416 0
-245 -305 -202 -405 -337 -354 -416 0
-245 -305 -202 -405 -337 -354 -416 -268 0
-245 -305 -405 -337 -268 0
-245 -305 -405 -337 -268 -333 -406 0
-245 -305 -405 -337 -268 -354 -416 0
-245 -305 -405 -337 -268 -406 0
-245 -305 -405 -337 -268 -416 0
-245 -305 -405 -337 -416 0
-245 -305 -405 -337 -416 -354 -268 0
-245 -305 -405 -337 -416 -268 0
-245 -305 -405 -337 -406 0
-245 -305 -405 -337 -406 -333 -268 0
-245 -305 -405 -337 -406 -268 0
-245 -305 -405 -337 -333 -268 0
-245 -305 -405 -337 -333 -268 -406 0
-245 -305 -405 -337 -333 -268 -416 0
-245 -305 -405 -337 -333 -406 0
-245 -305 -405 -337 -333 -406 -268 0
-245 -305 -405 -337 -354 -268 0
-245 -305 -405 -337 -354 -268 -406 0
-245 -305 -405 -337 -354 -268 -416 0
-245 -305 -405 -337 -354 -416 0
-245 -305 -405 -337 -354 -416 -268 0
-337 -268 -354 -416 -254 -408 -276 -202 -405 0
-337 -268 -354 -416 -254 -408 -202 -405 0
-337 -268 -354 -416 -254 -408 -202 -405 -305 0
-337 -268 -354 -416 -254 -408 -202 -305 0
-337 -268 -354 -416 -254 -408 -202 -305 -405 0
-337 -268 -354 -416 -254 -202 -413 0
-337 -268 -354 -416 -254 -202 -413 -305 0
-337 -268 -354 -416 -254 -202 -405 0
-337 -268 -354 -416 -254 -202 -405 -305 0
-337 -268 -354 -416 -254 -202 -305 0
-337 -268 -354 -416 -254 -202 -305 -413 0
-337 -268 -354 -416 -254 -202 -305 -405 0
-337 -268 -354 -416 -254 -276 -408 -202 -405 0
-337 -268 -354 -416 -254 -276 -417 -202 -413 0
-337 -268 -354 -416 -254 -276 -202 -413 0
-337 -268 -354 -416 -254 -276 -202 -405 0
-337 -268 -354 -416 -254 -305 0
-337 -268 -354 -416 -254 -305 -202 -413 0
-337 -268 -354 -416 -254 -305 -202 -405 0
-337 -268 -354 -416 -254 -305 -413 0
-337 -268 -354 -416 -254 -305 -405 0
-337 -268 -354 -416 -254 -413 0
-337 -268 -354 -416 -254 -413 -202 -305 0
-337 -268 -354 -416 -254 -413 -305 0
-337 -268 -416 -254 -408 -276 -202 -405 0
-337 -268 -416 -254 -408 -202 -405 0
-337 -268 -416 -254 -408 -202 -405 -305 0
-337 -268 -416 -254 -408 -202 -305 0
-337 -268 -416 -254 -408 -202 -305 -405 0
-337 -268 -416 -254 -202 -413 0
-337 -268 -416 -254 -202 -413 -305 0
-337 -268 -416 -254 -202 -405 0
-337 -268 -416 -254 -202 -405 -305 0
-337 -268 -416 -254 -202 -305 0
-337 -268 -416 -254 -202 -305 -413 0
-337 -268 -416 -254 -202 -305 -405 0
-337 -268 -416 -254 -276 -408 -202 -405 0
-337 -268 -416 -254 -276 -417 -202 -413 0
-337 -268 -416 -254 -276 -202 -413 0
-337 -268 -416 -254 -276 -202 -405 0
-337 -268 -416 -254 -305 0
-337 -268 -416 -254 -305 -202 -413 0
-337 -268 -416 -254 -305 -202 -405 0
-337 -268 -416 -254 -305 -413 0
-337 -268 -416 -254 -305 -405 0
-337 -268 -416 -254 -413 0
-337 -268 -416 -254 -413 -202 -305 0
-337 -268 -416 -254 -413 -305 0
-337 -416 -254 -408 -276 -202 -405 0
-337 -416 -254 -408 -202 -405 0
-337 -416 -254 -408 -202 -405 -305 0
-337 -416 -254 -408 -202 -305 0
-337 -416 -254 -408 -202 -305 -405 0
-337 -416 -254 -202 -413 0
-337 -416 -254 -202 -413 -305 0
-337 -416 -254 -202 -405 0
-337 -416 -254 -202 -405 -305 0
-337 -416 -254 -202 -305 0
-337 -416 -254 -202 -305 -413 0
-337 -416 -254 -202 -305 -405 0
-337 -416 -254 -276 -408 -202 -405 0
-337 -416 -254 -276 -417 -202 -413 0
-337 -416 -254 -276 -202 -413 0
-337 -416 -254 -276 -202 -405 0
-337 -416 -254 -305 0
-337 -416 -254 -305 -202 -413 0
-337 -416 -254 -305 -202 -405 0
-337 -416 -254 -305 -413 0
-337 -416 -254 -305 -405 0
-337 -416 -254 -413 0
-337 -416 -254 -413 -202 -305 0
-337 -416 -254 -413 -305 0
-337 -405 -202 -305 -254 -416 -354 0
-337 -405 -202 -305 -254 -416 -268 -333 0
-337 -405 -202 -305 -254 -416 -268 -354 0
-337 -405 -202 -276 -254 -416 -354 0
-337 -405 -202 -276 -254 -416 -268 -333 0
-337 -405 -202 -276 -254 -416 -268 -354 0
-337 -405 -202 -276 -408 -254 -416 -354 0
-337 -405 -202 -276 -408 -254 -416 -268 -333 0
-337 -405 -202 -276 -408 -254 -416 -268 -354 0
-337 -405 -202 -254 -416 -354 0
-337 -405 -202 -254 -416 -268 -333 0
-337 -405 -202 -254 -416 -268 -354 0
-337 -405 -202 -408 -254 -416 -354 0
-337 -405 -202 -408 -254 -416 -268 -333 0
-337 -405 -202 -408 -254 -416 -268 -354 0
-337 -405 -202 -408 -276 -254 -416 -354 0
-337 -405 -202 -408 -276 -254 -416 -268 -333 0
-337 -405 -202 -408 -276 -254 -416 -268 -354 0
-337 -405 -305 -202 -254 -416 -354 0
-337 -405 -305 -202 -254 -416 -268 -333 0
-337 -405 -305 -202 -254 -416 -268 -354 0
-337 -405 -305 -202 -408 -254 -416 -354 0
-337 -405 -305 -202 -408 -254 -416 -268 -333 0
-337 -405 -305 -202 -408 -254 -416 -268 -354 0
-337 -405 -305 -254 -416 -354 0
-337 -405 -305 -254 -416 -268 -333 0
-337 -405 -305 -254 -416 -268 -354 0
-337 -333 -268 -416 -254 -408 -276 -202 -405 0
-337 -333 -268 -416 -254 -408 -202 -405 0
-337 -333 -268 -416 -254 -408 -202 -405 -305 0
-337 -333 -268 -416 -254 -408 -202 -305 0
-337 -333 -268 -416 -254 -408 -202 -305 -405 0
-337 -333 -268 -416 -254 -202 -413 0
-337 -333 -268 -416 -254 -202 -413 -305 0
-337 -333 -268 -416 -254 -202 -405 0
-337 -333 -268 -416 -254 -202 -405 -305 0
-337 -333 -268 -416 -254 -202 -305 0
-337 -333 -268 -416 -254 -202 -305 -413 0
-337 -333 -268 -416 -254 -202 -305 -405 0
-337 -333 -268 -416 -254 -276 -408 -202 -405 0
-337 -333 -268 -416 -254 -276 -417 -202 -413 0
-337 -333 -268 -416 -254 -276 -202 -413 0
-337 -333 -268 -416 -254 -276 -202 -405 0
-337 -333 -268 -416 -254 -305 0
-337 -333 -268 -416 -254 -305 -202 -413 0
-337 -333 -268 -416 -254 -305 -202 -405 0
-337 -333 -268 -416 -254 -305 -413 0
-337 -333 -268 -416 -254 -305 -405 0
-337 -333 -268 -416 -254 -413 0
-337 -333 -268 -416 -254 -413 -202 -305 0
-337 -333 -268 -416 -254 -413 -305 0
-337 -354 -268 -416 -254 -408 -276 -202 -405 0
-337 -354 -268 -416 -254 -408 -202 -405 0
-337 -354 -268 -416 -254 -408 -202 -405 -305 0
-337 -354 -268 -416 -254 -408 -202 -305 0
-337 -354 -268 -416 -254 -408 -202 -305 -405 0
-337 -354 -268 -416 -254 -202 -413 0
-337 -354 -268 -416 -254 -202 -413 -305 0
-337 -354 -268 -416 -254 -202 -405 0
-337 -354 -268 -416 -254 -202 -405 -305 0
-337 -354 -268 -416 -254 -202 -305 0
-337 -354 -268 -416 -254 -202 -305 -413 0
-337 -354 -268 -416 -254 -202 -305 -405 0
-337 -354 -268 -416 -254 -276 -408 -202 -405 0
-337 -354 -268 -416 -254 -276 -417 -202 -413 0
-337 -354 -268 -416 -254 -276 -202 -413 0
-337 -354 -268 -416 -254 -276 -202 -405 0
-337 -354 -268 -416 -254 -305 0
-337 -354 -268 -416 -254 -305 -202 -413 0
-337 -354 -268 -416 -254 -305 -202 -405 0
-337 -354 -268 -416 -254 -305 -413 0
-337 -354 -268 -416 -254 -305 -405 0
-337 -354 -268 -416 -254 -413 0
-337 -354 -268 -416 -254 -413 -202 -305 0
-337 -354 -268 -416 -254 -413 -305 0
-337 -354 -416 -254 -408 -276 -202 -405 0
-337 -354 -416 -254 -408 -202 -405 0
-337 -354 -416 -254 -408 -202 -405 -305 0
-337 -354 -416 -254 -408 -202 -305 0
-337 -354 -416 -254 -408 -202 -305 -405 0
-337 -354 -416 -254 -202 -413 0
-337 -354 -416 -254 -202 -413 -305 0
-337 -354 -416 -254 -202 -405 0
-337 -354 -416 -254 -202 -405 -305 0
-337 -354 -416 -254 -202 -305 0
-337 -354 -416 -254 -202 -305 -413 0
-337 -354 -416 -254 -202 -305 -405 0
-337 -354 -416 -254 -276 -408 -202 -405 0
-337 -354 -416 -254 -276 -417 -202 -413 0
-337 -354 -416 -254 -276 -202 -413 0
-337 -354 -416 -254 -276 -202 -405 0
-337 -354 -416 -254 -305 0
-337 -354 -416 -254 -305 -202 -413 0
-337 -354 -416 -254 -305 -202 -405 0
-337 -354 -416 -254 -305 -413 0
-337 -354 -416 -254 -305 -405 0
-337 -354 -416 -254 -413 0
-337 -354 -416 -254 -413 -202 -305 0
-337 -354 -416 -254 -413 -305 0
-333 -268 -337 -416 -254 -408 -276 -202 -405 0
-333 -268 -337 -416 -254 -408 -202 -405 0
-333 -268 -337 -416 -254 -408 -202 -405 -305 0
-333 -268 -337 -416 -254 -408 -202 -305 0
-333 -268 -337 -416 -254 -408 -202 -305 -405 0
-333 -268 -337 -416 -254 -202 -413 0
-333 -268 -337 -416 -254 -202 -413 -305 0
-333 -268 -337 -416 -254 -202 -405 0
-333 -268 -337 -416 -254 -202 -405 -305 0
-333 -268 -337 -416 -254 -202 -305 0
-333 -268 -337 -416 -254 -202 -305 -413 0
-333 -268 -337 -416 -254 -202 -305 -405 0
-333 -268 -337 -416 -254 -276 -408 -202 -405 0
-333 -268 -337 -416 -254 -276 -417 -202 -413 0
-333 -268 -337 -416 -254 -276 -202 -413 0
-333 -268 -337 -416 -254 -276 -202 -405 0
-333 -268 -337 -416 -254 -305 0
-333 -268 -337 -416 -254 -305 -202 -413 0
-333 -268 -337 -416 -254 -305 -202 -405 0
-333 -268 -337 -416 -254 -305 -413 0
-333 -268 -337 -416 -254 -305 -405 0
-333 -268 -337 -416 -254 -413 0
-333 -268 -337 -416 -254 -413 -202 -305 0
-333 -268 -337 -416 -254 -413 -305 0
-333 -268 -416 -254 -408 -276 -202 -405 0
-333 -268 -416 -254 -408 -202 -405 0
-333 -268 -416 -254 -408 -202 -405 -305 0
-333 -268 -416 -254 -408 -202 -305 0
-333 -268 -416 -254 -408 -202 -305 -405 0
-333 -268 -416 -254 -202 -413 0
-333 -268 -416 -254 -202 -413 -305 0
-333 -268 -416 -254 -202 -405 0
-333 -268 -416 -254 -202 -405 -305 0
-333 -268 -416 -254 -202 -305 0
-333 -268 -416 -254 -202 -305 -413 0
-333 -268 -416 -254 -202 -305 -405 0
-333 -268 -416 -254 -276 -408 -202 -405 0
-333 -268 -416 -254 -276 -417 -202 -413 0
-333 -268 -416 -254 -276 -202 -413 0
-333 -268 -416 -254 -276 -202 -405 0
-333 -268 -416 -254 -305 0
-333 -268 -416 -254 -305 -202 -413 0
-333 -268 -416 -254 -305 -202 -405 0
-333 -268 -416 -254 -305 -413 0
-333 -268 -416 -254 -305 -405 0
-333 -268 -416 -254 -413 0
-333 -268 -416 -254 -413 -202 -305 0
-333 -268 -416 -254 -413 -305 0
-333 -337 -268 -416 -254 -408 -276 -202 -405 0
-333 -337 -268 -416 -254 -408 -202 -405 0
-333 -337 -268 -416 -254 -408 -202 -405 -305 0
-333 -337 -268 -416 -254 -408 -202 -305 0
-333 -337 -268 -416 -254 -408 -202 -305 -405 0
-333 -337 -268 -416 -254 -202 -413 0
-333 -337 -268 -416 -254 -202 -413 -305 0
-333 -337 -268 -416 -254 -202 -405 0
-333 -337 -268 -416 -254 -202 -405 -305 0
-333 -337 -268 -416 -254 -202 -305 0
-333 -337 -268 -416 -254 -202 -305 -413 0
-333 -337 -268 -416 -254 -202 -305 -405 0
-333 -337 -268 -416 -254 -276 -408 -202 -405 0
-333 -337 -268 -416 -254 -276 -417 -202 -413 0
-333 -337 -268 -416 -254 -276 -202 -413 0
-333 -337 -268 -416 -254 -276 -202 -405 0
-333 -337 -268 -416 -254 -305 0
-333 -337 -268 -416 -254 -305 -202 -413 0
-333 -337 -268 -416 -254 -305 -202 -405 0
-333 -337 -268 -416 -254 -305 -413 0
-333 -337 -268 -416 -254 -305 -405 0
-333 -337 -268 -416 -254 -413 0
-333 -337 -268 -416 -254 -413 -202 -305 0
-333 -337 -268 -416 -254 -413 -305 0
-333 -337 -416 -254 -408 -276 -202 -405 0
-333 -337 -416 -254 -408 -202 -405 0
-333 -337 -416 -254 -408 -202 -405 -305 0
-333 -337 -416 -254 -408 -202 -305 0
-333 -337 -416 -254 -408 -202 -305 -405 0
-333 -337 -416 -254 -202 -413 0
-333 -337 -416 -254 -202 -413 -305 0
-333 -337 -416 -254 -202 -405 0
-333 -337 -416 -254 -202 -405 -305 0
-333 -337 -416 -254 -202 -305 0
-333 -337 -416 -254 -202 -305 -413 0
-333 -337 -416 -254 -202 -305 -405 0
-333 -337 -416 -254 -276 -408 -202 -405 0
-333 -337 -416 -254 -276 -417 -202 -413 0
-333 -337 -416 -254 -276 -202 -413 0
-333 -337 -416 -254 -276 -202 -405 0
-333 -337 -416 -254 -305 0
-333 -337 -416 -254 -305 -202 -413 0
-333 -337 -416 -254 -305 -202 -405 0
-333 -337 -416 -254 -305 -413 0
-333 -337 -416 -254 -305 -405 0
-333 -337 -416 -254 -413 0
-333 -337 -416 -254 -413 -202 -305 0
-333 -337 -416 -254 -413 -305 0
-354 -268 -337 -416 -254 -408 -202 -405 -305 0
-354 -268 -337 -416 -254 -408 -202 -305 0
-354 -268 -337 -416 -254 -202 -413 -305 0
-354 -268 -337 -416 -254 -202 -405 -305 0
-354 -268 -337 -416 -254 -202 -305 0
-354 -268 -337 -416 -254 -305 0
-354 -268 -337 -416 -254 -413 -202 -305 0
-354 -268 -337 -416 -254 -413 -305 0
-354 -268 -337 -397 -373 0
-354 -268 -406 -337 -397 -373 0
-354 -268 -416 -254 -408 -202 -405 -305 0
-354 -268 -416 -254 -408 -202 -305 0
-354 -268 -416 -254 -202 -413 -305 0
-354 -268 -416 -254 -202 -405 -305 0
-354 -268 -416 -254 -202 -305 0
-354 -268 -416 -254 -305 0
-354 -268 -416 -254 -413 -202 -305 0
-354 -268 -416 -254 -413 -305 0
-354 -416 -254 -408 -202 -405 -305 0
-354 -416 -254 -408 -202 -305 0
-354 -416 -254 -202 -413 -305 0
-354 -416 -254 -202 -405 -305 0
-354 -416 -254 -202 -305 0
-354 -416 -254 -305 0
-354 -416 -254 -413 -202 -305 0
-354 -416 -254 -413 -305 0
-354 -337 -268 -416 -254 -408 -202 -405 -305 0
-354 -337 -268 -416 -254 -408 -202 -305 0
-354 -337 -268 -416 -254 -202 -413 -305 0
-354 -337 -268 -416 -254 -202 -405 -305 0
-354 -337 -268 -416 -254 -202 -305 0
-354 -337 -268 -416 -254 -305 0
-354 -337 -268 -416 -254 -413 -202 -305 0
-354 -337 -268 -416 -254 -413 -305 0
-354 -337 -416 -254 -408 -202 -405 -305 0
-354 -337 -416 -254 -408 -202 -305 0
-354 -337 -416 -254 -202 -413 -305 0
-354 -337 -416 -254 -202 -405 -305 0
-354 -337 -416 -254 -202 -305 0
-354 -337 -416 -254 -305 0
-354 -337 -416 -254 -413 -202 -305 0
-354 -337 -416 -254 -413 -305 0
-354 -337 -397 -373 0
-406 -333 -337 -405 -202 -408 -276 0
-406 -333 -337 -405 -202 -408 -276 -254 0
-406 -333 -337 -405 -202 -408 -254 0
-406 -333 -337 -405 -202 -408 -254 -276 0
-406 -333 -337 -405 -202 -415 -254 0
-406 -333 -337 -405 -202 -415 -254 -276 0
-406 -333 -337 -405 -202 -254 0
-406 -333 -337 -405 -202 -254 -408 -276 0
-406 -333 -337 -405 -202 -254 -276 0
-406 -333 -337 -405 -202 -245 -276 0
-406 -333 -337 -405 -202 -305 -254 0
-406 -333 -337 -405 -202 -276 0
-406 -333 -337 -405 -202 -276 -408 -254 0
-406 -333 -337 -405 -202 -276 -254 0
-406 -333 -337 -405 -305 -202 -408 -254 0
-406 -333 -337 -405 -305 -202 -415 -254 0
-406 -333 -337 -405 -305 -202 -254 0
-406 -333 -337 -405 -305 -254 0
-406 -333 -337 -405 -245 -202 -408 -276 0
-406 -333 -337 -405 -245 -202 -276 0
-406 -333 -337 -405 -245 -276 0
-406 -333 -268 -337 -405 -202 -408 -276 0
-406 -333 -268 -337 -405 -202 -408 -276 -254 0
-406 -333 -268 -337 -405 -202 -408 -254 0
-406 -333 -268 -337 -405 -202 -408 -254 -276 0
-406 -333 -268 -337 -405 -202 -415 -254 0
-406 -333 -268 -337 -405 -202 -415 -254 -276 0
-406 -333 -268 -337 -405 -202 -254 0
-406 -333 -268 -337 -405 -202 -254 -408 -276 0
-406 -333 -268 -337 -405 -202 -254 -276 0
-406 -333 -268 -337 -405 -202 -245 -276 0
-406 -333 -268 -337 -405 -202 -305 -254 0
-406 -333 -268 -337 -405 -202 -276 0
-406 -333 -268 -337 -405 -202 -276 -408 -254 0
-406 -333 -268 -337 -405 -202 -276 -254 0
-406 -333 -268 -337 -405 -305 -202 -408 -254 0
-406 -333 -268 -337 -405 -305 -202 -415 -254 0
-406 -333 -268 -337 -405 -305 -202 -254 0
-406 -333 -268 -337 -405 -305 -254 0
-406 -333 -268 -337 -405 -245 -202 -408 -276 0
-406 -333 -268 -337 -405 -245 -202 -276 0
-406 -333 -268 -337 -405 -245 -276 0
-406 -268 -333 -337 -405 -202 -408 -276 0
-406 -268 -333 -337 -405 -202 -408 -276 -254 0
-406 -268 -333 -337 -405 -202 -408 -254 0
-406 -268 -333 -337 -405 -202 -408 -254 -276 0
-406 -268 -333 -337 -405 -202 -415 -254 0
-406 -268 -333 -337 -405 -202 -415 -254 -276 0
-406 -268 -333 -337 -405 -202 -254 0
-406 -268 -333 -337 -405 -202 -254 -408 -276 0
-406 -268 -333 -337 -405 -202 -254 -276 0
-406 -268 -333 -337 -405 -202 -245 -276 0
-406 -268 -333 -337 -405 -202 -305 -254 0
-406 -268 -333 -337 -405 -202 -276 0
-406 -268 -333 -337 -405 -202 -276 -408 -254 0
-406 -268 -333 -337 -405 -202 -276 -254 0
-406 -268 -333 -337 -405 -305 -202 -408 -254 0
-406 -268 -333 -337 -405 -305 -202 -415 -254 0
-406 -268 -333 -337 -405 -305 -202 -254 0
-406 -268 -333 -337 -405 -305 -254 0
-406 -268 -333 -337 -405 -245 -202 -408 -276 0
-406 -268 -333 -337 -405 -245 -202 -276 0
-406 -268 -333 -337 -405 -245 -276 0
-406 -268 -337 -405 -202 -408 -276 0
-406 -268 -337 -405 -202 -408 -276 -254 0
-406 -268 -337 -405 -202 -408 -254 0
-406 -268 -337 -405 -202 -408 -254 -276 0
-406 -268 -337 -405 -202 -415 -254 0
-406 -268 -337 -405 -202 -415 -254 -276 0
-406 -268 -337 -405 -202 -254 0
-406 -268 -337 -405 -202 -254 -408 -276 0
-406 -268 -337 -405 -202 -254 -276 0
-406 -268 -337 -405 -202 -245 -276 0
-406 -268 -337 -405 -202 -305 -254 0
-406 -268 -337 -405 -202 -276 0
-406 -268 -337 -405 -202 -276 -408 -254 0
-406 -268 -337 -405 -202 -276 -254 0
-406 -268 -337 -405 -305 -202 -408 -254 0
-406 -268 -337 -405 -305 -202 -415 -254 0
-406 -268 -337 -405 -305 -202 -254 0
-406 -268 -337 -405 -305 -254 0
-406 -268 -337 -405 -245 -202 -408 -276 0
-406 -268 -337 -405 -245 -202 -276 0
-406 -268 -337 -405 -245 -276 0
-406 -268 -354 -337 -405 -202 -408 -276 0
-406 -268 -354 -337 -405 -202 -408 -276 -254 0
-406 -268 -354 -337 -405 -202 -408 -254 0
-406 -268 -354 -337 -405 -202 -408 -254 -276 0
-406 -268 -354 -337 -405 -202 -415 -254 0
-406 -268 -354 -337 -405 -202 -415 -254 -276 0
-406 -268 -354 -337 -405 -202 -254 0
-406 -268 -354 -337 -405 -202 -254 -408 -276 0
-406 -268 -354 -337 -405 -202 -254 -276 0
-406 -268 -354 -337 -405 -202 -245 -276 0
-406 -268 -354 -337 -405 -202 -305 -254 0
-406 -268 -354 -337 -405 -202 -276 0
-406 -268 -354 -337 -405 -202 -276 -408 -254 0
-406 -268 -354 -337 -405 -202 -276 -254 0
-406 -268 -354 -337 -405 -305 -202 -408 -254 0
-406 -268 -354 -337 -405 -305 -202 -415 -254 0
-406 -268 -354 -337 -405 -305 -202 -254 0
-406 -268 -354 -337 -405 -305 -254 0
-406 -268 -354 -337 -405 -245 -202 -408 -276 0
-406 -268 -354 -337 -405 -245 -202 -276 0
-406 -268 -354 -337 -405 -245 -276 0
-406 -337 -405 -202 -408 -276 0
-406 -337 -405 -202 -408 -276 -254 0
-406 -337 -405 -202 -408 -254 0
-406 -337 -405 -202 -408 -254 -276 0
-406 -337 -405 -202 -415 -254 0
-406 -337 -405 -202 -415 -254 -276 0
-406 -337 -405 -202 -254 0
-406 -337 -405 -202 -254 -408 -276 0
-406 -337 -405 -202 -254 -276 0
-406 -337 -405 -202 -245 -276 0
-406 -337 -405 -202 -305 -254 0
-406 -337 -405 -202 -276 0
-406 -337 -405 -202 -276 -408 -254 0
-406 -337 -405 -202 -276 -254 0
-406 -337 -405 -305 -202 -408 -254 0
-406 -337 -405 -305 -202 -415 -254 0
-406 -337 -405 -305 -202 -254 0
-406 -337 -405 -305 -254 0
-406 -337 -405 -245 -202 -408 -276 0
-406 -337 -405 -245 -202 -276 0
-406 -337 -405 -245 -276 0
-268 -333 -337 -405 -202 -408 -276 0
-268 -333 -337 -405 -202 -408 -276 -254 0
-268 -333 -337 -405 -202 -408 -276 -254 -416 0
-268 -333 -337 -405 -202 -408 -254 0
-268 -333 -337 -405 -202 -408 -254 -276 0
-268 -333 -337 -405 -202 -408 -254 -305 0
-268 -333 -337 -405 -202 -408 -254 -416 0
-268 -333 -337 -405 -202 -415 -254 0
-268 -333 -337 -405 -202 -415 -254 -276 0
-268 -333 -337 -405 -202 -415 -254 -276 -411 0
-268 -333 -337 -405 -202 -415 -254 -305 0
-268 -333 -337 -405 -202 -415 -254 -411 0
-268 -333 -337 -405 -202 -415 -254 -411 -276 0
-268 -333 -337 -405 -202 -254 0
-268 -333 -337 -405 -202 -254 -408 -276 0
-268 -333 -337 -405 -202 -254 -276 0
-268 -333 -337 -405 -202 -254 -276 -411 0
-268 -333 -337 -405 -202 -254 -305 0
-268 -333 -337 -405 -202 -254 -416 0
-268 -333 -337 -405 -202 -254 -411 0
-268 -333 -337 -405 -202 -254 -411 -276 0
-268 -333 -337 -405 -202 -245 -276 0
-268 -333 -337 -405 -202 -245 -276 -411 0
-268 -333 -337 -405 -202 -245 -305 0
-268 -333 -337 -405 -202 -305 0
-268 -333 -337 -405 -202 -305 -254 0
-268 -333 -337 -405 -202 -305 -254 -416 0
-268 -333 -337 -405 -202 -305 -254 -411 0
-268 -333 -337 -405 -202 -276 0
-268 -333 -337 -405 -202 -276 -408 -254 0
-268 -333 -337 -405 -202 -276 -408 -254 -416 0
-268 -333 -337 -405 -202 -276 -411 0
-268 -333 -337 -405 -202 -276 -411 -254 0
-268 -333 -337 -405 -202 -276 -254 0
-268 -333 -337 -405 -202 -276 -254 -416 0
-268 -333 -337 -405 -202 -276 -254 -411 0
-268 -333 -337 -405 -305 0
-268 -333 -337 -405 -305 -202 -408 -254 0
-268 -333 -337 -405 -305 -202 -408 -254 -416 0
-268 -333 -337 -405 -305 -202 -415 -254 0
-268 -333 -337 -405 -305 -202 -415 -254 -411 0
-268 -333 -337 -405 -305 -202 -254 0
-268 -333 -337 -405 -305 -202 -254 -416 0
-268 -333 -337 -405 -305 -202 -254 -411 0
-268 -333 -337 -405 -305 -254 0
-268 -333 -337 -405 -305 -254 -416 0
-268 -333 -337 -405 -305 -254 -411 0
-268 -333 -337 -405 -245 -202 -408 -276 0
-268 -333 -337 -405 -245 -202 -305 0
-268 -333 -337 -405 -245 -202 -276 0
-268 -333 -337 -405 -245 -202 -276 -411 0
-268 -333 -337 -405 -245 -276 0
-268 -333 -337 -405 -245 -276 -411 0
-268 -333 -337 -405 -245 -305 0
-268 -333 -406 -337 -405 -202 -408 -276 0
-268 -333 -406 -337 -405 -202 -408 -276 -254 0
-268 -333 -406 -337 -405 -202 -408 -254 0
-268 -333 -406 -337 -405 -202 -408 -254 -276 0
-268 -333 -406 -337 -405 -202 -408 -254 -305 0
-268 -333 -406 -337 -405 -202 -415 -254 0
-268 -333 -406 -337 -405 -202 -415 -254 -276 0
-268 -333 -406 -337 -405 -202 -415 -254 -305 0
-268 -333 -406 -337 -405 -202 -254 0
-268 -333 -406 -337 -405 -202 -254 -408 -276 0
-268 -333 -406 -337 -405 -202 -254 -276 0
-268 -333 -406 -337 -405 -202 -254 -305 0
-268 -333 -406 -337 -405 -202 -245 -276 0
-268 -333 -406 -337 -405 -202 -245 -305 0
-268 -333 -406 -337 -405 -202 -305 0
-268 -333 -406 -337 -405 -202 -305 -254 0
-268 -333 -406 -337 -405 -202 -276 0
-268 -333 -406 -337 -405 -202 -276 -408 -254 0
-268 -333 -406 -337 -405 -202 -276 -254 0
-268 -333 -406 -337 -405 -305 0
-268 -333 -406 -337 -405 -305 -202 -408 -254 0
-268 -333 -406 -337 -405 -305 -202 -415 -254 0
-268 -333 -406 -337 -405 -305 -202 -254 0
-268 -333 -406 -337 -405 -305 -254 0
-268 -333 -406 -337 -405 -245 -202 -408 -276 0
-268 -333 -406 -337 -405 -245 -202 -305 0
-268 -333 -406 -337 -405 -245 -202 -276 0
-268 -333 -406 -337 -405 -245 -276 0
-268 -333 -406 -337 -405 -245 -305 0
-268 -337 -405 -202 -408 -276 0
-268 -337 -405 -202 -408 -276 -254 0
-268 -337 -405 -202 -408 -276 -254 -416 0
-268 -337 -405 -202 -408 -254 0
-268 -337 -405 -202 -408 -254 -276 0
-268 -337 -405 -202 -408 -254 -305 0
-268 -337 -405 -202 -408 -254 -416 0
-268 -337 -405 -202 -415 -254 0
-268 -337 -405 -202 -415 -254 -276 0
-268 -337 -405 -202 -415 -254 -276 -411 0
-268 -337 -405 -202 -415 -254 -305 0
-268 -337 -405 -202 -415 -254 -411 0
-268 -337 -405 -202 -415 -254 -411 -276 0
-268 -337 -405 -202 -254 0
-268 -337 -405 -202 -254 -408 -276 0
-268 -337 -405 -202 -254 -276 0
-268 -337 -405 -202 -254 -276 -411 0
-268 -337 -405 -202 -254 -305 0
-268 -337 -405 -202 -254 -416 0
-268 -337 -405 -202 -254 -411 0
-268 -337 -405 -202 -254 -411 -276 0
-268 -337 -405 -202 -245 -276 0
-268 -337 -405 -202 -245 -276 -411 0
-268 -337 -405 -202 -245 -305 0
-268 -337 -405 -202 -305 0
-268 -337 -405 -202 -305 -254 0
-268 -337 -405 -202 -305 -254 -416 0
-268 -337 -405 -202 -305 -254 -411 0
-268 -337 -405 -202 -276 0
-268 -337 -405 -202 -276 -408 -254 0
-268 -337 -405 -202 -276 -408 -254 -416 0
-268 -337 -405 -202 -276 -411 0
-268 -337 -405 -202 -276 -411 -254 0
-268 -337 -405 -202 -276 -254 0
-268 -337 -405 -202 -276 -254 -416 0
-268 -337 -405 -202 -276 -254 -411 0
-268 -337 -405 -305 0
-268 -337 -405 -305 -202 -408 -254 0
-268 -337 -405 -305 -202 -408 -254 -416 0
-268 -337 -405 -305 -202 -415 -254 0
-268 -337 -405 -305 -202 -415 -254 -411 0
-268 -337 -405 -305 -202 -254 0
-268 -337 -405 -305 -202 -254 -416 0
-268 -337 -405 -305 -202 -254 -411 0
-268 -337 -405 -305 -254 0
-268 -337 -405 -305 -254 -416 0
-268 -337 -405 -305 -254 -411 0
-268 -337 -405 -245 -202 -408 -276 0
-268 -337 -405 -245 -202 -305 0
-268 -337 -405 -245 -202 -276 0
-268 -337 -405 -245 -202 -276 -411 0
-268 -337 -405 -245 -276 0
-268 -337 -405 -245 -276 -411 0
-268 -337 -405 -245 -305 0
-268 -406 -333 -337 -405 -202 -408 -276 0
-268 -406 -333 -337 -405 -202 -408 -276 -254 0
-268 -406 -333 -337 -405 -202 -408 -254 0
-268 -406 -333 -337 -405 -202 -408 -254 -276 0
-268 -406 -333 -337 -405 -202 -408 -254 -305 0
-268 -406 -333 -337 -405 -202 -415 -254 0
-268 -406 -333 -337 -405 -202 -415 -254 -276 0
-268 -406 -333 -337 -405 -202 -415 -254 -305 0
-268 -406 -333 -337 -405 -202 -254 0
-268 -406 -333 -337 -405 -202 -254 -408 -276 0
-268 -406 -333 -337 -405 -202 -254 -276 0
-268 -406 -333 -337 -405 -202 -254 -305 0
-268 -406 -333 -337 -405 -202 -245 -276 0
-268 -406 -333 -337 -405 -202 -245 -305 0
-268 -406 -333 -337 -405 -202 -305 0
-268 -406 -333 -337 -405 -202 -305 -254 0
-268 -406 -333 -337 -405 -202 -276 0
-268 -406 -333 -337 -405 -202 -276 -408 -254 0
-268 -406 -333 -337 -405 -202 -276 -254 0
-268 -406 -333 -337 -405 -305 0
-268 -406 -333 -337 -405 -305 -202 -408 -254 0
-268 -406 -333 -337 -405 -305 -202 -415 -254 0
-268 -406 -333 -337 -405 -305 -202 -254 0
-268 -406 -333 -337 -405 -305 -254 0
-268 -406 -333 -337 -405 -245 -202 -408 -276 0
-268 -406 -333 -337 -405 -245 -202 -305 0
-268 -406 -333 -337 -405 -245 -202 -276 0
-268 -406 -333 -337 -405 -245 -276 0
-268 -406 -333 -337 -405 -245 -305 0
-268 -406 -337 -405 -202 -408 -276 0
-268 -406 -337 -405 -202 -408 -276 -254 0
-268 -406 -337 -405 -202 -408 -254 0
-268 -406 -337 -405 -202 -408 -254 -276 0
-268 -406 -337 -405 -202 -408 -254 -305 0
-268 -406 -337 -405 -202 -415 -254 0
-268 -406 -337 -405 -202 -415 -254 -276 0
-268 -406 -337 -405 -202 -415 -254 -305 0
-268 -406 -337 -405 -202 -254 0
-268 -406 -337 -405 -202 -254 -408 -276 0
-268 -406 -337 -405 -202 -254 -276 0
-268 -406 -337 -405 -202 -254 -305 0
-268 -406 -337 -405 -202 -245 -276 0
-268 -406 -337 -405 -202 -245 -305 0
-268 -406 -337 -405 -202 -305 0
-268 -406 -337 -405 -202 -305 -254 0
-268 -406 -337 -405 -202 -276 0
-268 -406 -337 -405 -202 -276 -408 -254 0
-268 -406 -337 -405 -202 -276 -254 0
-268 -406 -337 -405 -305 0
-268 -406 -337 -405 -305 -202 -408 -254 0
-268 -406 -337 -405 -305 -202 -415 -254 0
-268 -406 -337 -405 -305 -202 -254 0
-268 -406 -337 -405 -305 -254 0
-268 -406 -337 -405 -245 -202 -408 -276 0
-268 -406 -337 -405 -245 -202 -305 0
-268 -406 -337 -405 -245 -202 -276 0
-268 -406 -337 -405 -245 -276 0
-268 -406 -337 -405 -245 -305 0
-268 -416 -337 -405 -202 -408 -276 0
-268 -416 -337 -405 -202 -408 -276 -254 0
-268 -416 -337 -405 -202 -408 -254 0
-268 -416 -337 -405 -202 -408 -254 -276 0
-268 -416 -337 -405 -202 -408 -254 -305 0
-268 -416 -337 -405 -202 -254 0
-268 -416 -337 -405 -202 -254 -408 -276 0
-268 -416 -337 -405 -202 -254 -276 0
-268 -416 -337 -405 -202 -254 -305 0
-268 -416 -337 -405 -202 -245 -276 0
-268 -416 -337 -405 -202 -245 -305 0
-268 -416 -337 -405 -202 -305 0
-268 -416 -337 -405 -202 -305 -254 0
-268 -416 -337 -405 -202 -276 0
-268 -416 -337 -405 -202 -276 -408 -254 0
-268 -416 -337 -405 -202 -276 -254 0
-268 -416 -337 -405 -305 0
-268 -416 -337 -405 -305 -202 -408 -254 0
-268 -416 -337 -405 -305 -202 -254 0
-268 -416 -337 -405 -305 -254 0
-268 -416 -337 -405 -245 -202 -408 -276 0
-268 -416 -337 -405 -245 -202 -305 0
-268 -416 -337 -405 -245 -202 -276 0
-268 -416 -337 -405 -245 -276 0
-268 -416 -337 -405 -245 -305 0
-268 -416 -354 -337 -405 -202 -408 -276 0
-268 -416 -354 -337 -405 -202 -408 -276 -254 0
-268 -416 -354 -337 -405 -202 -408 -254 0
-268 -416 -354 -337 -405 -202 -408 -254 -276 0
-268 -416 -354 -337 -405 -202 -408 -254 -305 0
-268 -416 -354 -337 -405 -202 -254 0
-268 -416 -354 -337 -405 -202 -254 -408 -276 0
-268 -416 -354 -337 -405 -202 -254 -276 0
-268 -416 -354 -337 -405 -202 -254 -305 0
-268 -416 -354 -337 -405 -202 -245 -276 0
-268 -416 -354 -337 -405 -202 -245 -305 0
-268 -416 -354 -337 -405 -202 -305 0
-268 -416 -354 -337 -405 -202 -305 -254 0
-268 -416 -354 -337 -405 -202 -276 0
-268 -416 -354 -337 -405 -202 -276 -408 -254 0
-268 -416 -354 -337 -405 -202 -276 -254 0
-268 -416 -354 -337 -405 -305 0
-268 -416 -354 -337 -405 -305 -202 -408 -254 0
-268 -416 -354 -337 -405 -305 -202 -254 0
-268 -416 -354 -337 -405 -305 -254 0
-268 -416 -354 -337 -405 -245 -202 -408 -276 0
-268 -416 -354 -337 -405 -245 -202 -305 0
-268 -416 -354 -337 -405 -245 -202 -276 0
-268 -416 -354 -337 -405 -245 -276 0
-268 -416 -354 -337 -405 -245 -305 0
-268 -354 -337 -405 -202 -408 -276 0
-268 -354 -337 -405 -202 -408 -276 -254 0
-268 -354 -337 -405 -202 -408 -276 -254 -416 0
-268 -354 -337 -405 -202 -408 -254 0
-268 -354 -337 -405 -202 -408 -254 -276 0
-268 -354 -337 -405 -202 -408 -254 -305 0
-268 -354 -337 -405 -202 -408 -254 -416 0
-268 -354 -337 -405 -202 -415 -254 0
-268 -354 -337 -405 -202 -415 -254 -276 0
-268 -354 -337 -405 -202 -415 -254 -276 -411 0
-268 -354 -337 -405 -202 -415 -254 -305 0
-268 -354 -337 -405 -202 -415 -254 -411 0
-268 -354 -337 -405 -202 -415 -254 -411 -276 0
-268 -354 -337 -405 -202 -254 0
-268 -354 -337 -405 -202 -254 -408 -276 0
-268 -354 -337 -405 -202 -254 -276 0
-268 -354 -337 -405 -202 -254 -276 -411 0
-268 -354 -337 -405 -202 -254 -305 0
-268 -354 -337 -405 -202 -254 -416 0
-268 -354 -337 -405 -202 -254 -411 0
-268 -354 -337 -405 -202 -254 -411 -276 0
-268 -354 -337 -405 -202 -245 -276 0
-268 -354 -337 -405 -202 -245 -276 -411 0
-268 -354 -337 -405 -202 -245 -305 0
-268 -354 -337 -405 -202 -305 0
-268 -354 -337 -405 -202 -305 -254 0
-268 -354 -337 -405 -202 -305 -254 -416 0
-268 -354 -337 -405 -202 -305 -254 -411 0
-268 -354 -337 -405 -202 -276 0
-268 -354 -337 -405 -202 -276 -408 -254 0
-268 -354 -337 -405 -202 -276 -408 -254 -416 0
-268 -354 -337 -405 -202 -276 -411 0
-268 -354 -337 -405 -202 -276 -411 -254 0
-268 -354 -337 -405 -202 -276 -254 0
-268 -354 -337 -405 -202 -276 -254 -416 0
-268 -354 -337 -405 -202 -276 -254 -411 0
-268 -354 -337 -405 -305 0
-268 -354 -337 -405 -305 -202 -408 -254 0
-268 -354 -337 -405 -305 -202 -408 -254 -416 0
-268 -354 -337 -405 -305 -202 -415 -254 0
-268 -354 -337 -405 -305 -202 -415 -254 -411 0
-268 -354 -337 -405 -305 -202 -254 0
-268 -354 -337 -405 -305 -202 -254 -416 0
-268 -354 -337 -405 -305 -202 -254 -411 0
-268 -354 -337 -405 -305 -254 0
-268 -354 -337 -405 -305 -254 -416 0
-268 -354 -337 -405 -305 -254 -411 0
-268 -354 -337 -405 -245 -202 -408 -276 0
-268 -354 -337 -405 -245 -202 -305 0
-268 -354 -337 -405 -245 -202 -276 0
-268 -354 -337 -405 -245 -202 -276 -411 0
-268 -354 -337 -405 -245 -276 0
-268 -354 -337 -405 -245 -276 -411 0
-268 -354 -337 -405 -245 -305 0
-268 -354 -416 -337 -405 -202 -408 -276 0
-268 -354 -416 -337 -405 -202 -408 -276 -254 0
-268 -354 -416 -337 -405 -202 -408 -254 0
-268 -354 -416 -337 -405 -202 -408 -254 -276 0
-268 -354 -416 -337 -405 -202 -408 -254 -305 0
-268 -354 -416 -337 -405 -202 -254 0
-268 -354 -416 -337 -405 -202 -254 -408 -276 0
-268 -354 -416 -337 -405 -202 -254 -276 0
-268 -354 -416 -337 -405 -202 -254 -305 0
-268 -354 -416 -337 -405 -202 -245 -276 0
-268 -354 -416 -337 -405 -202 -245 -305 0
-268 -354 -416 -337 -405 -202 -305 0
-268 -354 -416 -337 -405 -202 -305 -254 0
-268 -354 -416 -337 -405 -202 -276 0
-268 -354 -416 -337 -405 -202 -276 -408 -254 0
-268 -354 -416 -337 -405 -202 -276 -254 0
-268 -354 -416 -337 -405 -305 0
-268 -354 -416 -337 -405 -305 -202 -408 -254 0
-268 -354 -416 -337 -405 -305 -202 -254 0
-268 -354 -416 -337 -405 -305 -254 0
-268 -354 -416 -337 -405 -245 -202 -408 -276 0
-268 -354 -416 -337 -405 -245 -202 -305 0
-268 -354 -416 -337 -405 -245 -202 -276 0
-268 -354 -416 -337 -405 -245 -276 0
-268 -354 -416 -337 -405 -245 -305 0
-416 -337 -405 -202 -408 -276 0
-416 -337 -405 -202 -408 -276 -254 0
-416 -337 -405 -202 -408 -254 0
-416 -337 -405 -202 -408 -254 -276 0
-416 -337 -405 -202 -254 0
-416 -337 -405 -202 -254 -408 -276 0
-416 -337 -405 -202 -254 -276 0
-416 -337 -405 -202 -245 -276 0
-416 -337 -405 -202 -305 -254 0
-416 -337 -405 -202 -276 0
-416 -337 -405 -202 -276 -408 -254 0
-416 -337 -405 -202 -276 -254 0
-416 -337 -405 -305 -202 -408 -254 0
-416 -337 -405 -305 -202 -254 0
-416 -337 -405 -305 -254 0
-416 -337 -405 -245 -202 -408 -276 0
-416 -337 -405 -245 -202 -276 0
-416 -337 -405 -245 -276 0
-416 -354 -337 -405 -202 -408 -276 0
-416 -354 -337 -405 -202 -408 -276 -254 0
-416 -354 -337 -405 -202 -408 -254 0
-416 -354 -337 -405 -202 -408 -254 -276 0
-416 -354 -337 -405 -202 -254 0
-416 -354 -337 -405 -202 -254 -408 -276 0
-416 -354 -337 -405 -202 -254 -276 0
-416 -354 -337 -405 -202 -245 -276 0
-416 -354 -337 -405 -202 -305 -254 0
-416 -354 -337 -405 -202 -276 0
-416 -354 -337 -405 -202 -276 -408 -254 0
-416 -354 -337 -405 -202 -276 -254 0
-416 -354 -337 -405 -305 -202 -408 -254 0
-416 -354 -337 -405 -305 -202 -254 0
-416 -354 -337 -405 -305 -254 0
-416 -354 -337 -405 -245 -202 -408 -276 0
-416 -354 -337 -405 -245 -202 -276 0
-416 -354 -337 -405 -245 -276 0
-416 -354 -268 -337 -405 -202 -408 -276 0
-416 -354 -268 -337 -405 -202 -408 -276 -254 0
-416 -354 -268 -337 -405 -202 -408 -254 0
-416 -354 -268 -337 -405 -202 -408 -254 -276 0
-416 -354 -268 -337 -405 -202 -254 0
-416 -354 -268 -337 -405 -202 -254 -408 -276 0
-416 -354 -268 -337 -405 -202 -254 -276 0
-416 -354 -268 -337 -405 -202 -245 -276 0
-416 -354 -268 -337 -405 -202 -305 -254 0
-416 -354 -268 -337 -405 -202 -276 0
-416 -354 -268 -337 -405 -202 -276 -408 -254 0
-416 -354 -268 -337 -405 -202 -276 -254 0
-416 -354 -268 -337 -405 -305 -202 -408 -254 0
-416 -354 -268 -337 -405 -305 -202 -254 0
-416 -354 -268 -337 -405 -305 -254 0
-416 -354 -268 -337 -405 -245 -202 -408 -276 0
-416 -354 -268 -337 -405 -245 -202 -276 0
-416 -354 -268 -337 -405 -245 -276 0
-416 -268 -333 -337 -405 -202 -408 -276 0
-416 -268 -333 -337 -405 -202 -408 -276 -254 0
-416 -268 -333 -337 -405 -202 -408 -254 0
-416 -268 -333 -337 -405 -202 -408 -254 -276 0
-416 -268 -333 -337 -405 -202 -254 0
-416 -268 -333 -337 -405 -202 -254 -408 -276 0
-416 -268 -333 -337 -405 -202 -254 -276 0
-416 -268 -333 -337 -405 -202 -245 -276 0
-416 -268 -333 -337 -405 -202 -305 -254 0
-416 -268 -333 -337 -405 -202 -276 0
-416 -268 -333 -337 -405 -202 -276 -408 -254 0
-416 -268 -333 -337 -405 -202 -276 -254 0
-416 -268 -333 -337 -405 -305 -202 -408 -254 0
-416 -268 -333 -337 -405 -305 -202 -254 0
-416 -268 -333 -337 -405 -305 -254 0
-416 -268 -333 -337 -405 -245 -202 -408 -276 0
-416 -268 -333 -337 -405 -245 -202 -276 0
-416 -268 -333 -337 -405 -245 -276 0
-416 -268 -337 -405 -202 -408 -276 0
-416 -268 -337 -405 -202 -408 -276 -254 0
-416 -268 -337 -405 -202 -408 -254 0
-416 -268 -337 -405 -202 -408 -254 -276 0
-416 -268 -337 -405 -202 -254 0
-416 -268 -337 -405 -202 -254 -408 -276 0
-416 -268 -337 -405 -202 -254 -276 0
-416 -268 -337 -405 -202 -245 -276 0
-416 -268 -337 -405 -202 -305 -254 0
-416 -268 -337 -405 -202 -276 0
-416 -268 -337 -405 -202 -276 -408 -254 0
-416 -268 -337 -405 -202 -276 -254 0
-416 -268 -337 -405 -305 -202 -408 -254 0
-416 -268 -337 -405 -305 -202 -254 0
-416 -268 -337 -405 -305 -254 0
-416 -268 -337 -405 -245 -202 -408 -276 0
-416 -268 -337 -405 -245 -202 -276 0
-416 -268 -337 -405 -245 -276 0
-416 -268 -354 -337 -405 -202 -408 -276 0
-416 -268 -354 -337 -405 -202 -408 -276 -254 0
-416 -268 -354 -337 -405 -202 -408 -254 0
-416 -268 -354 -337 -405 -202 -408 -254 -276 0
-416 -268 -354 -337 -405 -202 -254 0
-416 -268 -354 -337 -405 -202 -254 -408 -276 0
-416 -268 -354 -337 -405 -202 -254 -276 0
-416 -268 -354 -337 -405 -202 -245 -276 0
-416 -268 -354 -337 -405 -202 -305 -254 0
-416 -268 -354 -337 -405 -202 -276 0
-416 -268 -354 -337 -405 -202 -276 -408 -254 0
-416 -268 -354 -337 -405 -202 -276 -254 0
-416 -268 -354 -337 -405 -305 -202 -408 -254 0
-416 -268 -354 -337 -405 -305 -202 -254 0
-416 -268 -354 -337 -405 -305 -254 0
-416 -268 -354 -337 -405 -245 -202 -408 -276 0
-416 -268 -354 -337 -405 -245 -202 -276 0
-416 -268 -354 -337 -405 -245 -276 0
-254 -416 -337 -405 0
-254 -416 -337 -405 -202 -408 0
-254 -416 -337 -405 -202 -408 -276 0
-254 -416 -337 -405 -202 -305 0
-254 -416 -337 -405 -202 -276 0
-254 -416 -337 -405 -202 -276 -408 0
-254 -416 -337 -405 -305 0
-254 -416 -337 -405 -305 -202 -408 0
-254 -416 -354 -337 -405 0
-254 -416 -354 -337 -405 -202 -408 0
-254 -416 -354 -337 -405 -202 -408 -276 0
-254 -416 -354 -337 -405 -202 -305 0
-254 -416 -354 -337 -405 -202 -276 0
-254 -416 -354 -337 -405 -202 -276 -408 0
-254 -416 -354 -337 -405 -305 0
-254 -416 -354 -337 -405 -305 -202 -408 0
-254 -416 -354 -268 -337 -405 0
-254 -416 -354 -268 -337 -405 -202 -408 0
-254 -416 -354 -268 -337 -405 -202 -408 -276 0
-254 -416 -354 -268 -337 -405 -202 -305 0
-254 -416 -354 -268 -337 -405 -202 -276 0
-254 -416 -354 -268 -337 -405 -202 -276 -408 0
-254 -416 -354 -268 -337 -405 -305 0
-254 -416 -354 -268 -337 -405 -305 -202 -408 0
-254 -416 -268 -333 -337 -405 0
-254 -416 -268 -333 -337 -405 -202 -408 0
-254 -416 -268 -333 -337 -405 -202 -408 -276 0
-254 -416 -268 -333 -337 -405 -202 -305 0
-254 -416 -268 -333 -337 -405 -202 -276 0
-254 -416 -268 -333 -337 -405 -202 -276 -408 0
-254 -416 -268 -333 -337 -405 -305 0
-254 -416 -268 -333 -337 -405 -305 -202 -408 0
-254 -416 -268 -337 -405 0
-254 -416 -268 -337 -405 -202 -408 0
-254 -416 -268 -337 -405 -202 -408 -276 0
-254 -416 -268 -337 -405 -202 -305 0
-254 -416 -268 -337 -405 -202 -276 0
-254 -416 -268 -337 -405 -202 -276 -408 0
-254 -416 -268 -337 -405 -305 0
-254 -416 -268 -337 -405 -305 -202 -408 0
-254 -416 -268 -354 -337 -405 0
-254 -416 -268 -354 -337 -405 -202 -408 0
-254 -416 -268 -354 -337 -405 -202 -408 -276 0
-254 -416 -268 -354 -337 -405 -202 -305 0
-254 -416 -268 -354 -337 -405 -202 -276 0
-254 -416 -268 -354 -337 -405 -202 -276 -408 0
-254 -416 -268 -354 -337 -405 -305 0
-254 -416 -268 -354 -337 -405 -305 -202 -408 0
-408 -202 -405 -337 -268 -354 -416 -254 -276 0
-408 -202 -405 -337 -268 -416 -254 -276 0
-408 -202 -405 -337 -416 -254 -276 0
-408 -202 -405 -337 -333 -268 -416 -254 -276 0
-408 -202 -405 -337 -354 -268 -416 -254 -276 0
-408 -202 -405 -337 -354 -416 -254 -276 0
-408 -254 -416 -337 -405 -202 -276 0
-408 -254 -416 -354 -337 -405 -202 -276 0
-408 -254 -416 -354 -268 -337 -405 -202 -276 0
-408 -254 -416 -268 -333 -337 -405 -202 -276 0
-408 -254 -416 -268 -337 -405 -202 -276 0
-408 -254 -416 -268 -354 -337 -405 -202 -276 0
-305 -202 -254 -416 -337 -405 0
-305 -202 -254 -416 -354 -337 -405 0
-305 -202 -254 -416 -354 -268 -337 -405 0
-305 -202 -254 -416 -268 -333 -337 -405 0
-305 -202 -254 -416 -268 -337 -405 0
-305 -202 -254 -416 -268 -354 -337 -405 0
-305 -202 -408 -254 -416 -337 -405 0
-305 -202 -408 -254 -416 -354 -337 -405 0
-305 -202 -408 -254 -416 -354 -268 -337 -405 0
-305 -202 -408 -254 -416 -268 -333 -337 -405 0
-305 -202 -408 -254 -416 -268 -337 -405 0
-305 -202 -408 -254 -416 -268 -354 -337 -405 0
-305 -254 -416 -337 -405 0
-305 -254 -416 -354 -337 -405 0
-305 -254 -416 -354 -268 -337 -405 0
-305 -254 -416 -268 -333 -337 -405 0
-305 -254 -416 -268 -337 -405 0
-305 -254 -416 -268 -354 -337 -405 0
-324 -286 -202 -245 -304 0
-324 -286 -202 -304 0
-324 -286 -202 -276 -245 -304 0
-212 -210 -416 -354 -271 0
-212 -210 -416 -354 -363 -271 0
-212 -210 -416 -271 0
-212 -210 -416 -363 -271 0
-212 -210 -416 -363 -354 -271 0
-212 -210 -416 -363 -361 -271 0
-212 -210 -226 -289 -190 0
-212 -210 -226 -289 -190 -245 0
-226 -289 -190 -245 0
-226 -289 -190 -245 -237 0
-226 -289 -190 -237 0
-226 -289 -190 -237 -245 0
-210 -226 -289 -190 0
-210 -226 -289 -190 -245 0
-1 -129 419 0
-2 -130 419 0
-3 -131 419 0
-4 -132 419 0
-5 -133 419 0
-6 -134 419 0
-7 -135 419 0
-8 -136 419 0
-245 -190 -289 -226 -210 -419 0
-190 -289 -226 -210 -419 0
-308 -210 -226 -296 -190 -245 0
-33 -169 420 0
-34 -170 420 0
-35 -171 420 0
-36 -172 420 0
-37 -173 420 0
-38 -174 420 0
-39 -175 420 0
-40 -176 420 0
-308 -202 -245 -420 -345 0
-308 -202 -420 -345 0
-308 -245 -202 -420 -345 0
-308 -245 -190 -296 0
-308 -245 -190 -296 -226 -210 0
-308 -245 -237 -190 -296 0
-308 -245 -420 -345 0
-190 -245 -308 -210 -226 0
-121 -129 421 0
-122 -130 421 0
-123 -131 421 0
-124 -132 421 0
-125 -133 421 0
-126 -134 421 0
-127 -135 421 0
-128 -136 421 0
-190 -245 -308 -210 -226 -421 0
-190 -245 -308 -210 -226 -296 0
-190 -245 -308 -210 -416 0
-190 -245 -308 -210 -416 -271 0
-190 -296 -226 -210 -308 -245 0
-210 -308 -202 -245 -420 0
-210 -308 -202 -245 -420 -407 0
-210 -308 -202 -420 0
-210 -308 -202 -420 -407 0
-210 -308 -245 -202 -420 0
-210 -308 -245 -202 -420 -407 0
-210 -308 -245 -190 -296 0
-210 -308 -245 -190 -296 -226 0
-210 -308 -245 -420 0
-210 -308 -245 -420 -407 0
-210 -226 -296 -190 -245 -280 0
-245 -308 -210 -416 -271 0
-245 -308 -210 -416 -271 -363 0
-245 -308 -210 -416 -363 0
-245 -308 -210 -416 -363 -271 0
-245 -202 -308 -210 -416 -271 0
-245 -420 -202 -308 -210 -416 -271 0
-205 -210 -226 -296 -190 0
-205 -210 -226 -296 -190 -245 0
-1 -169 422 0
-2 -170 422 0
-3 -171 422 0
-4 -172 422 0
-5 -173 422 0
-6 -174 422 0
-7 -175 422 0
-8 -176 422 0
-280 -245 -422 -237 -190 -296 0
-280 -245 -190 -296 0
-280 -245 -237 -190 -296 0
-296 -190 -245 -308 -210 -226 0
-296 -190 -245 -308 -210 -416 0
-296 -190 -245 -308 -210 -416 -271 0
-226 -210 -308 -202 -245 -420 0
-226 -210 -308 -202 -420 0
-226 -210 -308 -245 -202 -420 0
-226 -210 -308 -245 -190 -296 0
-226 -210 -308 -245 -420 0
-226 -296 -190 -245 0
-226 -296 -190 -245 -308 -210 0
-226 -296 -190 -245 -422 -237 0
-226 -296 -190 -245 -237 0
-226 -296 -190 -237 0
-226 -296 -190 -237 -422 -245 0
-226 -296 -190 -237 -245 0
-210 -226 -296 -190 0
-210 -226 -296 -190 -245 0
-210 -226 -296 -190 -245 -308 0
-210 -226 -296 -190 -245 -422 0
-308 -210 -226 -296 -190 0
-308 -210 -226 -296 -190 -245 0
-202 -308 -210 -226 -296 0
-202 -420 -245 -308 -210 -226 -296 0
-202 -245 -308 -210 -226 -296 0
-245 -308 -210 -226 -296 0
-245 -308 -210 -226 -296 -190 0
-245 -202 -308 -210 -226 -296 0
-245 -420 -202 -308 -210 -226 -296 0
-190 -245 -308 -210 -226 -296 0
-190 -296 -226 -210 -308 -245 -420 0
-296 -226 -210 -308 -202 -245 -420 0
-296 -226 -210 -308 -202 -420 0
-296 -226 -210 -308 -245 -202 -420 0
-296 -226 -210 -308 -245 -420 0
-233 -194 -289 -337 -295 0
-233 -194 -289 -337 -295 -246 0
-73 -177 423 0
-74 -178 423 0
-75 -179 423 0
-76 -180 423 0
-77 -181 423 0
-78 -182 423 0
-79 -183 423 0
-80 -184 423 0
-233 -194 -289 -337 -423 -295 0
-1 -153 424 0
-2 -154 424 0
-3 -155 424 0
-4 -156 424 0
-5 -157 424 0
-6 -158 424 0
-7 -159 424 0
-8 -160 424 0
-424 -213 -409 -337 -295 -246 -281 0
-169 -9 425 0
-170 -10 425 0
-171 -11 425 0
-172 -12 425 0
-173 -13 425 0
-174 -14 425 0
-175 -15 425 0
-176 -16 425 0
-424 -213 -409 -337 -295 -246 -281 -425 0
-424 -213 -409 -337 -295 -246 -281 -407 0
-424 -213 -409 -337 -295 -246 -281 -326 0
-424 -213 -409 -337 -295 -246 -425 0
-424 -213 -409 -337 -295 -246 -425 -281 0
-424 -213 -409 -337 -295 -246 -425 -281 -407 0
-424 -213 -409 -337 -295 -246 -425 -281 -326 0
-424 -213 -409 -337 -295 -423 -281 0
-424 -213 -409 -337 -295 -423 -281 -425 0
-424 -213 -409 -337 -295 -423 -281 -425 -257 0
-424 -213 -409 -337 -295 -423 -281 -257 0
-424 -213 -409 -337 -295 -423 -281 -257 -425 0
-424 -213 -409 -337 -295 -423 -281 -252 0
-424 -213 -409 -337 -295 -281 0
-424 -213 -409 -337 -295 -281 -425 0
-424 -213 -409 -337 -295 -281 -425 -257 0
-424 -213 -409 -337 -295 -281 -407 0
-424 -213 -409 -337 -295 -281 -257 0
-424 -213 -409 -337 -295 -281 -257 -425 0
-424 -213 -409 -337 -295 -281 -246 -425 0
-424 -213 -409 -337 -295 -281 -326 0
-424 -213 -409 -337 -295 -281 -252 0
-424 -213 -409 -337 -295 -425 0
-424 -213 -409 -337 -295 -425 -281 0
-424 -213 -409 -337 -295 -425 -281 -407 0
-424 -213 -409 -337 -295 -425 -281 -257 0
-424 -213 -409 -337 -295 -425 -281 -326 0
-424 -213 -409 -337 -295 -425 -281 -252 0
-424 -213 -409 -337 -295 -425 -257 0
-424 -213 -409 -337 -295 -425 -257 -281 0
-424 -213 -409 -337 -295 -425 -257 -281 -326 0
-424 -213 -409 -337 -295 -425 -246 -281 0
-424 -213 -409 -337 -295 -425 -246 -281 -407 0
-424 -213 -409 -337 -295 -425 -246 -281 -326 0
-424 -213 -409 -337 -423 -281 0
-424 -213 -409 -337 -423 -281 -425 0
-424 -213 -409 -337 -423 -281 -425 -257 0
-424 -213 -409 -337 -423 -281 -257 0
-424 -213 -409 -337 -423 -281 -257 -425 0
-424 -213 -409 -337 -423 -281 -295 -425 0
-424 -213 -409 -337 -423 -281 -295 -425 -257 0
-424 -213 -409 -337 -423 -281 -252 0
-424 -213 -409 -337 -423 -295 -281 0
-424 -213 -409 -337 -423 -295 -281 -425 0
-424 -213 -409 -337 -423 -295 -281 -425 -257 0
-424 -213 -409 -337 -423 -295 -281 -257 0
-424 -213 -409 -337 -423 -295 -281 -257 -425 0
-424 -213 -409 -337 -423 -295 -281 -252 0
-424 -213 -409 -337 -423 -295 -425 0
-424 -213 -409 -337 -423 -295 -425 -281 0
-424 -213 -409 -337 -423 -295 -425 -281 -257 0
-424 -213 -409 -337 -423 -295 -425 -281 -252 0
-424 -213 -409 -337 -423 -295 -425 -257 0
-424 -213 -409 -337 -423 -295 -425 -257 -281 0
-424 -213 -252 -409 -337 -295 -423 -281 0
-424 -213 -252 -409 -337 -295 -423 -281 -425 0
-424 -213 -252 -409 -337 -295 -281 0
-424 -213 -252 -409 -337 -295 -281 -425 0
-424 -213 -252 -409 -337 -295 -281 -407 0
-424 -213 -252 -409 -337 -295 -425 0
-424 -213 -252 -409 -337 -295 -425 -281 0
-424 -213 -252 -409 -337 -295 -425 -281 -407 0
-424 -213 -252 -409 -337 -423 -281 0
-424 -213 -252 -409 -337 -423 -281 -425 0
-424 -213 -252 -409 -337 -423 -281 -295 -425 0
-424 -213 -252 -409 -337 -423 -295 -281 0
-424 -213 -252 -409 -337 -423 -295 -281 -425 0
-424 -213 -252 -409 -337 -423 -295 -425 0
-424 -213 -252 -409 -337 -423 -295 -425 -281 0
-424 -425 -257 -281 -295 -337 -409 -213 0
-424 -425 -257 -281 -295 -337 -397 0
-424 -425 -257 -281 -295 -423 -337 -409 -213 0
-424 -425 -257 -281 -423 -337 -409 -213 0
-424 -425 -257 -281 -423 -295 -337 -409 -213 0
-424 -425 -246 -295 -337 -409 -213 0
-424 -425 -246 -281 -295 -337 -409 -213 0
-424 -425 -281 -295 -337 -409 -252 0
-424 -425 -281 -295 -337 -409 -252 -213 0
-424 -425 -281 -295 -337 -409 -213 0
-424 -425 -281 -295 -337 -409 -213 -252 0
-424 -425 -281 -295 -337 -397 0
-424 -425 -281 -295 -423 -337 -409 -252 0
-424 -425 -281 -295 -423 -337 -409 -252 -213 0
-424 -425 -281 -295 -423 -337 -409 -213 0
-424 -425 -281 -295 -423 -337 -409 -213 -252 0
-424 -425 -281 -423 -337 -409 -252 0
-424 -425 -281 -423 -337 -409 -252 -213 0
-424 -425 -281 -423 -337 -409 -213 0
-424 -425 -281 -423 -337 -409 -213 -252 0
-424 -425 -281 -423 -295 -337 -409 -252 0
-424 -425 -281 -423 -295 -337 -409 -252 -213 0
-424 -425 -281 -423 -295 -337 -409 -213 0
-424 -425 -281 -423 -295 -337 -409 -213 -252 0
-424 -425 -281 -246 -295 -337 -409 -213 0
-424 -425 -295 -281 -423 -337 -409 -252 0
-424 -425 -295 -281 -423 -337 -409 -252 -213 0
-424 -425 -295 -281 -423 -337 -409 -213 0
-424 -425 -295 -281 -423 -337 -409 -213 -252 0
-424 -425 -295 -337 -409 -252 0
-424 -425 -295 -337 -409 -252 -213 0
-424 -425 -295 -337 -409 -252 -281 0
-424 -425 -295 -337 -409 -252 -281 -407 0
-424 -425 -295 -337 -409 -213 0
-424 -425 -295 -337 -409 -213 -252 0
-424 -425 -295 -337 -409 -213 -252 -281 0
-424 -425 -295 -337 -409 -213 -252 -281 -407 0
-424 -425 -295 -337 -397 0
-424 -425 -295 -423 -337 -409 -252 0
-424 -425 -295 -423 -337 -409 -252 -213 0
-424 -425 -295 -423 -337 -409 -252 -281 0
-424 -425 -295 -423 -337 -409 -213 0
-424 -425 -295 -423 -337 -409 -213 -252 0
-424 -425 -295 -423 -337 -409 -213 -252 -281 0
-424 -252 -213 -409 -337 -295 -423 -281 0
-424 -252 -213 -409 -337 -295 -423 -281 -425 0
-424 -252 -213 -409 -337 -295 -281 0
-424 -252 -213 -409 -337 -295 -281 -425 0
-424 -252 -213 -409 -337 -295 -281 -407 0
-424 -252 -213 -409 -337 -295 -425 0
-424 -252 -213 -409 -337 -295 -425 -281 0
-424 -252 -213 -409 -337 -295 -425 -281 -407 0
-424 -252 -213 -409 -337 -423 -281 0
-424 -252 -213 -409 -337 -423 -281 -425 0
-424 -252 -213 -409 -337 -423 -281 -295 -425 0
-424 -252 -213 -409 -337 -423 -295 -281 0
-424 -252 -213 -409 -337 -423 -295 -281 -425 0
-424 -252 -213 -409 -337 -423 -295 -425 0
-424 -252 -213 -409 -337 -423 -295 -425 -281 0
-424 -252 -409 -337 -295 -423 -281 0
-424 -252 -409 -337 -295 -423 -281 -425 0
-424 -252 -409 -337 -295 -281 0
-424 -252 -409 -337 -295 -281 -425 0
-424 -252 -409 -337 -295 -281 -407 0
-424 -252 -409 -337 -295 -425 0
-424 -252 -409 -337 -295 -425 -281 0
-424 -252 -409 -337 -295 -425 -281 -407 0
-424 -252 -409 -337 -423 -281 0
-424 -252 -409 -337 -423 -281 -425 0
-424 -252 -409 -337 -423 -281 -295 -425 0
-424 -252 -409 -337 -423 -295 -281 0
-424 -252 -409 -337 -423 -295 -281 -425 0
-424 -252 -409 -337 -423 -295 -425 0
-424 -252 -409 -337 -423 -295 -425 -281 0
-424 -252 -281 -425 -295 -337 -409 -213 0
-424 -252 -281 -425 -295 -423 -337 -409 -213 0
-424 -252 -281 -295 -337 -409 -213 0
-424 -252 -281 -295 -423 -337 -409 -213 0
-424 -252 -281 -423 -337 -409 -213 0
-424 -252 -281 -423 -295 -337 -409 -213 0
-424 -257 -425 -281 -295 -337 -409 -213 0
-424 -257 -425 -281 -295 -337 -397 0
-424 -257 -425 -281 -295 -423 -337 -409 -213 0
-424 -257 -425 -281 -423 -337 -409 -213 0
-424 -257 -425 -281 -423 -295 -337 -409 -213 0
-424 -257 -425 -295 -281 -423 -337 -409 -213 0
-424 -257 -425 -295 -337 -409 -213 0
-424 -257 -425 -295 -337 -397 0
-424 -257 -425 -295 -423 -337 -409 -213 0
-424 -257 -281 -425 -295 -337 -409 -213 0
-424 -257 -281 -425 -295 -337 -397 0
-424 -257 -281 -425 -295 -423 -337 -409 -213 0
-424 -257 -281 -295 -337 -409 -213 0
-424 -257 -281 -295 -337 -397 0
-424 -257 -281 -295 -423 -337 -409 -213 0
-424 -257 -281 -423 -337 -409 -213 0
-424 -257 -281 -423 -295 -337 -409 -213 0
-194 -289 -337 -295 -246 0
-209 -252 -281 -295 -337 0
-209 -252 -281 -295 -337 -423 0
-209 -252 -281 -295 -423 0
-209 -252 -281 -295 -423 -337 0
-209 -252 -281 -407 0
-209 -252 -281 -423 0
-209 -252 -281 -423 -337 0
-209 -252 -281 -423 -295 -337 0
-209 -213 -424 -252 -281 -295 -337 0
-209 -213 -424 -252 -281 -295 -337 -423 0
-209 -213 -424 -252 -281 -295 -423 0
-209 -213 -424 -252 -281 -295 -423 -337 0
-209 -213 -424 -252 -281 -407 0
-209 -213 -424 -252 -281 -423 0
-209 -213 -424 -252 -281 -423 -337 0
-209 -213 -424 -252 -281 -423 -295 -337 0
-209 -213 -424 -257 -281 -295 -337 0
-209 -213 -424 -257 -281 -295 -337 -423 0
-209 -213 -424 -257 -281 -295 -337 -397 0
-209 -213 -424 -257 -281 -295 -423 0
-209 -213 -424 -257 -281 -295 -423 -337 0
-209 -213 -424 -257 -281 -423 0
-209 -213 -424 -257 -281 -423 -337 0
-209 -213 -424 -257 -281 -423 -295 -337 0
-209 -213 -424 -257 -281 -326 0
-209 -213 -252 -281 -295 -337 0
-209 -213 -252 -281 -295 -337 -423 0
-209 -213 -252 -281 -295 -423 0
-209 -213 -252 -281 -295 -423 -337 0
-209 -213 -252 -281 -407 0
-209 -213 -252 -281 -423 0
-209 -213 -252 -281 -423 -337 0
-209 -213 -252 -281 -423 -295 -337 0
-209 -213 -271 -252 -281 -295 -337 0
-209 -213 -271 -252 -281 -295 -337 -423 0
-209 -213 -271 -252 -281 -295 -423 0
-209 -213 -271 -252 -281 -295 -423 -337 0
-209 -213 -271 -252 -281 -407 0
-209 -213 -271 -252 -281 -423 0
-209 -213 -271 -252 -281 -423 -337 0
-209 -213 -271 -252 -281 -423 -295 -337 0
-209 -213 -271 -257 -281 -295 -337 0
-209 -213 -271 -257 -281 -295 -337 -423 0
-209 -213 -271 -257 -281 -295 -337 -397 0
-209 -213 -271 -257 -281 -295 -423 0
-209 -213 -271 -257 -281 -295 -423 -337 0
-209 -213 -271 -257 -281 -423 0
-209 -213 -271 -257 -281 -423 -337 0
-209 -213 -271 -257 -281 -423 -295 -337 0
-209 -213 -271 -257 -281 -326 0
-209 -213 -271 -359 -235 -246 -295 -337 0
-209 -213 -271 -235 -257 -281 -295 -337 0
-209 -213 -271 -235 -257 -281 -295 -337 -423 0
-209 -213 -271 -235 -257 -281 -295 -337 -397 0
-209 -213 -271 -235 -257 -281 -295 -423 0
-209 -213 -271 -235 -257 -281 -295 -423 -337 0
-209 -213 -271 -235 -257 -281 -423 0
-209 -213 -271 -235 -257 -281 -423 -337 0
-209 -213 -271 -235 -257 -281 -423 -295 -337 0
-209 -213 -271 -235 -257 -281 -326 0
-209 -213 -271 -235 -246 -295 -281 -407 0
-209 -213 -271 -235 -246 -295 -281 -326 0
-209 -213 -271 -235 -246 -295 -337 0
-209 -213 -271 -235 -246 -281 -295 -337 0
-209 -213 -271 -235 -246 -281 -407 0
-209 -213 -271 -235 -246 -281 -326 0
-425 -424 -213 -409 -337 -295 0
-425 -424 -213 -409 -337 -295 -246 0
-425 -424 -213 -409 -337 -295 -246 -281 0
-425 -424 -213 -409 -337 -295 -246 -281 -407 0
-425 -424 -213 -409 -337 -295 -423 0
-425 -424 -213 -409 -337 -295 -423 -281 0
-425 -424 -213 -409 -337 -295 -423 -281 -257 0
-425 -424 -213 -409 -337 -295 -281 0
-425 -424 -213 -409 -337 -295 -281 -407 0
-425 -424 -213 -409 -337 -295 -281 -257 0
-425 -424 -213 -409 -337 -295 -281 -423 0
-425 -424 -213 -409 -337 -295 -281 -246 0
-425 -424 -213 -409 -337 -423 0
-425 -424 -213 -409 -337 -423 -281 0
-425 -424 -213 -409 -337 -423 -281 -257 0
-425 -424 -213 -409 -337 -423 -281 -295 0
-425 -424 -213 -409 -337 -423 -295 0
-425 -424 -213 -409 -337 -423 -295 -281 0
-425 -424 -213 -409 -337 -423 -295 -281 -257 0
-425 -424 -213 -409 -337 -397 0
-425 -424 -213 -252 -409 -337 -295 0
-425 -424 -213 -252 -409 -337 -295 -423 0
-425 -424 -213 -252 -409 -337 -295 -423 -281 0
-425 -424 -213 -252 -409 -337 -295 -281 0
-425 -424 -213 -252 -409 -337 -295 -281 -407 0
-425 -424 -213 -252 -409 -337 -295 -281 -423 0
-425 -424 -213 -252 -409 -337 -423 0
-425 -424 -213 -252 -409 -337 -423 -281 0
-425 -424 -213 -252 -409 -337 -423 -281 -295 0
-425 -424 -213 -252 -409 -337 -423 -295 0
-425 -424 -213 -252 -409 -337 -423 -295 -281 0
-425 -424 -252 -213 -409 -337 -295 0
-425 -424 -252 -213 -409 -337 -295 -423 0
-425 -424 -252 -213 -409 -337 -295 -423 -281 0
-425 -424 -252 -213 -409 -337 -295 -281 0
-425 -424 -252 -213 -409 -337 -295 -281 -407 0
-425 -424 -252 -213 -409 -337 -295 -281 -423 0
-425 -424 -252 -213 -409 -337 -423 0
-425 -424 -252 -213 -409 -337 -423 -281 0
-425 -424 -252 -213 -409 -337 -423 -281 -295 0
-425 -424 -252 -213 -409 -337 -423 -295 0
-425 -424 -252 -213 -409 -337 -423 -295 -281 0
-425 -424 -252 -409 -337 -295 0
-425 -424 -252 -409 -337 -295 -423 0
-425 -424 -252 -409 -337 -295 -423 -281 0
-425 -424 -252 -409 -337 -295 -281 0
-425 -424 -252 -409 -337 -295 -281 -407 0
-425 -424 -252 -409 -337 -295 -281 -423 0
-425 -424 -252 -409 -337 -423 0
-425 -424 -252 -409 -337 -423 -281 0
-425 -424 -252 -409 -337 -423 -281 -295 0
-425 -424 -252 -409 -337 -423 -295 0
-425 -424 -252 -409 -337 -423 -295 -281 0
-425 -257 -424 -213 -409 -337 -295 0
-425 -257 -424 -213 -409 -337 -295 -423 0
-425 -257 -424 -213 -409 -337 -295 -423 -281 0
-425 -257 -424 -213 -409 -337 -295 -281 0
-425 -257 -424 -213 -409 -337 -295 -281 -423 0
-425 -257 -424 -213 -409 -337 -423 0
-425 -257 -424 -213 -409 -337 -423 -281 0
-425 -257 -424 -213 -409 -337 -423 -281 -295 0
-425 -257 -424 -213 -409 -337 -423 -295 0
-425 -257 -424 -213 -409 -337 -423 -295 -281 0
-425 -257 -424 -213 -409 -337 -397 0
-425 -257 -271 -213 -409 -337 -295 0
-425 -257 -271 -213 -409 -337 -295 -423 0
-425 -257 -271 -213 -409 -337 -295 -423 -281 0
-425 -257 -271 -213 -409 -337 -295 -281 0
-425 -257 -271 -213 -409 -337 -295 -281 -423 0
-425 -257 -271 -213 -409 -337 -423 0
-425 -257 -271 -213 -409 -337 -423 -281 0
-425 -257 -271 -213 -409 -337 -423 -281 -295 0
-425 -257 -271 -213 -409 -337 -423 -295 0
-425 -257 -271 -213 -409 -337 -423 -295 -281 0
-425 -257 -271 -213 -409 -337 -397 0
-425 -257 -281 -295 -337 -409 -213 -271 0
-425 -257 -281 -295 -423 -337 -409 -213 -271 0
-425 -257 -281 -423 -337 -409 -213 -271 0
-425 -257 -281 -423 -295 -337 -409 -213 -271 0
-425 -246 -295 -337 -409 -213 -271 0
-425 -246 -295 -337 -409 -213 -271 -359 0
-425 -246 -281 -295 -337 -409 -213 -271 0
-425 -281 -295 -337 -409 -252 -213 -271 0
-425 -281 -295 -337 -409 -252 -271 0
-425 -281 -295 -337 -409 -213 -252 -271 0
-425 -281 -295 -337 -409 -213 -424 -257 0
-425 -281 -295 -337 -409 -213 -271 0
-425 -281 -295 -337 -409 -213 -271 -257 0
-425 -281 -295 -423 -337 -409 -252 -213 -271 0
-425 -281 -295 -423 -337 -409 -252 -271 0
-425 -281 -295 -423 -337 -409 -213 -252 -271 0
-425 -281 -295 -423 -337 -409 -213 -424 -257 0
-425 -281 -295 -423 -337 -409 -213 -271 0
-425 -281 -295 -423 -337 -409 -213 -271 -257 0
-425 -281 -423 -337 -409 -252 -213 -271 0
-425 -281 -423 -337 -409 -252 -271 0
-425 -281 -423 -337 -409 -213 -252 -271 0
-425 -281 -423 -337 -409 -213 -424 -257 0
-425 -281 -423 -337 -409 -213 -271 0
-425 -281 -423 -337 -409 -213 -271 -257 0
-425 -281 -423 -295 -337 -409 -252 -213 -271 0
-425 -281 -423 -295 -337 -409 -252 -271 0
-425 -281 -423 -295 -337 -409 -213 -252 -271 0
-425 -281 -423 -295 -337 -409 -213 -424 -257 0
-425 -281 -423 -295 -337 -409 -213 -271 0
-425 -281 -423 -295 -337 -409 -213 -271 -257 0
-425 -281 -257 -424 -213 -409 -337 -295 0
-425 -281 -257 -424 -213 -409 -337 -295 -423 0
-425 -281 -257 -424 -213 -409 -337 -423 0
-425 -281 -257 -424 -213 -409 -337 -423 -295 0
-425 -281 -257 -424 -213 -409 -337 -397 0
-425 -281 -257 -271 -213 -409 -337 -295 0
-425 -281 -257 -271 -213 -409 -337 -295 -423 0
-425 -281 -257 -271 -213 -409 -337 -423 0
-425 -281 -257 -271 -213 -409 -337 -423 -295 0
-425 -281 -257 -271 -213 -409 -337 -397 0
-425 -281 -246 -295 -337 -409 -213 -271 0
-425 -281 -252 -424 -213 -409 -337 -295 0
-425 -281 -252 -424 -213 -409 -337 -295 -423 0
-425 -281 -252 -424 -213 -409 -337 -423 0
-425 -281 -252 -424 -213 -409 -337 -423 -295 0
-425 -281 -252 -213 -409 -337 -295 0
-425 -281 -252 -213 -409 -337 -295 -423 0
-425 -281 -252 -213 -409 -337 -423 0
-425 -281 -252 -213 -409 -337 -423 -295 0
-425 -281 -252 -271 -213 -409 -337 -295 0
-425 -281 -252 -271 -213 -409 -337 -295 -423 0
-425 -281 -252 -271 -213 -409 -337 -423 0
-425 -281 -252 -271 -213 -409 -337 -423 -295 0
-425 -281 -252 -409 -337 -295 0
-425 -281 -252 -409 -337 -295 -423 0
-425 -281 -252 -409 -337 -423 0
-425 -281 -252 -409 -337 -423 -295 0
-425 -295 -281 -423 -337 -409 -252 -213 -271 0
-425 -295 -281 -423 -337 -409 -252 -271 0
-425 -295 -281 -423 -337 -409 -213 -252 -271 0
-425 -295 -281 -423 -337 -409 -213 -424 -257 0
-425 -295 -281 -423 -337 -409 -213 -271 0
-425 -295 -281 -423 -337 -409 -213 -271 -257 0
-425 -295 -281 -257 -424 -213 -409 -337 -423 0
-425 -295 -281 -257 -424 -213 -409 -337 -397 0
-425 -295 -281 -257 -271 -213 -409 -337 -423 0
-425 -295 -281 -257 -271 -213 -409 -337 -397 0
-425 -295 -281 -252 -424 -213 -409 -337 -423 0
-425 -295 -281 -252 -213 -409 -337 -423 0
-425 -295 -281 -252 -271 -213 -409 -337 -423 0
-425 -295 -281 -252 -409 -337 -423 0
-425 -295 -337 -409 -252 -213 -271 0
-425 -295 -337 -409 -252 -213 -271 -359 0
-425 -295 -337 -409 -252 -271 0
-425 -295 -337 -409 -252 -271 -359 0
-425 -295 -337 -409 -252 -281 0
-425 -295 -337 -409 -252 -281 -407 0
-425 -295 -337 -409 -252 -281 -423 0
-425 -295 -337 -409 -213 -252 -271 0
-425 -295 -337 -409 -213 -252 -271 -359 0
-425 -295 -337 -409 -213 -252 -281 0
-425 -295 -337 -409 -213 -252 -281 -407 0
-425 -295 -337 -409 -213 -252 -281 -423 0
-425 -295 -337 -409 -213 -424 -252 -281 0
-425 -295 -337 -409 -213 -424 -252 -281 -407 0
-425 -295 -337 -409 -213 -424 -252 -281 -423 0
-425 -295 -337 -409 -213 -424 -257 0
-425 -295 -337 -409 -213 -424 -257 -281 0
-425 -295 -337 -409 -213 -424 -257 -281 -423 0
-425 -295 -337 -409 -213 -271 0
-425 -295 -337 -409 -213 -271 -359 0
-425 -295 -337 -409 -213 -271 -252 -281 0
-425 -295 -337 -409 -213 -271 -252 -281 -407 0
-425 -295 -337 -409 -213 -271 -252 -281 -423 0
-425 -295 -337 -409 -213 -271 -257 0
-425 -295 -337 -409 -213 -271 -257 -281 0
-425 -295 -337 -409 -213 -271 -257 -281 -423 0
-425 -295 -423 -337 -409 -252 -213 -271 0
-425 -295 -423 -337 -409 -252 -213 -271 -359 0
-425 -295 -423 -337 -409 -252 -271 0
-425 -295 -423 -337 -409 -252 -271 -359 0
-425 -295 -423 -337 -409 -252 -281 0
-425 -295 -423 -337 -409 -213 -252 -271 0
-425 -295 -423 -337 -409 -213 -252 -271 -359 0
-425 -295 -423 -337 -409 -213 -252 -281 0
-425 -295 -423 -337 -409 -213 -424 -252 -281 0
-425 -295 -423 -337 -409 -213 -424 -257 0
-425 -295 -423 -337 -409 -213 -424 -257 -281 0
-425 -295 -423 -337 -409 -213 -271 0
-425 -295 -423 -337 -409 -213 -271 -359 0
-425 -295 -423 -337 -409 -213 -271 -252 -281 0
-425 -295 -423 -337 -409 -213 -271 -257 0
-425 -295 -423 -337 -409 -213 -271 -257 -281 0
-213 -424 -425 -257 -281 -295 0
-213 -424 -425 -257 -281 -295 -337 0
-213 -424 -425 -257 -281 -295 -337 -409 0
-213 -424 -425 -257 -281 -295 -337 -397 0
-213 -424 -425 -257 -281 -295 -423 -337 0
-213 -424 -425 -257 -281 -295 -423 -337 -409 0
-213 -424 -425 -257 -281 -423 -337 0
-213 -424 -425 -257 -281 -423 -337 -295 0
-213 -424 -425 -257 -281 -423 -337 -409 0
-213 -424 -425 -257 -281 -423 -295 0
-213 -424 -425 -257 -281 -423 -295 -337 0
-213 -424 -425 -257 -281 -423 -295 -337 -409 0
-213 -424 -425 -246 -295 0
-213 -424 -425 -246 -295 -337 0
-213 -424 -425 -246 -295 -337 -409 0
-213 -424 -425 -246 -281 -295 0
-213 -424 -425 -246 -281 -295 -337 0
-213 -424 -425 -246 -281 -295 -337 -409 0
-213 -424 -425 -281 -295 0
-213 -424 -425 -281 -295 -337 0
-213 -424 -425 -281 -295 -337 -409 0
-213 -424 -425 -281 -295 -337 -409 -252 0
-213 -424 -425 -281 -295 -337 -397 0
-213 -424 -425 -281 -295 -423 -337 0
-213 -424 -425 -281 -295 -423 -337 -409 0
-213 -424 -425 -281 -295 -423 -337 -409 -252 0
-213 -424 -425 -281 -423 -337 0
-213 -424 -425 -281 -423 -337 -295 0
-213 -424 -425 -281 -423 -337 -409 0
-213 -424 -425 -281 -423 -337 -409 -252 0
-213 -424 -425 -281 -423 -295 0
-213 -424 -425 -281 -423 -295 -337 0
-213 -424 -425 -281 -423 -295 -337 -409 0
-213 -424 -425 -281 -423 -295 -337 -409 -252 0
-213 -424 -425 -281 -246 -295 0
-213 -424 -425 -281 -246 -295 -337 0
-213 -424 -425 -281 -246 -295 -337 -409 0
-213 -424 -425 -281 -252 -409 -337 -295 0
-213 -424 -425 -281 -252 -409 -337 -423 -295 0
-213 -424 -425 -295 0
-213 -424 -425 -295 -281 -423 -337 0
-213 -424 -425 -295 -281 -423 -337 -409 0
-213 -424 -425 -295 -281 -423 -337 -409 -252 0
-213 -424 -425 -295 -337 0
-213 -424 -425 -295 -337 -409 0
-213 -424 -425 -295 -337 -409 -252 0
-213 -424 -425 -295 -337 -409 -252 -281 0
-213 -424 -425 -295 -337 -397 0
-213 -424 -425 -295 -423 -337 0
-213 -424 -425 -295 -423 -337 -409 0
-213 -424 -425 -295 -423 -337 -409 -252 0
-213 -424 -425 -295 -423 -337 -409 -252 -281 0
-213 -424 -252 -409 -337 -295 0
-213 -424 -252 -409 -337 -295 -423 -281 0
-213 -424 -252 -409 -337 -295 -281 0
-213 -424 -252 -409 -337 -295 -425 -281 0
-213 -424 -252 -409 -337 -423 -281 0
-213 -424 -252 -409 -337 -423 -281 -425 -295 0
-213 -424 -252 -409 -337 -423 -281 -295 0
-213 -424 -252 -409 -337 -423 -295 0
-213 -424 -252 -409 -337 -423 -295 -281 0
-213 -424 -252 -409 -337 -423 -295 -425 -281 0
-213 -424 -252 -281 -425 -295 0
-213 -424 -252 -281 -425 -295 -337 0
-213 -424 -252 -281 -425 -295 -337 -409 0
-213 -424 -252 -281 -425 -295 -423 -337 0
-213 -424 -252 -281 -425 -295 -423 -337 -409 0
-213 -424 -252 -281 -295 0
-213 -424 -252 -281 -295 -337 0
-213 -424 -252 -281 -295 -337 -423 -392 0
-213 -424 -252 -281 -295 -337 -409 0
-213 -424 -252 -281 -295 -423 -337 0
-213 -424 -252 -281 -295 -423 -337 -409 0
-213 -424 -252 -281 -295 -423 -392 0
-213 -424 -252 -281 -407 -392 0
-213 -424 -252 -281 -423 -337 0
-213 -424 -252 -281 -423 -337 -295 0
-213 -424 -252 -281 -423 -337 -409 0
-213 -424 -252 -281 -423 -392 0
-213 -424 -252 -281 -423 -295 0
-213 -424 -252 -281 -423 -295 -337 0
-213 -424 -252 -281 -423 -295 -337 -409 0
-213 -424 -257 -425 -281 -295 0
-213 -424 -257 -425 -281 -295 -337 0
-213 -424 -257 -425 -281 -295 -337 -409 0
-213 -424 -257 -425 -281 -295 -337 -397 0
-213 -424 -257 -425 -281 -295 -423 -337 0
-213 -424 -257 -425 -281 -295 -423 -337 -409 0
-213 -424 -257 -425 -281 -423 -337 0
-213 -424 -257 -425 -281 -423 -337 -295 0
-213 -424 -257 -425 -281 -423 -337 -409 0
-213 -424 -257 -425 -281 -423 -295 0
-213 -424 -257 -425 -281 -423 -295 -337 0
-213 -424 -257 -425 -281 -423 -295 -337 -409 0
-213 -424 -257 -425 -295 0
-213 -424 -257 -425 -295 -281 -423 -337 0
-213 -424 -257 -425 -295 -281 -423 -337 -409 0
-213 -424 -257 -425 -295 -337 0
-213 -424 -257 -425 -295 -337 -409 0
-213 -424 -257 -425 -295 -337 -397 0
-213 -424 -257 -425 -295 -423 -337 0
-213 -424 -257 -425 -295 -423 -337 -409 0
-213 -424 -257 -281 -425 -295 0
-213 -424 -257 -281 -425 -295 -337 0
-213 -424 -257 -281 -425 -295 -337 -409 0
-213 -424 -257 -281 -425 -295 -337 -397 0
-213 -424 -257 -281 -425 -295 -423 -337 0
-213 -424 -257 -281 -425 -295 -423 -337 -409 0
-213 -424 -257 -281 -295 0
-213 -424 -257 -281 -295 -337 0
-213 -424 -257 -281 -295 -337 -423 -392 0
-213 -424 -257 -281 -295 -337 -409 0
-213 -424 -257 -281 -295 -337 -397 0
-213 -424 -257 -281 -295 -337 -397 -392 0
-213 -424 -257 -281 -295 -423 -337 0
-213 -424 -257 -281 -295 -423 -337 -409 0
-213 -424 -257 -281 -295 -423 -392 0
-213 -424 -257 -281 -423 -337 0
-213 -424 -257 -281 -423 -337 -295 0
-213 -424 -257 -281 -423 -337 -409 0
-213 -424 -257 -281 -423 -392 0
-213 -424 -257 -281 -423 -295 0
-213 -424 -257 -281 -423 -295 -337 0
-213 -424 -257 -281 -423 -295 -337 -409 0
-213 -209 -252 -281 -295 0
-213 -209 -252 -281 -295 -337 0
-213 -209 -252 -281 -295 -423 -337 0
-213 -209 -252 -281 -423 -337 0
-213 -209 -252 -281 -423 -337 -295 0
-213 -209 -252 -281 -423 -295 0
-213 -209 -252 -281 -423 -295 -337 0
-213 -409 -252 -424 -425 -281 -295 0
-213 -409 -252 -424 -425 -281 -295 -337 0
-213 -409 -252 -424 -425 -281 -295 -423 -337 0
-213 -409 -252 -424 -425 -281 -423 -337 0
-213 -409 -252 -424 -425 -281 -423 -337 -295 0
-213 -409 -252 -424 -425 -281 -423 -295 0
-213 -409 -252 -424 -425 -281 -423 -295 -337 0
-213 -409 -252 -424 -425 -295 0
-213 -409 -252 -424 -425 -295 -281 -423 -337 0
-213 -409 -252 -424 -425 -295 -337 0
-213 -409 -252 -424 -425 -295 -423 -337 0
-213 -409 -252 -281 -425 -295 0
-213 -409 -252 -281 -425 -295 -337 0
-213 -409 -252 -281 -425 -295 -423 -337 0
-213 -409 -252 -281 -295 0
-213 -409 -252 -281 -295 -337 0
-213 -409 -252 -281 -295 -423 -337 0
-213 -409 -252 -281 -423 -337 0
-213 -409 -252 -281 -423 -337 -295 0
-213 -409 -252 -281 -423 -295 0
-213 -409 -252 -281 -423 -295 -337 0
-213 -409 -337 -295 0
-213 -409 -337 -295 -246 -281 0
-213 -409 -337 -295 -246 -281 -326 0
-213 -409 -337 -295 -246 -425 -281 0
-213 -409 -337 -295 -246 -425 -281 -326 0
-213 -409 -337 -295 -423 -281 0
-213 -409 -337 -295 -423 -281 -425 -424 -252 0
-213 -409 -337 -295 -423 -281 -425 -257 -271 0
-213 -409 -337 -295 -423 -281 -257 -271 0
-213 -409 -337 -295 -423 -281 -252 0
-213 -409 -337 -295 -423 -281 -252 -271 0
-213 -409 -337 -295 -281 0
-213 -409 -337 -295 -281 -425 -424 -252 0
-213 -409 -337 -295 -281 -425 -257 -271 0
-213 -409 -337 -295 -281 -257 -271 0
-213 -409 -337 -295 -281 -326 0
-213 -409 -337 -295 -281 -252 0
-213 -409 -337 -295 -281 -252 -271 0
-213 -409 -337 -295 -425 -281 0
-213 -409 -337 -295 -425 -281 -257 -271 0
-213 -409 -337 -295 -425 -281 -326 0
-213 -409 -337 -295 -425 -281 -252 0
-213 -409 -337 -295 -425 -281 -252 -271 0
-213 -409 -337 -295 -425 -424 -252 0
-213 -409 -337 -295 -425 -424 -252 -281 0
-213 -409 -337 -295 -425 -424 -257 -281 0
-213 -409 -337 -295 -425 -424 -257 -281 -326 0
-213 -409 -337 -295 -425 -257 -281 0
-213 -409 -337 -295 -425 -257 -281 -326 0
-213 -409 -337 -295 -425 -257 -271 0
-213 -409 -337 -295 -425 -257 -271 -359 0
-213 -409 -337 -295 -425 -246 -281 0
-213 -409 -337 -295 -425 -246 -281 -326 0
-213 -409 -337 -423 -281 0
-213 -409 -337 -423 -281 -425 -295 0
-213 -409 -337 -423 -281 -425 -424 -252 0
-213 -409 -337 -423 -281 -425 -257 -271 0
-213 -409 -337 -423 -281 -257 -424 -425 -295 0
-213 -409 -337 -423 -281 -257 -271 0
-213 -409 -337 -423 -281 -257 -425 -295 0
-213 -409 -337 -423 -281 -295 0
-213 -409 -337 -423 -281 -295 -425 -424 -252 0
-213 -409 -337 -423 -281 -295 -425 -257 -271 0
-213 -409 -337 -423 -281 -252 0
-213 -409 -337 -423 -281 -252 -424 -425 -295 0
-213 -409 -337 -423 -281 -252 -271 0
-213 -409 -337 -423 -295 0
-213 -409 -337 -423 -295 -281 0
-213 -409 -337 -423 -295 -281 -425 -424 -252 0
-213 -409 -337 -423 -295 -281 -425 -257 -271 0
-213 -409 -337 -423 -295 -281 -257 -271 0
-213 -409 -337 -423 -295 -281 -252 0
-213 -409 -337 -423 -295 -281 -252 -271 0
-213 -409 -337 -423 -295 -425 -281 0
-213 -409 -337 -423 -295 -425 -281 -257 -271 0
-213 -409 -337 -423 -295 -425 -281 -252 0
-213 -409 -337 -423 -295 -425 -281 -252 -271 0
-213 -409 -337 -423 -295 -425 -424 -252 0
-213 -409 -337 -423 -295 -425 -424 -252 -281 0
-213 -409 -337 -423 -295 -425 -424 -257 -281 0
-213 -409 -337 -423 -295 -425 -257 -281 0
-213 -409 -337 -423 -295 -425 -257 -271 0
-213 -409 -337 -423 -295 -425 -257 -271 -359 0
-213 -252 -424 -425 -281 -295 0
-213 -252 -424 -425 -281 -295 -337 0
-213 -252 -424 -425 -281 -295 -337 -409 0
-213 -252 -424 -425 -281 -295 -423 -337 0
-213 -252 -424 -425 -281 -295 -423 -337 -409 0
-213 -252 -424 -425 -281 -423 -337 0
-213 -252 -424 -425 -281 -423 -337 -295 0
-213 -252 -424 -425 -281 -423 -337 -409 0
-213 -252 -424 -425 -281 -423 -295 0
-213 -252 -424 -425 -281 -423 -295 -337 0
-213 -252 -424 -425 -281 -423 -295 -337 -409 0
-213 -252 -424 -425 -295 0
-213 -252 -424 -425 -295 -281 -423 -337 0
-213 -252 -424 -425 -295 -281 -423 -337 -409 0
-213 -252 -424 -425 -295 -337 0
-213 -252 -424 -425 -295 -337 -409 0
-213 -252 -424 -425 -295 -423 -337 0
-213 -252 -424 -425 -295 -423 -337 -409 0
-213 -252 -409 -337 -295 0
-213 -252 -409 -337 -295 -423 -281 0
-213 -252 -409 -337 -295 -281 0
-213 -252 -409 -337 -295 -425 -281 0
-213 -252 -409 -337 -423 -281 0
-213 -252 -409 -337 -423 -281 -425 -295 0
-213 -252 -409 -337 -423 -281 -295 0
-213 -252 -409 -337 -423 -295 0
-213 -252 -409 -337 -423 -295 -281 0
-213 -252 -409 -337 -423 -295 -425 -281 0
-213 -252 -281 -425 -295 0
-213 -252 -281 -425 -295 -337 0
-213 -252 -281 -425 -295 -337 -409 0
-213 -252 -281 -425 -295 -423 -337 0
-213 -252 -281 -425 -295 -423 -337 -409 0
-213 -252 -281 -295 0
-213 -252 -281 -295 -337 0
-213 -252 -281 -295 -337 -423 -392 0
-213 -252 -281 -295 -337 -409 0
-213 -252 -281 -295 -423 -337 0
-213 -252 -281 -295 -423 -337 -409 0
-213 -252 -281 -295 -423 -392 0
-213 -252 -281 -407 -392 0
-213 -252 -281 -423 -337 0
-213 -252 -281 -423 -337 -295 0
-213 -252 -281 -423 -337 -409 0
-213 -252 -281 -423 -392 0
-213 -252 -281 -423 -295 0
-213 -252 -281 -423 -295 -337 0
-213 -252 -281 -423 -295 -337 -409 0
-213 -271 -252 -409 -337 -295 0
-213 -271 -252 -409 -337 -295 -423 -281 0
-213 -271 -252 -409 -337 -295 -281 0
-213 -271 -252 -409 -337 -295 -425 -281 0
-213 -271 -252 -409 -337 -423 -281 0
-213 -271 -252 -409 -337 -423 -281 -425 -295 0
-213 -271 -252 -409 -337 -423 -281 -295 0
-213 -271 -252 -409 -337 -423 -295 0
-213 -271 -252 -409 -337 -423 -295 -281 0
-213 -271 -252 -409 -337 -423 -295 -425 -281 0
-213 -271 -252 -281 -425 -295 0
-213 -271 -252 -281 -425 -295 -337 0
-213 -271 -252 -281 -425 -295 -337 -409 0
-213 -271 -252 -281 -425 -295 -423 -337 0
-213 -271 -252 -281 -425 -295 -423 -337 -409 0
-213 -271 -252 -281 -295 0
-213 -271 -252 -281 -295 -337 0
-213 -271 -252 -281 -295 -337 -423 -392 0
-213 -271 -252 -281 -295 -337 -409 0
-213 -271 -252 -281 -295 -423 -337 0
-213 -271 -252 -281 -295 -423 -337 -409 0
-213 -271 -252 -281 -295 -423 -392 0
-213 -271 -252 -281 -407 -392 0
-213 -271 -252 -281 -423 -337 0
-213 -271 -252 -281 -423 -337 -295 0
-213 -271 -252 -281 -423 -337 -409 0
-213 -271 -252 -281 -423 -392 0
-213 -271 -252 -281 -423 -295 0
-213 -271 -252 -281 -423 -295 -337 0
-213 -271 -252 -281 -423 -295 -337 -409 0
-213 -271 -257 -425 -281 -295 0
-213 -271 -257 -425 -281 -295 -337 0
-213 -271 -257 -425 -281 -295 -337 -409 0
-213 -271 -257 -425 -281 -295 -337 -397 0
-213 -271 -257 -425 -281 -295 -423 -337 0
-213 -271 -257 -425 -281 -295 -423 -337 -409 0
-213 -271 -257 -425 -281 -423 -337 0
-213 -271 -257 -425 -281 -423 -337 -295 0
-213 -271 -257 -425 -281 -423 -337 -409 0
-213 -271 -257 -425 -281 -423 -295 0
-213 -271 -257 -425 -281 -423 -295 -337 0
-213 -271 -257 -425 -281 -423 -295 -337 -409 0
-213 -271 -257 -425 -295 0
-213 -271 -257 -425 -295 -281 -423 -337 0
-213 -271 -257 -425 -295 -281 -423 -337 -409 0
-213 -271 -257 -425 -295 -337 0
-213 -271 -257 -425 -295 -337 -409 0
-213 -271 -257 -425 -295 -337 -397 0
-213 -271 -257 -425 -295 -423 -337 0
-213 -271 -257 -425 -295 -423 -337 -409 0
-213 -271 -257 -281 -425 -295 0
-213 -271 -257 -281 -425 -295 -337 0
-213 -271 -257 -281 -425 -295 -337 -409 0
-213 -271 -257 -281 -425 -295 -337 -397 0
-213 -271 -257 -281 -425 -295 -423 -337 0
-213 -271 -257 -281 -425 -295 -423 -337 -409 0
-213 -271 -257 -281 -295 0
-213 -271 -257 -281 -295 -337 0
-213 -271 -257 -281 -295 -337 -423 -392 0
-213 -271 -257 -281 -295 -337 -409 0
-213 -271 -257 -281 -295 -337 -397 0
-213 -271 -257 -281 -295 -337 -397 -392 0
-213 -271 -257 -281 -295 -423 -337 0
-213 -271 -257 -281 -295 -423 -337 -409 0
-213 -271 -257 -281 -295 -423 -392 0
-213 -271 -257 -281 -423 -337 0
-213 -271 -257 -281 -423 -337 -295 0
-213 -271 -257 -281 -423 -337 -409 0
-213 -271 -257 -281 -423 -392 0
-213 -271 -257 -281 -423 -295 0
-213 -271 -257 -281 -423 -295 -337 0
-213 -271 -257 -281 -423 -295 -337 -409 0
-213 -271 -359 -235 -246 -295 0
-213 -271 -359 -235 -246 -295 -337 0
-213 -271 -235 -257 -281 -295 0
-213 -271 -235 -257 -281 -295 -337 0
-213 -271 -235 -257 -281 -295 -337 -397 0
-213 -271 -235 -257 -281 -295 -423 -337 0
-213 -271 -235 -257 -281 -423 -337 0
-213 -271 -235 -257 -281 -423 -337 -295 0
-213 -271 -235 -257 -281 -423 -295 0
-213 -271 -235 -257 -281 -423 -295 -337 0
-213 -271 -235 -246 -295 0
-213 -271 -235 -246 -295 -337 0
-213 -271 -235 -246 -281 -295 0
-213 -271 -235 -246 -281 -295 -337 0
-17 -129 426 0
-18 -130 426 0
-19 -131 426 0
-20 -132 426 0
-21 -133 426 0
-22 -134 426 0
-23 -135 426 0
-24 -136 426 0
-426 -209 -252 -281 -295 -337 0
-426 -209 -252 -281 -295 -337 -423 0
-426 -209 -252 -281 -295 -423 0
-426 -209 -252 -281 -295 -423 -337 0
-426 -209 -252 -281 -407 0
-426 -209 -252 -281 -423 0
-426 -209 -252 -281 -423 -337 0
-426 -209 -252 -281 -423 -295 -337 0
-426 -409 -252 -424 -425 -281 -295 -337 0
-426 -409 -252 -424 -425 -281 -295 -337 -423 0
-426 -409 -252 -424 -425 -281 -295 -423 0
-426 -409 -252 -424 -425 -281 -295 -423 -337 0
-426 -409 -252 -424 -425 -281 -407 0
-426 -409 -252 -424 -425 -281 -423 0
-426 -409 -252 -424 -425 -281 -423 -337 0
-426 -409 -252 -424 -425 -281 -423 -295 -337 0
-426 -409 -252 -424 -425 -295 -281 -407 0
-426 -409 -252 -424 -425 -295 -281 -423 0
-426 -409 -252 -424 -425 -295 -281 -423 -337 0
-426 -409 -252 -424 -425 -295 -337 0
-426 -409 -252 -424 -425 -295 -337 -423 0
-426 -409 -252 -424 -425 -295 -423 0
-426 -409 -252 -424 -425 -295 -423 -337 0
-426 -409 -252 -281 -425 -295 -337 0
-426 -409 -252 -281 -425 -295 -337 -423 0
-426 -409 -252 -281 -425 -295 -423 0
-426 -409 -252 -281 -425 -295 -423 -337 0
-426 -409 -252 -281 -295 -337 0
-426 -409 -252 -281 -295 -337 -423 0
-426 -409 -252 -281 -295 -423 0
-426 -409 -252 -281 -295 -423 -337 0
-426 -409 -252 -281 -407 0
-426 -409 -252 -281 -423 0
-426 -409 -252 -281 -423 -337 0
-426 -409 -252 -281 -423 -295 -337 0
-239 -409 -213 -424 -425 -281 0
-239 -409 -213 -424 -425 -281 -295 0
-239 -409 -213 -424 -425 -281 -295 -337 0
-239 -409 -213 -424 -425 -295 0
-239 -409 -213 -424 -425 -295 -281 0
-239 -409 -213 -424 -425 -295 -337 0
-239 -409 -213 -424 -425 -295 -337 -289 0
-252 -424 -213 -409 -337 -295 -423 -281 0
-252 -424 -213 -409 -337 -295 -281 0
-252 -424 -213 -409 -337 -295 -425 -281 0
-252 -424 -213 -409 -337 -423 -281 0
-252 -424 -213 -409 -337 -423 -295 -281 0
-252 -424 -213 -409 -337 -423 -295 -425 -281 0
-252 -424 -425 -281 -295 -337 0
-252 -424 -425 -281 -295 -337 -409 0
-252 -424 -425 -281 -295 -423 -337 0
-252 -424 -425 -281 -295 -423 -337 -409 0
-252 -424 -425 -281 -423 -337 0
-252 -424 -425 -281 -423 -337 -409 0
-252 -424 -425 -281 -423 -295 -337 0
-252 -424 -425 -281 -423 -295 -337 -409 0
-252 -424 -425 -295 -281 -423 -337 0
-252 -424 -425 -295 -281 -423 -337 -409 0
-252 -424 -425 -295 -337 0
-252 -424 -425 -295 -337 -409 0
-252 -424 -425 -295 -423 -337 0
-252 -424 -425 -295 -423 -337 -409 0
-252 -213 -424 -425 -281 -295 -337 0
-252 -213 -424 -425 -281 -295 -337 -409 0
-252 -213 -424 -425 -281 -295 -423 -337 0
-252 -213 -424 -425 -281 -295 -423 -337 -409 0
-252 -213 -424 -425 -281 -423 -337 0
-252 -213 -424 -425 -281 -423 -337 -409 0
-252 -213 -424 -425 -281 -423 -295 -337 0
-252 -213 -424 -425 -281 -423 -295 -337 -409 0
-252 -213 -424 -425 -295 -281 -423 -337 0
-252 -213 -424 -425 -295 -281 -423 -337 -409 0
-252 -213 -424 -425 -295 -337 0
-252 -213 -424 -425 -295 -337 -409 0
-252 -213 -424 -425 -295 -423 -337 0
-252 -213 -424 -425 -295 -423 -337 -409 0
-252 -213 -409 -337 -295 -423 -281 0
-252 -213 -409 -337 -295 -281 0
-252 -213 -409 -337 -295 -425 -281 0
-252 -213 -409 -337 -423 -281 0
-252 -213 -409 -337 -423 -295 -281 0
-252 -213 -409 -337 -423 -295 -425 -281 0
-252 -271 -213 -409 -337 -295 -423 -281 0
-252 -271 -213 -409 -337 -295 -281 0
-252 -271 -213 -409 -337 -295 -425 -281 0
-252 -271 -213 -409 -337 -423 -281 0
-252 -271 -213 -409 -337 -423 -295 -281 0
-252 -271 -213 -409 -337 -423 -295 -425 -281 0
-252 -409 -213 -424 -425 -281 -295 -337 0
-252 -409 -213 -424 -425 -281 -295 -423 -337 0
-252 -409 -213 -424 -425 -281 -423 -337 0
-252 -409 -213 -424 -425 -281 -423 -295 -337 0
-252 -409 -213 -424 -425 -295 -281 -423 -337 0
-252 -409 -213 -424 -425 -295 -337 0
-252 -409 -213 -424 -425 -295 -423 -337 0
-252 -409 -337 -295 -423 -281 0
-252 -409 -337 -295 -281 0
-252 -409 -337 -295 -425 -281 0
-252 -409 -337 -423 -281 0
-252 -409 -337 -423 -295 -281 0
-252 -409 -337 -423 -295 -425 -281 0
-252 -281 -425 -295 -337 0
-252 -281 -425 -295 -337 -409 0
-252 -281 -425 -295 -337 -409 -213 -271 0
-252 -281 -425 -295 -423 -337 0
-252 -281 -425 -295 -423 -337 -409 0
-252 -281 -425 -295 -423 -337 -409 -213 -271 0
-252 -281 -295 -337 0
-252 -281 -295 -337 -423 -392 0
-252 -281 -295 -337 -409 0
-252 -281 -295 -337 -409 -213 -271 0
-252 -281 -295 -423 -337 0
-252 -281 -295 -423 -337 -409 0
-252 -281 -295 -423 -337 -409 -213 -271 0
-252 -281 -295 -423 -392 0
-252 -281 -407 -392 0
-252 -281 -423 -337 0
-252 -281 -423 -337 -409 0
-252 -281 -423 -337 -409 -213 -271 0
-252 -281 -423 -392 0
-252 -281 -423 -295 -337 0
-252 -281 -423 -295 -337 -409 0
-252 -281 -423 -295 -337 -409 -213 -271 0
-257 -424 -213 -409 -337 -295 -423 -281 0
-257 -424 -213 -409 -337 -295 -281 0
-257 -424 -213 -409 -337 -295 -425 -281 0
-257 -424 -213 -409 -337 -423 -281 0
-257 -424 -213 -409 -337 -423 -295 -281 0
-257 -424 -213 -409 -337 -423 -295 -425 -281 0
-257 -425 -424 -213 -409 -337 -295 -423 -281 0
-257 -425 -424 -213 -409 -337 -295 -281 0
-257 -425 -424 -213 -409 -337 -423 -281 0
-257 -425 -424 -213 -409 -337 -423 -295 -281 0
-257 -425 -281 -295 -337 -409 -213 -271 0
-257 -425 -281 -295 -423 -337 -409 -213 -271 0
-257 -425 -281 -423 -337 -409 -213 -271 0
-257 -425 -281 -423 -295 -337 -409 -213 -271 0
-257 -425 -295 -281 -423 -337 -409 -213 -271 0
-257 -425 -295 -337 -409 -213 -271 0
-257 -425 -295 -337 -409 -213 -271 -359 0
-257 -425 -295 -423 -337 -409 -213 -271 0
-257 -425 -295 -423 -337 -409 -213 -271 -359 0
-257 -271 -213 -409 -337 -295 -423 -281 0
-257 -271 -213 -409 -337 -295 -281 0
-257 -271 -213 -409 -337 -295 -425 -281 0
-257 -271 -213 -409 -337 -423 -281 0
-257 -271 -213 -409 -337 -423 -295 -281 0
-257 -271 -213 -409 -337 -423 -295 -425 -281 0
-257 -281 -425 -295 -337 -409 -213 -271 0
-257 -281 -425 -295 -423 -337 -409 -213 -271 0
-257 -281 -295 -337 -409 -213 -271 0
-257 -281 -295 -423 -337 -409 -213 -271 0
-257 -281 -423 -337 -409 -213 -271 0
-257 -281 -423 -295 -337 -409 -213 -271 0
-246 -425 -424 -213 -409 -337 0
-246 -425 -424 -213 -409 -337 -295 0
-246 -425 -424 -213 -409 -337 -295 -281 0
-246 -425 -295 -337 -409 -213 -271 -359 0
-246 -295 -425 -424 -213 -409 -337 0
-246 -295 -281 -425 -424 -213 -409 -337 0
-246 -295 -337 -409 -213 -424 -425 -281 0
-246 -295 -337 -409 -213 -271 -359 0
-246 -281 -425 -424 -213 -409 -337 0
-246 -281 -425 -424 -213 -409 -337 -295 0
-246 -281 -295 -425 -424 -213 -409 -337 0
-281 -425 -424 -213 -409 -337 -295 0
-281 -425 -424 -213 -409 -337 -295 -423 0
-281 -425 -424 -213 -409 -337 -423 0
-281 -425 -424 -213 -409 -337 -423 -295 0
-281 -425 -424 -213 -409 -337 -397 0
-281 -425 -424 -213 -252 -409 -337 -295 0
-281 -425 -424 -213 -252 -409 -337 -295 -423 0
-281 -425 -424 -213 -252 -409 -337 -423 0
-281 -425 -424 -213 -252 -409 -337 -423 -295 0
-281 -425 -424 -252 -213 -409 -337 -295 0
-281 -425 -424 -252 -213 -409 -337 -295 -423 0
-281 -425 -424 -252 -213 -409 -337 -423 0
-281 -425 -424 -252 -213 -409 -337 -423 -295 0
-281 -425 -424 -252 -409 -337 -295 0
-281 -425 -424 -252 -409 -337 -295 -423 0
-281 -425 -424 -252 -409 -337 -423 0
-281 -425 -424 -252 -409 -337 -423 -295 0
-281 -425 -257 -424 -213 -409 -337 -295 0
-281 -425 -257 -424 -213 -409 -337 -295 -423 0
-281 -425 -257 -424 -213 -409 -337 -423 0
-281 -425 -257 -424 -213 -409 -337 -423 -295 0
-281 -425 -257 -424 -213 -409 -337 -397 0
-281 -425 -257 -271 -213 -409 -337 -295 0
-281 -425 -257 -271 -213 -409 -337 -295 -423 0
-281 -425 -257 -271 -213 -409 -337 -423 0
-281 -425 -257 -271 -213 -409 -337 -423 -295 0
-281 -425 -257 -271 -213 -409 -337 -397 0
-281 -425 -246 -295 -337 -409 -213 -271 0
-281 -425 -295 -337 -409 -252 -213 -271 0
-281 -425 -295 -337 -409 -252 -271 0
-281 -425 -295 -337 -409 -213 -252 -271 0
-281 -425 -295 -337 -409 -213 -271 0
-281 -425 -295 -337 -397 0
-281 -425 -295 -423 -337 -409 -252 -213 -271 0
-281 -425 -295 -423 -337 -409 -252 -271 0
-281 -425 -295 -423 -337 -409 -213 -252 -271 0
-281 -425 -295 -423 -337 -409 -213 -271 0
-281 -295 -425 -424 -213 -409 -337 -423 0
-281 -295 -425 -424 -213 -409 -337 -397 0
-281 -295 -425 -424 -213 -252 -409 -337 -423 0
-281 -295 -425 -424 -252 -213 -409 -337 -423 0
-281 -295 -425 -424 -252 -409 -337 -423 0
-281 -295 -425 -257 -424 -213 -409 -337 -423 0
-281 -295 -425 -257 -424 -213 -409 -337 -397 0
-281 -295 -425 -257 -271 -213 -409 -337 -423 0
-281 -295 -425 -257 -271 -213 -409 -337 -397 0
-281 -295 -337 -423 -392 -396 0
-281 -295 -337 -409 -252 -213 -271 0
-281 -295 -337 -409 -252 -271 0
-281 -295 -337 -409 -213 -252 -271 0
-281 -295 -337 -409 -213 -271 0
-281 -295 -337 -397 0
-281 -295 -423 -337 -409 -252 -213 -271 0
-281 -295 -423 -337 -409 -252 -271 0
-281 -295 -423 -337 -409 -213 -252 -271 0
-281 -295 -423 -337 -409 -213 -271 0
-281 -295 -423 -392 -396 0
-281 -407 -392 -397 0
-281 -423 -337 -409 -252 -213 -424 -425 -295 0
-281 -423 -337 -409 -252 -213 -271 0
-281 -423 -337 -409 -252 -424 -425 -295 0
-281 -423 -337 -409 -252 -271 0
-281 -423 -337 -409 -213 -252 -424 -425 -295 0
-281 -423 -337 -409 -213 -252 -271 0
-281 -423 -337 -409 -213 -424 -257 -425 -295 0
-281 -423 -337 -409 -213 -424 -425 -295 0
-281 -423 -337 -409 -213 -271 0
-281 -423 -337 -409 -213 -271 -257 -425 -295 0
-281 -423 -392 -396 0
-281 -423 -295 -337 -409 -252 -213 -271 0
-281 -423 -295 -337 -409 -252 -271 0
-281 -423 -295 -337 -409 -213 -252 -271 0
-281 -423 -295 -337 -409 -213 -271 0
-281 -257 -424 -213 -409 -337 -295 0
-281 -257 -424 -213 -409 -337 -295 -423 0
-281 -257 -424 -213 -409 -337 -423 0
-281 -257 -424 -213 -409 -337 -423 -295 0
-281 -257 -424 -213 -409 -337 -397 0
-281 -257 -424 -425 -295 -337 -397 0
-281 -257 -425 -424 -213 -409 -337 -295 0
-281 -257 -425 -424 -213 -409 -337 -295 -423 0
-281 -257 -425 -424 -213 -409 -337 -423 0
-281 -257 -425 -424 -213 -409 -337 -423 -295 0
-281 -257 -425 -424 -213 -409 -337 -397 0
-281 -257 -425 -295 -337 -409 -213 -271 0
-281 -257 -425 -295 -337 -397 0
-281 -257 -425 -295 -423 -337 -409 -213 -271 0
-281 -257 -271 -213 -409 -337 -295 0
-281 -257 -271 -213 -409 -337 -295 -423 0
-281 -257 -271 -213 -409 -337 -423 0
-281 -257 -271 -213 -409 -337 -423 -295 0
-281 -257 -271 -213 -409 -337 -397 0
-281 -246 -425 -424 -213 -409 -337 -295 0
-281 -246 -425 -295 -337 -409 -213 -271 0
-281 -246 -295 -337 -409 -213 -271 0
-281 -252 -424 -213 -409 -337 -295 0
-281 -252 -424 -213 -409 -337 -295 -423 0
-281 -252 -424 -213 -409 -337 -423 0
-281 -252 -424 -213 -409 -337 -423 -295 0
-281 -252 -213 -409 -337 -295 0
-281 -252 -213 -409 -337 -295 -423 0
-281 -252 -213 -409 -337 -423 0
-281 -252 -213 -409 -337 -423 -295 0
-281 -252 -271 -213 -409 -337 -295 0
-281 -252 -271 -213 -409 -337 -295 -423 0
-281 -252 -271 -213 -409 -337 -423 0
-281 -252 -271 -213 -409 -337 -423 -295 0
-281 -252 -409 -337 -295 0
-281 -252 -409 -337 -295 -423 0
-281 -252 -409 -337 -423 0
-281 -252 -409 -337 -423 -295 0
-289 -337 -295 -425 -424 -213 -409 0
-289 -337 -295 -425 -424 -213 -252 -409 0
-289 -337 -295 -425 -424 -252 -213 -409 0
-289 -337 -295 -425 -424 -252 -409 0
-289 -337 -295 -425 -257 -424 -213 -409 0
-289 -337 -295 -425 -257 -271 0
-289 -337 -295 -425 -257 -271 -213 -409 0
-289 -337 -295 -246 -425 -424 -213 -409 0
-289 -337 -295 -246 -235 0
-289 -337 -295 -246 -235 -271 0
-289 -337 -423 -295 -425 -424 -213 -409 0
-289 -337 -423 -295 -425 -424 -213 -252 -409 0
-289 -337 -423 -295 -425 -424 -252 -213 -409 0
-289 -337 -423 -295 -425 -424 -252 -409 0
-289 -337 -423 -295 -425 -257 -424 -213 -409 0
-289 -337 -423 -295 -425 -257 -271 0
-289 -337 -423 -295 -425 -257 -271 -213 -409 0
-295 -425 -424 -213 -409 -337 0
-295 -425 -424 -213 -409 -337 -423 0
-295 -425 -424 -213 -409 -337 -397 0
-295 -425 -424 -213 -252 -409 -337 0
-295 -425 -424 -213 -252 -409 -337 -423 0
-295 -425 -424 -252 -213 -409 -337 0
-295 -425 -424 -252 -213 -409 -337 -423 0
-295 -425 -424 -252 -409 -337 0
-295 -425 -424 -252 -409 -337 -423 0
-295 -425 -257 -424 -213 -409 -337 0
-295 -425 -257 -424 -213 -409 -337 -423 0
-295 -425 -257 -424 -213 -409 -337 -397 0
-295 -425 -257 -271 0
-295 -425 -257 -271 -213 -409 -337 0
-295 -425 -257 -271 -213 -409 -337 -423 0
-295 -425 -257 -271 -213 -409 -337 -397 0
-295 -425 -281 -257 -424 -213 -409 -337 0
-295 -425 -281 -257 -424 -213 -409 -337 -423 0
-295 -425 -281 -257 -424 -213 -409 -337 -397 0
-295 -425 -281 -257 -271 0
-295 -425 -281 -257 -271 -213 -409 -337 0
-295 -425 -281 -257 -271 -213 -409 -337 -423 0
-295 -425 -281 -257 -271 -213 -409 -337 -397 0
-295 -425 -281 -252 -424 -213 -409 -337 0
-295 -425 -281 -252 -424 -213 -409 -337 -423 0
-295 -425 -281 -252 -213 -409 -337 0
-295 -425 -281 -252 -213 -409 -337 -423 0
-295 -425 -281 -252 -213 -271 0
-295 -425 -281 -252 -271 0
-295 -425 -281 -252 -271 -213 -409 -337 0
-295 -425 -281 -252 -271 -213 -409 -337 -423 0
-295 -425 -281 -252 -409 -213 -271 0
-295 -425 -281 -252 -409 -337 0
-295 -425 -281 -252 -409 -337 -423 0
-295 -246 -425 -424 -213 -409 -337 0
-295 -246 -235 -359 -271 0
-295 -246 -235 -271 0
-295 -246 -281 -425 -424 -213 -409 -337 0
-295 -281 -425 -424 -213 -409 -337 0
-295 -281 -425 -424 -213 -409 -337 -423 0
-295 -281 -425 -424 -213 -409 -337 -397 0
-295 -281 -425 -424 -213 -252 -409 -337 0
-295 -281 -425 -424 -213 -252 -409 -337 -423 0
-295 -281 -425 -424 -252 -213 -409 -337 0
-295 -281 -425 -424 -252 -213 -409 -337 -423 0
-295 -281 -425 -424 -252 -409 -337 0
-295 -281 -425 -424 -252 -409 -337 -423 0
-295 -281 -425 -257 -424 -213 -409 -337 0
-295 -281 -425 -257 -424 -213 -409 -337 -423 0
-295 -281 -425 -257 -424 -213 -409 -337 -397 0
-295 -281 -425 -257 -271 0
-295 -281 -425 -257 -271 -213 -409 -337 0
-295 -281 -425 -257 -271 -213 -409 -337 -423 0
-295 -281 -425 -257 -271 -213 -409 -337 -397 0
-295 -281 -257 -424 -213 -409 -337 0
-295 -281 -257 -424 -213 -409 -337 -423 0
-295 -281 -257 -424 -213 -409 -337 -397 0
-295 -281 -257 -425 -424 -213 -409 -337 0
-295 -281 -257 -425 -424 -213 -409 -337 -423 0
-295 -281 -257 -425 -424 -213 -409 -337 -397 0
-295 -281 -257 -271 0
-295 -281 -257 -271 -213 -409 -337 0
-295 -281 -257 -271 -213 -409 -337 -423 0
-295 -281 -257 -271 -213 -409 -337 -397 0
-295 -281 -257 -235 -271 0
-295 -281 -246 -425 -424 -213 -409 -337 0
-295 -281 -246 -235 -271 0
-295 -281 -252 -424 -213 -409 -337 0
-295 -281 -252 -424 -213 -409 -337 -423 0
-295 -281 -252 -209 -213 -271 0
-295 -281 -252 -213 -409 -337 0
-295 -281 -252 -213 -409 -337 -423 0
-295 -281 -252 -213 -271 0
-295 -281 -252 -271 0
-295 -281 -252 -271 -213 -409 -337 0
-295 -281 -252 -271 -213 -409 -337 -423 0
-295 -281 -252 -409 -213 -271 0
-295 -281 -252 -409 -337 0
-295 -281 -252 -409 -337 -423 0
-295 -337 -423 -281 -425 -257 -271 0
-295 -337 -423 -281 -257 -271 0
-295 -337 -423 -281 -257 -235 -271 0
-295 -337 -423 -281 -252 -209 -213 -271 0
-295 -337 -423 -281 -252 -213 -271 0
-295 -337 -423 -281 -252 -271 0
-295 -337 -423 -281 -252 -409 -213 -271 0
-295 -337 -409 -252 -213 -424 -425 -281 -423 0
-295 -337 -409 -252 -213 -271 -359 0
-295 -337 -409 -252 -424 -425 -281 -423 0
-295 -337 -409 -252 -271 -359 0
-295 -337 -409 -252 -281 -423 0
-295 -337 -409 -213 -252 -424 -425 -281 -423 0
-295 -337 -409 -213 -252 -271 -359 0
-295 -337 -409 -213 -252 -281 -423 0
-295 -337 -409 -213 -424 -252 -281 -423 0
-295 -337 -409 -213 -424 -257 -281 -423 0
-295 -337 -409 -213 -424 -257 -425 -281 -423 0
-295 -337 -409 -213 -424 -425 -281 -423 0
-295 -337 -409 -213 -424 -425 -257 -281 -423 0
-295 -337 -409 -213 -271 -359 0
-295 -337 -409 -213 -271 -252 -281 -423 0
-295 -337 -409 -213 -271 -257 -281 -423 0
-295 -337 -409 -213 -271 -257 -425 -281 -423 0
-295 -423 -281 -425 -424 -213 -409 -337 0
-295 -423 -281 -425 -424 -213 -252 -409 -337 0
-295 -423 -281 -425 -424 -252 -213 -409 -337 0
-295 -423 -281 -425 -424 -252 -409 -337 0
-295 -423 -281 -425 -257 -424 -213 -409 -337 0
-295 -423 -281 -425 -257 -271 0
-295 -423 -281 -425 -257 -271 -213 -409 -337 0
-295 -423 -281 -257 -424 -213 -409 -337 0
-295 -423 -281 -257 -425 -424 -213 -409 -337 0
-295 -423 -281 -257 -271 0
-295 -423 -281 -257 -271 -213 -409 -337 0
-295 -423 -281 -257 -235 -271 0
-295 -423 -281 -252 -424 -213 -409 -337 0
-295 -423 -281 -252 -209 -213 -271 0
-295 -423 -281 -252 -213 -409 -337 0
-295 -423 -281 -252 -213 -271 0
-295 -423 -281 -252 -271 0
-295 -423 -281 -252 -271 -213 -409 -337 0
-295 -423 -281 -252 -409 -213 -271 0
-295 -423 -281 -252 -409 -337 0
-295 -423 -337 -409 -252 -213 -271 -359 0
-295 -423 -337 -409 -252 -271 -359 0
-295 -423 -337 -409 -213 -252 -271 -359 0
-295 -423 -337 -409 -213 -271 -359 0
-271 -213 -409 -337 -295 -246 -281 -407 0
-271 -213 -409 -337 -295 -246 -281 -326 0
-271 -213 -409 -337 -295 -246 -425 -281 -407 0
-271 -213 -409 -337 -295 -246 -425 -281 -326 0
-271 -213 -409 -337 -295 -281 -407 0
-271 -213 -409 -337 -295 -281 -326 0
-271 -213 -409 -337 -295 -425 -281 -407 0
-271 -213 -409 -337 -295 -425 -281 -326 0
-271 -213 -409 -337 -295 -425 -257 -281 -326 0
-271 -213 -409 -337 -295 -425 -246 -281 -407 0
-271 -213 -409 -337 -295 -425 -246 -281 -326 0
-271 -213 -252 -409 -337 -295 -281 -407 0
-271 -213 -252 -409 -337 -295 -425 -281 -407 0
-271 -252 -213 -409 -337 -295 -281 -407 0
-271 -252 -213 -409 -337 -295 -425 -281 -407 0
-271 -252 -409 -337 -295 -281 -407 0
-271 -252 -409 -337 -295 -425 -281 -407 0
-271 -257 -425 -281 -295 -337 -397 0
-271 -257 -425 -295 -337 -397 0
-271 -257 -281 -425 -295 -337 -397 0
-271 -257 -281 -295 -337 -397 0
-271 -235 -257 -281 -295 -337 -397 0
-409 -213 -424 -425 -257 -281 -295 -337 0
-409 -213 -424 -425 -257 -281 -295 -337 -423 0
-409 -213 -424 -425 -257 -281 -295 -337 -397 0
-409 -213 -424 -425 -257 -281 -295 -423 0
-409 -213 -424 -425 -257 -281 -295 -423 -337 0
-409 -213 -424 -425 -257 -281 -423 0
-409 -213 -424 -425 -257 -281 -423 -337 0
-409 -213 -424 -425 -257 -281 -423 -295 -337 0
-409 -213 -424 -425 -257 -281 -326 0
-409 -213 -424 -425 -246 -295 -281 -407 0
-409 -213 -424 -425 -246 -295 -281 -326 0
-409 -213 -424 -425 -246 -295 -337 0
-409 -213 -424 -425 -246 -281 -295 -337 0
-409 -213 -424 -425 -246 -281 -407 0
-409 -213 -424 -425 -246 -281 -326 0
-409 -213 -424 -425 -281 -295 -337 0
-409 -213 -424 -425 -281 -295 -337 -423 0
-409 -213 -424 -425 -281 -295 -337 -397 0
-409 -213 -424 -425 -281 -295 -423 0
-409 -213 -424 -425 -281 -295 -423 -337 0
-409 -213 -424 -425 -281 -407 0
-409 -213 -424 -425 -281 -423 0
-409 -213 -424 -425 -281 -423 -337 0
-409 -213 -424 -425 -281 -423 -295 -337 0
-409 -213 -424 -425 -281 -326 0
-409 -213 -424 -425 -281 -246 -295 -337 0
-409 -213 -424 -425 -295 -246 -281 -407 0
-409 -213 -424 -425 -295 -246 -281 -326 0
-409 -213 -424 -425 -295 -281 -407 0
-409 -213 -424 -425 -295 -281 -423 0
-409 -213 -424 -425 -295 -281 -423 -337 0
-409 -213 -424 -425 -295 -281 -326 0
-409 -213 -424 -425 -295 -337 0
-409 -213 -424 -425 -295 -337 -423 0
-409 -213 -424 -425 -295 -337 -397 0
-409 -213 -424 -425 -295 -423 0
-409 -213 -424 -425 -295 -423 -337 0
-409 -213 -424 -252 -281 -425 -295 -337 0
-409 -213 -424 -252 -281 -425 -295 -337 -423 0
-409 -213 -424 -252 -281 -425 -295 -423 0
-409 -213 -424 -252 -281 -425 -295 -423 -337 0
-409 -213 -424 -252 -281 -295 -337 0
-409 -213 -424 -252 -281 -295 -337 -423 0
-409 -213 -424 -252 -281 -295 -423 0
-409 -213 -424 -252 -281 -295 -423 -337 0
-409 -213 -424 -252 -281 -407 0
-409 -213 -424 -252 -281 -423 0
-409 -213 -424 -252 -281 -423 -337 0
-409 -213 -424 -252 -281 -423 -295 -337 0
-409 -213 -424 -257 -425 -281 -295 -337 0
-409 -213 -424 -257 -425 -281 -295 -337 -423 0
-409 -213 -424 -257 -425 -281 -295 -337 -397 0
-409 -213 -424 -257 -425 -281 -295 -423 0
-409 -213 -424 -257 -425 -281 -295 -423 -337 0
-409 -213 -424 -257 -425 -281 -423 0
-409 -213 -424 -257 -425 -281 -423 -337 0
-409 -213 -424 -257 -425 -281 -423 -295 -337 0
-409 -213 -424 -257 -425 -281 -326 0
-409 -213 -424 -257 -425 -295 -281 -423 0
-409 -213 -424 -257 -425 -295 -281 -423 -337 0
-409 -213 -424 -257 -425 -295 -281 -326 0
-409 -213 -424 -257 -425 -295 -337 0
-409 -213 -424 -257 -425 -295 -337 -423 0
-409 -213 -424 -257 -425 -295 -337 -397 0
-409 -213 -424 -257 -425 -295 -423 0
-409 -213 -424 -257 -425 -295 -423 -337 0
-409 -213 -424 -257 -281 -425 -295 -337 0
-409 -213 -424 -257 -281 -425 -295 -337 -423 0
-409 -213 -424 -257 -281 -425 -295 -337 -397 0
-409 -213 -424 -257 -281 -425 -295 -423 0
-409 -213 -424 -257 -281 -425 -295 -423 -337 0
-409 -213 -424 -257 -281 -295 -337 0
-409 -213 -424 -257 -281 -295 -337 -423 0
-409 -213 -424 -257 -281 -295 -337 -397 0
-409 -213 -424 -257 -281 -295 -423 0
-409 -213 -424 -257 -281 -295 -423 -337 0
-409 -213 -424 -257 -281 -423 0
-409 -213 -424 -257 -281 -423 -337 0
-409 -213 -424 -257 -281 -423 -295 -337 0
-409 -213 -424 -257 -281 -326 0
-409 -213 -252 -424 -425 -281 -295 -337 0
-409 -213 -252 -424 -425 -281 -295 -337 -423 0
-409 -213 -252 -424 -425 -281 -295 -423 0
-409 -213 -252 -424 -425 -281 -295 -423 -337 0
-409 -213 -252 -424 -425 -281 -407 0
-409 -213 -252 -424 -425 -281 -423 0
-409 -213 -252 -424 -425 -281 -423 -337 0
-409 -213 -252 -424 -425 -281 -423 -295 -337 0
-409 -213 -252 -424 -425 -295 -281 -407 0
-409 -213 -252 -424 -425 -295 -281 -423 0
-409 -213 -252 -424 -425 -295 -281 -423 -337 0
-409 -213 -252 -424 -425 -295 -337 0
-409 -213 -252 -424 -425 -295 -337 -423 0
-409 -213 -252 -424 -425 -295 -423 0
-409 -213 -252 -424 -425 -295 -423 -337 0
-409 -213 -252 -281 -425 -295 -337 0
-409 -213 -252 -281 -425 -295 -337 -423 0
-409 -213 -252 -281 -425 -295 -423 0
-409 -213 -252 -281 -425 -295 -423 -337 0
-409 -213 -252 -281 -295 -337 0
-409 -213 -252 -281 -295 -337 -423 0
-409 -213 -252 -281 -295 -423 0
-409 -213 -252 -281 -295 -423 -337 0
-409 -213 -252 -281 -407 0
-409 -213 -252 -281 -423 0
-409 -213 -252 -281 -423 -337 0
-409 -213 -252 -281 -423 -295 -337 0
-409 -213 -271 -252 -281 -425 -295 -337 0
-409 -213 -271 -252 -281 -425 -295 -337 -423 0
-409 -213 -271 -252 -281 -425 -295 -423 0
-409 -213 -271 -252 -281 -425 -295 -423 -337 0
-409 -213 -271 -252 -281 -295 -337 0
-409 -213 -271 -252 -281 -295 -337 -423 0
-409 -213 -271 -252 -281 -295 -423 0
-409 -213 -271 -252 -281 -295 -423 -337 0
-409 -213 -271 -252 -281 -407 0
-409 -213 -271 -252 -281 -423 0
-409 -213 -271 -252 -281 -423 -337 0
-409 -213 -271 -252 -281 -423 -295 -337 0
-409 -213 -271 -257 -425 -281 -295 -337 0
-409 -213 -271 -257 -425 -281 -295 -337 -423 0
-409 -213 -271 -257 -425 -281 -295 -337 -397 0
-409 -213 -271 -257 -425 -281 -295 -423 0
-409 -213 -271 -257 -425 -281 -295 -423 -337 0
-409 -213 -271 -257 -425 -281 -423 0
-409 -213 -271 -257 -425 -281 -423 -337 0
-409 -213 -271 -257 -425 -281 -423 -295 -337 0
-409 -213 -271 -257 -425 -281 -326 0
-409 -213 -271 -257 -425 -295 -281 -423 0
-409 -213 -271 -257 -425 -295 -281 -423 -337 0
-409 -213 -271 -257 -425 -295 -281 -326 0
-409 -213 -271 -257 -425 -295 -337 0
-409 -213 -271 -257 -425 -295 -337 -423 0
-409 -213 -271 -257 -425 -295 -337 -397 0
-409 -213 -271 -257 -425 -295 -423 0
-409 -213 -271 -257 -425 -295 -423 -337 0
-409 -213 -271 -257 -281 -425 -295 -337 0
-409 -213 -271 -257 -281 -425 -295 -337 -423 0
-409 -213 -271 -257 -281 -425 -295 -337 -397 0
-409 -213 -271 -257 -281 -425 -295 -423 0
-409 -213 -271 -257 -281 -425 -295 -423 -337 0
-409 -213 -271 -257 -281 -295 -337 0
-409 -213 -271 -257 -281 -295 -337 -423 0
-409 -213 -271 -257 -281 -295 -337 -397 0
-409 -213 -271 -257 -281 -295 -423 0
-409 -213 -271 -257 -281 -295 -423 -337 0
-409 -213 -271 -257 -281 -423 0
-409 -213 -271 -257 -281 -423 -337 0
-409 -213 -271 -257 -281 -423 -295 -337 0
-409 -213 -271 -257 -281 -326 0
-409 -252 -424 -425 -281 -295 -337 0
-409 -252 -424 -425 -281 -295 -337 -423 0
-409 -252 -424 -425 -281 -295 -423 0
-409 -252 -424 -425 -281 -295 -423 -337 0
-409 -252 -424 -425 -281 -407 0
-409 -252 -424 -425 -281 -423 0
-409 -252 -424 -425 -281 -423 -337 0
-409 -252 -424 -425 -281 -423 -295 -337 0
-409 -252 -424 -425 -295 -281 -407 0
-409 -252 -424 -425 -295 -281 -423 0
-409 -252 -424 -425 -295 -281 -423 -337 0
-409 -252 -424 -425 -295 -337 0
-409 -252 -424 -425 -295 -337 -423 0
-409 -252 -424 -425 -295 -423 0
-409 -252 -424 -425 -295 -423 -337 0
-409 -252 -213 -424 -425 -281 -295 -337 0
-409 -252 -213 -424 -425 -281 -295 -337 -423 0
-409 -252 -213 -424 -425 -281 -295 -423 0
-409 -252 -213 -424 -425 -281 -295 -423 -337 0
-409 -252 -213 -424 -425 -281 -407 0
-409 -252 -213 -424 -425 -281 -423 0
-409 -252 -213 -424 -425 -281 -423 -337 0
-409 -252 -213 -424 -425 -281 -423 -295 -337 0
-409 -252 -213 -424 -425 -295 -281 -407 0
-409 -252 -213 -424 -425 -295 -281 -423 0
-409 -252 -213 -424 -425 -295 -281 -423 -337 0
-409 -252 -213 -424 -425 -295 -337 0
-409 -252 -213 -424 -425 -295 -337 -423 0
-409 -252 -213 -424 -425 -295 -423 0
-409 -252 -213 -424 -425 -295 -423 -337 0
-409 -252 -281 -425 -295 -337 0
-409 -252 -281 -425 -295 -337 -423 0
-409 -252 -281 -425 -295 -423 0
-409 -252 -281 -425 -295 -423 -337 0
-409 -252 -281 -295 -337 0
-409 -252 -281 -295 -337 -423 0
-409 -252 -281 -295 -423 0
-409 -252 -281 -295 -423 -337 0
-409 -252 -281 -407 0
-409 -252 -281 -423 0
-409 -252 -281 -423 -337 0
-409 -252 -281 -423 -295 -337 0
-409 -337 -295 -246 -281 -326 0
-409 -337 -295 -246 -281 -326 -356 0
-409 -337 -295 -246 -425 -281 -326 0
-409 -337 -295 -246 -425 -281 -326 -356 0
-409 -337 -295 -281 -326 0
-409 -337 -295 -281 -326 -356 0
-409 -337 -295 -425 -281 -326 0
-409 -337 -295 -425 -281 -326 -356 0
-409 -337 -295 -425 -424 -257 -281 -326 0
-409 -337 -295 -425 -424 -257 -281 -326 -356 0
-409 -337 -295 -425 -257 -281 -326 0
-409 -337 -295 -425 -257 -281 -326 -356 0
-409 -337 -295 -425 -246 -281 -326 0
-409 -337 -295 -425 -246 -281 -326 -356 0
-239 -426 -409 -337 -289 0
-239 -426 -409 -337 -295 0
-239 -426 -409 -337 -295 -425 0
-239 -426 -409 -337 -295 -425 -424 0
-239 -426 -409 -337 -295 -425 -281 0
-239 -426 -409 -337 -295 -281 0
-239 -426 -409 -337 -295 -281 -425 0
-239 -426 -409 -337 -295 -281 -425 -424 0
-239 -409 -337 -289 0
-239 -409 -337 -295 0
-239 -409 -337 -295 -425 0
-239 -409 -337 -295 -425 -424 0
-239 -409 -337 -295 -425 -424 -213 0
-239 -409 -337 -295 -425 -281 0
-239 -409 -337 -295 -281 0
-239 -409 -337 -295 -281 -425 0
-239 -409 -337 -295 -281 -425 -424 0
-239 -409 -337 -295 -281 -425 -424 -213 0
-326 -281 -425 -246 -295 -337 0
-326 -281 -425 -295 -337 0
-326 -281 -295 -337 0
-326 -281 -257 -424 -425 -295 -337 0
-326 -281 -257 -425 -295 -337 0
-326 -281 -246 -425 -295 -337 0
-326 -281 -246 -295 -337 0
-423 -281 -425 -424 -213 -409 -337 0
-423 -281 -425 -424 -213 -252 -409 -337 0
-423 -281 -425 -424 -252 -213 -409 -337 0
-423 -281 -425 -424 -252 -409 -337 0
-423 -281 -425 -257 -424 -213 -409 -337 0
-423 -281 -425 -257 -271 -213 -409 -337 0
-423 -281 -295 -425 -424 -213 -409 -337 0
-423 -281 -295 -425 -424 -213 -252 -409 -337 0
-423 -281 -295 -425 -424 -252 -213 -409 -337 0
-423 -281 -295 -425 -424 -252 -409 -337 0
-423 -281 -295 -425 -257 -424 -213 -409 -337 0
-423 -281 -295 -425 -257 -271 -213 -409 -337 0
-423 -281 -257 -424 -213 -409 -337 0
-423 -281 -257 -425 -424 -213 -409 -337 0
-423 -281 -257 -271 -213 -409 -337 0
-423 -281 -252 -424 -213 -409 -337 0
-423 -281 -252 -213 -409 -337 0
-423 -281 -252 -271 -213 -409 -337 0
-423 -281 -252 -409 -337 0
-423 -337 -409 -252 -213 -271 -359 0
-423 -337 -409 -252 -271 -359 0
-423 -337 -409 -213 -252 -271 -359 0
-423 -337 -409 -213 -271 -359 0
-423 -295 -425 -424 -213 -409 -337 0
-423 -295 -425 -424 -213 -252 -409 -337 0
-423 -295 -425 -424 -252 -213 -409 -337 0
-423 -295 -425 -424 -252 -409 -337 0
-423 -295 -425 -257 -424 -213 -409 -337 0
-423 -295 -425 -257 -271 -213 -409 -337 0
-423 -295 -425 -281 -257 -424 -213 -409 -337 0
-423 -295 -425 -281 -257 -271 -213 -409 -337 0
-423 -295 -425 -281 -252 -424 -213 -409 -337 0
-423 -295 -425 -281 -252 -213 -409 -337 0
-423 -295 -425 -281 -252 -271 -213 -409 -337 0
-423 -295 -425 -281 -252 -409 -337 0
-423 -295 -281 -425 -424 -213 -409 -337 0
-423 -295 -281 -425 -424 -213 -252 -409 -337 0
-423 -295 -281 -425 -424 -252 -213 -409 -337 0
-423 -295 -281 -425 -424 -252 -409 -337 0
-423 -295 -281 -425 -257 -424 -213 -409 -337 0
-423 -295 -281 -425 -257 -271 -213 -409 -337 0
-423 -295 -281 -257 -424 -213 -409 -337 0
-423 -295 -281 -257 -425 -424 -213 -409 -337 0
-423 -295 -281 -257 -271 -213 -409 -337 0
-423 -295 -281 -252 -424 -213 -409 -337 0
-423 -295 -281 -252 -213 -409 -337 0
-423 -295 -281 -252 -271 -213 -409 -337 0
-423 -295 -281 -252 -409 -337 0
-423 -295 -337 -409 -252 -213 -271 -359 0
-423 -295 -337 -409 -252 -271 -359 0
-423 -295 -337 -409 -213 -252 -271 -359 0
-423 -295 -337 -409 -213 -271 -359 0
-337 -295 -425 -424 -213 -409 0
-337 -295 -425 -424 -213 -252 -409 0
-337 -295 -425 -424 -252 -213 -409 0
-337 -295 -425 -424 -252 -409 0
-337 -295 -425 -257 -424 -213 -409 0
-337 -295 -425 -257 -271 0
-337 -295 -425 -257 -271 -213 -409 0
-337 -295 -425 -257 -271 -359 0
-337 -295 -425 -281 -257 -424 -213 -409 0
-337 -295 -425 -281 -257 -271 0
-337 -295 -425 -281 -257 -271 -213 -409 0
-337 -295 -425 -281 -252 -424 -213 -409 0
-337 -295 -425 -281 -252 -213 -409 0
-337 -295 -425 -281 -252 -213 -271 0
-337 -295 -425 -281 -252 -271 0
-337 -295 -425 -281 -252 -271 -213 -409 0
-337 -295 -425 -281 -252 -409 0
-337 -295 -425 -281 -252 -409 -213 -271 0
-337 -295 -246 -425 -424 -213 -409 0
-337 -295 -246 -235 0
-337 -295 -246 -235 -359 0
-337 -295 -246 -235 -359 -271 0
-337 -295 -246 -235 -271 0
-337 -295 -246 -235 -271 -359 0
-337 -295 -246 -281 -425 -424 -213 -409 0
-337 -295 -281 -425 -424 -213 -409 0
-337 -295 -281 -425 -424 -213 -252 -409 0
-337 -295 -281 -425 -424 -252 -213 -409 0
-337 -295 -281 -425 -424 -252 -409 0
-337 -295 -281 -425 -257 -424 -213 -409 0
-337 -295 -281 -425 -257 -271 0
-337 -295 -281 -425 -257 -271 -213 -409 0
-337 -295 -281 -257 -424 -213 -409 0
-337 -295 -281 -257 -425 -424 -213 -409 0
-337 -295 -281 -257 -271 0
-337 -295 -281 -257 -271 -213 -409 0
-337 -295 -281 -257 -271 -235 0
-337 -295 -281 -257 -235 0
-337 -295 -281 -257 -235 -271 0
-337 -295 -281 -246 -425 -424 -213 -409 0
-337 -295 -281 -246 -235 0
-337 -295 -281 -246 -235 -271 0
-337 -295 -281 -252 -424 -213 -409 0
-337 -295 -281 -252 -209 -213 -271 0
-337 -295 -281 -252 -209 -213 -271 -235 0
-337 -295 -281 -252 -213 -409 0
-337 -295 -281 -252 -213 -271 0
-337 -295 -281 -252 -213 -271 -235 0
-337 -295 -281 -252 -271 0
-337 -295 -281 -252 -271 -213 -409 0
-337 -295 -281 -252 -271 -235 0
-337 -295 -281 -252 -409 0
-337 -295 -281 -252 -409 -213 -271 0
-337 -295 -423 -281 -425 -424 -213 -409 0
-337 -295 -423 -281 -425 -424 -213 -252 -409 0
-337 -295 -423 -281 -425 -424 -252 -213 -409 0
-337 -295 -423 -281 -425 -424 -252 -409 0
-337 -295 -423 -281 -425 -257 -424 -213 -409 0
-337 -295 -423 -281 -425 -257 -271 0
-337 -295 -423 -281 -425 -257 -271 -213 -409 0
-337 -295 -423 -281 -257 -424 -213 -409 0
-337 -295 -423 -281 -257 -425 -424 -213 -409 0
-337 -295 -423 -281 -257 -271 0
-337 -295 -423 -281 -257 -271 -213 -409 0
-337 -295 -423 -281 -257 -271 -235 0
-337 -295 -423 -281 -257 -235 0
-337 -295 -423 -281 -257 -235 -271 0
-337 -295 -423 -281 -252 -424 -213 -409 0
-337 -295 -423 -281 -252 -209 -213 -271 0
-337 -295 -423 -281 -252 -209 -213 -271 -235 0
-337 -295 -423 -281 -252 -213 -409 0
-337 -295 -423 -281 -252 -213 -271 0
-337 -295 -423 -281 -252 -213 -271 -235 0
-337 -295 -423 -281 -252 -271 0
-337 -295 -423 -281 -252 -271 -213 -409 0
-337 -295 -423 -281 -252 -271 -235 0
-337 -295 -423 -281 -252 -409 0
-337 -295 -423 -281 -252 -409 -213 -271 0
-337 -423 -281 -425 -424 -213 -409 0
-337 -423 -281 -425 -424 -213 -252 -409 0
-337 -423 -281 -425 -424 -252 -213 -409 0
-337 -423 -281 -425 -424 -252 -409 0
-337 -423 -281 -425 -257 -424 -213 -409 0
-337 -423 -281 -425 -257 -271 0
-337 -423 -281 -425 -257 -271 -213 -409 0
-337 -423 -281 -295 -425 -424 -213 -409 0
-337 -423 -281 -295 -425 -424 -213 -252 -409 0
-337 -423 -281 -295 -425 -424 -252 -213 -409 0
-337 -423 -281 -295 -425 -424 -252 -409 0
-337 -423 -281 -295 -425 -257 -424 -213 -409 0
-337 -423 -281 -295 -425 -257 -271 0
-337 -423 -281 -295 -425 -257 -271 -213 -409 0
-337 -423 -281 -257 -424 -213 -409 0
-337 -423 -281 -257 -425 -424 -213 -409 0
-337 -423 -281 -257 -271 0
-337 -423 -281 -257 -271 -213 -409 0
-337 -423 -281 -257 -271 -235 0
-337 -423 -281 -257 -235 0
-337 -423 -281 -257 -235 -271 0
-337 -423 -281 -252 -424 -213 -409 0
-337 -423 -281 -252 -209 -213 -271 0
-337 -423 -281 -252 -209 -213 -271 -235 0
-337 -423 -281 -252 -213 -409 0
-337 -423 -281 -252 -213 -271 0
-337 -423 -281 -252 -213 -271 -235 0
-337 -423 -281 -252 -271 0
-337 -423 -281 -252 -271 -213 -409 0
-337 -423 -281 -252 -271 -235 0
-337 -423 -281 -252 -409 0
-337 -423 -281 -252 -409 -213 -271 0
-337 -423 -295 -425 -424 -213 -409 0
-337 -423 -295 -425 -424 -213 -252 -409 0
-337 -423 -295 -425 -424 -252 -213 -409 0
-337 -423 -295 -425 -424 -252 -409 0
-337 -423 -295 -425 -257 -424 -213 -409 0
-337 -423 -295 -425 -257 -271 0
-337 -423 -295 -425 -257 -271 -213 -409 0
-337 -423 -295 -425 -257 -271 -359 0
-337 -423 -295 -425 -281 -257 -424 -213 -409 0
-337 -423 -295 -425 -281 -257 -271 0
-337 -423 -295 -425 -281 -257 -271 -213 -409 0
-337 -423 -295 -425 -281 -252 -424 -213 -409 0
-337 -423 -295 -425 -281 -252 -213 -409 0
-337 -423 -295 -425 -281 -252 -213 -271 0
-337 -423 -295 -425 -281 -252 -271 0
-337 -423 -295 -425 -281 -252 -271 -213 -409 0
-337 -423 -295 -425 -281 -252 -409 0
-337 -423 -295 -425 -281 -252 -409 -213 -271 0
-337 -423 -295 -281 -425 -424 -213 -409 0
-337 -423 -295 -281 -425 -424 -213 -252 -409 0
-337 -423 -295 -281 -425 -424 -252 -213 -409 0
-337 -423 -295 -281 -425 -424 -252 -409 0
-337 -423 -295 -281 -425 -257 -424 -213 -409 0
-337 -423 -295 -281 -425 -257 -271 0
-337 -423 -295 -281 -425 -257 -271 -213 -409 0
-337 -423 -295 -281 -257 -424 -213 -409 0
-337 -423 -295 -281 -257 -425 -424 -213 -409 0
-337 -423 -295 -281 -257 -271 0
-337 -423 -295 -281 -257 -271 -213 -409 0
-337 -423 -295 -281 -257 -271 -235 0
-337 -423 -295 -281 -257 -235 0
-337 -423 -295 -281 -257 -235 -271 0
-337 -423 -295 -281 -252 -424 -213 -409 0
-337 -423 -295 -281 -252 -209 -213 -271 0
-337 -423 -295 -281 -252 -209 -213 -271 -235 0
-337 -423 -295 -281 -252 -213 -409 0
-337 -423 -295 -281 -252 -213 -271 0
-337 -423 -295 -281 -252 -213 -271 -235 0
-337 -423 -295 -281 -252 -271 0
-337 -423 -295 -281 -252 -271 -213 -409 0
-337 -423 -295 -281 -252 -271 -235 0
-337 -423 -295 -281 -252 -409 0
-337 -423 -295 -281 -252 -409 -213 -271 0
-213 -252 -409 -337 -295 -425 0
-213 -252 -409 -337 -295 -425 -424 0
-213 -252 -409 -337 -295 -281 -425 0
-213 -252 -409 -337 -295 -281 -425 -424 0
-213 -252 -409 -337 -295 -423 -281 -425 0
-213 -252 -409 -337 -295 -423 -281 -425 -424 0
-213 -252 -409 -337 -423 -281 -425 0
-213 -252 -409 -337 -423 -281 -425 -424 0
-213 -252 -409 -337 -423 -281 -295 -425 0
-213 -252 -409 -337 -423 -281 -295 -425 -424 0
-213 -252 -409 -337 -423 -295 -425 0
-213 -252 -409 -337 -423 -295 -425 -424 0
-213 -252 -409 -337 -423 -295 -281 -425 0
-213 -252 -409 -337 -423 -295 -281 -425 -424 0
-213 -252 -424 -425 -281 -423 -295 -337 -409 0
-213 -252 -424 -425 -281 -423 -337 -409 0
-213 -252 -424 -425 -281 -295 -423 -337 -409 0
-213 -252 -424 -425 -281 -295 -337 -409 0
-213 -252 -424 -425 -295 -423 -337 -409 0
-213 -252 -424 -425 -295 -281 -423 -337 -409 0
-213 -252 -424 -425 -295 -337 -409 0
-213 -252 -281 -425 -295 -423 -337 -409 0
-213 -252 -281 -425 -295 -337 -409 0
-213 -252 -281 -423 -295 -337 -409 0
-213 -252 -281 -423 -337 -409 0
-213 -252 -281 -295 -423 -337 -409 0
-213 -252 -281 -295 -337 -409 0
-213 -424 -252 -409 -337 -295 -425 0
-213 -424 -252 -409 -337 -295 -281 -425 0
-213 -424 -252 -409 -337 -295 -423 -281 -425 0
-213 -424 -252 -409 -337 -423 -281 -425 0
-213 -424 -252 -409 -337 -423 -281 -295 -425 0
-213 -424 -252 -409 -337 -423 -295 -425 0
-213 -424 -252 -409 -337 -423 -295 -281 -425 0
-213 -424 -252 -281 -425 -295 -423 -337 -409 0
-213 -424 -252 -281 -425 -295 -337 -409 0
-213 -424 -252 -281 -423 -295 -337 -409 0
-213 -424 -252 -281 -423 -337 -409 0
-213 -424 -252 -281 -295 -423 -337 -409 0
-213 -424 -252 -281 -295 -337 -409 0
-213 -424 -257 -281 -425 -295 -423 -337 -409 0
-213 -424 -257 -281 -425 -295 -337 -409 0
-213 -424 -257 -281 -423 -295 -337 -409 0
-213 -424 -257 -281 -423 -337 -409 0
-213 -424 -257 -281 -295 -423 -337 -409 0
-213 -424 -257 -281 -295 -337 -409 0
-213 -424 -257 -425 -281 -423 -295 -337 -409 0
-213 -424 -257 -425 -281 -423 -337 -409 0
-213 -424 -257 -425 -281 -295 -423 -337 -409 0
-213 -424 -257 -425 -281 -295 -337 -409 0
-213 -424 -257 -425 -295 -423 -337 -409 0
-213 -424 -257 -425 -295 -281 -423 -337 -409 0
-213 -424 -257 -425 -295 -337 -409 0
-213 -424 -425 -281 -423 -295 -337 -409 0
-213 -424 -425 -281 -423 -295 -337 -409 -252 0
-213 -424 -425 -281 -423 -337 -409 0
-213 -424 -425 -281 -423 -337 -409 -252 0
-213 -424 -425 -281 -246 -295 -337 -409 0
-213 -424 -425 -281 -295 -423 -337 -409 0
-213 -424 -425 -281 -295 -423 -337 -409 -252 0
-213 -424 -425 -281 -295 -337 -409 0
-213 -424 -425 -281 -295 -337 -409 -252 0
-213 -424 -425 -295 -423 -337 -409 0
-213 -424 -425 -295 -423 -337 -409 -252 0
-213 -424 -425 -295 -281 -423 -337 -409 0
-213 -424 -425 -295 -281 -423 -337 -409 -252 0
-213 -424 -425 -295 -337 -409 0
-213 -424 -425 -295 -337 -409 -252 0
-213 -424 -425 -257 -281 -423 -295 -337 -409 0
-213 -424 -425 -257 -281 -423 -337 -409 0
-213 -424 -425 -257 -281 -295 -423 -337 -409 0
-213 -424 -425 -257 -281 -295 -337 -409 0
-213 -424 -425 -246 -281 -295 -337 -409 0
-213 -424 -425 -246 -295 -337 -409 0
-213 -271 -252 -409 -337 -295 -425 0
-213 -271 -252 -409 -337 -295 -281 -425 0
-213 -271 -252 -409 -337 -295 -423 -281 -425 0
-213 -271 -252 -409 -337 -423 -281 -425 0
-213 -271 -252 -409 -337 -423 -281 -295 -425 0
-213 -271 -252 -409 -337 -423 -295 -425 0
-213 -271 -252 -409 -337 -423 -295 -281 -425 0
-213 -271 -252 -281 -425 -295 -423 -337 -409 0
-213 -271 -252 -281 -425 -295 -337 -409 0
-213 -271 -252 -281 -423 -295 -337 -409 0
-213 -271 -252 -281 -423 -337 -409 0
-213 -271 -252 -281 -295 -423 -337 -409 0
-213 -271 -252 -281 -295 -337 -409 0
-213 -271 -257 -281 -425 -295 -423 -337 -409 0
-213 -271 -257 -281 -425 -295 -337 -409 0
-213 -271 -257 -281 -423 -295 -337 -409 0
-213 -271 -257 -281 -423 -337 -409 0
-213 -271 -257 -281 -295 -423 -337 -409 0
-213 -271 -257 -281 -295 -337 -409 0
-213 -271 -257 -425 -281 -423 -295 -337 -409 0
-213 -271 -257 -425 -281 -423 -337 -409 0
-213 -271 -257 -425 -281 -295 -423 -337 -409 0
-213 -271 -257 -425 -281 -295 -337 -409 0
-213 -271 -257 -425 -295 -423 -337 -409 0
-213 -271 -257 -425 -295 -281 -423 -337 -409 0
-213 -271 -257 -425 -295 -337 -409 0
-213 -409 -337 -295 -425 0
-213 -409 -337 -295 -425 -424 0
-213 -409 -337 -295 -425 -424 -252 0
-213 -409 -337 -295 -425 -424 -257 0
-213 -409 -337 -295 -425 -257 0
-213 -409 -337 -295 -425 -257 -424 0
-213 -409 -337 -295 -425 -257 -271 0
-213 -409 -337 -295 -425 -246 0
-213 -409 -337 -295 -425 -281 -257 0
-213 -409 -337 -295 -425 -281 -257 -424 0
-213 -409 -337 -295 -425 -281 -257 -271 0
-213 -409 -337 -295 -425 -281 -246 0
-213 -409 -337 -295 -425 -281 -252 0
-213 -409 -337 -295 -425 -281 -252 -424 0
-213 -409 -337 -295 -425 -281 -252 -271 0
-213 -409 -337 -295 -246 0
-213 -409 -337 -295 -246 -425 0
-213 -409 -337 -295 -246 -425 -424 0
-213 -409 -337 -295 -246 -281 -425 0
-213 -409 -337 -295 -246 -281 -425 -424 0
-213 -409 -337 -295 -281 -425 0
-213 -409 -337 -295 -281 -425 -424 0
-213 -409 -337 -295 -281 -425 -424 -252 0
-213 -409 -337 -295 -281 -425 -424 -257 0
-213 -409 -337 -295 -281 -425 -257 0
-213 -409 -337 -295 -281 -425 -257 -424 0
-213 -409 -337 -295 -281 -425 -257 -271 0
-213 -409 -337 -295 -281 -425 -246 0
-213 -409 -337 -295 -281 -257 0
-213 -409 -337 -295 -281 -257 -424 0
-213 -409 -337 -295 -281 -257 -424 -425 0
-213 -409 -337 -295 -281 -257 -425 0
-213 -409 -337 -295 -281 -257 -425 -424 0
-213 -409 -337 -295 -281 -257 -271 0
-213 -409 -337 -295 -281 -246 0
-213 -409 -337 -295 -281 -246 -425 0
-213 -409 -337 -295 -281 -246 -425 -424 0
-213 -409 -337 -295 -281 -252 0
-213 -409 -337 -295 -281 -252 -424 0
-213 -409 -337 -295 -281 -252 -424 -425 0
-213 -409 -337 -295 -281 -252 -271 0
-213 -409 -337 -295 -423 -281 -425 0
-213 -409 -337 -295 -423 -281 -425 -424 0
-213 -409 -337 -295 -423 -281 -425 -424 -252 0
-213 -409 -337 -295 -423 -281 -425 -424 -257 0
-213 -409 -337 -295 -423 -281 -425 -257 0
-213 -409 -337 -295 -423 -281 -425 -257 -424 0
-213 -409 -337 -295 -423 -281 -425 -257 -271 0
-213 -409 -337 -295 -423 -281 -257 0
-213 -409 -337 -295 -423 -281 -257 -424 0
-213 -409 -337 -295 -423 -281 -257 -424 -425 0
-213 -409 -337 -295 -423 -281 -257 -425 0
-213 -409 -337 -295 -423 -281 -257 -425 -424 0
-213 -409 -337 -295 -423 -281 -257 -271 0
-213 -409 -337 -295 -423 -281 -252 0
-213 -409 -337 -295 -423 -281 -252 -424 0
-213 -409 -337 -295 -423 -281 -252 -424 -425 0
-213 -409 -337 -295 -423 -281 -252 -271 0
-213 -409 -337 -423 -281 -425 0
-213 -409 -337 -423 -281 -425 -424 0
-213 -409 -337 -423 -281 -425 -424 -252 0
-213 -409 -337 -423 -281 -425 -424 -257 0
-213 -409 -337 -423 -281 -425 -257 0
-213 -409 -337 -423 -281 -425 -257 -424 0
-213 -409 -337 -423 -281 -425 -257 -271 0
-213 -409 -337 -423 -281 -295 -425 0
-213 -409 -337 -423 -281 -295 -425 -424 0
-213 -409 -337 -423 -281 -295 -425 -424 -252 0
-213 -409 -337 -423 -281 -295 -425 -424 -257 0
-213 -409 -337 -423 -281 -295 -425 -257 0
-213 -409 -337 -423 -281 -295 -425 -257 -424 0
-213 -409 -337 -423 -281 -295 -425 -257 -271 0
-213 -409 -337 -423 -281 -257 0
-213 -409 -337 -423 -281 -257 -424 0
-213 -409 -337 -423 -281 -257 -424 -425 0
-213 -409 -337 -423 -281 -257 -425 0
-213 -409 -337 -423 -281 -257 -425 -424 0
-213 -409 -337 -423 -281 -257 -271 0
-213 -409 -337 -423 -281 -252 0
-213 -409 -337 -423 -281 -252 -424 0
-213 -409 -337 -423 -281 -252 -424 -425 0
-213 -409 -337 -423 -281 -252 -271 0
-213 -409 -337 -423 -295 -425 0
-213 -409 -337 -423 -295 -425 -424 0
-213 -409 -337 -423 -295 -425 -424 -252 0
-213 -409 -337 -423 -295 -425 -424 -257 0
-213 -409 -337 -423 -295 -425 -257 0
-213 -409 -337 -423 -295 -425 -257 -424 0
-213 -409 -337 -423 -295 -425 -257 -271 0
-213 -409 -337 -423 -295 -425 -281 -257 0
-213 -409 -337 -423 -295 -425 -281 -257 -424 0
-213 -409 -337 -423 -295 -425 -281 -257 -271 0
-213 -409 -337 -423 -295 -425 -281 -252 0
-213 -409 -337 -423 -295 -425 -281 -252 -424 0
-213 -409 -337 -423 -295 -425 -281 -252 -271 0
-213 -409 -337 -423 -295 -281 -425 0
-213 -409 -337 -423 -295 -281 -425 -424 0
-213 -409 -337 -423 -295 -281 -425 -424 -252 0
-213 -409 -337 -423 -295 -281 -425 -424 -257 0
-213 -409 -337 -423 -295 -281 -425 -257 0
-213 -409 -337 -423 -295 -281 -425 -257 -424 0
-213 -409 -337 -423 -295 -281 -425 -257 -271 0
-213 -409 -337 -423 -295 -281 -257 0
-213 -409 -337 -423 -295 -281 -257 -424 0
-213 -409 -337 -423 -295 -281 -257 -424 -425 0
-213 -409 -337 -423 -295 -281 -257 -425 0
-213 -409 -337 -423 -295 -281 -257 -425 -424 0
-213 -409 -337 -423 -295 -281 -257 -271 0
-213 -409 -337 -423 -295 -281 -252 0
-213 -409 -337 -423 -295 -281 -252 -424 0
-213 -409 -337 -423 -295 -281 -252 -424 -425 0
-213 -409 -337 -423 -295 -281 -252 -271 0
-281 -425 -295 -423 -337 -409 -213 -424 -252 0
-281 -425 -295 -423 -337 -409 -213 -424 -257 0
-281 -425 -295 -423 -337 -409 -213 -252 0
-281 -425 -295 -423 -337 -409 -213 -271 -252 0
-281 -425 -295 -423 -337 -409 -213 -271 -257 0
-281 -425 -295 -423 -337 -409 -252 0
-281 -425 -295 -337 -409 -213 -424 -252 0
-281 -425 -295 -337 -409 -213 -424 -257 0
-281 -425 -295 -337 -409 -213 -252 0
-281 -425 -295 -337 -409 -213 -271 -252 0
-281 -425 -295 -337 -409 -213 -271 -257 0
-281 -425 -295 -337 -409 -252 0
-281 -425 -424 -213 -252 -409 -337 0
-281 -425 -424 -213 -252 -409 -337 -295 0
-281 -425 -424 -213 -252 -409 -337 -295 -423 0
-281 -425 -424 -213 -252 -409 -337 -423 0
-281 -425 -424 -213 -252 -409 -337 -423 -295 0
-281 -425 -424 -213 -409 -337 0
-281 -425 -424 -213 -409 -337 -295 0
-281 -425 -424 -213 -409 -337 -295 -246 0
-281 -425 -424 -213 -409 -337 -295 -423 0
-281 -425 -424 -213 -409 -337 -423 0
-281 -425 -424 -213 -409 -337 -423 -295 0
-281 -425 -424 -252 -213 -409 -337 0
-281 -425 -424 -252 -213 -409 -337 -295 0
-281 -425 -424 -252 -213 -409 -337 -295 -423 0
-281 -425 -424 -252 -213 -409 -337 -423 0
-281 -425 -424 -252 -213 -409 -337 -423 -295 0
-281 -425 -424 -252 -409 -337 0
-281 -425 -424 -252 -409 -337 -295 0
-281 -425 -424 -252 -409 -337 -295 -423 0
-281 -425 -424 -252 -409 -337 -423 0
-281 -425 -424 -252 -409 -337 -423 -295 0
-281 -425 -257 -424 -213 -409 -337 0
-281 -425 -257 -424 -213 -409 -337 -295 0
-281 -425 -257 -424 -213 -409 -337 -295 -423 0
-281 -425 -257 -424 -213 -409 -337 -423 0
-281 -425 -257 -424 -213 -409 -337 -423 -295 0
-281 -425 -257 -271 -213 -409 -337 0
-281 -425 -257 -271 -213 -409 -337 -295 0
-281 -425 -257 -271 -213 -409 -337 -295 -423 0
-281 -425 -257 -271 -213 -409 -337 -423 0
-281 -425 -257 -271 -213 -409 -337 -423 -295 0
-281 -257 -424 -213 -409 -337 0
-281 -257 -424 -213 -409 -337 -295 0
-281 -257 -424 -213 -409 -337 -295 -425 0
-281 -257 -424 -213 -409 -337 -295 -423 0
-281 -257 -424 -213 -409 -337 -423 0
-281 -257 -424 -213 -409 -337 -423 -295 0
-281 -257 -424 -213 -409 -337 -423 -295 -425 0
-281 -257 -271 -213 -409 -337 0
-281 -257 -271 -213 -409 -337 -295 0
-281 -257 -271 -213 -409 -337 -295 -425 0
-281 -257 -271 -213 -409 -337 -295 -423 0
-281 -257 -271 -213 -409 -337 -423 0
-281 -257 -271 -213 -409 -337 -423 -295 0
-281 -257 -271 -213 -409 -337 -423 -295 -425 0
-281 -257 -425 -424 -213 -409 -337 0
-281 -257 -425 -424 -213 -409 -337 -295 0
-281 -257 -425 -424 -213 -409 -337 -295 -423 0
-281 -257 -425 -424 -213 -409 -337 -423 0
-281 -257 -425 -424 -213 -409 -337 -423 -295 0
-281 -423 -295 -425 -424 -213 -252 -409 -337 0
-281 -423 -295 -425 -424 -213 -409 -337 0
-281 -423 -295 -425 -424 -252 -213 -409 -337 0
-281 -423 -295 -425 -424 -252 -409 -337 0
-281 -423 -295 -425 -257 -424 -213 -409 -337 0
-281 -423 -295 -425 -257 -271 -213 -409 -337 0
-281 -423 -295 -337 -409 -213 -424 -425 0
-281 -423 -295 -337 -409 -213 -424 -425 -257 0
-281 -423 -295 -337 -409 -213 -424 -252 0
-281 -423 -295 -337 -409 -213 -424 -257 0
-281 -423 -295 -337 -409 -213 -424 -257 -425 0
-281 -423 -295 -337 -409 -213 -252 0
-281 -423 -295 -337 -409 -213 -252 -424 -425 0
-281 -423 -295 -337 -409 -213 -271 -252 0
-281 -423 -295 -337 -409 -213 -271 -257 0
-281 -423 -295 -337 -409 -213 -271 -257 -425 0
-281 -423 -295 -337 -409 -252 0
-281 -423 -295 -337 -409 -252 -424 -425 0
-281 -423 -295 -337 -409 -252 -213 -424 -425 0
-281 -423 -337 -409 -213 -424 -425 0
-281 -423 -337 -409 -213 -424 -425 -257 0
-281 -423 -337 -409 -213 -424 -425 -295 0
-281 -423 -337 -409 -213 -424 -252 0
-281 -423 -337 -409 -213 -424 -257 0
-281 -423 -337 -409 -213 -424 -257 -425 0
-281 -423 -337 -409 -213 -424 -257 -425 -295 0
-281 -423 -337 -409 -213 -252 0
-281 -423 -337 -409 -213 -252 -424 -425 0
-281 -423 -337 -409 -213 -252 -424 -425 -295 0
-281 -423 -337 -409 -213 -271 -252 0
-281 -423 -337 -409 -213 -271 -257 0
-281 -423 -337 -409 -213 -271 -257 -425 0
-281 -423 -337 -409 -213 -271 -257 -425 -295 0
-281 -423 -337 -409 -252 0
-281 -423 -337 -409 -252 -424 -425 0
-281 -423 -337 -409 -252 -424 -425 -295 0
-281 -423 -337 -409 -252 -213 -424 -425 0
-281 -423 -337 -409 -252 -213 -424 -425 -295 0
-281 -246 -295 -425 -424 -213 -409 -337 0
-281 -246 -295 -337 -409 -213 -424 -425 0
-281 -246 -425 -424 -213 -409 -337 0
-281 -246 -425 -424 -213 -409 -337 -295 0
-281 -295 -246 -425 -424 -213 -409 -337 0
-281 -295 -423 -337 -409 -213 -424 -425 0
-281 -295 -423 -337 -409 -213 -424 -425 -257 0
-281 -295 -423 -337 -409 -213 -424 -252 0
-281 -295 -423 -337 -409 -213 -424 -257 0
-281 -295 -423 -337 -409 -213 -424 -257 -425 0
-281 -295 -423 -337 -409 -213 -252 0
-281 -295 -423 -337 -409 -213 -252 -424 -425 0
-281 -295 -423 -337 -409 -213 -271 -252 0
-281 -295 -423 -337 -409 -213 -271 -257 0
-281 -295 -423 -337 -409 -213 -271 -257 -425 0
-281 -295 -423 -337 -409 -252 0
-281 -295 -423 -337 -409 -252 -424 -425 0
-281 -295 -423 -337 -409 -252 -213 -424 -425 0
-281 -295 -425 -424 -213 -252 -409 -337 0
-281 -295 -425 -424 -213 -252 -409 -337 -423 0
-281 -295 -425 -424 -213 -409 -337 0
-281 -295 -425 -424 -213 -409 -337 -423 0
-281 -295 -425 -424 -252 -213 -409 -337 0
-281 -295 -425 -424 -252 -213 -409 -337 -423 0
-281 -295 -425 -424 -252 -409 -337 0
-281 -295 -425 -424 -252 -409 -337 -423 0
-281 -295 -425 -257 -424 -213 -409 -337 0
-281 -295 -425 -257 -424 -213 -409 -337 -423 0
-281 -295 -425 -257 -271 -213 -409 -337 0
-281 -295 -425 -257 -271 -213 -409 -337 -423 0
-281 -295 -337 -409 -213 -424 -425 0
-281 -295 -337 -409 -213 -424 -425 -257 0
-281 -295 -337 -409 -213 -424 -425 -246 0
-281 -295 -337 -409 -213 -424 -252 0
-281 -295 -337 -409 -213 -424 -257 0
-281 -295 -337 -409 -213 -424 -257 -425 0
-281 -295 -337 -409 -213 -252 0
-281 -295 -337 -409 -213 -252 -424 -425 0
-281 -295 -337 -409 -213 -271 -252 0
-281 -295 -337 -409 -213 -271 -257 0
-281 -295 -337 -409 -213 -271 -257 -425 0
-281 -295 -337 -409 -252 0
-281 -295 -337 -409 -252 -424 -425 0
-281 -295 -337 -409 -252 -213 -424 -425 0
-281 -252 -213 -409 -337 0
-281 -252 -213 -409 -337 -295 0
-281 -252 -213 -409 -337 -295 -425 0
-281 -252 -213 -409 -337 -295 -423 0
-281 -252 -213 -409 -337 -423 0
-281 -252 -213 -409 -337 -423 -295 0
-281 -252 -213 -409 -337 -423 -295 -425 0
-281 -252 -409 -337 0
-281 -252 -409 -337 -295 0
-281 -252 -409 -337 -295 -425 0
-281 -252 -409 -337 -295 -423 0
-281 -252 -409 -337 -423 0
-281 -252 -409 -337 -423 -295 0
-281 -252 -409 -337 -423 -295 -425 0
-281 -252 -424 -213 -409 -337 0
-281 -252 -424 -213 -409 -337 -295 0
-281 -252 -424 -213 -409 -337 -295 -425 0
-281 -252 -424 -213 -409 -337 -295 -423 0
-281 -252 -424 -213 -409 -337 -423 0
-281 -252 -424 -213 -409 -337 -423 -295 0
-281 -252 -424 -213 -409 -337 -423 -295 -425 0
-281 -252 -271 -213 -409 -337 0
-281 -252 -271 -213 -409 -337 -295 0
-281 -252 -271 -213 -409 -337 -295 -425 0
-281 -252 -271 -213 -409 -337 -295 -423 0
-281 -252 -271 -213 -409 -337 -423 0
-281 -252 -271 -213 -409 -337 -423 -295 0
-281 -252 -271 -213 -409 -337 -423 -295 -425 0
-359 -271 -257 -425 -295 -423 -337 -409 0
-359 -271 -257 -425 -295 -337 -409 0
-295 -246 -281 -425 -424 -213 -409 -337 0
-295 -246 -281 -326 -356 0
-295 -246 -425 -281 -326 -356 0
-295 -246 -425 -424 -213 -409 -337 0
-295 -246 -425 -424 -213 -409 -337 -289 0
-295 -423 -281 -425 -424 -213 -252 -409 -337 0
-295 -423 -281 -425 -424 -213 -409 -337 0
-295 -423 -281 -425 -424 -252 -213 -409 -337 0
-295 -423 -281 -425 -424 -252 -409 -337 0
-295 -423 -281 -425 -257 -424 -213 -409 -337 0
-295 -423 -281 -425 -257 -271 -213 -409 -337 0
-295 -423 -281 -257 -424 -213 -409 -337 0
-295 -423 -281 -257 -271 -213 -409 -337 0
-295 -423 -281 -257 -425 -424 -213 -409 -337 0
-295 -423 -281 -252 -213 -409 -337 0
-295 -423 -281 -252 -409 -337 0
-295 -423 -281 -252 -424 -213 -409 -337 0
-295 -423 -281 -252 -271 -213 -409 -337 0
-295 -423 -337 -409 -213 -424 -425 0
-295 -423 -337 -409 -213 -424 -425 -257 0
-295 -423 -337 -409 -213 -424 -425 -281 -257 0
-295 -423 -337 -409 -213 -424 -425 -281 -252 0
-295 -423 -337 -409 -213 -424 -252 0
-295 -423 -337 -409 -213 -424 -252 -281 -425 0
-295 -423 -337 -409 -213 -424 -257 0
-295 -423 -337 -409 -213 -424 -257 -425 0
-295 -423 -337 -409 -213 -424 -257 -281 -425 0
-295 -423 -337 -409 -213 -252 0
-295 -423 -337 -409 -213 -252 -424 -425 0
-295 -423 -337 -409 -213 -252 -271 0
-295 -423 -337 -409 -213 -252 -281 -425 0
-295 -423 -337 -409 -213 -271 0
-295 -423 -337 -409 -213 -271 -252 0
-295 -423 -337 -409 -213 -271 -252 -281 -425 0
-295 -423 -337 -409 -213 -271 -257 0
-295 -423 -337 -409 -213 -271 -257 -425 0
-295 -423 -337 -409 -213 -271 -257 -281 -425 0
-295 -423 -337 -409 -252 0
-295 -423 -337 -409 -252 -424 -425 0
-295 -423 -337 -409 -252 -213 -424 -425 0
-295 -423 -337 -409 -252 -213 -271 0
-295 -423 -337 -409 -252 -271 0
-295 -423 -337 -409 -252 -281 -425 0
-295 -281 -425 -424 -213 -252 -409 -337 0
-295 -281 -425 -424 -213 -252 -409 -337 -423 0
-295 -281 -425 -424 -213 -409 -337 0
-295 -281 -425 -424 -213 -409 -337 -423 0
-295 -281 -425 -424 -252 -213 -409 -337 0
-295 -281 -425 -424 -252 -213 -409 -337 -423 0
-295 -281 -425 -424 -252 -409 -337 0
-295 -281 -425 -424 -252 -409 -337 -423 0
-295 -281 -425 -257 -424 -213 -409 -337 0
-295 -281 -425 -257 -424 -213 -409 -337 -423 0
-295 -281 -425 -257 -271 -213 -409 -337 0
-295 -281 -425 -257 -271 -213 -409 -337 -423 0
-295 -281 -257 -424 -213 -409 -337 0
-295 -281 -257 -424 -213 -409 -337 -423 0
-295 -281 -257 -271 -213 -409 -337 0
-295 -281 -257 -271 -213 -409 -337 -423 0
-295 -281 -257 -425 -424 -213 -409 -337 0
-295 -281 -257 -425 -424 -213 -409 -337 -423 0
-295 -281 -423 -337 -409 -213 -424 -425 0
-295 -281 -423 -337 -409 -213 -424 -425 -257 0
-295 -281 -423 -337 -409 -213 -424 -252 0
-295 -281 -423 -337 -409 -213 -424 -257 0
-295 -281 -423 -337 -409 -213 -424 -257 -425 0
-295 -281 -423 -337 -409 -213 -252 0
-295 -281 -423 -337 -409 -213 -252 -424 -425 0
-295 -281 -423 -337 -409 -213 -252 -271 0
-295 -281 -423 -337 -409 -213 -271 0
-295 -281 -423 -337 -409 -213 -271 -252 0
-295 -281 -423 -337 -409 -213 -271 -257 0
-295 -281 -423 -337 -409 -213 -271 -257 -425 0
-295 -281 -423 -337 -409 -252 0
-295 -281 -423 -337 -409 -252 -424 -425 0
-295 -281 -423 -337 -409 -252 -213 -424 -425 0
-295 -281 -423 -337 -409 -252 -213 -271 0
-295 -281 -423 -337 -409 -252 -271 0
-295 -281 -246 -425 -424 -213 -409 -337 0
-295 -281 -326 -356 0
-295 -281 -252 -213 -409 -337 0
-295 -281 -252 -213 -409 -337 -423 0
-295 -281 -252 -409 -337 0
-295 -281 -252 -409 -337 -423 0
-295 -281 -252 -424 -213 -409 -337 0
-295 -281 -252 -424 -213 -409 -337 -423 0
-295 -281 -252 -271 -213 -409 -337 0
-295 -281 -252 -271 -213 -409 -337 -423 0
-295 -425 -281 -257 -424 -213 -409 -337 0
-295 -425 -281 -257 -424 -213 -409 -337 -423 0
-295 -425 -281 -257 -271 -213 -409 -337 0
-295 -425 -281 -257 -271 -213 -409 -337 -423 0
-295 -425 -281 -423 -337 -409 -213 -424 -252 0
-295 -425 -281 -423 -337 -409 -213 -424 -257 0
-295 -425 -281 -423 -337 -409 -213 -252 0
-295 -425 -281 -423 -337 -409 -213 -252 -271 0
-295 -425 -281 -423 -337 -409 -213 -271 0
-295 -425 -281 -423 -337 -409 -213 -271 -252 0
-295 -425 -281 -423 -337 -409 -213 -271 -257 0
-295 -425 -281 -423 -337 -409 -252 0
-295 -425 -281 -423 -337 -409 -252 -213 -271 0
-295 -425 -281 -423 -337 -409 -252 -271 0
-295 -425 -281 -326 -356 0
-295 -425 -281 -252 -213 -409 -337 0
-295 -425 -281 -252 -213 -409 -337 -423 0
-295 -425 -281 -252 -409 -337 0
-295 -425 -281 -252 -409 -337 -423 0
-295 -425 -281 -252 -424 -213 -409 -337 0
-295 -425 -281 -252 -424 -213 -409 -337 -423 0
-295 -425 -281 -252 -271 -213 -409 -337 0
-295 -425 -281 -252 -271 -213 -409 -337 -423 0
-295 -425 -424 -213 -252 -409 -337 0
-295 -425 -424 -213 -252 -409 -337 -289 0
-295 -425 -424 -213 -252 -409 -337 -423 0
-295 -425 -424 -213 -409 -337 0
-295 -425 -424 -213 -409 -337 -289 0
-295 -425 -424 -213 -409 -337 -423 0
-295 -425 -424 -213 -409 -337 -423 -281 -257 0
-295 -425 -424 -213 -409 -337 -423 -281 -252 0
-295 -425 -424 -252 -213 -409 -337 0
-295 -425 -424 -252 -213 -409 -337 -289 0
-295 -425 -424 -252 -213 -409 -337 -423 0
-295 -425 -424 -252 -409 -337 0
-295 -425 -424 -252 -409 -337 -289 0
-295 -425 -424 -252 -409 -337 -423 0
-295 -425 -424 -257 -281 -326 -356 0
-295 -425 -257 -281 -423 -337 -409 -213 -271 0
-295 -425 -257 -281 -326 -356 0
-295 -425 -257 -424 -213 -409 -337 0
-295 -425 -257 -424 -213 -409 -337 -289 0
-295 -425 -257 -424 -213 -409 -337 -423 0
-295 -425 -257 -271 -213 -409 -337 0
-295 -425 -257 -271 -213 -409 -337 -289 0
-295 -425 -257 -271 -213 -409 -337 -423 0
-295 -425 -246 -281 -326 -356 0
-295 -337 -409 -213 -424 -425 0
-295 -337 -409 -213 -424 -425 -257 0
-295 -337 -409 -213 -424 -425 -257 -281 -423 0
-295 -337 -409 -213 -424 -425 -257 -281 -326 0
-295 -337 -409 -213 -424 -425 -246 0
-295 -337 -409 -213 -424 -425 -246 -281 -407 0
-295 -337 -409 -213 -424 -425 -246 -281 -326 0
-295 -337 -409 -213 -424 -425 -281 -407 0
-295 -337 -409 -213 -424 -425 -281 -423 0
-295 -337 -409 -213 -424 -425 -281 -326 0
-295 -337 -409 -213 -424 -425 -281 -257 0
-295 -337 -409 -213 -424 -425 -281 -246 0
-295 -337 -409 -213 -424 -425 -281 -252 0
-295 -337 -409 -213 -424 -252 0
-295 -337 -409 -213 -424 -252 -281 -425 0
-295 -337 -409 -213 -424 -252 -281 -407 0
-295 -337 -409 -213 -424 -252 -281 -423 0
-295 -337 -409 -213 -424 -257 0
-295 -337 -409 -213 -424 -257 -425 0
-295 -337 -409 -213 -424 -257 -425 -281 -423 0
-295 -337 -409 -213 -424 -257 -425 -281 -326 0
-295 -337 -409 -213 -424 -257 -281 -425 0
-295 -337 -409 -213 -424 -257 -281 -423 0
-295 -337 -409 -213 -424 -257 -281 -326 0
-295 -337 -409 -213 -252 0
-295 -337 -409 -213 -252 -424 -425 0
-295 -337 -409 -213 -252 -424 -425 -281 -407 0
-295 -337 -409 -213 -252 -424 -425 -281 -423 0
-295 -337 -409 -213 -252 -271 0
-295 -337 -409 -213 -252 -281 -425 0
-295 -337 -409 -213 -252 -281 -407 0
-295 -337 -409 -213 -252 -281 -423 0
-295 -337 -409 -213 -271 0
-295 -337 -409 -213 -271 -252 0
-295 -337 -409 -213 -271 -252 -281 -425 0
-295 -337 -409 -213 -271 -252 -281 -407 0
-295 -337 -409 -213 -271 -252 -281 -423 0
-295 -337 -409 -213 -271 -257 0
-295 -337 -409 -213 -271 -257 -425 0
-295 -337 -409 -213 -271 -257 -425 -281 -423 0
-295 -337 -409 -213 -271 -257 -425 -281 -326 0
-295 -337 -409 -213 -271 -257 -281 -425 0
-295 -337 -409 -213 -271 -257 -281 -423 0
-295 -337 -409 -213 -271 -257 -281 -326 0
-295 -337 -409 -252 0
-295 -337 -409 -252 -424 -425 0
-295 -337 -409 -252 -424 -425 -281 -407 0
-295 -337 -409 -252 -424 -425 -281 -423 0
-295 -337 -409 -252 -213 -424 -425 0
-295 -337 -409 -252 -213 -424 -425 -281 -407 0
-295 -337 -409 -252 -213 -424 -425 -281 -423 0
-295 -337 -409 -252 -213 -271 0
-295 -337 -409 -252 -271 0
-295 -337 -409 -252 -281 -425 0
-295 -337 -409 -252 -281 -407 0
-295 -337 -409 -252 -281 -423 0
-337 -409 -213 -424 -425 -257 -281 -295 -423 0
-337 -409 -213 -424 -425 -257 -281 -423 0
-337 -409 -213 -424 -425 -257 -281 -326 0
-337 -409 -213 -424 -425 -246 -295 -281 -407 0
-337 -409 -213 -424 -425 -246 -295 -281 -326 0
-337 -409 -213 -424 -425 -246 -281 -407 0
-337 -409 -213 -424 -425 -246 -281 -326 0
-337 -409 -213 -424 -425 -281 -295 -423 0
-337 -409 -213 -424 -425 -281 -407 0
-337 -409 -213 -424 -425 -281 -423 0
-337 -409 -213 -424 -425 -281 -326 0
-337 -409 -213 -424 -425 -295 -246 -281 -407 0
-337 -409 -213 -424 -425 -295 -246 -281 -326 0
-337 -409 -213 -424 -425 -295 -281 -407 0
-337 -409 -213 -424 -425 -295 -281 -423 0
-337 -409 -213 -424 -425 -295 -281 -326 0
-337 -409 -213 -424 -425 -295 -423 0
-337 -409 -213 -424 -252 -281 -425 -295 -423 0
-337 -409 -213 -424 -252 -281 -295 -423 0
-337 -409 -213 -424 -252 -281 -407 0
-337 -409 -213 -424 -252 -281 -423 0
-337 -409 -213 -424 -257 -425 -281 -295 -423 0
-337 -409 -213 -424 -257 -425 -281 -423 0
-337 -409 -213 -424 -257 -425 -281 -326 0
-337 -409 -213 -424 -257 -425 -295 -281 -423 0
-337 -409 -213 -424 -257 -425 -295 -281 -326 0
-337 -409 -213 -424 -257 -425 -295 -423 0
-337 -409 -213 -424 -257 -281 -425 -295 -423 0
-337 -409 -213 -424 -257 -281 -295 -423 0
-337 -409 -213 -424 -257 -281 -423 0
-337 -409 -213 -424 -257 -281 -326 0
-337 -409 -213 -252 -424 -425 -281 -295 -423 0
-337 -409 -213 -252 -424 -425 -281 -407 0
-337 -409 -213 -252 -424 -425 -281 -423 0
-337 -409 -213 -252 -424 -425 -295 -281 -407 0
-337 -409 -213 -252 -424 -425 -295 -281 -423 0
-337 -409 -213 -252 -424 -425 -295 -423 0
-337 -409 -213 -252 -281 -425 -295 -423 0
-337 -409 -213 -252 -281 -295 -423 0
-337 -409 -213 -252 -281 -407 0
-337 -409 -213 -252 -281 -423 0
-337 -409 -213 -271 -252 -281 -425 -295 -423 0
-337 -409 -213 -271 -252 -281 -295 -423 0
-337 -409 -213 -271 -252 -281 -407 0
-337 -409 -213 -271 -252 -281 -423 0
-337 -409 -213 -271 -257 -425 -281 -295 -423 0
-337 -409 -213 -271 -257 -425 -281 -423 0
-337 -409 -213 -271 -257 -425 -281 -326 0
-337 -409 -213 -271 -257 -425 -295 -281 -423 0
-337 -409 -213 -271 -257 -425 -295 -281 -326 0
-337 -409 -213 -271 -257 -425 -295 -423 0
-337 -409 -213 -271 -257 -281 -425 -295 -423 0
-337 -409 -213 -271 -257 -281 -295 -423 0
-337 -409 -213 -271 -257 -281 -423 0
-337 -409 -213 -271 -257 -281 -326 0
-337 -409 -252 -424 -425 -281 -295 -423 0
-337 -409 -252 -424 -425 -281 -407 0
-337 -409 -252 -424 -425 -281 -423 0
-337 -409 -252 -424 -425 -295 -281 -407 0
-337 -409 -252 -424 -425 -295 -281 -423 0
-337 -409 -252 -424 -425 -295 -423 0
-337 -409 -252 -213 -424 -425 -281 -295 -423 0
-337 -409 -252 -213 -424 -425 -281 -407 0
-337 -409 -252 -213 -424 -425 -281 -423 0
-337 -409 -252 -213 -424 -425 -295 -281 -407 0
-337 -409 -252 -213 -424 -425 -295 -281 -423 0
-337 -409 -252 -213 -424 -425 -295 -423 0
-337 -409 -252 -281 -425 -295 -423 0
-337 -409 -252 -281 -295 -423 0
-337 -409 -252 -281 -407 0
-337 -409 -252 -281 -423 0
-337 -295 -246 -281 -326 -356 0
-337 -295 -246 -425 -281 -326 -356 0
-337 -295 -281 -326 -356 0
-337 -295 -425 -281 -326 -356 0
-337 -295 -425 -424 -257 -281 -326 -356 0
-337 -295 -425 -257 -281 -326 -356 0
-337 -295 -425 -246 -281 -326 -356 0
-289 -337 -409 -213 -424 -425 0
-289 -337 -409 -213 -424 -425 -257 0
-289 -337 -409 -213 -424 -425 -246 0
-289 -337 -409 -213 -424 -425 -295 -246 0
-289 -337 -409 -213 -424 -425 -295 -423 0
-289 -337 -409 -213 -424 -252 0
-289 -337 -409 -213 -424 -257 0
-289 -337 -409 -213 -424 -257 -425 0
-289 -337 -409 -213 -424 -257 -425 -295 -423 0
-289 -337 -409 -213 -252 0
-289 -337 -409 -213 -252 -424 -425 0
-289 -337 -409 -213 -252 -424 -425 -295 -423 0
-289 -337 -409 -213 -271 -252 0
-289 -337 -409 -213 -271 -257 0
-289 -337 -409 -213 -271 -257 -425 0
-289 -337 -409 -213 -271 -257 -425 -295 -423 0
-289 -337 -409 -252 0
-289 -337 -409 -252 -424 -425 0
-289 -337 -409 -252 -424 -425 -295 -423 0
-289 -337 -409 -252 -213 -424 -425 0
-289 -337 -409 -252 -213 -424 -425 -295 -423 0
-359 -271 -213 -409 -337 -397 0
-359 -271 -257 -425 -295 -337 -397 0
-426 -239 -409 -337 -295 -425 0
-426 -239 -409 -337 -295 -425 -424 0
-426 -239 -409 -337 -295 -281 -425 0
-426 -239 -409 -337 -295 -281 -425 -424 0
-426 -409 -337 -295 -425 0
-426 -409 -337 -295 -425 -424 0
-426 -409 -337 -295 -425 -424 -252 0
-426 -409 -337 -295 -425 -424 -257 0
-426 -409 -337 -295 -425 -257 0
-426 -409 -337 -295 -425 -257 -424 0
-426 -409 -337 -295 -425 -257 -271 0
-426 -409 -337 -295 -425 -246 0
-426 -409 -337 -295 -425 -281 -257 0
-426 -409 -337 -295 -425 -281 -257 -424 0
-426 -409 -337 -295 -425 -281 -257 -271 0
-426 -409 -337 -295 -425 -281 -246 0
-426 -409 -337 -295 -425 -281 -252 0
-426 -409 -337 -295 -425 -281 -252 -424 0
-426 -409 -337 -295 -425 -281 -252 -271 0
-426 -409 -337 -295 -246 0
-426 -409 -337 -295 -246 -425 0
-426 -409 -337 -295 -246 -425 -424 0
-426 -409 -337 -295 -246 -281 -425 0
-426 -409 -337 -295 -246 -281 -425 -424 0
-426 -409 -337 -295 -281 -425 0
-426 -409 -337 -295 -281 -425 -424 0
-426 -409 -337 -295 -281 -425 -424 -252 0
-426 -409 -337 -295 -281 -425 -424 -257 0
-426 -409 -337 -295 -281 -425 -257 0
-426 -409 -337 -295 -281 -425 -257 -424 0
-426 -409 -337 -295 -281 -425 -257 -271 0
-426 -409 -337 -295 -281 -425 -246 0
-426 -409 -337 -295 -281 -257 0
-426 -409 -337 -295 -281 -257 -424 0
-426 -409 -337 -295 -281 -257 -424 -425 0
-426 -409 -337 -295 -281 -257 -425 0
-426 -409 -337 -295 -281 -257 -425 -424 0
-426 -409 -337 -295 -281 -257 -271 0
-426 -409 -337 -295 -281 -246 0
-426 -409 -337 -295 -281 -246 -425 0
-426 -409 -337 -295 -281 -246 -425 -424 0
-426 -409 -337 -295 -281 -252 0
-426 -409 -337 -295 -281 -252 -424 0
-426 -409 -337 -295 -281 -252 -424 -425 0
-426 -409 -337 -295 -281 -252 -271 0
-426 -409 -337 -295 -423 -281 -425 0
-426 -409 -337 -295 -423 -281 -425 -424 0
-426 -409 -337 -295 -423 -281 -425 -424 -252 0
-426 -409 -337 -295 -423 -281 -425 -424 -257 0
-426 -409 -337 -295 -423 -281 -425 -257 0
-426 -409 -337 -295 -423 -281 -425 -257 -424 0
-426 -409 -337 -295 -423 -281 -425 -257 -271 0
-426 -409 -337 -295 -423 -281 -257 0
-426 -409 -337 -295 -423 -281 -257 -424 0
-426 -409 -337 -295 -423 -281 -257 -424 -425 0
-426 -409 -337 -295 -423 -281 -257 -425 0
-426 -409 -337 -295 -423 -281 -257 -425 -424 0
-426 -409 -337 -295 -423 -281 -257 -271 0
-426 -409 -337 -295 -423 -281 -252 0
-426 -409 -337 -295 -423 -281 -252 -424 0
-426 -409 -337 -295 -423 -281 -252 -424 -425 0
-426 -409 -337 -295 -423 -281 -252 -271 0
-426 -409 -337 -423 -281 -425 0
-426 -409 -337 -423 -281 -425 -424 0
-426 -409 -337 -423 -281 -425 -424 -252 0
-426 -409 -337 -423 -281 -425 -424 -257 0
-426 -409 -337 -423 -281 -425 -257 0
-426 -409 -337 -423 -281 -425 -257 -424 0
-426 -409 -337 -423 -281 -425 -257 -271 0
-426 -409 -337 -423 -281 -295 -425 0
-426 -409 -337 -423 -281 -295 -425 -424 0
-426 -409 -337 -423 -281 -295 -425 -424 -252 0
-426 -409 -337 -423 -281 -295 -425 -424 -257 0
-426 -409 -337 -423 -281 -295 -425 -257 0
-426 -409 -337 -423 -281 -295 -425 -257 -424 0
-426 -409 -337 -423 -281 -295 -425 -257 -271 0
-426 -409 -337 -423 -281 -257 0
-426 -409 -337 -423 -281 -257 -424 0
-426 -409 -337 -423 -281 -257 -424 -425 0
-426 -409 -337 -423 -281 -257 -425 0
-426 -409 -337 -423 -281 -257 -425 -424 0
-426 -409 -337 -423 -281 -257 -271 0
-426 -409 -337 -423 -281 -252 0
-426 -409 -337 -423 -281 -252 -424 0
-426 -409 -337 -423 -281 -252 -424 -425 0
-426 -409 -337 -423 -281 -252 -271 0
-426 -409 -337 -423 -295 -425 0
-426 -409 -337 -423 -295 -425 -424 0
-426 -409 -337 -423 -295 -425 -424 -252 0
-426 -409 -337 -423 -295 -425 -424 -257 0
-426 -409 -337 -423 -295 -425 -257 0
-426 -409 -337 -423 -295 -425 -257 -424 0
-426 -409 -337 -423 -295 -425 -257 -271 0
-426 -409 -337 -423 -295 -425 -281 -257 0
-426 -409 -337 -423 -295 -425 -281 -257 -424 0
-426 -409 -337 -423 -295 -425 -281 -257 -271 0
-426 -409 -337 -423 -295 -425 -281 -252 0
-426 -409 -337 -423 -295 -425 -281 -252 -424 0
-426 -409 -337 -423 -295 -425 -281 -252 -271 0
-426 -409 -337 -423 -295 -281 -425 0
-426 -409 -337 -423 -295 -281 -425 -424 0
-426 -409 -337 -423 -295 -281 -425 -424 -252 0
-426 -409 -337 -423 -295 -281 -425 -424 -257 0
-426 -409 -337 -423 -295 -281 -425 -257 0
-426 -409 -337 -423 -295 -281 -425 -257 -424 0
-426 -409 -337 -423 -295 -281 -425 -257 -271 0
-426 -409 -337 -423 -295 -281 -257 0
-426 -409 -337 -423 -295 -281 -257 -424 0
-426 -409 -337 -423 -295 -281 -257 -424 -425 0
-426 -409 -337 -423 -295 -281 -257 -425 0
-426 -409 -337 -423 -295 -281 -257 -425 -424 0
-426 -409 -337 -423 -295 -281 -257 -271 0
-426 -409 -337 -423 -295 -281 -252 0
-426 -409 -337 -423 -295 -281 -252 -424 0
-426 -409 -337 -423 -295 -281 -252 -424 -425 0
-426 -409 -337 -423 -295 -281 -252 -271 0
-409 -337 -295 -425 -424 -213 -252 0
-409 -337 -295 -425 -424 -252 0
-409 -337 -295 -425 -424 -257 0
-409 -337 -295 -425 -257 0
-409 -337 -295 -425 -257 -271 0
-409 -337 -295 -425 -246 0
-409 -337 -295 -425 -281 -257 0
-409 -337 -295 -425 -281 -257 -271 0
-409 -337 -295 -425 -281 -246 0
-409 -337 -295 -425 -281 -252 0
-409 -337 -295 -425 -281 -252 -213 -271 0
-409 -337 -295 -425 -281 -252 -271 0
-409 -337 -295 -246 0
-409 -337 -295 -281 -425 -424 -213 -252 0
-409 -337 -295 -281 -425 -424 -252 0
-409 -337 -295 -281 -425 -424 -257 0
-409 -337 -295 -281 -425 -257 0
-409 -337 -295 -281 -425 -257 -271 0
-409 -337 -295 -281 -425 -246 0
-409 -337 -295 -281 -257 0
-409 -337 -295 -281 -257 -271 0
-409 -337 -295 -281 -246 0
-409 -337 -295 -281 -252 0
-409 -337 -295 -281 -252 -213 -271 0
-409 -337 -295 -281 -252 -271 0
-409 -337 -295 -423 -281 -425 -424 -213 -252 0
-409 -337 -295 -423 -281 -425 -424 -252 0
-409 -337 -295 -423 -281 -425 -424 -257 0
-409 -337 -295 -423 -281 -425 -257 0
-409 -337 -295 -423 -281 -425 -257 -271 0
-409 -337 -295 -423 -281 -257 0
-409 -337 -295 -423 -281 -257 -271 0
-409 -337 -295 -423 -281 -252 0
-409 -337 -295 -423 -281 -252 -213 -271 0
-409 -337 -295 -423 -281 -252 -271 0
-409 -337 -423 -281 -425 -424 -213 -252 0
-409 -337 -423 -281 -425 -424 -252 0
-409 -337 -423 -281 -425 -424 -257 0
-409 -337 -423 -281 -425 -257 0
-409 -337 -423 -281 -425 -257 -271 0
-409 -337 -423 -281 -295 -425 -424 -213 -252 0
-409 -337 -423 -281 -295 -425 -424 -252 0
-409 -337 -423 -281 -295 -425 -424 -257 0
-409 -337 -423 -281 -295 -425 -257 0
-409 -337 -423 -281 -295 -425 -257 -271 0
-409 -337 -423 -281 -257 0
-409 -337 -423 -281 -257 -271 0
-409 -337 -423 -281 -252 0
-409 -337 -423 -281 -252 -213 -271 0
-409 -337 -423 -281 -252 -271 0
-409 -337 -423 -295 -425 -424 -213 -252 0
-409 -337 -423 -295 -425 -424 -252 0
-409 -337 -423 -295 -425 -424 -257 0
-409 -337 -423 -295 -425 -257 0
-409 -337 -423 -295 -425 -257 -271 0
-409 -337 -423 -295 -425 -281 -257 0
-409 -337 -423 -295 -425 -281 -257 -271 0
-409 -337 -423 -295 -425 -281 -252 0
-409 -337 -423 -295 -425 -281 -252 -213 -271 0
-409 -337 -423 -295 -425 -281 -252 -271 0
-409 -337 -423 -295 -281 -425 -424 -213 -252 0
-409 -337 -423 -295 -281 -425 -424 -252 0
-409 -337 -423 -295 -281 -425 -424 -257 0
-409 -337 -423 -295 -281 -425 -257 0
-409 -337 -423 -295 -281 -425 -257 -271 0
-409 -337 -423 -295 -281 -257 0
-409 -337 -423 -295 -281 -257 -271 0
-409 -337 -423 -295 -281 -252 0
-409 -337 -423 -295 -281 -252 -213 -271 0
-409 -337 -423 -295 -281 -252 -271 0
-252 -213 -409 -337 -295 -425 0
-252 -213 -409 -337 -295 -425 -424 0
-252 -213 -409 -337 -295 -281 -425 0
-252 -213 -409 -337 -295 -281 -425 -424 0
-252 -213 -409 -337 -295 -423 -281 -425 0
-252 -213 -409 -337 -295 -423 -281 -425 -424 0
-252 -213 -409 -337 -423 -281 -425 0
-252 -213 -409 -337 -423 -281 -425 -424 0
-252 -213 -409 -337 -423 -281 -295 -425 0
-252 -213 -409 -337 -423 -281 -295 -425 -424 0
-252 -213 -409 -337 -423 -295 -425 0
-252 -213 -409 -337 -423 -295 -425 -424 0
-252 -213 -409 -337 -423 -295 -281 -425 0
-252 -213 -409 -337 -423 -295 -281 -425 -424 0
-252 -409 -337 -295 -425 0
-252 -409 -337 -295 -425 -424 0
-252 -409 -337 -295 -281 -425 0
-252 -409 -337 -295 -281 -425 -424 0
-252 -409 -337 -295 -423 -281 -425 0
-252 -409 -337 -295 -423 -281 -425 -424 0
-252 -409 -337 -423 -281 -425 0
-252 -409 -337 -423 -281 -425 -424 0
-252 -409 -337 -423 -281 -295 -425 0
-252 -409 -337 -423 -281 -295 -425 -424 0
-252 -409 -337 -423 -295 -425 0
-252 -409 -337 -423 -295 -425 -424 0
-252 -409 -337 -423 -295 -281 -425 0
-252 -409 -337 -423 -295 -281 -425 -424 0
-252 -424 -213 -409 -337 -295 -425 0
-252 -424 -213 -409 -337 -295 -281 -425 0
-252 -424 -213 -409 -337 -295 -423 -281 -425 0
-252 -424 -213 -409 -337 -423 -281 -425 0
-252 -424 -213 -409 -337 -423 -281 -295 -425 0
-252 -424 -213 -409 -337 -423 -295 -425 0
-252 -424 -213 -409 -337 -423 -295 -281 -425 0
-252 -271 -213 -409 -337 -295 -425 0
-252 -271 -213 -409 -337 -295 -281 -425 0
-252 -271 -213 -409 -337 -295 -423 -281 -425 0
-252 -271 -213 -409 -337 -423 -281 -425 0
-252 -271 -213 -409 -337 -423 -281 -295 -425 0
-252 -271 -213 -409 -337 -423 -295 -425 0
-252 -271 -213 -409 -337 -423 -295 -281 -425 0
-252 -281 -425 -295 -423 -337 -409 -213 -424 0
-252 -281 -425 -295 -423 -337 -409 -213 -271 0
-252 -281 -425 -295 -337 -409 -213 -424 0
-252 -281 -425 -295 -337 -409 -213 -271 0
-252 -281 -423 -295 -337 -409 -213 -424 0
-252 -281 -423 -295 -337 -409 -213 -424 -425 0
-252 -281 -423 -295 -337 -409 -213 -271 0
-252 -281 -423 -337 -409 -213 -424 0
-252 -281 -423 -337 -409 -213 -424 -425 0
-252 -281 -423 -337 -409 -213 -271 0
-252 -281 -295 -423 -337 -409 -213 -424 0
-252 -281 -295 -423 -337 -409 -213 -424 -425 0
-252 -281 -295 -423 -337 -409 -213 -271 0
-252 -281 -295 -337 -409 -213 -424 0
-252 -281 -295 -337 -409 -213 -424 -425 0
-252 -281 -295 -337 -409 -213 -271 0
-424 -213 -252 -409 -337 -295 -425 0
-424 -213 -252 -409 -337 -295 -281 -425 0
-424 -213 -252 -409 -337 -295 -423 -281 -425 0
-424 -213 -252 -409 -337 -423 -281 -425 0
-424 -213 -252 -409 -337 -423 -281 -295 -425 0
-424 -213 -252 -409 -337 -423 -295 -425 0
-424 -213 -252 -409 -337 -423 -295 -281 -425 0
-424 -213 -409 -337 -295 -425 0
-424 -213 -409 -337 -295 -425 -257 0
-424 -213 -409 -337 -295 -425 -246 0
-424 -213 -409 -337 -295 -425 -281 -257 0
-424 -213 -409 -337 -295 -425 -281 -246 0
-424 -213 -409 -337 -295 -246 0
-424 -213 -409 -337 -295 -246 -425 0
-424 -213 -409 -337 -295 -246 -281 -425 0
-424 -213 -409 -337 -295 -281 -425 0
-424 -213 -409 -337 -295 -281 -425 -257 0
-424 -213 -409 -337 -295 -281 -425 -246 0
-424 -213 -409 -337 -295 -281 -257 0
-424 -213 -409 -337 -295 -281 -257 -425 0
-424 -213 -409 -337 -295 -281 -246 0
-424 -213 -409 -337 -295 -281 -246 -425 0
-424 -213 -409 -337 -295 -423 -281 -425 0
-424 -213 -409 -337 -295 -423 -281 -425 -257 0
-424 -213 -409 -337 -295 -423 -281 -257 0
-424 -213 -409 -337 -295 -423 -281 -257 -425 0
-424 -213 -409 -337 -423 -281 -425 0
-424 -213 -409 -337 -423 -281 -425 -257 0
-424 -213 -409 -337 -423 -281 -295 -425 0
-424 -213 -409 -337 -423 -281 -295 -425 -257 0
-424 -213 -409 -337 -423 -281 -257 0
-424 -213 -409 -337 -423 -281 -257 -425 0
-424 -213 -409 -337 -423 -295 -425 0
-424 -213 -409 -337 -423 -295 -425 -257 0
-424 -213 -409 -337 -423 -295 -425 -281 -257 0
-424 -213 -409 -337 -423 -295 -281 -425 0
-424 -213 -409 -337 -423 -295 -281 -425 -257 0
-424 -213 -409 -337 -423 -295 -281 -257 0
-424 -213 -409 -337 -423 -295 -281 -257 -425 0
-424 -252 -213 -409 -337 -295 -425 0
-424 -252 -213 -409 -337 -295 -281 -425 0
-424 -252 -213 -409 -337 -295 -423 -281 -425 0
-424 -252 -213 -409 -337 -423 -281 -425 0
-424 -252 -213 -409 -337 -423 -281 -295 -425 0
-424 -252 -213 -409 -337 -423 -295 -425 0
-424 -252 -213 -409 -337 -423 -295 -281 -425 0
-424 -252 -409 -337 -295 -425 0
-424 -252 -409 -337 -295 -281 -425 0
-424 -252 -409 -337 -295 -423 -281 -425 0
-424 -252 -409 -337 -423 -281 -425 0
-424 -252 -409 -337 -423 -281 -295 -425 0
-424 -252 -409 -337 -423 -295 -425 0
-424 -252 -409 -337 -423 -295 -281 -425 0
-271 -213 -409 -337 -295 -425 -257 0
-271 -213 -409 -337 -295 -425 -246 0
-271 -213 -409 -337 -295 -425 -281 -257 0
-271 -213 -409 -337 -295 -425 -281 -246 0
-271 -213 -409 -337 -295 -246 0
-271 -213 -409 -337 -295 -281 -425 -257 0
-271 -213 -409 -337 -295 -281 -425 -246 0
-271 -213 -409 -337 -295 -281 -257 0
-271 -213 -409 -337 -295 -281 -246 0
-271 -213 -409 -337 -295 -423 -281 -425 -257 0
-271 -213 -409 -337 -295 -423 -281 -257 0
-271 -213 -409 -337 -423 -281 -425 -257 0
-271 -213 -409 -337 -423 -281 -295 -425 -257 0
-271 -213 -409 -337 -423 -281 -257 0
-271 -213 -409 -337 -423 -295 -425 -257 0
-271 -213 -409 -337 -423 -295 -425 -281 -257 0
-271 -213 -409 -337 -423 -295 -281 -425 -257 0
-271 -213 -409 -337 -423 -295 -281 -257 0
-257 -281 -423 -295 -337 -409 -213 -424 -425 0
-257 -281 -423 -337 -409 -213 -424 -425 0
-257 -281 -295 -423 -337 -409 -213 -424 -425 0
-257 -281 -295 -337 -409 -213 -424 -425 0
-257 -424 -213 -409 -337 -295 -425 0
-257 -424 -213 -409 -337 -295 -281 -425 0
-257 -424 -213 -409 -337 -295 -423 -281 -425 0
-257 -424 -213 -409 -337 -423 -281 -425 0
-257 -424 -213 -409 -337 -423 -281 -295 -425 0
-257 -424 -213 -409 -337 -423 -295 -425 0
-257 -424 -213 -409 -337 -423 -295 -281 -425 0
-257 -271 -213 -409 -337 -295 -425 0
-257 -271 -213 -409 -337 -295 -281 -425 0
-257 -271 -213 -409 -337 -295 -423 -281 -425 0
-257 -271 -213 -409 -337 -423 -281 -425 0
-257 -271 -213 -409 -337 -423 -281 -295 -425 0
-257 -271 -213 -409 -337 -423 -295 -425 0
-257 -271 -213 -409 -337 -423 -295 -281 -425 0
-425 -424 -213 -409 -337 -295 -246 0
-425 -424 -213 -409 -337 -295 -281 -246 0
-215 -193 -282 -295 -246 0
-215 -193 -282 -295 -246 -276 0
-215 -193 -282 -295 -246 -276 -271 0
-215 -193 -282 -246 0
-215 -193 -282 -246 -276 0
-215 -193 -282 -246 -276 -271 0
-308 -404 -251 -270 -341 -282 -295 0
-308 -251 -207 -270 -341 -282 -295 0
-308 -251 -270 -341 -282 -295 0
-408 -276 -246 -295 -282 -341 -224 -271 0
-408 -276 -246 -282 -341 -224 -271 0
-193 -282 -295 -246 -276 -411 0
-193 -282 -295 -246 -276 -411 -271 0
-193 -282 -295 -246 -276 -271 0
-193 -282 -295 -246 -276 -271 -224 0
-193 -282 -295 -246 -276 -271 -411 0
-193 -282 -246 -276 -411 0
-193 -282 -246 -276 -411 -271 0
-193 -282 -246 -276 -271 0
-193 -282 -246 -276 -271 -224 0
-193 -282 -246 -276 -271 -411 0
-169 -73 427 0
-170 -74 427 0
-171 -75 427 0
-172 -76 427 0
-173 -77 427 0
-174 -78 427 0
-175 -79 427 0
-176 -80 427 0
-404 -224 -341 -282 -295 -427 -387 0
-404 -224 -341 -282 -246 -295 -427 -387 0
-404 -251 -224 -341 -282 -295 -427 -387 0
-276 -246 -295 -282 -341 -224 -271 0
-276 -246 -282 -341 -224 -271 0
-276 -271 -224 -341 -282 -295 0
-276 -271 -224 -341 -282 -295 -246 0
-276 -271 -224 -341 -282 -246 0
-276 -271 -224 -341 -282 -246 -295 0
-246 -276 -411 -271 -363 0
-246 -276 -411 -363 0
-246 -276 -271 -363 0
-246 -276 -271 -224 -341 -282 0
-246 -276 -271 -224 -341 -282 -295 0
-246 -276 -271 -224 -363 0
-246 -276 -271 -411 -363 0
-282 -295 -246 -276 -411 0
-282 -295 -246 -276 -411 -271 0
-282 -295 -246 -276 -271 0
-282 -295 -246 -276 -271 -224 0
-282 -295 -246 -276 -271 -224 -341 0
-282 -295 -246 -276 -271 -411 0
-282 -341 -224 -271 -276 -246 -295 0
-282 -246 -276 -411 0
-282 -246 -276 -411 -271 0
-282 -246 -276 -271 0
-282 -246 -276 -271 -224 0
-282 -246 -276 -271 -224 -341 0
-282 -246 -276 -271 -411 0
-295 -246 -276 -411 -271 0
-295 -246 -276 -411 -271 -363 0
-295 -246 -276 -411 -363 0
-295 -246 -276 -411 -363 -271 0
-295 -246 -276 -271 0
-295 -246 -276 -271 -363 0
-295 -246 -276 -271 -224 -363 0
-295 -246 -276 -271 -411 -363 0
-295 -246 -282 -341 -224 0
-295 -281 -246 -276 -411 -271 0
-295 -281 -246 -276 -271 0
-295 -282 -341 -224 0
-295 -282 -341 -270 -207 -251 -224 0
-295 -282 -341 -270 -251 -404 -224 0
-295 -282 -341 -270 -251 -224 0
-295 -282 -246 -276 -411 -271 0
-295 -282 -246 -276 -271 0
-271 -404 -224 -341 -282 -295 -427 0
-271 -404 -224 -341 -282 -246 -295 -427 0
-271 -404 -251 -224 -341 -282 -295 -427 0
-271 -276 -246 -295 -282 -341 -224 0
-271 -276 -246 -282 -341 -224 0
-271 -224 -341 -282 -295 -427 0
-271 -224 -341 -282 -246 -295 -427 0
-224 -341 -282 -295 -427 -387 0
-224 -341 -282 -246 -295 -427 -387 0
-224 -271 -276 -246 -295 0
-224 -271 -276 -246 -295 -282 -341 0
-224 -271 -276 -246 -281 -295 0
-224 -271 -276 -246 -282 -295 0
-224 -271 -276 -246 -282 -341 0
-224 -363 -271 -276 -246 -295 0
-207 -270 -341 -282 -295 -246 0
-207 -270 -341 -282 -246 0
-341 -282 -295 -246 -276 -411 0
-341 -282 -295 -246 -276 -411 -271 0
-341 -282 -295 -246 -276 -271 0
-341 -282 -295 -246 -276 -271 -224 0
-341 -282 -295 -246 -276 -271 -411 0
-341 -282 -246 -276 -411 0
-341 -282 -246 -276 -411 -271 0
-341 -282 -246 -276 -271 0
-341 -282 -246 -276 -271 -224 0
-341 -282 -246 -276 -271 -411 0
-224 -341 -282 -295 -246 0
-224 -341 -282 -295 -246 -276 0
-224 -341 -282 -295 -246 -276 -271 0
-224 -341 -282 -246 0
-224 -341 -282 -246 -276 0
-224 -341 -282 -246 -276 -271 0
-281 -246 -276 -271 -224 -341 0
-281 -295 -246 -276 -271 -224 -341 0
-295 -246 -282 -341 -270 0
-295 -246 -282 -341 -224 -404 -271 0
-295 -246 -282 -341 -224 -271 0
-295 -246 -276 -271 -224 -341 0
-295 -246 -276 -271 -224 -341 -282 0
-295 -246 -276 -271 -363 -224 -341 0
-295 -281 -246 -276 -271 -224 -341 0
-295 -282 -246 -276 -271 -224 -341 0
-295 -282 -341 -270 0
-295 -282 -341 -270 -207 -251 0
-295 -282 -341 -270 -251 0
-295 -282 -341 -224 -404 -251 0
-295 -282 -341 -224 -404 -251 -270 0
-295 -282 -341 -224 -404 -271 0
-295 -282 -341 -224 -251 0
-295 -282 -341 -224 -251 -207 -270 0
-295 -282 -341 -224 -251 -404 -271 0
-295 -282 -341 -224 -251 -270 0
-295 -282 -341 -224 -271 0
-295 -282 -341 -224 -271 -404 -251 0
-295 -282 -341 -224 -271 -276 -246 0
-282 -295 -246 -276 -271 -224 -341 0
-282 -246 -276 -271 -224 -341 0
-282 -341 -270 -207 -251 0
-282 -341 -270 -251 0
-282 -341 -224 -404 -251 0
-282 -341 -224 -251 0
-282 -341 -224 -271 -404 -251 0
-282 -341 -224 -271 -276 -246 0
-341 -224 -271 -276 -246 -295 -281 -326 0
-341 -224 -271 -276 -246 -281 -326 0
-270 -341 -282 -295 -246 0
-270 -341 -282 -295 -246 -276 0
-270 -341 -282 -295 -246 -276 -411 0
-270 -341 -282 -246 0
-270 -341 -282 -246 -276 0
-270 -341 -282 -246 -276 -411 0
-404 -224 -341 -282 -295 -246 0
-404 -224 -341 -282 -246 0
-404 -271 -224 -341 -282 -295 -246 0
-404 -271 -224 -341 -282 -246 0
-271 -224 -341 -282 -295 -246 0
-271 -224 -341 -282 -295 -246 -276 0
-271 -224 -341 -282 -246 0
-271 -224 -341 -282 -246 -276 0
-271 -404 -224 -341 -282 -295 -246 0
-271 -404 -224 -341 -282 -246 0
-408 -276 -271 -224 -341 -282 -295 -246 0
-408 -276 -271 -224 -341 -282 -246 0
-276 -271 -224 -341 -282 -295 -246 0
-276 -271 -224 -341 -282 -246 0
-415 -213 -214 -248 -405 -328 -337 0
-415 -213 -214 -248 -405 -337 0
-415 -213 -248 -405 -328 -337 0
-415 -213 -248 -405 -337 0
-415 -213 -271 -248 -405 -328 -337 0
-415 -213 -271 -248 -405 -337 0
-415 -213 -271 -411 -248 -405 -328 -337 0
-415 -213 -271 -411 -248 -405 -337 0
-415 -214 -248 -405 -328 -337 0
-415 -214 -248 -405 -337 0
-415 -214 -213 -248 -405 -328 -337 0
-415 -214 -213 -248 -405 -337 0
-415 -214 -276 -411 -248 -405 -328 -337 0
-415 -214 -276 -411 -248 -405 -337 0
-415 -214 -276 -248 -405 -328 -337 0
-415 -214 -276 -248 -405 -337 0
-415 -248 -405 -328 -337 0
-415 -248 -405 -337 0
-408 -276 -248 -405 -328 -337 -416 -271 0
-408 -276 -248 -405 -337 -416 -271 0
-408 -276 -271 -416 -337 -328 -405 -248 0
-408 -276 -271 -416 -337 -405 -248 0
-408 -214 -213 -416 -337 -328 -405 -248 0
-408 -214 -213 -416 -337 -405 -248 0
-408 -248 -405 -328 -337 -416 -213 -214 0
-408 -248 -405 -328 -337 -416 -213 -271 0
-408 -248 -405 -328 -337 -416 -271 0
-408 -248 -405 -328 -337 -416 -271 -276 0
-408 -248 -405 -337 -416 -213 -214 0
-408 -248 -405 -337 -416 -213 -271 0
-408 -248 -405 -337 -416 -271 0
-408 -248 -405 -337 -416 -271 -276 0
-417 -276 -214 -248 -416 -337 0
-417 -276 -214 -248 -416 -337 -328 0
-417 -276 -214 -413 -248 -416 -337 0
-417 -276 -214 -413 -248 -416 -337 -328 0
-417 -276 -248 -271 -416 -337 0
-417 -276 -248 -271 -416 -337 -328 0
-417 -276 -248 -416 -337 0
-417 -276 -248 -416 -337 -328 0
-417 -276 -271 -248 -416 -337 0
-417 -276 -271 -248 -416 -337 -328 0
-417 -276 -271 -416 -337 0
-417 -276 -271 -416 -337 -328 0
-417 -248 -214 -213 -416 -337 0
-417 -248 -214 -213 -416 -337 -328 0
-417 -248 -213 -416 -337 0
-417 -248 -213 -416 -337 -328 0
-417 -248 -213 -271 -416 -337 0
-417 -248 -213 -271 -416 -337 -328 0
-417 -248 -276 -271 -416 -337 0
-417 -248 -276 -271 -416 -337 -328 0
-417 -248 -271 -213 -416 -337 0
-417 -248 -271 -213 -416 -337 -328 0
-417 -248 -271 -416 -337 0
-417 -248 -271 -416 -337 -328 0
-417 -248 -416 -337 0
-417 -248 -416 -337 -328 0
-417 -248 -413 -214 -213 -416 -337 0
-417 -248 -413 -214 -213 -416 -337 -328 0
-214 -408 -276 -248 -405 -328 -337 -416 0
-214 -408 -276 -248 -405 -337 -416 0
-214 -408 -248 -405 -328 -337 -416 0
-214 -408 -248 -405 -328 -337 -416 -213 0
-214 -408 -248 -405 -337 -416 0
-214 -408 -248 -405 -337 -416 -213 0
-214 -248 -405 -328 -337 -416 0
-214 -248 -405 -328 -337 -416 -213 0
-214 -248 -405 -337 -416 0
-214 -248 -405 -337 -416 -213 0
-214 -213 -416 -337 -328 -405 -248 0
-214 -213 -416 -337 -405 -248 0
-214 -213 -248 -405 -328 -337 -416 0
-214 -213 -248 -405 -337 -416 0
-214 -276 -408 -248 -405 -328 -337 -416 0
-214 -276 -408 -248 -405 -337 -416 0
-214 -276 -248 -405 -328 -337 -416 0
-214 -276 -248 -405 -337 -416 0
-213 -415 -214 -248 -405 -328 -337 0
-213 -415 -214 -248 -405 -337 0
-213 -415 -248 -405 -328 -337 0
-213 -415 -248 -405 -337 0
-213 -214 -415 -248 -405 -328 -337 0
-213 -214 -415 -248 -405 -337 0
-213 -214 -408 -248 -416 -337 -328 0
-213 -214 -408 -248 -416 -337 -405 -328 0
-213 -214 -408 -248 -416 -337 -418 -328 0
-213 -214 -408 -248 -405 -328 -337 0
-213 -214 -408 -248 -405 -328 -337 -416 0
-213 -214 -408 -248 -405 -337 0
-213 -214 -408 -248 -405 -337 -416 0
-213 -214 -408 -248 -286 -302 0
-213 -214 -248 -416 -337 -328 0
-213 -214 -248 -416 -337 -405 -328 0
-213 -214 -248 -416 -337 -418 -328 0
-213 -214 -248 -405 -328 -337 0
-213 -214 -248 -405 -328 -337 -416 0
-213 -214 -248 -405 -337 0
-213 -214 -248 -405 -337 -416 0
-213 -214 -248 -286 -302 0
-213 -214 -286 -302 0
-213 -214 -413 -248 -416 -337 -328 0
-213 -214 -413 -248 -416 -337 -418 -328 0
-213 -416 -248 -405 -328 -337 0
-213 -416 -248 -405 -337 0
-213 -416 -271 -248 -405 -328 -337 0
-213 -416 -271 -248 -405 -337 0
-213 -416 -337 -328 0
-213 -416 -337 -328 -405 -248 0
-213 -416 -337 -328 -405 -248 -271 0
-213 -416 -337 -405 -248 0
-213 -416 -337 -405 -248 -271 0
-213 -416 -337 -405 -328 0
-213 -416 -337 -418 -328 0
-213 -248 -408 -214 -286 -302 0
-213 -248 -214 -286 -302 0
-213 -248 -271 -416 -337 -328 0
-213 -248 -271 -416 -337 -405 -328 0
-213 -248 -271 -416 -337 -418 -328 0
-213 -248 -416 -337 -328 0
-213 -248 -416 -337 -405 -328 0
-213 -248 -416 -337 -418 -328 0
-213 -248 -405 -328 -337 0
-213 -248 -405 -328 -337 -416 0
-213 -248 -405 -328 -337 -416 -271 0
-213 -248 -405 -337 0
-213 -248 -405 -337 -416 0
-213 -248 -405 -337 -416 -271 0
-213 -248 -286 -302 0
-213 -271 -248 -416 -337 -328 0
-213 -271 -248 -416 -337 -405 -328 0
-213 -271 -248 -416 -337 -418 -328 0
-213 -271 -248 -405 -328 -337 0
-213 -271 -248 -405 -328 -337 -416 0
-213 -271 -248 -405 -337 0
-213 -271 -248 -405 -337 -416 0
-213 -271 -248 -286 -302 0
-213 -271 -416 -248 -405 -328 -337 0
-213 -271 -416 -248 -405 -337 0
-213 -271 -416 -337 -328 0
-213 -271 -416 -337 -328 -405 -248 0
-213 -271 -416 -337 -405 -248 0
-213 -271 -416 -337 -405 -328 0
-213 -271 -416 -337 -418 -328 0
-213 -271 -411 -248 -405 -328 -337 0
-213 -271 -411 -248 -405 -337 0
-213 -271 -411 -248 -286 -302 0
-276 -408 -214 -248 -416 -337 -328 0
-276 -408 -214 -248 -416 -337 -328 -405 0
-276 -408 -214 -248 -416 -337 -328 -418 0
-276 -408 -214 -248 -416 -337 -405 0
-276 -408 -214 -248 -416 -337 -405 -328 0
-276 -408 -214 -248 -416 -337 -418 0
-276 -408 -214 -248 -416 -337 -418 -328 0
-276 -408 -248 -271 -416 -337 -328 0
-276 -408 -248 -271 -416 -337 -328 -405 0
-276 -408 -248 -271 -416 -337 -328 -418 0
-276 -408 -248 -271 -416 -337 -405 0
-276 -408 -248 -271 -416 -337 -405 -328 0
-276 -408 -248 -271 -416 -337 -418 0
-276 -408 -248 -271 -416 -337 -418 -328 0
-276 -408 -248 -416 -337 -328 0
-276 -408 -248 -416 -337 -328 -405 0
-276 -408 -248 -416 -337 -328 -418 0
-276 -408 -248 -416 -337 -405 0
-276 -408 -248 -416 -337 -405 -328 0
-276 -408 -248 -416 -337 -418 0
-276 -408 -248 -416 -337 -418 -328 0
-276 -408 -248 -405 -328 -337 -416 -271 0
-276 -408 -248 -405 -337 -416 -271 0
-276 -417 -248 -271 -416 -337 -328 0
-276 -417 -248 -416 -337 -328 0
-276 -214 -408 -248 -416 -337 -328 0
-276 -214 -408 -248 -416 -337 -328 -405 0
-276 -214 -408 -248 -416 -337 -328 -418 0
-276 -214 -408 -248 -416 -337 -405 0
-276 -214 -408 -248 -416 -337 -405 -328 0
-276 -214 -408 -248 -416 -337 -418 0
-276 -214 -408 -248 -416 -337 -418 -328 0
-276 -214 -248 -416 -337 -328 0
-276 -214 -248 -416 -337 -328 -405 0
-276 -214 -248 -416 -337 -328 -418 0
-276 -214 -248 -416 -337 -405 0
-276 -214 -248 -416 -337 -405 -328 0
-276 -214 -248 -416 -337 -418 0
-276 -214 -248 -416 -337 -418 -328 0
-276 -214 -413 -248 -416 -337 -328 0
-276 -214 -413 -248 -416 -337 -328 -418 0
-276 -214 -413 -248 -416 -337 -418 0
-276 -214 -413 -248 -416 -337 -418 -328 0
-276 -248 -271 -416 -337 -328 0
-276 -248 -271 -416 -337 -328 -405 0
-276 -248 -271 -416 -337 -328 -418 0
-276 -248 -271 -416 -337 -405 0
-276 -248 -271 -416 -337 -405 -328 0
-276 -248 -271 -416 -337 -418 0
-276 -248 -271 -416 -337 -418 -328 0
-276 -248 -416 -337 -328 0
-276 -248 -416 -337 -328 -405 0
-276 -248 -416 -337 -328 -418 0
-276 -248 -416 -337 -405 0
-276 -248 -416 -337 -405 -328 0
-276 -248 -416 -337 -418 0
-276 -248 -416 -337 -418 -328 0
-276 -248 -405 -328 -337 -416 -271 0
-276 -248 -405 -337 -416 -271 0
-276 -271 -248 -416 -337 -328 0
-276 -271 -248 -416 -337 -328 -405 0
-276 -271 -248 -416 -337 -328 -418 0
-276 -271 -248 -416 -337 -405 0
-276 -271 -248 -416 -337 -405 -328 0
-276 -271 -248 -416 -337 -418 0
-276 -271 -248 -416 -337 -418 -328 0
-276 -271 -416 -337 -328 0
-276 -271 -416 -337 -328 -405 0
-276 -271 -416 -337 -328 -405 -248 0
-276 -271 -416 -337 -328 -418 0
-276 -271 -416 -337 -405 0
-276 -271 -416 -337 -405 -248 0
-276 -271 -416 -337 -405 -328 0
-276 -271 -416 -337 -418 0
-276 -271 -416 -337 -418 -328 0
-248 -408 -276 -271 -416 -337 -328 0
-248 -408 -276 -271 -416 -337 -328 -405 0
-248 -408 -276 -271 -416 -337 -328 -418 0
-248 -408 -276 -271 -416 -337 -405 0
-248 -408 -276 -271 -416 -337 -405 -328 0
-248 -408 -276 -271 -416 -337 -418 0
-248 -408 -276 -271 -416 -337 -418 -328 0
-248 -408 -214 -213 -416 -337 -328 0
-248 -408 -214 -213 -416 -337 -328 -405 0
-248 -408 -214 -213 -416 -337 -328 -418 0
-248 -408 -214 -213 -416 -337 -405 0
-248 -408 -214 -213 -416 -337 -405 -328 0
-248 -408 -214 -213 -416 -337 -418 0
-248 -408 -214 -213 -416 -337 -418 -328 0
-248 -417 -276 -271 -416 -337 -328 0
-248 -214 -213 -416 -337 -328 0
-248 -214 -213 -416 -337 -328 -405 0
-248 -214 -213 -416 -337 -328 -418 0
-248 -214 -213 -416 -337 -405 0
-248 -214 -213 -416 -337 -405 -328 0
-248 -214 -213 -416 -337 -418 0
-248 -214 -213 -416 -337 -418 -328 0
-248 -213 -416 -337 -328 0
-248 -213 -416 -337 -328 -405 0
-248 -213 -416 -337 -328 -418 0
-248 -213 -416 -337 -405 0
-248 -213 -416 -337 -405 -328 0
-248 -213 -416 -337 -418 0
-248 -213 -416 -337 -418 -328 0
-248 -213 -271 -416 -337 -328 0
-248 -213 -271 -416 -337 -328 -405 0
-248 -213 -271 -416 -337 -328 -418 0
-248 -213 -271 -416 -337 -405 0
-248 -213 -271 -416 -337 -405 -328 0
-248 -213 -271 -416 -337 -418 0
-248 -213 -271 -416 -337 -418 -328 0
-248 -276 -271 -416 -337 -328 0
-248 -276 -271 -416 -337 -328 -405 0
-248 -276 -271 -416 -337 -328 -418 0
-248 -276 -271 -416 -337 -405 0
-248 -276 -271 -416 -337 -405 -328 0
-248 -276 -271 -416 -337 -418 0
-248 -276 -271 -416 -337 -418 -328 0
-248 -271 -213 -416 -337 -328 0
-248 -271 -213 -416 -337 -328 -405 0
-248 -271 -213 -416 -337 -328 -418 0
-248 -271 -213 -416 -337 -405 0
-248 -271 -213 -416 -337 -405 -328 0
-248 -271 -213 -416 -337 -418 0
-248 -271 -213 -416 -337 -418 -328 0
-248 -271 -416 -337 -328 0
-248 -271 -416 -337 -328 -405 0
-248 -271 -416 -337 -328 -418 0
-248 -271 -416 -337 -405 0
-248 -271 -416 -337 -405 -328 0
-248 -271 -416 -337 -418 0
-248 -271 -416 -337 -418 -328 0
-248 -416 -337 -328 0
-248 -416 -337 -328 -405 0
-248 -416 -337 -328 -418 0
-248 -416 -337 -405 0
-248 -416 -337 -405 -328 0
-248 -416 -337 -418 0
-248 -416 -337 -418 -328 0
-248 -413 -214 -213 -416 -337 -328 0
-248 -413 -214 -213 -416 -337 -328 -418 0
-248 -413 -214 -213 -416 -337 -418 0
-248 -413 -214 -213 -416 -337 -418 -328 0
-248 -405 -328 -337 -416 0
-248 -405 -328 -337 -416 -213 -271 0
-248 -405 -328 -337 -416 -271 0
-248 -405 -337 -416 0
-248 -405 -337 -416 -213 -271 0
-248 -405 -337 -416 -271 0
-405 -248 -408 -276 -271 -416 -337 0
-405 -248 -408 -276 -271 -416 -337 -328 0
-405 -248 -408 -214 -213 -416 -337 0
-405 -248 -408 -214 -213 -416 -337 -328 0
-405 -248 -214 -213 -416 -337 0
-405 -248 -214 -213 -416 -337 -328 0
-405 -248 -213 -416 -337 0
-405 -248 -213 -416 -337 -328 0
-405 -248 -213 -271 -416 -337 0
-405 -248 -213 -271 -416 -337 -328 0
-405 -248 -276 -271 -416 -337 0
-405 -248 -276 -271 -416 -337 -328 0
-405 -248 -271 -213 -416 -337 0
-405 -248 -271 -213 -416 -337 -328 0
-405 -248 -271 -416 -337 0
-405 -248 -271 -416 -337 -328 0
-405 -248 -416 -337 0
-405 -248 -416 -337 -328 0
-271 -213 -248 -405 -328 -337 -416 0
-271 -213 -248 -405 -337 -416 0
-271 -276 -408 -248 -405 -328 -337 -416 0
-271 -276 -408 -248 -405 -337 -416 0
-271 -276 -248 -405 -328 -337 -416 0
-271 -276 -248 -405 -337 -416 0
-271 -248 -405 -328 -337 -416 0
-271 -248 -405 -337 -416 0
-416 -213 -214 -408 -248 -405 -328 -337 0
-416 -213 -214 -408 -248 -405 -337 0
-416 -213 -214 -248 -405 -328 -337 0
-416 -213 -214 -248 -405 -337 0
-416 -213 -248 -405 -328 -337 0
-416 -213 -248 -405 -337 0
-416 -213 -271 -248 -405 -328 -337 0
-416 -213 -271 -248 -405 -337 0
-416 -248 -405 -328 -337 0
-416 -248 -405 -337 0
-416 -271 -213 -248 -405 -328 -337 0
-416 -271 -213 -248 -405 -337 0
-416 -271 -276 -408 -248 -405 -328 -337 0
-416 -271 -276 -408 -248 -405 -337 0
-416 -271 -276 -248 -405 -328 -337 0
-416 -271 -276 -248 -405 -337 0
-416 -271 -248 -405 -328 -337 0
-416 -271 -248 -405 -337 0
-328 -405 -248 -408 -276 -271 0
-328 -405 -248 -408 -276 -271 -416 -337 0
-328 -405 -248 -408 -214 -213 -416 -337 0
-328 -405 -248 -415 -213 -271 0
-328 -405 -248 -214 -213 -416 -337 0
-328 -405 -248 -213 -416 -271 0
-328 -405 -248 -213 -416 -337 0
-328 -405 -248 -213 -271 0
-328 -405 -248 -213 -271 -416 -337 0
-328 -405 -248 -276 -411 -271 0
-328 -405 -248 -276 -271 0
-328 -405 -248 -276 -271 -416 -337 0
-328 -405 -248 -271 0
-328 -405 -248 -271 -213 -416 -337 0
-328 -405 -248 -271 -416 -337 0
-328 -405 -248 -411 -276 -271 0
-328 -405 -248 -411 -271 0
-328 -405 -248 -416 -213 -271 0
-328 -405 -248 -416 -271 0
-328 -405 -248 -416 -337 0
-328 -337 -405 -248 -408 -276 -271 0
-328 -337 -405 -248 -415 -213 -271 0
-328 -337 -405 -248 -213 -416 -271 0
-328 -337 -405 -248 -213 -271 0
-328 -337 -405 -248 -276 -411 -271 0
-328 -337 -405 -248 -276 -271 0
-328 -337 -405 -248 -271 0
-328 -337 -405 -248 -411 -276 -271 0
-328 -337 -405 -248 -411 -271 0
-328 -337 -405 -248 -416 -213 -271 0
-328 -337 -405 -248 -416 -271 0
-328 -337 -397 -348 0
-333 -337 -405 -248 -408 -276 -271 0
-333 -337 -405 -248 -408 -276 -271 -416 0
-333 -337 -405 -248 -408 -214 -213 -416 0
-333 -337 -405 -248 -415 -213 -271 0
-333 -337 -405 -248 -415 -213 -271 -411 0
-333 -337 -405 -248 -415 -214 -276 -411 0
-333 -337 -405 -248 -214 -213 -416 0
-333 -337 -405 -248 -214 -276 -411 0
-333 -337 -405 -248 -213 -416 0
-333 -337 -405 -248 -213 -416 -271 0
-333 -337 -405 -248 -213 -271 0
-333 -337 -405 -248 -213 -271 -416 0
-333 -337 -405 -248 -213 -271 -411 0
-333 -337 -405 -248 -276 -411 0
-333 -337 -405 -248 -276 -411 -271 0
-333 -337 -405 -248 -276 -271 0
-333 -337 -405 -248 -276 -271 -416 0
-333 -337 -405 -248 -276 -271 -411 0
-333 -337 -405 -248 -271 0
-333 -337 -405 -248 -271 -213 -416 0
-333 -337 -405 -248 -271 -276 -411 0
-333 -337 -405 -248 -271 -416 0
-333 -337 -405 -248 -271 -411 0
-333 -337 -405 -248 -411 0
-333 -337 -405 -248 -411 -276 -271 0
-333 -337 -405 -248 -411 -271 0
-333 -337 -405 -248 -416 0
-333 -337 -405 -248 -416 -213 -271 0
-333 -337 -405 -248 -416 -271 0
-333 -406 -337 -405 -248 -408 -276 -271 0
-333 -406 -337 -405 -248 -415 -213 -271 0
-333 -406 -337 -405 -248 -213 -271 0
-333 -406 -337 -405 -248 -276 -271 0
-333 -406 -337 -405 -248 -271 0
-337 -405 -248 -408 -276 -271 0
-337 -405 -248 -408 -276 -271 -416 0
-337 -405 -248 -408 -214 -213 -416 0
-337 -405 -248 -415 -213 -271 0
-337 -405 -248 -415 -213 -271 -411 0
-337 -405 -248 -415 -214 -276 -411 0
-337 -405 -248 -214 -213 -416 0
-337 -405 -248 -214 -276 -411 0
-337 -405 -248 -213 -416 0
-337 -405 -248 -213 -416 -271 0
-337 -405 -248 -213 -271 0
-337 -405 -248 -213 -271 -416 0
-337 -405 -248 -213 -271 -411 0
-337 -405 -248 -276 -411 0
-337 -405 -248 -276 -411 -271 0
-337 -405 -248 -276 -271 0
-337 -405 -248 -276 -271 -416 0
-337 -405 -248 -276 -271 -411 0
-337 -405 -248 -271 0
-337 -405 -248 -271 -213 -416 0
-337 -405 -248 -271 -276 -411 0
-337 -405 -248 -271 -416 0
-337 -405 -248 -271 -411 0
-337 -405 -248 -411 0
-337 -405 -248 -411 -276 -271 0
-337 -405 -248 -411 -271 0
-337 -405 -248 -416 0
-337 -405 -248 -416 -213 -271 0
-337 -405 -248 -416 -271 0
-337 -328 -405 -248 -408 -276 -271 0
-337 -328 -405 -248 -408 -276 -271 -416 0
-337 -328 -405 -248 -408 -214 -213 -416 0
-337 -328 -405 -248 -415 -213 -271 0
-337 -328 -405 -248 -415 -213 -271 -411 0
-337 -328 -405 -248 -415 -214 -276 -411 0
-337 -328 -405 -248 -214 -213 -416 0
-337 -328 -405 -248 -214 -276 -411 0
-337 -328 -405 -248 -213 -416 0
-337 -328 -405 -248 -213 -416 -271 0
-337 -328 -405 -248 -213 -271 0
-337 -328 -405 -248 -213 -271 -416 0
-337 -328 -405 -248 -213 -271 -411 0
-337 -328 -405 -248 -276 -411 0
-337 -328 -405 -248 -276 -411 -271 0
-337 -328 -405 -248 -276 -271 0
-337 -328 -405 -248 -276 -271 -416 0
-337 -328 -405 -248 -276 -271 -411 0
-337 -328 -405 -248 -271 0
-337 -328 -405 -248 -271 -213 -416 0
-337 -328 -405 -248 -271 -276 -411 0
-337 -328 -405 -248 -271 -416 0
-337 -328 -405 -248 -271 -411 0
-337 -328 -405 -248 -411 0
-337 -328 -405 -248 -411 -276 -271 0
-337 -328 -405 -248 -411 -271 0
-337 -328 -405 -248 -416 0
-337 -328 -405 -248 -416 -213 -271 0
-337 -328 -405 -248 -416 -271 0
-213 -248 -405 -328 -337 -416 0
-213 -248 -405 -328 -337 -416 -271 0
-213 -248 -405 -328 -337 -406 0
-213 -248 -405 -337 -416 0
-213 -248 -405 -337 -416 -271 0
-213 -248 -405 -337 -406 0
-213 -248 -405 -337 -333 -406 0
-213 -415 -214 -248 -405 -328 -337 -406 0
-213 -415 -214 -248 -405 -337 -406 0
-213 -415 -214 -248 -405 -337 -333 -406 0
-213 -415 -248 -405 -328 -337 -406 0
-213 -415 -248 -405 -337 -406 0
-213 -415 -248 -405 -337 -333 -406 0
-213 -416 -337 -405 -248 0
-213 -416 -337 -405 -248 -408 0
-213 -416 -337 -405 -248 -408 -214 0
-213 -416 -337 -405 -248 -214 0
-213 -416 -337 -405 -248 -214 -408 0
-213 -416 -337 -405 -248 -271 0
-213 -416 -337 -328 -405 -248 0
-213 -416 -337 -328 -405 -248 -408 0
-213 -416 -337 -328 -405 -248 -408 -214 0
-213 -416 -337 -328 -405 -248 -214 0
-213 -416 -337 -328 -405 -248 -214 -408 0
-213 -416 -337 -328 -405 -248 -271 0
-213 -214 -248 -405 -328 -337 -416 0
-213 -214 -248 -405 -328 -337 -406 0
-213 -214 -248 -405 -337 -416 0
-213 -214 -248 -405 -337 -406 0
-213 -214 -248 -405 -337 -333 -406 0
-213 -214 -415 -248 -405 -328 -337 -406 0
-213 -214 -415 -248 -405 -337 -406 0
-213 -214 -415 -248 -405 -337 -333 -406 0
-213 -214 -408 -248 -405 -328 -337 -416 0
-213 -214 -408 -248 -405 -328 -337 -406 0
-213 -214 -408 -248 -405 -337 -416 0
-213 -214 -408 -248 -405 -337 -406 0
-213 -214 -408 -248 -405 -337 -333 -406 0
-213 -271 -248 -405 -328 -337 -416 0
-213 -271 -248 -405 -328 -337 -406 0
-213 -271 -248 -405 -337 -416 0
-213 -271 -248 -405 -337 -406 0
-213 -271 -248 -405 -337 -333 -406 0
-213 -271 -416 -337 -405 -248 0
-213 -271 -416 -337 -405 -248 -408 0
-213 -271 -416 -337 -328 -405 -248 0
-213 -271 -416 -337 -328 -405 -248 -408 0
-248 -213 -416 -337 -405 0
-248 -213 -416 -337 -328 -405 0
-248 -213 -271 -416 -337 -405 0
-248 -213 -271 -416 -337 -328 -405 0
-248 -276 -271 -416 -337 -405 0
-248 -276 -271 -416 -337 -328 -405 0
-248 -214 -213 -416 -337 -405 0
-248 -214 -213 -416 -337 -328 -405 0
-248 -271 -213 -416 -337 -405 0
-248 -271 -213 -416 -337 -328 -405 0
-248 -271 -416 -337 -405 0
-248 -271 -416 -337 -328 -405 0
-248 -408 -214 -213 -416 -337 -405 0
-248 -408 -214 -213 -416 -337 -328 -405 0
-248 -408 -276 -271 -416 -337 -405 0
-248 -408 -276 -271 -416 -337 -328 -405 0
-248 -405 -328 -337 -416 0
-248 -405 -328 -337 -416 -213 -214 0
-248 -405 -328 -337 -416 -213 -214 -408 0
-248 -405 -328 -337 -416 -213 -271 0
-248 -405 -328 -337 -416 -271 0
-248 -405 -328 -337 -416 -271 -276 0
-248 -405 -328 -337 -416 -271 -276 -408 0
-248 -405 -328 -337 -406 0
-248 -405 -337 -416 0
-248 -405 -337 -416 -213 -214 0
-248 -405 -337 -416 -213 -214 -408 0
-248 -405 -337 -416 -213 -271 0
-248 -405 -337 -416 -271 0
-248 -405 -337 -416 -271 -276 0
-248 -405 -337 -416 -271 -276 -408 0
-248 -405 -337 -406 0
-248 -405 -337 -333 -406 0
-248 -416 -337 -405 0
-248 -416 -337 -328 -405 0
-328 -405 -248 -213 -416 -337 0
-328 -405 -248 -213 -271 -416 -337 0
-328 -405 -248 -276 -271 -416 -337 0
-328 -405 -248 -214 -213 -416 -337 0
-328 -405 -248 -271 -213 -416 -337 0
-328 -405 -248 -271 -416 -337 0
-328 -405 -248 -408 -214 -213 -416 -337 0
-328 -405 -248 -408 -276 -271 -416 -337 0
-328 -405 -248 -416 -337 0
-328 -418 -337 -416 -213 -214 -248 -413 0
-328 -418 -337 -416 -213 -214 -413 0
-328 -418 -337 -416 -213 -248 -214 -413 0
-328 -418 -337 -416 -213 -248 -413 0
-328 -418 -337 -416 -213 -271 -248 -413 0
-328 -418 -337 -416 -248 -214 -413 0
-328 -418 -337 -416 -248 -213 -214 -413 0
-328 -418 -337 -416 -248 -276 -214 -413 0
-328 -418 -337 -416 -248 -413 0
-328 -418 -337 -416 -271 -213 -248 -413 0
-328 -418 -337 -416 -271 -276 -248 -413 0
-328 -418 -337 -416 -271 -248 -413 0
-328 -337 -416 -213 -214 -408 -248 -405 0
-328 -337 -416 -213 -214 -248 -413 0
-328 -337 -416 -213 -214 -248 -405 0
-328 -337 -416 -213 -214 -413 0
-328 -337 -416 -213 -248 -214 -413 0
-328 -337 -416 -213 -248 -413 0
-328 -337 -416 -213 -248 -405 0
-328 -337 -416 -213 -271 -248 -413 0
-328 -337 -416 -213 -271 -248 -405 0
-328 -337 -416 -248 -417 -276 -214 -413 0
-328 -337 -416 -248 -214 -413 0
-328 -337 -416 -248 -213 -214 -413 0
-328 -337 -416 -248 -276 -214 -413 0
-328 -337 -416 -248 -413 0
-328 -337 -416 -248 -405 0
-328 -337 -416 -271 -213 -248 -413 0
-328 -337 -416 -271 -213 -248 -405 0
-328 -337 -416 -271 -276 -408 -248 -405 0
-328 -337 -416 -271 -276 -417 -248 -413 0
-328 -337 -416 -271 -276 -248 -413 0
-328 -337 -416 -271 -276 -248 -405 0
-328 -337 -416 -271 -248 -413 0
-328 -337 -416 -271 -248 -405 0
-337 -416 -213 -214 -408 -248 -405 0
-337 -416 -213 -214 -248 -413 0
-337 -416 -213 -214 -248 -405 0
-337 -416 -213 -214 -413 0
-337 -416 -213 -248 -214 -413 0
-337 -416 -213 -248 -413 0
-337 -416 -213 -248 -405 0
-337 -416 -213 -271 -248 -413 0
-337 -416 -213 -271 -248 -405 0
-337 -416 -248 -417 -276 -214 -413 0
-337 -416 -248 -214 -413 0
-337 -416 -248 -213 -214 -413 0
-337 -416 -248 -276 -214 -413 0
-337 -416 -248 -413 0
-337 -416 -248 -405 0
-337 -416 -271 -213 -248 -413 0
-337 -416 -271 -213 -248 -405 0
-337 -416 -271 -276 -408 -248 -405 0
-337 -416 -271 -276 -417 -248 -413 0
-337 -416 -271 -276 -248 -413 0
-337 -416 -271 -276 -248 -405 0
-337 -416 -271 -248 -413 0
-337 -416 -271 -248 -405 0
-333 -337 -416 -213 -214 -408 -248 -405 0
-333 -337 -416 -213 -214 -248 -413 0
-333 -337 -416 -213 -214 -248 -405 0
-333 -337 -416 -213 -214 -413 0
-333 -337 -416 -213 -248 -214 -413 0
-333 -337 -416 -213 -248 -413 0
-333 -337 -416 -213 -248 -405 0
-333 -337 -416 -213 -271 -248 -413 0
-333 -337 -416 -213 -271 -248 -405 0
-333 -337 -416 -248 -417 -276 -214 -413 0
-333 -337 -416 -248 -214 -413 0
-333 -337 -416 -248 -213 -214 -413 0
-333 -337 -416 -248 -276 -214 -413 0
-333 -337 -416 -248 -413 0
-333 -337 -416 -248 -405 0
-333 -337 -416 -271 -213 -248 -413 0
-333 -337 -416 -271 -213 -248 -405 0
-333 -337 -416 -271 -276 -408 -248 -405 0
-333 -337 -416 -271 -276 -417 -248 -413 0
-333 -337 -416 -271 -276 -248 -413 0
-333 -337 -416 -271 -276 -248 -405 0
-333 -337 -416 -271 -248 -413 0
-333 -337 -416 -271 -248 -405 0
-357 -232 -276 -408 -248 -271 0
-357 -232 -276 -248 -271 0
-357 -232 -276 -271 0
-357 -232 -248 -408 -276 -271 0
-357 -232 -248 -415 -213 -271 0
-357 -232 -248 -213 -271 0
-357 -232 -248 -276 -271 0
-357 -232 -248 -271 0
-406 -333 -337 -405 -248 -408 -276 0
-406 -333 -337 -405 -248 -408 -276 -271 0
-406 -333 -337 -405 -248 -408 -214 -276 0
-406 -333 -337 -405 -248 -415 -213 -271 0
-406 -333 -337 -405 -248 -415 -214 -276 0
-406 -333 -337 -405 -248 -214 -408 -276 0
-406 -333 -337 -405 -248 -214 -276 0
-406 -333 -337 -405 -248 -213 -271 0
-406 -333 -337 -405 -248 -276 0
-406 -333 -337 -405 -248 -276 -271 0
-406 -333 -337 -405 -248 -271 0
-406 -333 -337 -405 -248 -271 -276 0
-406 -337 -405 -248 -408 -276 0
-406 -337 -405 -248 -408 -276 -271 0
-406 -337 -405 -248 -408 -214 -276 0
-406 -337 -405 -248 -415 -213 -271 0
-406 -337 -405 -248 -415 -214 -276 0
-406 -337 -405 -248 -214 -408 -276 0
-406 -337 -405 -248 -214 -276 0
-406 -337 -405 -248 -213 -271 0
-406 -337 -405 -248 -276 0
-406 -337 -405 -248 -276 -271 0
-406 -337 -405 -248 -271 0
-406 -337 -405 -248 -271 -276 0
-406 -337 -328 -405 -248 -408 -276 0
-406 -337 -328 -405 -248 -408 -276 -271 0
-406 -337 -328 -405 -248 -408 -214 -276 0
-406 -337 -328 -405 -248 -415 -213 -271 0
-406 -337 -328 -405 -248 -415 -214 -276 0
-406 -337 -328 -405 -248 -214 -408 -276 0
-406 -337 -328 -405 -248 -214 -276 0
-406 -337 -328 -405 -248 -213 -271 0
-406 -337 -328 -405 -248 -276 0
-406 -337 -328 -405 -248 -276 -271 0
-406 -337 -328 -405 -248 -271 0
-406 -337 -328 -405 -248 -271 -276 0
-416 -337 -405 -248 -408 -276 0
-416 -337 -405 -248 -408 -276 -271 0
-416 -337 -405 -248 -408 -214 -276 0
-416 -337 -405 -248 -214 -408 -276 0
-416 -337 -405 -248 -214 -276 0
-416 -337 -405 -248 -213 -271 0
-416 -337 -405 -248 -276 0
-416 -337 -405 -248 -276 -271 0
-416 -337 -405 -248 -271 0
-416 -337 -405 -248 -271 -276 0
-416 -337 -328 -405 -248 -408 -276 0
-416 -337 -328 -405 -248 -408 -276 -271 0
-416 -337 -328 -405 -248 -408 -214 -276 0
-416 -337 -328 -405 -248 -214 -408 -276 0
-416 -337 -328 -405 -248 -214 -276 0
-416 -337 -328 -405 -248 -213 -271 0
-416 -337 -328 -405 -248 -276 0
-416 -337 -328 -405 -248 -276 -271 0
-416 -337 -328 -405 -248 -271 0
-416 -337 -328 -405 -248 -271 -276 0
-214 -213 -248 -416 -337 -405 0
-214 -213 -248 -416 -337 -328 -405 0
-214 -213 -416 -337 -405 0
-214 -213 -416 -337 -405 -248 -408 0
-214 -213 -416 -337 -328 -405 0
-214 -213 -416 -337 -328 -405 -248 -408 0
-214 -248 -213 -416 -337 -405 0
-214 -248 -213 -416 -337 -328 -405 0
-214 -248 -416 -337 -405 0
-214 -248 -416 -337 -328 -405 0
-214 -408 -248 -213 -416 -337 -405 0
-214 -408 -248 -213 -416 -337 -328 -405 0
-214 -408 -248 -416 -337 -405 0
-214 -408 -248 -416 -337 -328 -405 0
-214 -408 -276 -248 -416 -337 -405 0
-214 -408 -276 -248 -416 -337 -328 -405 0
-214 -276 -248 -416 -337 -405 0
-214 -276 -248 -416 -337 -328 -405 0
-214 -276 -408 -248 -416 -337 -405 0
-214 -276 -408 -248 -416 -337 -328 -405 0
-271 -416 -337 -405 -248 -408 -276 0
-271 -416 -337 -405 -248 -276 0
-271 -416 -337 -328 -405 -248 -408 -276 0
-271 -416 -337 -328 -405 -248 -276 0
-408 -248 -405 -328 -337 -416 -271 -276 0
-408 -248 -405 -337 -416 -271 -276 0
-197 -239 -270 -368 -313 0
-213 -197 -239 -270 -368 -313 0
-213 -416 -368 -423 -281 0
-213 -416 -368 -423 -281 -425 -295 0
-213 -416 -368 -423 -281 -343 -295 0
-213 -416 -368 -423 -281 -257 -425 -295 0
-213 -416 -368 -423 -281 -295 0
-213 -416 -368 -423 -295 0
-213 -416 -368 -423 -295 -281 0
-213 -416 -368 -423 -295 -425 -281 0
-213 -416 -368 -423 -295 -425 -257 -281 0
-213 -416 -368 -423 -295 -343 -281 0
-213 -416 -368 -423 -343 -281 0
-213 -416 -368 -423 -343 -281 -295 0
-213 -416 -368 -423 -343 -295 0
-213 -416 -368 -423 -343 -295 -281 0
-281 -425 -295 -423 -368 -313 0
-281 -425 -295 -423 -368 -416 0
-281 -295 -343 -423 -368 -313 0
-281 -295 -343 -423 -368 -416 0
-281 -295 -423 -368 -313 0
-281 -295 -423 -368 -416 0
-281 -423 -368 -313 0
-281 -423 -368 -416 0
-281 -343 -295 -423 -368 -313 0
-281 -343 -295 -423 -368 -416 0
-281 -343 -423 -368 -313 0
-281 -343 -423 -368 -416 0
-281 -257 -425 -295 -423 -368 -313 0
-281 -257 -425 -295 -423 -368 -416 0
-220 -213 -197 -419 -239 0
-220 -213 -197 -239 0
-220 -213 -197 -239 -270 0
-220 -213 -197 -239 -270 -368 0
-239 -197 -213 -220 -296 0
-239 -419 -197 -213 -220 -296 0
-197 -213 -220 -296 0
-197 -213 -416 -368 -423 -281 0
-197 -213 -416 -368 -423 -281 -295 0
-197 -213 -416 -368 -423 -281 -257 0
-197 -213 -416 -368 -423 -295 0
-197 -213 -416 -368 -423 -295 -281 0
-197 -213 -416 -368 -423 -295 -281 -257 0
-213 -416 -368 -423 -281 -425 0
-213 -416 -368 -423 -281 -425 -257 0
-213 -416 -368 -423 -281 -295 -425 0
-213 -416 -368 -423 -281 -295 -425 -257 0
-213 -416 -368 -423 -281 -257 0
-213 -416 -368 -423 -281 -257 -425 0
-213 -416 -368 -423 -343 -281 -257 0
-213 -416 -368 -423 -343 -295 -281 -257 0
-213 -416 -368 -423 -295 -425 0
-213 -416 -368 -423 -295 -425 -257 0
-213 -416 -368 -423 -295 -425 -281 -257 0
-213 -416 -368 -423 -295 -281 -425 0
-213 -416 -368 -423 -295 -281 -425 -257 0
-213 -416 -368 -423 -295 -281 -257 0
-213 -416 -368 -423 -295 -281 -257 -425 0
-213 -416 -368 -423 -295 -343 -281 -257 0
-295 -423 -368 -313 0
-295 -423 -368 -270 0
-295 -281 -343 -423 -368 -313 0
-295 -281 -343 -423 -368 -270 0
-295 -281 -423 -368 -313 0
-295 -281 -423 -368 -270 0
-295 -425 -281 -423 -368 -313 0
-295 -425 -281 -423 -368 -270 0
-295 -425 -257 -281 -423 -368 -313 0
-295 -425 -257 -281 -423 -368 -270 0
-295 -343 -281 -423 -368 -313 0
-295 -343 -281 -423 -368 -270 0
-295 -343 -423 -368 -313 0
-295 -343 -423 -368 -270 0
-296 -220 -213 -197 -239 -270 0
-357 -220 -213 -197 -239 -270 0
-357 -220 -213 -197 -239 -270 -368 0
-419 -197 -213 -416 -368 -423 -281 -257 0
-419 -197 -213 -416 -368 -423 -295 -281 -257 0
-270 -368 -423 -281 -425 -257 0
-270 -368 -423 -281 -295 -425 -257 0
-270 -368 -423 -281 -257 0
-270 -368 -423 -343 -281 -257 0
-270 -368 -423 -343 -295 -281 -257 0
-270 -368 -423 -295 -425 -257 0
-270 -368 -423 -295 -425 -281 -257 0
-270 -368 -423 -295 -281 -425 -257 0
-270 -368 -423 -295 -281 -257 0
-270 -368 -423 -295 -343 -281 -257 0
-313 -368 -423 -281 -425 -257 0
-313 -368 -423 -281 -295 -425 -257 0
-313 -368 -423 -281 -295 -343 0
-313 -368 -423 -281 -343 0
-313 -368 -423 -281 -257 0
-313 -368 -423 -343 0
-313 -368 -423 -343 -281 -257 0
-313 -368 -423 -343 -295 -281 -257 0
-313 -368 -423 -295 -425 -257 0
-313 -368 -423 -295 -425 -281 -257 0
-313 -368 -423 -295 -281 -425 -257 0
-313 -368 -423 -295 -281 -343 0
-313 -368 -423 -295 -281 -257 0
-313 -368 -423 -295 -343 0
-313 -368 -423 -295 -343 -281 -257 0
-416 -368 -423 -281 -425 -257 0
-416 -368 -423 -281 -295 -425 -257 0
-416 -368 -423 -281 -257 0
-416 -368 -423 -343 -281 -257 0
-416 -368 -423 -343 -295 -281 -257 0
-416 -368 -423 -295 -425 -257 0
-416 -368 -423 -295 -425 -281 -257 0
-416 -368 -423 -295 -281 -425 -257 0
-416 -368 -423 -295 -281 -257 0
-416 -368 -423 -295 -343 -281 -257 0
-212 -204 -223 -268 0
-212 -204 -223 -365 -268 0
-212 -204 -223 -370 -268 0
-408 -214 -404 -223 -282 -304 -248 0
-408 -214 -404 -268 -223 -282 -304 -248 0
-408 -248 -304 -282 -223 -268 -404 -214 0
-408 -248 -304 -282 -223 -404 -214 0
-417 -192 -248 -404 -223 -268 -370 0
-417 -192 -248 -404 -223 -282 0
-417 -192 -248 -404 -223 -370 0
-417 -192 -248 -404 -268 -370 0
-417 -192 -248 -404 -268 -223 -282 0
-417 -192 -248 -404 -268 -223 -370 0
-417 -192 -248 -235 -412 -365 0
-417 -192 -282 -223 -268 -404 -248 0
-417 -192 -282 -223 -404 -248 0
-417 -248 -214 -404 -223 -268 -370 0
-417 -248 -214 -404 -223 -282 0
-417 -248 -214 -404 -223 -370 0
-417 -248 -214 -404 -268 -370 0
-417 -248 -214 -404 -268 -223 -282 0
-417 -248 -214 -404 -268 -223 -370 0
-417 -248 -404 -223 -268 -370 0
-417 -248 -404 -223 -282 0
-417 -248 -404 -223 -282 -192 0
-417 -248 -404 -223 -370 0
-417 -248 -404 -268 -370 0
-417 -248 -404 -268 -223 -282 0
-417 -248 -404 -268 -223 -282 -192 0
-417 -248 -404 -268 -223 -370 0
-417 -248 -307 -214 -404 -223 -268 -370 0
-417 -248 -307 -214 -404 -223 -282 0
-417 -248 -307 -214 -404 -223 -370 0
-417 -248 -307 -214 -404 -268 -370 0
-417 -248 -307 -214 -404 -268 -223 -282 0
-417 -248 -307 -214 -404 -268 -223 -370 0
-417 -248 -235 -412 -365 0
-192 -417 -248 -404 -223 -268 0
-192 -417 -248 -404 -223 -268 -370 0
-192 -417 -248 -404 -223 -282 0
-192 -417 -248 -404 -223 -370 0
-192 -417 -248 -404 -223 -370 -268 0
-192 -417 -248 -404 -268 0
-192 -417 -248 -404 -268 -370 0
-192 -417 -248 -404 -268 -223 -282 0
-192 -417 -248 -404 -268 -223 -370 0
-192 -417 -248 -235 -412 -365 0
-192 -417 -248 -235 -412 -365 -268 0
-192 -248 -404 -223 -268 0
-192 -248 -404 -223 -268 -370 0
-192 -248 -404 -223 -282 0
-192 -248 -404 -223 -282 -304 0
-192 -248 -404 -223 -370 0
-192 -248 -404 -223 -370 -268 0
-192 -248 -404 -268 0
-192 -248 -404 -268 -370 0
-192 -248 -404 -268 -223 -282 0
-192 -248 -404 -268 -223 -282 -304 0
-192 -248 -404 -268 -223 -370 0
-192 -248 -235 -412 -365 0
-192 -248 -235 -412 -365 -268 0
-192 -282 -304 -248 -404 -223 -268 0
-192 -282 -304 -248 -404 -268 0
-192 -282 -223 -268 -404 -248 0
-192 -282 -223 -268 -404 -248 -304 0
-192 -282 -223 -404 -248 0
-192 -282 -223 -404 -248 -304 0
-192 -304 -248 -404 -223 -268 0
-192 -304 -248 -404 -223 -268 -370 0
-192 -304 -248 -404 -223 -282 0
-192 -304 -248 -404 -223 -370 0
-192 -304 -248 -404 -223 -370 -268 0
-192 -304 -248 -404 -268 0
-192 -304 -248 -404 -268 -370 0
-192 -304 -248 -404 -268 -223 -282 0
-192 -304 -248 -404 -268 -223 -370 0
-192 -304 -248 -235 -412 -365 0
-192 -304 -248 -235 -412 -365 -268 0
-192 -304 -282 -223 -268 -404 -248 0
-192 -304 -282 -223 -404 -248 0
-193 -282 -304 -248 -404 -223 0
-193 -282 -304 -248 -404 -223 -268 0
-193 -282 -304 -248 -404 -268 0
-193 -282 -304 -248 -404 -268 -223 0
-193 -282 -304 -248 -235 0
-193 -231 -417 -248 -235 0
-214 -408 -248 -304 -282 -223 -268 -404 0
-214 -408 -248 -304 -282 -223 -404 0
-214 -248 -304 -282 -223 -268 -404 0
-214 -248 -304 -282 -223 -404 0
-214 -404 -223 -282 -304 -248 0
-214 -404 -268 -223 -282 -304 -248 0
-231 -417 -192 -248 -235 0
-231 -417 -192 -248 -235 -412 0
-231 -417 -248 -235 0
-231 -417 -248 -235 -357 0
-231 -417 -248 -235 -412 0
-231 -192 -417 -248 -235 0
-231 -192 -417 -248 -235 -412 0
-231 -192 -248 -235 0
-231 -192 -248 -235 -412 0
-231 -192 -304 -248 -235 0
-231 -192 -304 -248 -235 -412 0
-404 -214 -408 -248 -304 -282 -223 0
-404 -214 -408 -248 -304 -282 -223 -268 0
-404 -214 -408 -248 -304 -343 0
-404 -214 -248 -307 -343 0
-404 -214 -248 -304 -282 -223 0
-404 -214 -248 -304 -282 -223 -268 0
-404 -214 -248 -304 -343 0
-404 -214 -307 -343 0
-404 -223 -282 -192 -417 -248 0
-404 -223 -282 -192 -304 -248 0
-404 -223 -282 -192 -248 0
-404 -223 -282 -304 -248 0
-404 -223 -282 -304 -192 -248 0
-404 -248 -417 -192 -282 -223 0
-404 -248 -417 -192 -282 -223 -268 0
-404 -248 -214 -307 -343 0
-404 -248 -192 -282 -304 -343 0
-404 -248 -192 -282 -223 0
-404 -248 -192 -282 -223 -268 0
-404 -248 -192 -304 -282 -223 0
-404 -248 -192 -304 -282 -223 -268 0
-404 -248 -192 -304 -343 0
-404 -248 -307 -343 0
-404 -248 -304 -192 -282 -223 0
-404 -248 -304 -192 -282 -223 -268 0
-404 -248 -304 -282 -223 0
-404 -248 -304 -282 -223 -268 0
-404 -248 -304 -343 0
-404 -268 -223 -282 -192 -417 -248 0
-404 -268 -223 -282 -192 -304 -248 0
-404 -268 -223 -282 -192 -248 0
-404 -268 -223 -282 -304 -248 0
-404 -268 -223 -282 -304 -192 -248 0
-248 -408 -214 -404 -223 -282 -304 0
-248 -408 -214 -404 -268 -223 -282 -304 0
-248 -214 -404 -223 -282 -304 0
-248 -214 -404 -268 -223 -282 -304 0
-248 -404 -223 -282 -192 -304 0
-248 -404 -223 -282 -304 0
-248 -404 -268 -223 -282 -192 -304 0
-248 -404 -268 -223 -282 -304 0
-282 -192 -417 -248 -404 -223 0
-282 -192 -417 -248 -404 -223 -268 0
-282 -192 -417 -248 -404 -268 0
-282 -192 -417 -248 -404 -268 -223 0
-282 -192 -417 -248 -235 0
-282 -192 -417 -248 -235 -412 0
-282 -192 -248 -404 -223 0
-282 -192 -248 -404 -223 -268 0
-282 -192 -248 -404 -268 0
-282 -192 -248 -404 -268 -223 0
-282 -192 -248 -235 0
-282 -192 -248 -235 -412 0
-282 -192 -304 -248 -404 -223 0
-282 -192 -304 -248 -404 -223 -268 0
-282 -192 -304 -248 -404 -268 0
-282 -192 -304 -248 -404 -268 -223 0
-282 -192 -304 -248 -235 0
-282 -192 -304 -248 -235 -412 0
-282 -304 -192 -248 -404 -223 0
-282 -304 -192 -248 -404 -223 -268 0
-282 -304 -192 -248 -404 -268 0
-282 -304 -192 -248 -404 -268 -223 0
-282 -304 -192 -248 -235 0
-282 -304 -192 -248 -235 -412 0
-282 -304 -248 -408 -214 -404 -223 0
-282 -304 -248 -408 -214 -404 -223 -268 0
-282 -304 -248 -408 -214 -404 -268 0
-282 -304 -248 -408 -214 -404 -268 -223 0
-282 -304 -248 -214 -404 -223 0
-282 -304 -248 -214 -404 -223 -268 0
-282 -304 -248 -214 -404 -268 0
-282 -304 -248 -214 -404 -268 -223 0
-282 -304 -248 -404 -223 0
-282 -304 -248 -404 -223 -268 0
-282 -304 -248 -404 -268 0
-282 -304 -248 -404 -268 -223 0
-282 -304 -248 -235 0
-282 -304 -248 -235 -357 0
-282 -304 -248 -235 -412 0
-282 -223 -268 -404 -214 -248 -304 0
-282 -223 -268 -404 -214 -408 -248 -304 0
-282 -223 -268 -404 -248 -304 0
-282 -223 -268 -404 -248 -192 -304 0
-282 -223 -404 -214 -248 -304 0
-282 -223 -404 -214 -408 -248 -304 0
-282 -223 -404 -248 -304 0
-282 -223 -404 -248 -192 -304 0
-286 -214 -408 -248 -304 -343 0
-286 -214 -248 -307 -343 0
-286 -214 -248 -304 -343 0
-286 -214 -307 -343 0
-286 -248 -214 -307 -343 0
-286 -248 -192 -304 -343 0
-286 -248 -307 -343 0
-286 -248 -304 -343 0
-304 -192 -248 -404 -223 -268 -370 0
-304 -192 -248 -404 -223 -370 0
-304 -192 -248 -404 -268 -370 0
-304 -192 -248 -404 -268 -223 -370 0
-304 -192 -248 -235 -412 -365 0
-304 -248 -408 -214 -404 -223 -268 -370 0
-304 -248 -408 -214 -404 -223 -370 0
-304 -248 -408 -214 -404 -268 -370 0
-304 -248 -408 -214 -404 -268 -223 -370 0
-304 -248 -214 -404 -223 -268 -370 0
-304 -248 -214 -404 -223 -370 0
-304 -248 -214 -404 -268 -370 0
-304 -248 -214 -404 -268 -223 -370 0
-304 -248 -404 -223 -268 -370 0
-304 -248 -404 -223 -370 0
-304 -248 -404 -268 -370 0
-304 -248 -404 -268 -223 -370 0
-304 -248 -235 -412 -365 0
-268 -404 -214 -408 -248 -304 -282 -223 0
-268 -404 -214 -408 -248 -304 -343 0
-268 -404 -214 -248 -307 -343 0
-268 -404 -214 -248 -304 -282 -223 0
-268 -404 -214 -248 -304 -343 0
-268 -404 -214 -307 -343 0
-268 -404 -248 -417 -192 -282 -223 0
-268 -404 -248 -214 -307 -343 0
-268 -404 -248 -192 -282 -304 -343 0
-268 -404 -248 -192 -282 -223 0
-268 -404 -248 -192 -304 -282 -223 0
-268 -404 -248 -192 -304 -343 0
-268 -404 -248 -307 -343 0
-268 -404 -248 -304 -192 -282 -223 0
-268 -404 -248 -304 -282 -223 0
-268 -404 -248 -304 -343 0
-223 -404 -214 -408 -248 -304 0
-223 -404 -214 -408 -248 -304 -282 0
-223 -404 -214 -248 -307 0
-223 -404 -214 -248 -304 0
-223 -404 -214 -248 -304 -282 0
-223 -404 -214 -307 0
-223 -404 -248 -417 -192 -282 0
-223 -404 -248 -214 -307 0
-223 -404 -248 -192 -282 0
-223 -404 -248 -192 -282 -304 0
-223 -404 -248 -192 -304 0
-223 -404 -248 -192 -304 -282 0
-223 -404 -248 -307 0
-223 -404 -248 -304 0
-223 -404 -248 -304 -192 -282 0
-223 -404 -248 -304 -282 0
-223 -268 -404 -214 -408 -248 -304 0
-223 -268 -404 -214 -408 -248 -304 -282 0
-223 -268 -404 -214 -248 -307 0
-223 -268 -404 -214 -248 -304 0
-223 -268 -404 -214 -248 -304 -282 0
-223 -268 -404 -214 -307 0
-223 -268 -404 -248 -417 -192 -282 0
-223 -268 -404 -248 -214 -307 0
-223 -268 -404 -248 -192 -282 0
-223 -268 -404 -248 -192 -282 -304 0
-223 -268 -404 -248 -192 -304 0
-223 -268 -404 -248 -192 -304 -282 0
-223 -268 -404 -248 -307 0
-223 -268 -404 -248 -304 0
-223 -268 -404 -248 -304 -192 -282 0
-223 -268 -404 -248 -304 -282 0
-223 -370 -268 -404 -214 -408 -248 -304 0
-223 -370 -268 -404 -214 -248 -307 0
-223 -370 -268 -404 -214 -248 -304 0
-223 -370 -268 -404 -214 -307 0
-223 -370 -268 -404 -248 -214 -307 0
-223 -370 -268 -404 -248 -192 -304 0
-223 -370 -268 -404 -248 -307 0
-223 -370 -268 -404 -248 -304 0
-324 -286 -214 -408 -248 -304 0
-324 -286 -214 -408 -248 -304 -343 0
-324 -286 -214 -248 -307 0
-324 -286 -214 -248 -307 -343 0
-324 -286 -214 -248 -304 0
-324 -286 -214 -248 -304 -343 0
-324 -286 -214 -307 0
-324 -286 -214 -307 -343 0
-324 -286 -248 -214 -307 0
-324 -286 -248 -214 -307 -343 0
-324 -286 -248 -192 -304 0
-324 -286 -248 -192 -304 -343 0
-324 -286 -248 -307 0
-324 -286 -248 -307 -343 0
-324 -286 -248 -304 0
-324 -286 -248 -304 -343 0
-223 -282 -192 -417 -248 0
-223 -282 -192 -417 -248 -404 0
-223 -282 -192 -417 -248 -404 -268 0
-223 -282 -192 -248 0
-223 -282 -192 -248 -404 0
-223 -282 -192 -248 -404 -268 0
-223 -282 -192 -304 -248 0
-223 -282 -192 -304 -248 -404 0
-223 -282 -192 -304 -248 -404 -268 0
-223 -282 -304 -192 -248 0
-223 -282 -304 -192 -248 -404 0
-223 -282 -304 -192 -248 -404 -268 0
-223 -282 -304 -248 0
-223 -282 -304 -248 -408 -214 -404 0
-223 -282 -304 -248 -408 -214 -404 -268 0
-223 -282 -304 -248 -214 -404 0
-223 -282 -304 -248 -214 -404 -268 0
-223 -282 -304 -248 -404 0
-223 -282 -304 -248 -404 -268 0
-248 -214 -404 -223 -282 0
-248 -214 -404 -223 -282 -304 0
-248 -214 -404 -268 -223 -282 0
-248 -214 -404 -268 -223 -282 -304 0
-248 -408 -214 -404 -223 -282 0
-248 -408 -214 -404 -223 -282 -304 0
-248 -408 -214 -404 -268 -223 -282 0
-248 -408 -214 -404 -268 -223 -282 -304 0
-248 -307 -214 -404 -223 -282 0
-248 -307 -214 -404 -268 -223 -282 0
-248 -417 -192 -282 -223 -404 0
-248 -417 -192 -282 -223 -404 -268 0
-248 -417 -192 -282 -223 -426 0
-248 -417 -192 -282 -223 -426 -268 0
-248 -417 -192 -282 -223 -268 0
-248 -417 -192 -282 -223 -268 -426 0
-248 -417 -192 -282 -223 -268 -404 0
-248 -304 -192 -282 -223 -404 0
-248 -304 -192 -282 -223 -404 -268 0
-248 -304 -192 -282 -223 -426 0
-248 -304 -192 -282 -223 -426 -268 0
-248 -304 -192 -282 -223 -268 0
-248 -304 -192 -282 -223 -268 -426 0
-248 -304 -192 -282 -223 -268 -404 0
-248 -304 -282 -223 -404 0
-248 -304 -282 -223 -404 -214 0
-248 -304 -282 -223 -404 -214 -408 0
-248 -304 -282 -223 -404 -268 0
-248 -304 -282 -223 -426 0
-248 -304 -282 -223 -426 -268 0
-248 -304 -282 -223 -268 0
-248 -304 -282 -223 -268 -426 0
-248 -304 -282 -223 -268 -404 0
-248 -304 -282 -223 -268 -404 -214 0
-248 -304 -282 -223 -268 -404 -214 -408 0
-248 -192 -304 -282 -223 -404 0
-248 -192 -304 -282 -223 -404 -268 0
-248 -192 -304 -282 -223 -426 0
-248 -192 -304 -282 -223 -426 -268 0
-248 -192 -304 -282 -223 -268 0
-248 -192 -304 -282 -223 -268 -426 0
-248 -192 -304 -282 -223 -268 -404 0
-248 -192 -282 -223 -404 0
-248 -192 -282 -223 -404 -268 0
-248 -192 -282 -223 -426 0
-248 -192 -282 -223 -426 -268 0
-248 -192 -282 -223 -268 0
-248 -192 -282 -223 -268 -426 0
-248 -192 -282 -223 -268 -404 0
-248 -404 -223 -282 0
-248 -404 -223 -282 -192 0
-248 -404 -223 -282 -192 -417 0
-248 -404 -223 -282 -192 -304 0
-248 -404 -223 -282 -193 0
-248 -404 -223 -282 -304 0
-248 -404 -223 -282 -304 -192 0
-248 -404 -268 -223 -282 0
-248 -404 -268 -223 -282 -192 0
-248 -404 -268 -223 -282 -192 -417 0
-248 -404 -268 -223 -282 -192 -304 0
-248 -404 -268 -223 -282 -193 0
-248 -404 -268 -223 -282 -304 0
-248 -404 -268 -223 -282 -304 -192 0
-192 -417 -248 -404 -223 -282 0
-192 -417 -248 -404 -268 -223 -282 0
-192 -304 -248 -404 -223 -282 0
-192 -304 -248 -404 -268 -223 -282 0
-192 -304 -282 -223 -404 0
-192 -304 -282 -223 -404 -248 -408 0
-192 -304 -282 -223 -426 0
-192 -304 -282 -223 -268 -426 0
-192 -304 -282 -223 -268 -404 0
-192 -304 -282 -223 -268 -404 -248 -408 0
-192 -248 -304 -282 -223 -404 0
-192 -248 -304 -282 -223 -426 0
-192 -248 -304 -282 -223 -268 -426 0
-192 -248 -304 -282 -223 -268 -404 0
-192 -248 -404 -223 -282 0
-192 -248 -404 -223 -282 -304 0
-192 -248 -404 -268 -223 -282 0
-192 -248 -404 -268 -223 -282 -304 0
-192 -282 -223 -404 0
-192 -282 -223 -404 -248 -408 0
-192 -282 -223 -404 -248 -417 0
-192 -282 -223 -404 -248 -307 0
-192 -282 -223 -404 -248 -304 0
-192 -282 -223 -426 0
-192 -282 -223 -268 -426 0
-192 -282 -223 -268 -404 0
-192 -282 -223 -268 -404 -248 -408 0
-192 -282 -223 -268 -404 -248 -417 0
-192 -282 -223 -268 -404 -248 -307 0
-192 -282 -223 -268 -404 -248 -304 0
-282 -223 -404 -214 0
-282 -223 -404 -214 -408 -248 -304 0
-282 -223 -404 -214 -248 -307 0
-282 -223 -404 -214 -248 -304 0
-282 -223 -404 -214 -307 0
-282 -223 -404 -248 -408 -214 0
-282 -223 -404 -248 -214 0
-282 -223 -404 -248 -214 -307 0
-282 -223 -404 -248 -192 -304 0
-282 -223 -404 -248 -307 0
-282 -223 -404 -248 -307 -214 0
-282 -223 -404 -248 -304 0
-282 -223 -268 -404 -214 0
-282 -223 -268 -404 -214 -408 -248 -304 0
-282 -223 -268 -404 -214 -248 -307 0
-282 -223 -268 -404 -214 -248 -304 0
-282 -223 -268 -404 -214 -307 0
-282 -223 -268 -404 -248 -408 -214 0
-282 -223 -268 -404 -248 -214 0
-282 -223 -268 -404 -248 -214 -307 0
-282 -223 -268 -404 -248 -192 -304 0
-282 -223 -268 -404 -248 -307 0
-282 -223 -268 -404 -248 -307 -214 0
-282 -223 -268 -404 -248 -304 0
-370 -268 -404 -214 -408 -248 -304 -343 0
-370 -268 -404 -214 -248 -307 -343 0
-370 -268 -404 -214 -248 -304 -343 0
-370 -268 -404 -214 -307 -343 0
-370 -268 -404 -248 -214 -307 -343 0
-370 -268 -404 -248 -192 -304 -343 0
-370 -268 -404 -248 -307 -343 0
-370 -268 -404 -248 -304 -343 0
-193 -282 -223 -404 0
-193 -282 -223 -404 -248 -408 0
-193 -282 -223 -404 -248 -417 0
-193 -282 -223 -404 -248 -307 0
-193 -282 -223 -404 -248 -304 0
-193 -282 -223 -426 0
-193 -282 -223 -268 -426 0
-193 -282 -223 -268 -404 0
-193 -282 -223 -268 -404 -248 -408 0
-193 -282 -223 -268 -404 -248 -417 0
-193 -282 -223 -268 -404 -248 -307 0
-193 -282 -223 -268 -404 -248 -304 0
-357 -235 -248 -408 -214 -404 -268 0
-357 -235 -248 -408 -214 -404 -268 -370 0
-357 -235 -248 -214 -404 -268 0
-357 -235 -248 -214 -404 -268 -370 0
-357 -235 -248 -404 -268 0
-357 -235 -248 -404 -268 -370 0
-357 -235 -248 -307 -214 -404 -268 0
-357 -235 -248 -307 -214 -404 -268 -370 0
-426 -268 -223 -282 -192 -417 0
-426 -268 -223 -282 -192 -248 -408 0
-426 -268 -223 -282 -192 -248 -417 0
-426 -268 -223 -282 -192 -304 -248 -408 0
-426 -268 -223 -282 -304 -192 -248 -408 0
-426 -268 -223 -282 -304 -248 -408 0
-426 -268 -223 -282 -304 -248 -408 -214 0
-426 -268 -223 -282 -304 -248 -214 0
-426 -268 -223 -282 -304 -248 -214 -408 0
-426 -223 -282 -192 -417 0
-426 -223 -282 -192 -248 -408 0
-426 -223 -282 -192 -248 -417 0
-426 -223 -282 -192 -304 -248 -408 0
-426 -223 -282 -304 -192 -248 -408 0
-426 -223 -282 -304 -248 -408 0
-426 -223 -282 -304 -248 -408 -214 0
-426 -223 -282 -304 -248 -214 0
-426 -223 -282 -304 -248 -214 -408 0
-268 -223 -282 -192 -417 -248 -404 0
-268 -223 -282 -192 -417 -248 -307 0
-268 -223 -282 -192 -248 -404 0
-268 -223 -282 -192 -248 -307 0
-268 -223 -282 -192 -248 -304 0
-268 -223 -282 -192 -304 0
-268 -223 -282 -192 -304 -248 -404 0
-268 -223 -282 -304 0
-268 -223 -282 -304 -192 -248 -404 0
-268 -223 -282 -304 -248 -408 -214 -404 0
-268 -223 -282 -304 -248 -214 -404 0
-268 -223 -282 -304 -248 -404 0
-268 -426 -223 -282 -192 -417 -248 -307 0
-268 -426 -223 -282 -192 -248 -307 0
-268 -426 -223 -282 -192 -248 -304 0
-268 -426 -223 -282 -192 -304 0
-268 -426 -223 -282 -304 0
-268 -404 -223 -282 -192 -417 -248 -307 0
-268 -404 -223 -282 -192 -248 -307 0
-268 -404 -223 -282 -192 -248 -304 0
-268 -404 -223 -282 -192 -304 0
-268 -404 -223 -282 -304 0
-404 -223 -282 -192 -417 0
-404 -223 -282 -192 -248 -408 0
-404 -223 -282 -192 -248 -417 0
-404 -223 -282 -192 -304 -248 -408 0
-404 -223 -282 -304 -192 -248 -408 0
-404 -223 -282 -304 -248 -408 0
-404 -223 -282 -304 -248 -408 -214 0
-404 -223 -282 -304 -248 -214 0
-404 -223 -282 -304 -248 -214 -408 0
-404 -268 -223 -282 -192 -417 0
-404 -268 -223 -282 -192 -248 -408 0
-404 -268 -223 -282 -192 -248 -417 0
-404 -268 -223 -282 -192 -304 -248 -408 0
-404 -268 -223 -282 -304 -192 -248 -408 0
-404 -268 -223 -282 -304 -248 -408 0
-404 -268 -223 -282 -304 -248 -408 -214 0
-404 -268 -223 -282 -304 -248 -214 0
-404 -268 -223 -282 -304 -248 -214 -408 0
-214 -248 -404 -223 -282 -304 0
-214 -248 -404 -268 -223 -282 -304 0
-214 -404 -223 -282 -304 0
-214 -404 -223 -282 -304 -248 -408 0
-214 -404 -268 -223 -282 -304 0
-214 -404 -268 -223 -282 -304 -248 -408 0
-214 -408 -248 -404 -223 -282 -304 0
-214 -408 -248 -404 -268 -223 -282 -304 0
-212 -204 -226 -341 -262 0
-212 -204 -226 -341 -262 -252 0
-212 -204 -226 -341 -368 -262 0
-212 -204 -226 -341 -368 -262 -252 0
-212 -204 -226 -368 -262 0
-212 -204 -226 -368 -262 -252 0
-212 -204 -226 -368 -341 -262 0
-212 -204 -226 -368 -341 -262 -252 0
-137 -17 428 0
-138 -18 428 0
-139 -19 428 0
-140 -20 428 0
-141 -21 428 0
-142 -22 428 0
-143 -23 428 0
-144 -24 428 0
-422 -192 -282 -226 -428 -252 -262 -412 0
-422 -192 -282 -226 -428 -262 -412 0
-422 -192 -282 -341 -262 -227 0
-422 -192 -282 -341 -262 -252 -227 0
-422 -192 -282 -341 -262 -428 -252 -227 0
-192 -282 -226 -341 -262 0
-192 -282 -226 -428 -252 -262 0
-192 -282 -226 -428 -262 0
-192 -282 -341 -226 -428 -252 -262 0
-192 -282 -341 -226 -428 -262 0
-192 -282 -341 -262 0
-192 -282 -341 -262 -227 0
-192 -282 -341 -262 -252 -227 0
-192 -282 -341 -262 -428 -252 -227 0
-192 -305 -345 -282 -226 -428 -252 -262 0
-192 -305 -345 -282 -226 -428 -262 0
-192 -305 -345 -368 -262 0
-192 -305 -345 -368 -262 -227 0
-192 -305 -345 -368 -262 -252 -227 0
-192 -305 -345 -368 -262 -412 -227 0
-192 -305 -325 -345 -368 -262 0
-9 -161 429 0
-10 -162 429 0
-11 -163 429 0
-12 -164 429 0
-13 -165 429 0
-14 -166 429 0
-15 -167 429 0
-16 -168 429 0
-429 -305 -345 -282 -226 -428 -252 -262 -412 0
-429 -305 -345 -282 -226 -428 -262 -412 0
-429 -305 -345 -368 -262 -227 0
-429 -305 -345 -368 -262 -227 -412 0
-429 -305 -345 -368 -262 -252 -227 0
-429 -305 -345 -368 -262 -252 -227 -412 0
-429 -305 -345 -368 -262 -412 0
-429 -305 -345 -368 -262 -412 -227 0
-429 -305 -325 -345 -368 -262 -412 0
-204 -226 -341 -262 -252 0
-204 -226 -341 -368 -262 -252 0
-204 -226 -368 -262 -252 0
-204 -226 -368 -341 -262 -252 0
-252 -428 -226 -282 -192 -305 -339 0
-252 -428 -262 -341 -282 -192 -305 -325 0
-252 -262 -428 -226 -282 -192 -305 -339 0
-252 -262 -368 -345 -325 0
-252 -262 -368 -345 -305 -325 0
-252 -262 -368 -345 -414 -325 0
-252 -262 -341 -282 -192 -305 -325 0
-204 -226 -368 -345 -305 -192 0
-204 -226 -368 -345 -305 -429 0
-305 -192 -282 -226 -428 -252 -262 -412 0
-305 -192 -282 -226 -428 -262 -412 0
-305 -192 -282 -341 -262 -227 0
-305 -192 -282 -341 -262 -252 -227 0
-305 -192 -282 -341 -262 -428 -252 -227 0
-305 -345 -282 -226 -428 -252 -262 -412 0
-305 -345 -282 -226 -428 -262 -412 0
-305 -345 -368 -262 -227 0
-305 -345 -368 -262 -227 -412 0
-305 -345 -368 -262 -252 -227 0
-305 -345 -368 -262 -252 -227 -412 0
-305 -345 -368 -262 -412 0
-305 -345 -368 -262 -412 -227 0
-305 -325 -345 -368 -262 -412 0
-262 -428 -226 -282 -192 -305 -339 0
-262 -252 -428 -226 -282 -192 -305 -339 0
-262 -252 -285 -301 0
-262 -368 -345 -325 0
-262 -368 -345 -305 -325 0
-262 -368 -345 -414 -325 0
-262 -341 -282 -192 -305 -325 0
-262 -412 -227 -252 -285 -301 0
-262 -227 -252 -285 -301 0
-226 -341 -262 -252 -285 0
-226 -341 -262 -252 -285 -301 0
-227 -252 -262 -368 -345 0
-227 -252 -262 -368 -345 -414 0
-227 -412 -262 -368 -345 0
-227 -412 -262 -368 -345 -414 0
-227 -262 -368 -345 0
-227 -262 -368 -345 -414 0
-325 -345 -368 -262 -412 0
-325 -414 -345 -368 -262 -412 0
-325 -305 -345 -368 -262 -412 0
-262 -341 -282 -192 -305 0
-262 -341 -226 -282 -192 -305 0
-262 -252 -428 -226 -282 -192 -305 0
-262 -252 -428 -226 -282 -345 -305 0
-262 -252 -428 -226 -341 -282 -192 -305 0
-262 -428 -226 -282 -192 -305 0
-262 -428 -226 -282 -345 -305 0
-262 -428 -226 -341 -282 -192 -305 0
-262 -368 -345 -305 0
-262 -368 -345 -325 -305 0
-192 -305 -325 -345 -368 -262 -252 0
-192 -305 -345 -282 -226 -428 0
-192 -305 -345 -282 -226 -428 -419 0
-192 -305 -345 -282 -226 -428 -252 0
-192 -305 -345 -282 -226 -428 -262 -252 0
-192 -305 -345 -368 -262 -252 0
-192 -305 -345 -368 -262 -412 -227 -252 0
-192 -305 -345 -368 -262 -227 -252 0
-192 -282 -226 -428 0
-192 -282 -226 -428 -419 0
-192 -282 -226 -428 -252 0
-192 -282 -226 -428 -262 -252 0
-192 -282 -226 -341 -262 -428 0
-192 -282 -226 -341 -262 -428 -419 0
-192 -282 -226 -341 -262 -428 -252 0
-192 -282 -226 -341 -262 -252 0
-192 -282 -226 -341 -262 -252 -428 0
-192 -282 -226 -341 -262 -252 -428 -419 0
-192 -282 -341 -262 -428 0
-192 -282 -341 -262 -428 -419 0
-192 -282 -341 -262 -428 -252 0
-192 -282 -341 -262 -252 0
-192 -282 -341 -262 -252 -428 0
-192 -282 -341 -262 -252 -428 -419 0
-192 -282 -341 -262 -227 -252 0
-192 -282 -341 -262 -227 -252 -428 0
-192 -282 -341 -262 -227 -252 -428 -419 0
-192 -282 -341 -226 -428 0
-192 -282 -341 -226 -428 -419 0
-192 -282 -341 -226 -428 -252 0
-192 -282 -341 -226 -428 -262 -252 0
-282 -226 -428 -252 0
-282 -226 -428 -262 -252 0
-282 -226 -341 -262 -428 -252 0
-282 -226 -341 -262 -252 0
-282 -341 -262 -428 -252 0
-282 -341 -262 -252 0
-282 -341 -262 -227 -252 0
-282 -341 -226 -428 -252 0
-282 -341 -226 -428 -262 -252 0
-341 -262 -252 -285 0
-341 -262 -252 -285 -301 0
-341 -262 -227 -252 -285 0
-341 -262 -227 -252 -285 -301 0
-412 -262 -428 -226 -282 -345 -414 0
-412 -262 -252 -428 -226 -282 -345 -414 0
-412 -262 -368 -345 -325 -414 0
-412 -262 -368 -345 -414 0
-412 -227 -252 -262 -368 -345 -414 0
-412 -227 -262 -368 -345 -414 0
-358 -227 -252 -262 -368 0
-358 -227 -262 -368 0
-419 -428 -226 -282 -345 -305 -429 0
-428 -226 -282 -192 -422 0
-428 -226 -282 -345 -305 -429 0
-428 -226 -341 -282 -192 -422 0
-428 -252 -262 -341 -282 -192 -422 0
-428 -252 -262 -341 -226 -282 -192 -422 0
-428 -252 -227 -262 -341 -282 -192 -422 0
-428 -262 -341 -282 -192 -422 0
-428 -262 -341 -226 -282 -192 -422 0
-252 -262 -341 -282 -192 -422 0
-252 -262 -341 -282 -192 -305 0
-252 -262 -341 -226 -282 -192 -422 0
-252 -262 -341 -226 -282 -192 -305 0
-252 -262 -428 -226 -282 -192 -422 0
-252 -262 -428 -226 -282 -192 -305 0
-252 -262 -428 -226 -282 -345 -305 0
-252 -262 -428 -226 -282 -345 -305 -429 0
-252 -262 -428 -226 -341 -282 -192 -422 0
-252 -262 -428 -226 -341 -282 -192 -305 0
-252 -262 -368 -345 -305 0
-252 -262 -368 -345 -305 -429 0
-252 -262 -368 -345 -325 -305 0
-252 -262 -368 -345 -325 -305 -429 0
-252 -428 -226 -282 -192 -422 0
-252 -428 -226 -282 -192 -305 0
-252 -428 -226 -282 -345 -305 0
-252 -428 -226 -282 -345 -305 -429 0
-252 -428 -226 -341 -282 -192 -422 0
-252 -428 -226 -341 -282 -192 -305 0
-252 -428 -262 -341 -282 -192 -422 0
-252 -428 -262 -341 -282 -192 -305 0
-252 -428 -262 -341 -226 -282 -192 -422 0
-252 -428 -262 -341 -226 -282 -192 -305 0
-252 -227 -262 -341 -282 -192 -422 0
-252 -227 -262 -341 -282 -192 -305 0
-252 -227 -262 -368 -345 -305 0
-252 -227 -262 -368 -345 -305 -429 0
-252 -227 -412 -262 -368 -345 -305 0
-252 -227 -412 -262 -368 -345 -305 -429 0
-404 -409 -262 -254 -420 -304 -336 0
-404 -409 -262 -254 -420 -304 -328 -336 0
-404 -409 -262 -254 -420 -328 -336 0
-404 -409 -262 -254 -420 -328 -418 -336 0
-404 -409 -262 -254 -420 -328 -304 -336 0
-404 -409 -262 -254 -420 -407 -336 0
-404 -409 -262 -254 -420 -336 0
-404 -254 -420 -304 -336 0
-404 -254 -420 -304 -328 -336 0
-404 -254 -420 -328 -336 0
-404 -254 -420 -328 -418 -336 0
-404 -254 -420 -328 -304 -336 0
-404 -254 -420 -407 -336 0
-404 -254 -420 -336 0
-404 -262 -254 -420 -304 -336 0
-404 -262 -254 -420 -304 -328 -336 0
-404 -262 -254 -420 -328 -336 0
-404 -262 -254 -420 -328 -418 -336 0
-404 -262 -254 -420 -328 -304 -336 0
-404 -262 -254 -420 -407 -336 0
-404 -262 -254 -420 -336 0
-304 -420 -254 -262 -365 0
-304 -420 -254 -262 -341 -409 -365 0
-304 -420 -254 -262 -341 -365 0
-304 -420 -254 -262 -359 -365 0
-304 -420 -254 -262 -409 -341 -365 0
-304 -420 -254 -262 -409 -365 0
-304 -336 -420 -254 -262 -365 0
-304 -336 -420 -254 -262 -409 -365 0
-304 -336 -407 -420 -254 -262 -365 0
-304 -336 -407 -420 -254 -262 -409 -365 0
-304 -336 -328 -420 -254 -262 -365 0
-304 -336 -328 -420 -254 -262 -409 -365 0
-304 -328 -420 -254 -262 -365 0
-304 -328 -420 -254 -262 -341 -409 -365 0
-304 -328 -420 -254 -262 -341 -365 0
-304 -328 -420 -254 -262 -359 -365 0
-304 -328 -420 -254 -262 -409 -341 -365 0
-304 -328 -420 -254 -262 -409 -365 0
-304 -328 -336 -420 -254 -262 -365 0
-304 -328 -336 -420 -254 -262 -409 -365 0
-262 -404 -254 -420 -304 0
-262 -404 -254 -420 -304 -336 0
-262 -404 -254 -420 -304 -328 -336 0
-262 -404 -254 -420 -328 -336 0
-262 -404 -254 -420 -328 -336 -304 0
-262 -404 -254 -420 -328 -418 -336 0
-262 -404 -254 -420 -328 -304 0
-262 -404 -254 -420 -328 -304 -336 0
-262 -404 -254 -420 -407 -336 0
-262 -404 -254 -420 -407 -336 -304 0
-262 -404 -254 -420 -336 0
-262 -404 -254 -420 -336 -304 0
-262 -404 -254 -420 -336 -328 -304 0
-262 -254 -420 -304 0
-262 -254 -420 -304 -336 0
-262 -254 -420 -304 -328 -336 0
-262 -254 -420 -328 -336 0
-262 -254 -420 -328 -336 -304 0
-262 -254 -420 -328 -418 -336 0
-262 -254 -420 -328 -304 0
-262 -254 -420 -328 -304 -336 0
-262 -254 -420 -407 -336 0
-262 -254 -420 -407 -336 -304 0
-262 -254 -420 -336 0
-262 -254 -420 -336 -304 0
-262 -254 -420 -336 -328 -304 0
-262 -341 -409 -404 -254 -420 -304 0
-262 -341 -409 -404 -254 -420 -328 -304 0
-262 -409 -404 -254 -420 -304 0
-262 -409 -404 -254 -420 -304 -336 0
-262 -409 -404 -254 -420 -304 -328 -336 0
-262 -409 -404 -254 -420 -328 -336 0
-262 -409 -404 -254 -420 -328 -336 -304 0
-262 -409 -404 -254 -420 -328 -418 -336 0
-262 -409 -404 -254 -420 -328 -304 0
-262 -409 -404 -254 -420 -328 -304 -336 0
-262 -409 -404 -254 -420 -407 -336 0
-262 -409 -404 -254 -420 -407 -336 -304 0
-262 -409 -404 -254 -420 -336 0
-262 -409 -404 -254 -420 -336 -304 0
-262 -409 -404 -254 -420 -336 -328 -304 0
-217 -341 -262 -404 -254 0
-217 -341 -262 -254 0
-217 -341 -365 -262 -254 0
-409 -404 -254 -420 -304 -336 0
-409 -404 -254 -420 -304 -336 -407 0
-409 -404 -254 -420 -304 -336 -328 0
-409 -404 -254 -420 -304 -328 0
-409 -404 -254 -420 -304 -328 -336 0
-409 -404 -254 -420 -328 0
-409 -404 -254 -420 -328 -336 0
-409 -404 -254 -420 -328 -336 -418 0
-409 -404 -254 -420 -328 -418 0
-409 -404 -254 -420 -328 -418 -336 0
-409 -404 -254 -420 -328 -304 -336 0
-409 -404 -254 -420 -407 0
-409 -404 -254 -420 -407 -336 0
-409 -404 -254 -420 -407 -336 -418 0
-409 -404 -254 -420 -336 0
-409 -404 -254 -420 -336 -304 -328 0
-409 -404 -254 -420 -336 -407 0
-409 -404 -254 -420 -336 -328 0
-409 -404 -254 -420 -336 -328 -418 0
-409 -404 -254 -420 -336 -418 0
-409 -404 -254 -420 -336 -418 -328 0
-409 -404 -262 -254 -420 -304 -336 0
-409 -404 -262 -254 -420 -304 -336 -407 0
-409 -404 -262 -254 -420 -304 -336 -328 0
-409 -404 -262 -254 -420 -304 -328 0
-409 -404 -262 -254 -420 -304 -328 -336 0
-409 -404 -262 -254 -420 -328 0
-409 -404 -262 -254 -420 -328 -336 0
-409 -404 -262 -254 -420 -328 -336 -418 0
-409 -404 -262 -254 -420 -328 -418 0
-409 -404 -262 -254 -420 -328 -418 -336 0
-409 -404 -262 -254 -420 -328 -304 -336 0
-409 -404 -262 -254 -420 -407 0
-409 -404 -262 -254 -420 -407 -336 0
-409 -404 -262 -254 -420 -407 -336 -418 0
-409 -404 -262 -254 -420 -336 0
-409 -404 -262 -254 -420 -336 -304 -328 0
-409 -404 -262 -254 -420 -336 -407 0
-409 -404 -262 -254 -420 -336 -328 0
-409 -404 -262 -254 -420 -336 -328 -418 0
-409 -404 -262 -254 -420 -336 -418 0
-409 -404 -262 -254 -420 -336 -418 -328 0
-409 -341 -262 -404 -254 -420 -304 -328 0
-409 -341 -262 -404 -254 -420 -328 0
-409 -341 -262 -404 -254 -420 -328 -418 0
-409 -341 -262 -404 -254 -420 -407 0
-409 -341 -262 -254 -420 -304 -328 0
-409 -341 -262 -254 -420 -328 0
-409 -341 -262 -254 -420 -328 -418 0
-409 -341 -262 -254 -420 -407 0
-409 -341 -365 -262 -254 -420 -304 -328 0
-409 -341 -365 -262 -254 -420 -328 0
-409 -341 -365 -262 -254 -420 -328 -418 0
-409 -341 -365 -262 -254 -420 -407 0
-409 -262 -404 -254 -420 -304 -336 0
-409 -262 -404 -254 -420 -304 -336 -407 0
-409 -262 -404 -254 -420 -304 -336 -328 0
-409 -262 -404 -254 -420 -304 -328 0
-409 -262 -404 -254 -420 -304 -328 -336 0
-409 -262 -404 -254 -420 -328 0
-409 -262 -404 -254 -420 -328 -336 0
-409 -262 -404 -254 -420 -328 -336 -418 0
-409 -262 -404 -254 -420 -328 -418 0
-409 -262 -404 -254 -420 -328 -418 -336 0
-409 -262 -404 -254 -420 -328 -304 -336 0
-409 -262 -404 -254 -420 -407 0
-409 -262 -404 -254 -420 -407 -336 0
-409 -262 -404 -254 -420 -407 -336 -418 0
-409 -262 -404 -254 -420 -336 0
-409 -262 -404 -254 -420 -336 -304 -328 0
-409 -262 -404 -254 -420 -336 -407 0
-409 -262 -404 -254 -420 -336 -328 0
-409 -262 -404 -254 -420 -336 -328 -418 0
-409 -262 -404 -254 -420 -336 -418 0
-409 -262 -404 -254 -420 -336 -418 -328 0
-409 -262 -254 -420 -304 -336 0
-409 -262 -254 -420 -304 -336 -407 0
-409 -262 -254 -420 -304 -336 -328 0
-409 -262 -254 -420 -304 -328 0
-409 -262 -254 -420 -304 -328 -336 0
-409 -262 -254 -420 -328 0
-409 -262 -254 -420 -328 -336 0
-409 -262 -254 -420 -328 -336 -418 0
-409 -262 -254 -420 -328 -418 0
-409 -262 -254 -420 -328 -418 -336 0
-409 -262 -254 -420 -328 -304 -336 0
-409 -262 -254 -420 -407 0
-409 -262 -254 -420 -407 -336 0
-409 -262 -254 -420 -407 -336 -418 0
-409 -262 -254 -420 -336 0
-409 -262 -254 -420 -336 -304 -328 0
-409 -262 -254 -420 -336 -407 0
-409 -262 -254 -420 -336 -328 0
-409 -262 -254 -420 -336 -328 -418 0
-409 -262 -254 -420 -336 -418 0
-409 -262 -254 -420 -336 -418 -328 0
-409 -365 -262 -254 -420 -304 -336 0
-409 -365 -262 -254 -420 -304 -336 -407 0
-409 -365 -262 -254 -420 -304 -336 -328 0
-409 -365 -262 -254 -420 -304 -328 0
-409 -365 -262 -254 -420 -304 -328 -336 0
-409 -365 -262 -254 -420 -328 0
-409 -365 -262 -254 -420 -328 -336 0
-409 -365 -262 -254 -420 -328 -336 -418 0
-409 -365 -262 -254 -420 -328 -418 0
-409 -365 -262 -254 -420 -328 -418 -336 0
-409 -365 -262 -254 -420 -328 -304 -336 0
-409 -365 -262 -254 -420 -407 0
-409 -365 -262 -254 -420 -407 -336 0
-409 -365 -262 -254 -420 -407 -336 -418 0
-409 -365 -262 -254 -420 -336 0
-409 -365 -262 -254 -420 -336 -304 -328 0
-409 -365 -262 -254 -420 -336 -407 0
-409 -365 -262 -254 -420 -336 -328 0
-409 -365 -262 -254 -420 -336 -328 -418 0
-409 -365 -262 -254 -420 -336 -418 0
-409 -365 -262 -254 -420 -336 -418 -328 0
-409 -365 -341 -262 -254 -420 -304 -328 0
-409 -365 -341 -262 -254 -420 -328 0
-409 -365 -341 -262 -254 -420 -328 -418 0
-409 -365 -341 -262 -254 -420 -407 0
-409 -365 -359 -262 -254 -420 -304 -328 0
-409 -365 -359 -262 -254 -420 -328 0
-409 -365 -359 -262 -254 -420 -328 -418 0
-409 -365 -359 -262 -254 -420 -407 0
-328 -420 -254 -404 -409 -341 -262 0
-328 -420 -254 -404 -409 -262 0
-328 -420 -254 -404 -262 0
-328 -420 -254 -262 0
-328 -420 -254 -262 -365 0
-328 -420 -254 -262 -341 -409 -365 0
-328 -420 -254 -262 -341 -365 0
-328 -420 -254 -262 -359 -365 0
-328 -420 -254 -262 -409 -341 -365 0
-328 -420 -254 -262 -409 -365 0
-328 -336 -420 -254 -404 -409 -262 0
-328 -336 -420 -254 -404 -262 0
-328 -336 -420 -254 -262 0
-328 -336 -420 -254 -262 -365 0
-328 -336 -420 -254 -262 -409 -365 0
-328 -336 -304 -420 -254 -404 -409 -262 0
-328 -336 -304 -420 -254 -404 -262 0
-328 -336 -304 -420 -254 -262 0
-328 -336 -304 -420 -254 -262 -365 0
-328 -336 -304 -420 -254 -262 -409 -365 0
-328 -418 -336 -420 -254 -404 -409 -262 0
-328 -418 -336 -420 -254 -404 -262 0
-328 -418 -336 -420 -254 -262 0
-328 -418 -336 -420 -254 -262 -365 0
-328 -418 -336 -420 -254 -262 -409 -365 0
-328 -304 -420 -254 -404 -409 -341 -262 0
-328 -304 -420 -254 -404 -409 -262 0
-328 -304 -420 -254 -404 -262 0
-328 -304 -420 -254 -262 0
-328 -304 -420 -254 -262 -365 0
-328 -304 -420 -254 -262 -341 -409 -365 0
-328 -304 -420 -254 -262 -341 -365 0
-328 -304 -420 -254 -262 -359 -365 0
-328 -304 -420 -254 -262 -409 -341 -365 0
-328 -304 -420 -254 -262 -409 -365 0
-328 -304 -336 -420 -254 -404 -409 -262 0
-328 -304 -336 -420 -254 -404 -262 0
-328 -304 -336 -420 -254 -262 0
-328 -304 -336 -420 -254 -262 -365 0
-328 -304 -336 -420 -254 -262 -409 -365 0
-336 -420 -254 -262 -365 0
-336 -420 -254 -262 -409 -365 0
-336 -407 -420 -254 -262 -365 0
-336 -407 -420 -254 -262 -409 -365 0
-336 -304 -328 -420 -254 -262 -365 0
-336 -304 -328 -420 -254 -262 -409 -365 0
-336 -304 -420 -254 -262 -365 0
-336 -304 -420 -254 -262 -409 -365 0
-336 -418 -328 -420 -254 -262 -365 0
-336 -418 -328 -420 -254 -262 -409 -365 0
-336 -328 -304 -420 -254 -262 -365 0
-336 -328 -304 -420 -254 -262 -409 -365 0
-336 -328 -420 -254 -262 -365 0
-336 -328 -420 -254 -262 -409 -365 0
-328 -304 -420 -254 -262 -341 0
-328 -304 -420 -254 -262 -404 -409 -341 0
-328 -304 -420 -254 -262 -365 -341 0
-328 -304 -420 -254 -262 -365 -409 -341 0
-328 -304 -420 -254 -262 -409 -341 0
-328 -304 -420 -254 -262 -409 -365 -341 0
-328 -304 -420 -254 -404 -262 -341 0
-328 -304 -420 -254 -404 -262 -409 -341 0
-328 -304 -420 -254 -404 -409 -341 0
-328 -304 -420 -254 -404 -409 -262 -341 0
-328 -420 -254 -262 -341 0
-328 -420 -254 -262 -404 -409 -341 0
-328 -420 -254 -262 -365 -341 0
-328 -420 -254 -262 -365 -409 -341 0
-328 -420 -254 -262 -409 -341 0
-328 -420 -254 -262 -409 -365 -341 0
-328 -420 -254 -404 -262 -341 0
-328 -420 -254 -404 -262 -409 -341 0
-328 -420 -254 -404 -409 -341 0
-328 -420 -254 -404 -409 -262 -341 0
-341 -262 -404 -254 -420 0
-341 -262 -404 -254 -420 -304 0
-341 -262 -404 -254 -420 -328 -418 0
-341 -262 -404 -254 -420 -328 -304 0
-341 -262 -404 -254 -420 -407 0
-341 -262 -254 -420 0
-341 -262 -254 -420 -304 0
-341 -262 -254 -420 -328 -418 0
-341 -262 -254 -420 -328 -304 0
-341 -262 -254 -420 -407 0
-341 -262 -409 -404 -254 -420 0
-341 -262 -409 -404 -254 -420 -304 0
-341 -262 -409 -404 -254 -420 -328 -418 0
-341 -262 -409 -404 -254 -420 -328 -304 0
-341 -262 -409 -404 -254 -420 -407 0
-341 -409 -404 -254 -420 0
-341 -409 -404 -254 -420 -304 0
-341 -409 -404 -254 -420 -328 -418 0
-341 -409 -404 -254 -420 -328 -304 0
-341 -409 -404 -254 -420 -407 0
-341 -409 -404 -262 -254 -420 0
-341 -409 -404 -262 -254 -420 -304 0
-341 -409 -404 -262 -254 -420 -328 -418 0
-341 -409 -404 -262 -254 -420 -328 -304 0
-341 -409 -404 -262 -254 -420 -407 0
-341 -409 -262 -404 -254 -420 0
-341 -409 -262 -404 -254 -420 -304 0
-341 -409 -262 -404 -254 -420 -328 -418 0
-341 -409 -262 -404 -254 -420 -328 -304 0
-341 -409 -262 -404 -254 -420 -407 0
-341 -409 -262 -254 -420 0
-341 -409 -262 -254 -420 -304 0
-341 -409 -262 -254 -420 -328 -418 0
-341 -409 -262 -254 -420 -328 -304 0
-341 -409 -262 -254 -420 -407 0
-341 -409 -365 -262 -254 -420 0
-341 -409 -365 -262 -254 -420 -304 0
-341 -409 -365 -262 -254 -420 -328 -418 0
-341 -409 -365 -262 -254 -420 -328 -304 0
-341 -409 -365 -262 -254 -420 -407 0
-341 -365 -262 -254 -420 0
-341 -365 -262 -254 -420 -304 0
-341 -365 -262 -254 -420 -328 -418 0
-341 -365 -262 -254 -420 -328 -304 0
-341 -365 -262 -254 -420 -407 0
-341 -365 -409 -262 -254 -420 0
-341 -365 -409 -262 -254 -420 -304 0
-341 -365 -409 -262 -254 -420 -328 -418 0
-341 -365 -409 -262 -254 -420 -328 -304 0
-341 -365 -409 -262 -254 -420 -407 0
-418 -328 -420 -254 -262 -365 0
-418 -328 -420 -254 -262 -341 -409 -365 0
-418 -328 -420 -254 -262 -341 -365 0
-418 -328 -420 -254 -262 -359 -365 0
-418 -328 -420 -254 -262 -409 -341 -365 0
-418 -328 -420 -254 -262 -409 -365 0
-418 -328 -336 -420 -254 -262 -365 0
-418 -328 -336 -420 -254 -262 -409 -365 0
-418 -336 -420 -254 -262 -365 0
-418 -336 -420 -254 -262 -409 -365 0
-418 -336 -407 -420 -254 -262 -365 0
-418 -336 -407 -420 -254 -262 -409 -365 0
-418 -336 -328 -420 -254 -262 -365 0
-418 -336 -328 -420 -254 -262 -409 -365 0
-121 -137 430 0
-122 -138 430 0
-123 -139 430 0
-124 -140 430 0
-125 -141 430 0
-126 -142 430 0
-127 -143 430 0
-128 -144 430 0
-212 -204 -223 -430 -262 0
-212 -204 -223 -430 -262 -248 0
-212 -204 -223 -430 -262 -248 -211 0
-212 -204 -223 -430 -365 -262 0
-212 -204 -223 -430 -365 -262 -248 0
-212 -204 -223 -262 0
-212 -204 -223 -262 -248 0
-212 -204 -223 -262 -248 -211 0
-212 -204 -223 -365 -262 0
-212 -204 -223 -365 -262 -248 0
-212 -204 -223 -365 -430 -262 0
-212 -204 -223 -365 -430 -262 -248 0
-419 -428 -211 -248 -420 -328 0
-419 -428 -211 -248 -420 -328 -345 0
-419 -428 -211 -248 -420 -407 0
-419 -428 -211 -248 -420 -407 -339 0
-419 -428 -211 -248 -420 -339 0
-419 -428 -211 -248 -420 -339 -407 0
-419 -428 -211 -248 -420 -345 0
-419 -428 -211 -248 -420 -345 -328 0
-419 -428 -223 -262 -248 -420 -328 0
-419 -428 -223 -262 -248 -420 -407 0
-419 -428 -223 -365 -262 -248 -420 -328 0
-419 -428 -223 -365 -262 -248 -420 -407 0
-419 -428 -262 -248 -420 -328 0
-419 -428 -262 -248 -420 -328 -345 0
-419 -428 -262 -248 -420 -407 0
-419 -428 -262 -248 -420 -407 -339 0
-419 -428 -262 -248 -420 -339 0
-419 -428 -262 -248 -420 -339 -407 0
-419 -428 -262 -248 -420 -345 0
-419 -428 -262 -248 -420 -345 -328 0
-65 -153 431 0
-66 -154 431 0
-67 -155 431 0
-68 -156 431 0
-69 -157 431 0
-70 -158 431 0
-71 -159 431 0
-72 -160 431 0
-419 -428 -262 -365 -431 -248 -420 -328 0
-419 -428 -262 -365 -431 -248 -420 -328 -345 0
-419 -428 -262 -365 -431 -248 -420 -407 0
-419 -428 -262 -365 -431 -248 -420 -345 0
-419 -428 -262 -365 -431 -248 -420 -345 -328 0
-419 -428 -262 -431 -248 -420 -328 0
-419 -428 -262 -431 -248 -420 -328 -345 0
-419 -428 -262 -431 -248 -420 -407 0
-419 -428 -262 -431 -248 -420 -345 0
-419 -428 -262 -431 -248 -420 -345 -328 0
-211 -248 -420 -328 -345 0
-211 -248 -420 -407 -339 0
-211 -248 -420 -339 0
-211 -248 -420 -345 0
-211 -428 -262 -248 -420 -328 -345 0
-211 -428 -262 -248 -420 -407 -339 0
-211 -428 -262 -248 -420 -339 0
-211 -428 -262 -248 -420 -345 0
-211 -428 -262 -431 -248 -420 -328 -345 0
-211 -428 -262 -431 -248 -420 -345 0
-204 -223 -430 -262 -248 0
-204 -223 -430 -262 -248 -211 0
-204 -223 -430 -365 -262 -248 0
-204 -223 -262 -248 0
-204 -223 -262 -248 -211 0
-204 -223 -365 -262 -248 0
-204 -223 -365 -430 -262 -248 0
-428 -211 -248 -420 -328 0
-428 -211 -248 -420 -328 -345 0
-428 -211 -248 -420 -407 0
-428 -211 -248 -420 -407 -339 0
-428 -211 -248 -420 -339 0
-428 -211 -248 -420 -339 -407 0
-428 -211 -248 -420 -345 0
-428 -211 -248 -420 -345 -328 0
-428 -223 -262 -248 -420 -328 0
-428 -223 -262 -248 -420 -407 0
-428 -223 -365 -262 -248 -420 -328 0
-428 -223 -365 -262 -248 -420 -407 0
-428 -262 -248 -420 -328 0
-428 -262 -248 -420 -328 -345 0
-428 -262 -248 -420 -328 -345 -365 0
-428 -262 -248 -420 -407 0
-428 -262 -248 -420 -407 -339 0
-428 -262 -248 -420 -339 0
-428 -262 -248 -420 -339 -407 0
-428 -262 -248 -420 -345 0
-428 -262 -248 -420 -345 -328 0
-428 -262 -248 -420 -345 -365 0
-428 -262 -365 -431 -248 -420 -328 0
-428 -262 -365 -431 -248 -420 -328 -345 0
-428 -262 -365 -431 -248 -420 -407 0
-428 -262 -365 -431 -248 -420 -345 0
-428 -262 -365 -431 -248 -420 -345 -328 0
-428 -262 -431 -248 -420 -328 0
-428 -262 -431 -248 -420 -328 -345 0
-428 -262 -431 -248 -420 -328 -345 -365 0
-428 -262 -431 -248 -420 -407 0
-428 -262 -431 -248 -420 -345 0
-428 -262 -431 -248 -420 -345 -328 0
-428 -262 -431 -248 -420 -345 -365 0
-276 -431 -248 -262 -365 -345 0
-276 -431 -248 -262 -365 -345 -328 0
-276 -431 -248 -262 -430 -365 -345 0
-276 -431 -248 -262 -430 -365 -345 -328 0
-276 -431 -262 -365 -345 0
-276 -431 -262 -365 -345 -328 0
-276 -431 -262 -430 -365 -345 0
-276 -431 -262 -430 -365 -345 -328 0
-276 -431 -365 -345 0
-276 -431 -365 -345 -328 0
-276 -248 -262 -365 -345 0
-276 -248 -262 -365 -345 -328 0
-276 -248 -262 -365 -399 0
-276 -248 -262 -365 -399 -376 0
-276 -248 -262 -430 -223 -365 -399 0
-276 -248 -262 -430 -223 -365 -399 -376 0
-276 -248 -262 -430 -365 -345 0
-276 -248 -262 -430 -365 -345 -328 0
-276 -248 -262 -430 -365 -399 0
-276 -248 -262 -430 -365 -399 -376 0
-276 -248 -262 -223 -430 -365 -399 0
-276 -248 -262 -223 -430 -365 -399 -376 0
-276 -248 -262 -223 -365 -399 0
-276 -248 -262 -223 -365 -399 -376 0
-276 -248 -262 -431 -365 -345 0
-276 -248 -262 -431 -365 -345 -328 0
-276 -248 -431 -262 -365 -345 0
-276 -248 -431 -262 -365 -345 -328 0
-276 -248 -431 -262 -430 -365 -345 0
-276 -248 -431 -262 -430 -365 -345 -328 0
-276 -248 -431 -365 -345 0
-276 -248 -431 -365 -345 -328 0
-248 -276 -431 -262 -365 -345 0
-248 -276 -431 -262 -365 -345 -328 0
-248 -276 -431 -262 -430 -365 -345 0
-248 -276 -431 -262 -430 -365 -345 -328 0
-248 -276 -431 -365 -345 0
-248 -276 -431 -365 -345 -328 0
-248 -262 -428 -223 -365 -399 0
-248 -262 -428 -223 -365 -399 -376 0
-248 -262 -365 -345 0
-248 -262 -365 -345 -328 0
-248 -262 -365 -345 -328 -420 0
-248 -262 -365 -345 -328 -392 0
-248 -262 -365 -345 -420 0
-248 -262 -365 -345 -420 -328 0
-248 -262 -365 -345 -420 -407 0
-248 -262 -365 -345 -392 0
-248 -262 -365 -345 -392 -328 0
-248 -262 -365 -345 -392 -407 0
-248 -262 -365 -399 0
-248 -262 -365 -399 -376 0
-248 -262 -430 -223 -365 -399 0
-248 -262 -430 -223 -365 -399 -376 0
-248 -262 -430 -365 -345 0
-248 -262 -430 -365 -345 -328 0
-248 -262 -430 -365 -345 -328 -420 0
-248 -262 -430 -365 -345 -420 0
-248 -262 -430 -365 -345 -420 -328 0
-248 -262 -430 -365 -345 -420 -407 0
-248 -262 -430 -365 -399 0
-248 -262 -430 -365 -399 -376 0
-248 -262 -223 -430 -365 -399 0
-248 -262 -223 -430 -365 -399 -376 0
-248 -262 -223 -365 -399 0
-248 -262 -223 -365 -399 -376 0
-248 -262 -431 -365 -345 0
-248 -262 -431 -365 -345 -328 0
-248 -262 -431 -365 -345 -328 -420 0
-248 -262 -431 -365 -345 -328 -392 0
-248 -262 -431 -365 -345 -420 0
-248 -262 -431 -365 -345 -420 -328 0
-248 -262 -431 -365 -345 -420 -407 0
-248 -262 -431 -365 -345 -392 0
-248 -262 -431 -365 -345 -392 -328 0
-248 -262 -431 -365 -345 -392 -407 0
-248 -431 -262 -365 -345 0
-248 -431 -262 -365 -345 -328 0
-248 -431 -262 -365 -345 -328 -420 0
-248 -431 -262 -365 -345 -328 -392 0
-248 -431 -262 -365 -345 -420 0
-248 -431 -262 -365 -345 -420 -328 0
-248 -431 -262 -365 -345 -420 -407 0
-248 -431 -262 -365 -345 -392 0
-248 -431 -262 -365 -345 -392 -328 0
-248 -431 -262 -365 -345 -392 -407 0
-248 -431 -262 -430 -365 -345 0
-248 -431 -262 -430 -365 -345 -328 0
-248 -431 -262 -430 -365 -345 -328 -420 0
-248 -431 -262 -430 -365 -345 -420 0
-248 -431 -262 -430 -365 -345 -420 -328 0
-248 -431 -262 -430 -365 -345 -420 -407 0
-248 -431 -365 -345 0
-248 -431 -365 -345 -328 0
-248 -431 -365 -345 -328 -420 0
-248 -431 -365 -345 -328 -392 0
-248 -431 -365 -345 -420 0
-248 -431 -365 -345 -420 -328 0
-248 -431 -365 -345 -420 -407 0
-248 -431 -365 -345 -392 0
-248 -431 -365 -345 -392 -328 0
-248 -431 -365 -345 -392 -407 0
-248 -420 -328 -345 -365 0
-248 -420 -328 -345 -365 -262 0
-248 -420 -328 -345 -365 -262 -431 0
-248 -420 -328 -345 -365 -430 -262 0
-248 -420 -328 -345 -365 -430 -262 -431 0
-248 -420 -328 -345 -365 -431 0
-248 -420 -328 -345 -365 -431 -262 0
-248 -420 -345 -365 0
-248 -420 -345 -365 -262 0
-248 -420 -345 -365 -262 -431 0
-248 -420 -345 -365 -430 -262 0
-248 -420 -345 -365 -430 -262 -431 0
-248 -420 -345 -365 -431 0
-248 -420 -345 -365 -431 -262 0
-420 -328 -345 -365 -262 -248 -431 0
-420 -328 -345 -365 -262 -431 0
-420 -328 -345 -365 -430 -262 -248 -431 0
-420 -328 -345 -365 -430 -262 -431 0
-420 -328 -345 -365 -431 0
-420 -345 -365 -262 -248 -431 0
-420 -345 -365 -262 -431 0
-420 -345 -365 -430 -262 -248 -431 0
-420 -345 -365 -430 -262 -431 0
-420 -345 -365 -431 0
-420 -248 -262 -428 -223 -365 -399 0
-420 -248 -262 -428 -223 -365 -399 -376 0
-420 -248 -262 -365 -345 0
-420 -248 -262 -365 -345 -328 0
-420 -248 -262 -365 -399 0
-420 -248 -262 -365 -399 -376 0
-420 -248 -262 -430 -223 -365 -399 0
-420 -248 -262 -430 -223 -365 -399 -376 0
-420 -248 -262 -430 -365 -345 0
-420 -248 -262 -430 -365 -345 -328 0
-420 -248 -262 -430 -365 -399 0
-420 -248 -262 -430 -365 -399 -376 0
-420 -248 -262 -223 -430 -365 -399 0
-420 -248 -262 -223 -430 -365 -399 -376 0
-420 -248 -262 -223 -365 -399 0
-420 -248 -262 -223 -365 -399 -376 0
-420 -248 -262 -431 -365 -345 0
-420 -248 -262 -431 -365 -345 -328 0
-420 -248 -431 -262 -365 -345 0
-420 -248 -431 -262 -365 -345 -328 0
-420 -248 -431 -262 -430 -365 -345 0
-420 -248 -431 -262 -430 -365 -345 -328 0
-420 -248 -431 -365 -345 0
-420 -248 -431 -365 -345 -328 0
-262 -428 -211 -248 -420 -328 -345 0
-262 -428 -211 -248 -420 -407 -339 0
-262 -428 -211 -248 -420 -339 0
-262 -428 -211 -248 -420 -345 0
-262 -428 -223 -365 -399 -376 0
-262 -248 -211 -285 -301 0
-262 -248 -276 -431 -365 -345 -328 0
-262 -248 -431 -365 -345 -328 0
-262 -248 -431 -365 -345 -420 -328 0
-262 -248 -431 -365 -345 -392 -328 0
-262 -248 -420 -328 -345 0
-262 -248 -420 -328 -345 -365 0
-262 -248 -420 -328 -345 -365 -430 0
-262 -248 -420 -328 -345 -365 -431 0
-262 -248 -420 -407 -339 0
-262 -248 -420 -339 0
-262 -248 -420 -345 0
-262 -248 -420 -345 -365 0
-262 -248 -420 -345 -365 -430 0
-262 -248 -420 -345 -365 -431 0
-262 -365 -431 -248 -420 -328 -345 0
-262 -365 -431 -248 -420 -345 0
-262 -365 -345 -328 0
-262 -365 -345 -328 -420 -248 -431 0
-262 -365 -345 -420 -248 -431 0
-262 -365 -345 -420 -328 0
-262 -365 -345 -392 -328 0
-262 -365 -399 -376 0
-262 -430 -223 -365 -399 -376 0
-262 -430 -365 -431 -248 -420 -328 -345 0
-262 -430 -365 -431 -248 -420 -345 0
-262 -430 -365 -345 -328 0
-262 -430 -365 -345 -328 -420 -248 -431 0
-262 -430 -365 -345 -420 -248 -431 0
-262 -430 -365 -345 -420 -328 0
-262 -430 -365 -399 -376 0
-262 -223 -430 -365 -399 -376 0
-262 -223 -365 -399 -376 0
-262 -431 -276 -248 -211 -285 -301 0
-262 -431 -248 -211 -285 -301 0
-262 -431 -248 -420 -328 -345 0
-262 -431 -248 -420 -328 -345 -365 0
-262 -431 -248 -420 -328 -345 -365 -430 0
-262 -431 -248 -420 -345 0
-262 -431 -248 -420 -345 -365 0
-262 -431 -248 -420 -345 -365 -430 0
-262 -431 -365 -345 -328 0
-262 -431 -365 -345 -420 -328 0
-262 -431 -365 -345 -392 -328 0
-223 -428 -211 -248 -420 0
-223 -428 -211 -248 -420 -328 0
-223 -428 -211 -248 -420 -407 0
-223 -428 -262 -248 -420 0
-223 -428 -262 -248 -420 -328 0
-223 -428 -262 -248 -420 -407 0
-223 -430 -262 -248 -420 0
-223 -430 -262 -248 -420 -328 0
-223 -430 -262 -248 -420 -407 0
-223 -430 -365 -262 -248 -420 0
-223 -430 -365 -262 -248 -420 -328 0
-223 -430 -365 -262 -248 -420 -407 0
-223 -262 -428 -211 -248 -420 0
-223 -262 -428 -211 -248 -420 -328 0
-223 -262 -428 -211 -248 -420 -407 0
-223 -262 -248 -211 -285 0
-223 -262 -248 -211 -285 -301 0
-223 -262 -248 -420 0
-223 -262 -248 -420 -328 0
-223 -262 -248 -420 -407 0
-223 -365 -262 -248 -420 0
-223 -365 -262 -248 -420 -328 0
-223 -365 -262 -248 -420 -407 0
-223 -365 -430 -262 -248 -420 0
-223 -365 -430 -262 -248 -420 -328 0
-223 -365 -430 -262 -248 -420 -407 0
-431 -248 -262 -365 -345 -328 -392 0
-431 -248 -262 -365 -345 -420 -407 0
-431 -248 -262 -365 -345 -392 0
-431 -248 -262 -365 -345 -392 -407 0
-431 -248 -262 -430 -365 -345 -420 -407 0
-431 -248 -420 -328 -345 -365 0
-431 -248 -420 -345 -365 0
-431 -262 -248 -420 -328 -345 -365 0
-431 -262 -248 -420 -345 -365 0
-431 -262 -365 -345 -328 -392 0
-431 -262 -365 -345 -420 -407 0
-431 -262 -365 -345 -392 0
-431 -262 -365 -345 -392 -407 0
-431 -262 -430 -365 -345 -420 -407 0
-431 -365 -345 -328 -392 0
-431 -365 -345 -420 -407 0
-431 -365 -345 -392 0
-431 -365 -345 -392 -407 0
-232 -276 -248 -262 -365 0
-232 -276 -248 -262 -430 -365 0
-232 -248 -262 -365 0
-232 -248 -262 -430 -365 0
-328 -420 -248 -211 -428 -223 -262 0
-328 -420 -248 -211 -428 -262 0
-328 -420 -248 -262 0
-328 -420 -248 -262 -428 -223 -365 0
-328 -420 -248 -262 -428 -223 -365 -399 0
-328 -420 -248 -262 -365 0
-328 -420 -248 -262 -365 -345 0
-328 -420 -248 -262 -365 -399 0
-328 -420 -248 -262 -430 -223 -365 0
-328 -420 -248 -262 -430 -223 -365 -399 0
-328 -420 -248 -262 -430 -365 0
-328 -420 -248 -262 -430 -365 -345 0
-328 -420 -248 -262 -430 -365 -399 0
-328 -420 -248 -262 -223 -430 -365 0
-328 -420 -248 -262 -223 -430 -365 -399 0
-328 -420 -248 -262 -223 -365 0
-328 -420 -248 -262 -223 -365 -399 0
-328 -420 -248 -262 -431 -365 0
-328 -420 -248 -262 -431 -365 -345 0
-328 -420 -248 -431 -262 0
-328 -420 -248 -431 -262 -365 0
-328 -420 -248 -431 -262 -365 -345 0
-328 -420 -248 -431 -262 -430 -365 0
-328 -420 -248 -431 -262 -430 -365 -345 0
-328 -420 -248 -431 -365 0
-328 -420 -248 -431 -365 -262 0
-328 -420 -248 -431 -365 -345 0
-328 -420 -248 -431 -365 -430 -262 0
-328 -345 -420 -248 -211 -428 -262 0
-328 -345 -420 -248 -262 0
-328 -345 -420 -248 -262 -365 0
-328 -345 -420 -248 -262 -430 -365 0
-328 -345 -420 -248 -262 -431 -365 0
-328 -345 -420 -248 -431 -262 0
-328 -345 -420 -248 -431 -262 -365 0
-328 -345 -420 -248 -431 -262 -430 -365 0
-328 -345 -420 -248 -431 -365 0
-328 -345 -420 -248 -431 -365 -262 0
-328 -345 -420 -248 -431 -365 -430 -262 0
-328 -345 -365 -262 -248 -431 -361 0
-328 -345 -365 -262 -431 -361 0
-328 -345 -365 -431 -361 0
-345 -420 -248 -262 -365 0
-345 -420 -248 -262 -430 -365 0
-345 -420 -248 -262 -431 -365 0
-345 -420 -248 -431 -262 -365 0
-345 -420 -248 -431 -262 -430 -365 0
-345 -420 -248 -431 -365 0
-345 -328 -420 -248 -262 -365 0
-345 -328 -420 -248 -262 -430 -365 0
-345 -328 -420 -248 -262 -431 -365 0
-345 -328 -420 -248 -431 -262 -365 0
-345 -328 -420 -248 -431 -262 -430 -365 0
-345 -328 -420 -248 -431 -365 0
-345 -365 -262 -248 -431 -361 0
-345 -365 -262 -431 -361 0
-345 -365 -431 -361 0
-262 -248 -420 -328 -345 -365 0
-262 -248 -420 -328 -345 -365 -431 0
-262 -248 -420 -328 -345 -365 -430 0
-262 -248 -420 -345 -365 0
-262 -248 -420 -345 -365 -431 0
-262 -248 -420 -345 -365 -430 0
-262 -365 -345 -420 -248 0
-262 -365 -345 -420 -248 -431 0
-262 -365 -345 -328 -420 -248 0
-262 -365 -345 -328 -420 -248 -431 0
-262 -431 -248 -420 -328 -345 -365 0
-262 -431 -248 -420 -328 -345 -365 -430 0
-262 -431 -248 -420 -345 -365 0
-262 -431 -248 -420 -345 -365 -430 0
-262 -431 -365 -345 -420 -248 0
-262 -431 -365 -345 -328 -420 -248 0
-262 -430 -365 -345 -420 -248 0
-262 -430 -365 -345 -420 -248 -431 0
-262 -430 -365 -345 -328 -420 -248 0
-262 -430 -365 -345 -328 -420 -248 -431 0
-248 -262 -223 -289 0
-248 -262 -223 -289 -190 0
-248 -262 -365 -223 -289 0
-248 -262 -365 -345 -420 0
-248 -262 -365 -345 -328 -420 0
-248 -262 -431 -365 -345 -420 0
-248 -262 -431 -365 -345 -328 -420 0
-248 -262 -428 -223 -289 0
-248 -262 -428 -223 -289 -190 0
-248 -262 -430 -365 -345 -420 0
-248 -262 -430 -365 -345 -328 -420 0
-248 -420 -328 -345 -365 -262 -428 0
-248 -420 -328 -345 -365 -262 -428 -419 0
-248 -420 -328 -345 -365 -262 -431 0
-248 -420 -328 -345 -365 -431 0
-248 -420 -328 -345 -365 -431 -262 -428 0
-248 -420 -328 -345 -365 -431 -262 -428 -419 0
-248 -420 -328 -345 -365 -430 -262 -431 0
-248 -420 -345 -365 -262 -428 0
-248 -420 -345 -365 -262 -428 -419 0
-248 -420 -345 -365 -262 -431 0
-248 -420 -345 -365 -431 0
-248 -420 -345 -365 -431 -262 -428 0
-248 -420 -345 -365 -431 -262 -428 -419 0
-248 -420 -345 -365 -430 -262 -431 0
-248 -431 -262 -365 -345 -420 0
-248 -431 -262 -365 -345 -328 -420 0
-248 -431 -262 -430 -365 -345 -420 0
-248 -431 -262 -430 -365 -345 -328 -420 0
-248 -431 -365 -345 -420 0
-248 -431 -365 -345 -328 -420 0
-248 -211 -428 -223 -289 0
-248 -211 -428 -262 -223 -289 0
-328 -345 -365 -262 -248 -420 0
-328 -345 -365 -262 -431 -248 -420 0
-328 -345 -365 -431 -248 -420 0
-328 -345 -365 -431 -262 -248 -420 0
-328 -345 -365 -430 -262 -248 -420 0
-328 -345 -365 -430 -262 -431 -248 -420 0
-328 -345 -420 -248 -262 -365 -430 0
-328 -345 -420 -248 -262 -431 -365 -430 0
-328 -345 -420 -248 -262 -430 0
-328 -345 -420 -248 -431 -262 -365 -430 0
-328 -345 -420 -248 -431 -262 -430 0
-328 -345 -420 -248 -431 -365 -262 -430 0
-328 -345 -420 -248 -431 -365 -430 0
-328 -420 -248 -262 -223 -430 0
-328 -420 -248 -262 -223 -365 -430 0
-328 -420 -248 -262 -365 -223 -430 0
-328 -420 -248 -262 -365 -345 0
-328 -420 -248 -262 -365 -430 0
-328 -420 -248 -262 -431 -365 -345 0
-328 -420 -248 -262 -431 -365 -430 0
-328 -420 -248 -262 -430 0
-328 -420 -248 -262 -430 -365 -345 0
-328 -420 -248 -431 -262 -365 -345 0
-328 -420 -248 -431 -262 -365 -430 0
-328 -420 -248 -431 -262 -430 0
-328 -420 -248 -431 -262 -430 -365 -345 0
-328 -420 -248 -431 -365 -345 0
-328 -420 -248 -431 -365 -262 -430 0
-328 -420 -248 -431 -365 -430 0
-190 -289 -223 -428 0
-190 -289 -223 -428 -419 0
-190 -289 -223 -262 -428 0
-190 -289 -223 -262 -428 -419 0
-190 -289 -223 -262 -248 -276 0
-365 -262 -248 -420 -328 -345 0
-365 -262 -248 -420 -407 -339 0
-365 -262 -248 -420 -339 0
-365 -262 -248 -420 -345 0
-365 -262 -431 -248 -420 -328 -345 0
-365 -262 -431 -248 -420 -345 0
-365 -431 -248 -420 -328 -345 0
-365 -431 -248 -420 -345 0
-365 -431 -262 -248 -420 -328 -345 0
-365 -431 -262 -248 -420 -345 0
-365 -345 -328 -420 -248 -262 -430 0
-365 -345 -328 -420 -248 -431 -262 -430 0
-365 -345 -420 -248 -262 -430 0
-365 -345 -420 -248 -431 -262 -430 0
-365 -430 -262 -248 -420 -328 -345 0
-365 -430 -262 -248 -420 -407 -339 0
-365 -430 -262 -248 -420 -339 0
-365 -430 -262 -248 -420 -345 0
-365 -430 -262 -431 -248 -420 -328 -345 0
-365 -430 -262 -431 -248 -420 -345 0
-289 -223 -428 -211 0
-289 -223 -428 -262 -248 -211 0
-289 -223 -262 -428 -211 0
-289 -223 -262 -248 -211 0
-430 -262 -248 -420 -328 -345 0
-430 -262 -248 -420 -407 0
-430 -262 -248 -420 -407 -339 0
-430 -262 -248 -420 -339 0
-430 -262 -248 -420 -339 -407 0
-430 -262 -248 -420 -345 0
-430 -262 -365 -431 -248 -420 -328 -345 0
-430 -262 -365 -431 -248 -420 -407 0
-430 -262 -365 -431 -248 -420 -345 0
-430 -262 -431 -248 -420 -328 -345 0
-430 -262 -431 -248 -420 -407 0
-430 -262 -431 -248 -420 -345 0
-430 -223 -262 -248 -420 -407 0
-430 -223 -365 -262 -248 -420 -407 0
-430 -365 -262 -248 -420 -328 -345 0
-430 -365 -262 -248 -420 -407 0
-430 -365 -262 -248 -420 -407 -339 0
-430 -365 -262 -248 -420 -339 0
-430 -365 -262 -248 -420 -339 -407 0
-430 -365 -262 -248 -420 -345 0
-430 -365 -262 -431 -248 -420 -328 -345 0
-430 -365 -262 -431 -248 -420 -407 0
-430 -365 -262 -431 -248 -420 -345 0
-430 -365 -223 -262 -248 -420 -407 0
-430 -365 -431 -248 -420 -328 -345 0
-430 -365 -431 -248 -420 -407 0
-430 -365 -431 -248 -420 -345 0
-430 -365 -431 -262 -248 -420 -328 -345 0
-430 -365 -431 -262 -248 -420 -407 0
-430 -365 -431 -262 -248 -420 -345 0
-428 -262 -248 -420 -328 -345 -365 -431 0
-428 -262 -248 -420 -345 -365 -431 0
-428 -262 -365 -345 -420 -248 -431 0
-428 -262 -365 -345 -328 -420 -248 -431 0
-430 -365 -345 -420 -248 -262 -431 0
-430 -365 -345 -420 -248 -431 0
-430 -365 -345 -328 -420 -248 -262 -431 0
-430 -365 -345 -328 -420 -248 -431 0
-430 -262 -248 -420 -328 -345 -365 0
-430 -262 -248 -420 -328 -345 -365 -431 0
-430 -262 -248 -420 -345 -365 0
-430 -262 -248 -420 -345 -365 -431 0
-430 -262 -365 -345 -420 -248 -431 0
-430 -262 -365 -345 -328 -420 -248 -431 0
-430 -262 -431 -248 -420 -328 -345 -365 0
-430 -262 -431 -248 -420 -345 -365 0
-365 -345 -420 -248 -262 -431 0
-365 -345 -420 -248 -431 0
-365 -345 -328 -420 -248 -262 -431 0
-365 -345 -328 -420 -248 -431 0
-407 -420 -248 -262 -365 -345 0
-407 -420 -248 -262 -431 -365 -345 0
-407 -420 -248 -262 -430 -365 -345 0
-407 -420 -248 -431 -262 -365 -345 0
-407 -420 -248 -431 -262 -430 -365 -345 0
-407 -420 -248 -431 -365 -345 0
-420 -248 -262 -365 -345 0
-420 -248 -262 -431 -365 -345 0
-420 -248 -262 -430 -365 -345 0
-420 -248 -431 -262 -365 -345 0
-420 -248 -431 -262 -430 -365 -345 0
-420 -248 -431 -365 -345 0
-17 -153 432 0
-18 -154 432 0
-19 -155 432 0
-20 -156 432 0
-21 -157 432 0
-22 -158 432 0
-23 -159 432 0
-24 -160 432 0
-415 -432 -250 -304 -336 0
-415 -432 -250 -304 -328 -336 0
-428 -262 -365 -227 -250 -304 -328 0
-428 -262 -365 -227 -250 -288 -407 0
-428 -262 -365 -412 -227 -250 -304 -328 0
-428 -262 -412 -227 -250 -304 -328 0
-428 -262 -412 -365 -227 -250 -304 -328 0
-428 -262 -227 -250 -304 -328 0
-428 -262 -227 -250 -288 -407 0
-304 -250 -432 -227 -262 -365 0
-304 -250 -432 -227 -262 -430 -365 0
-304 -250 -432 -227 -365 0
-304 -250 -432 -262 -365 0
-304 -250 -432 -262 -430 -223 -365 0
-304 -250 -432 -262 -430 -365 0
-304 -250 -432 -262 -223 -430 -365 0
-304 -250 -432 -262 -223 -365 0
-304 -250 -432 -262 -227 -365 0
-304 -250 -227 -432 -262 -365 0
-304 -250 -227 -432 -262 -430 -365 0
-304 -250 -227 -412 -262 -365 0
-304 -250 -227 -412 -365 0
-304 -250 -227 -262 -365 0
-304 -250 -227 -262 -412 -365 0
-304 -250 -227 -262 -430 -365 0
-304 -250 -227 -365 0
-262 -432 -227 -250 -304 0
-262 -432 -250 -304 0
-262 -432 -250 -304 -336 0
-262 -432 -250 -304 -328 -336 0
-262 -365 -227 -432 -250 -304 0
-262 -365 -227 -250 -304 0
-262 -365 -412 -227 -250 -304 0
-262 -412 -227 -250 -304 0
-262 -412 -365 -227 -250 -304 0
-262 -430 -365 -227 -432 -250 -304 0
-262 -430 -365 -227 -250 -304 0
-262 -227 -432 -250 -304 0
-262 -227 -250 -304 0
-223 -430 -262 -432 -250 -304 0
-223 -430 -262 -432 -250 -304 -328 0
-223 -430 -365 -262 -432 -250 -304 0
-223 -430 -365 -262 -432 -250 -304 -328 0
-223 -262 -432 -250 -304 0
-223 -262 -432 -250 -304 -328 0
-223 -365 -262 -432 -250 -304 0
-223 -365 -262 -432 -250 -304 -328 0
-223 -365 -430 -262 -432 -250 -304 0
-223 -365 -430 -262 -432 -250 -304 -328 0
-328 -336 -304 -250 -432 -262 0
-328 -336 -304 -250 -432 -262 -365 0
-328 -336 -304 -250 -432 -262 -430 -365 0
-328 -304 -250 -432 -227 -262 0
-328 -304 -250 -432 -227 -262 -365 0
-328 -304 -250 -432 -227 -262 -430 -365 0
-328 -304 -250 -432 -227 -365 0
-328 -304 -250 -432 -227 -365 -262 0
-328 -304 -250 -432 -227 -365 -430 -262 0
-328 -304 -250 -432 -262 0
-328 -304 -250 -432 -262 -365 0
-328 -304 -250 -432 -262 -430 -223 -365 0
-328 -304 -250 -432 -262 -430 -365 0
-328 -304 -250 -432 -262 -223 -430 -365 0
-328 -304 -250 -432 -262 -223 -365 0
-328 -304 -250 -432 -262 -227 -365 0
-328 -304 -250 -227 -432 -262 0
-328 -304 -250 -227 -432 -262 -365 0
-328 -304 -250 -227 -432 -262 -430 -365 0
-328 -304 -250 -227 -412 -262 0
-328 -304 -250 -227 -412 -262 -365 0
-328 -304 -250 -227 -412 -365 0
-328 -304 -250 -227 -412 -365 -262 0
-328 -304 -250 -227 -262 0
-328 -304 -250 -227 -262 -365 0
-328 -304 -250 -227 -262 -412 -365 0
-328 -304 -250 -227 -262 -430 -365 0
-328 -304 -250 -227 -365 0
-328 -304 -250 -227 -365 -262 0
-328 -304 -250 -227 -365 -430 -262 0
-328 -304 -250 -227 -365 -412 -262 0
-336 -304 -250 -432 -262 -365 0
-336 -304 -250 -432 -262 -365 -430 0
-336 -304 -250 -432 -262 -430 0
-336 -304 -250 -432 -262 -430 -365 0
-336 -328 -304 -250 -432 -262 -365 0
-336 -328 -304 -250 -432 -262 -365 -430 0
-336 -328 -304 -250 -432 -262 -430 0
-336 -328 -304 -250 -432 -262 -430 -365 0
-328 -304 -250 -227 -262 -365 -430 0
-328 -304 -250 -227 -262 -430 0
-328 -304 -250 -227 -432 -262 -365 -430 0
-328 -304 -250 -227 -432 -262 -430 0
-328 -304 -250 -227 -365 -262 -430 0
-328 -304 -250 -227 -365 -430 0
-328 -304 -250 -432 -262 -223 -289 0
-328 -304 -250 -432 -262 -223 -430 0
-328 -304 -250 -432 -262 -223 -365 -430 0
-328 -304 -250 -432 -262 -227 -365 -430 0
-328 -304 -250 -432 -262 -365 -223 -289 0
-328 -304 -250 -432 -262 -365 -223 -430 0
-328 -304 -250 -432 -262 -365 -430 0
-328 -304 -250 -432 -262 -430 0
-328 -304 -250 -432 -227 -262 -365 -430 0
-328 -304 -250 -432 -227 -262 -430 0
-328 -304 -250 -432 -227 -365 -262 -430 0
-328 -304 -250 -432 -227 -365 -430 0
-328 -336 -304 -250 -432 -262 -365 -430 0
-328 -336 -304 -250 -432 -262 -430 0
-289 -223 -262 -432 -250 0
-289 -223 -262 -432 -250 -304 0
-289 -223 -365 -262 -432 -250 0
-289 -223 -365 -262 -432 -250 -304 0
-430 -262 -432 -250 -304 -336 -407 0
-430 -262 -365 -227 -250 -288 -407 0
-430 -262 -227 -250 -288 -407 0
-430 -365 -262 -432 -250 -304 -336 -407 0
-430 -365 -262 -227 -250 -288 -407 0
-430 -365 -227 -250 -288 -407 0
-121 -145 433 0
-122 -146 433 0
-123 -147 433 0
-124 -148 433 0
-125 -149 433 0
-126 -150 433 0
-127 -151 433 0
-128 -152 433 0
-212 -204 -223 -433 -271 0
-212 -204 -223 -433 -363 -271 0
-245 -202 -303 -271 0
-245 -237 -202 -303 -271 0
-245 -405 -202 -303 -271 0
-204 -223 -296 -190 0
-204 -223 -296 -190 -245 0
-223 -428 -415 -202 -245 -405 0
-223 -428 -415 -202 -405 0
-223 -296 -190 -245 0
-223 -296 -190 -245 -237 0
-223 -296 -190 -405 -245 0
-223 -296 -190 -237 0
-223 -296 -190 -237 -245 0
-202 -415 -428 -223 -296 0
-245 -405 -202 -415 -428 -223 -296 0
-245 -405 -190 -296 -223 -428 0
-245 -405 -190 -296 -223 -428 -415 0
-245 -202 -415 -428 -223 -296 0
-245 -190 -296 -223 -428 0
-245 -190 -296 -223 -428 -415 0
-190 -296 -223 -428 0
-190 -296 -223 -428 -415 0
-296 -223 -428 -415 -202 -245 -405 0
-296 -223 -428 -415 -202 -405 0
-215 -190 -279 -298 -250 0
-215 -190 -279 -250 0
-415 -213 -268 -239 -406 -337 -279 -298 0
-415 -213 -268 -337 -279 -298 0
-415 -213 -268 -337 -279 -298 -250 -411 -412 0
-415 -213 -268 -337 -279 -427 -298 0
-415 -213 -268 -337 -279 -250 -298 0
-415 -213 -268 -337 -279 -250 -411 -412 0
-415 -213 -268 -337 -418 -427 -298 0
-415 -213 -268 -337 -418 -427 -298 -288 0
-415 -213 -268 -337 -418 -427 -279 -298 0
-415 -213 -268 -337 -418 -427 -288 0
-415 -213 -268 -337 -418 -427 -288 -298 0
-415 -213 -268 -406 -337 -279 -298 0
-415 -213 -268 -406 -337 -279 -427 -298 0
-415 -213 -268 -406 -337 -279 -250 -298 0
-408 -250 -298 -279 -337 -268 -416 -412 0
-408 -250 -298 -279 -337 -268 -213 -416 -412 0
-408 -250 -298 -279 -337 -416 -412 0
-408 -250 -279 -337 -268 -416 -412 0
-408 -250 -279 -337 -268 -213 -416 -412 0
-408 -250 -279 -337 -416 -412 0
-190 -417 -250 -411 0
-190 -417 -250 -411 -412 0
-190 -279 -298 -250 -411 0
-190 -279 -298 -250 -411 -412 0
-190 -279 -298 -250 -232 0
-190 -279 -250 -411 0
-190 -279 -250 -411 -412 0
-190 -279 -250 -232 0
-213 -416 -268 -337 -279 0
-213 -416 -268 -337 -279 -298 0
-213 -416 -268 -337 -279 -427 -298 0
-213 -416 -268 -337 -279 -250 -298 0
-213 -416 -268 -337 -418 -427 -298 0
-213 -416 -268 -337 -418 -427 -298 -288 0
-213 -416 -268 -337 -418 -427 -298 -279 0
-213 -416 -268 -337 -418 -427 -279 0
-213 -416 -268 -337 -418 -427 -279 -298 0
-213 -416 -268 -337 -418 -427 -288 0
-213 -416 -268 -337 -418 -427 -288 -298 0
-213 -416 -337 -279 0
-213 -416 -337 -279 -298 0
-213 -416 -337 -279 -427 -298 0
-213 -416 -337 -279 -250 -298 0
-213 -416 -337 -418 -427 -298 0
-213 -416 -337 -418 -427 -298 -288 0
-213 -416 -337 -418 -427 -298 -279 0
-213 -416 -337 -418 -427 -279 0
-213 -416 -337 -418 -427 -279 -298 0
-213 -416 -337 -418 -427 -288 0
-213 -416 -337 -418 -427 -288 -298 0
-213 -268 -239 -406 -337 -279 0
-213 -268 -239 -406 -337 -279 -298 0
-213 -268 -239 -406 -337 -397 -373 0
-213 -268 -337 -279 0
-213 -268 -337 -279 -298 0
-213 -268 -337 -279 -298 -250 -411 -412 0
-213 -268 -337 -279 -427 -298 0
-213 -268 -337 -279 -250 -298 0
-213 -268 -337 -279 -250 -411 -412 0
-213 -268 -337 -397 -373 0
-213 -268 -337 -418 -427 -298 0
-213 -268 -337 -418 -427 -298 -288 0
-213 -268 -337 -418 -427 -298 -279 0
-213 -268 -337 -418 -427 -279 0
-213 -268 -337 -418 -427 -279 -298 0
-213 -268 -337 -418 -427 -288 0
-213 -268 -337 -418 -427 -288 -298 0
-213 -268 -406 -337 -279 0
-213 -268 -406 -337 -279 -298 0
-213 -268 -406 -337 -279 -427 -298 0
-213 -268 -406 -337 -279 -250 -298 0
-213 -268 -406 -337 -397 -373 0
-213 -268 -416 -337 -279 0
-213 -268 -416 -337 -279 -298 0
-213 -268 -416 -337 -279 -427 -298 0
-213 -268 -416 -337 -279 -250 -298 0
-213 -268 -416 -337 -418 -427 -298 0
-213 -268 -416 -337 -418 -427 -298 -288 0
-213 -268 -416 -337 -418 -427 -298 -279 0
-213 -268 -416 -337 -418 -427 -279 0
-213 -268 -416 -337 -418 -427 -279 -298 0
-213 -268 -416 -337 -418 -427 -288 0
-213 -268 -416 -337 -418 -427 -288 -298 0
-250 -298 -279 -337 -268 -416 -412 0
-250 -298 -279 -337 -268 -213 -416 -412 0
-250 -298 -279 -337 -416 -412 0
-250 -279 -337 -268 -416 -412 0
-250 -279 -337 -268 -213 -416 -412 0
-250 -279 -337 -416 -412 0
-289 -190 -417 -250 -411 0
-288 -298 -427 -418 -337 -268 -416 0
-288 -298 -427 -418 -337 -268 -213 -416 0
-288 -298 -427 -418 -337 -416 0
-288 -427 -418 -337 -268 -416 0
-288 -427 -418 -337 -268 -213 -416 0
-288 -427 -418 -337 -416 0
-298 -250 -279 -337 -268 -416 0
-298 -250 -279 -337 -268 -416 -412 0
-298 -250 -279 -337 -268 -213 -416 0
-298 -250 -279 -337 -268 -213 -416 -412 0
-298 -250 -279 -337 -416 0
-298 -250 -279 -337 -416 -412 0
-298 -250 -279 -337 -397 0
-298 -288 -427 -418 -337 -268 -416 0
-298 -288 -427 -418 -337 -268 -213 -416 0
-298 -288 -427 -418 -337 -416 0
-298 -279 -427 -418 -337 -268 -416 0
-298 -279 -427 -418 -337 -268 -416 -412 0
-298 -279 -427 -418 -337 -268 -213 -416 0
-298 -279 -427 -418 -337 -268 -213 -416 -412 0
-298 -279 -427 -418 -337 -416 0
-298 -279 -427 -418 -337 -416 -412 0
-298 -279 -337 -268 -416 0
-298 -279 -337 -268 -416 -412 0
-298 -279 -337 -268 -213 -416 0
-298 -279 -337 -268 -213 -416 -412 0
-298 -279 -337 -416 0
-298 -279 -337 -416 -412 0
-298 -279 -337 -397 0
-298 -427 -279 -337 -268 -416 0
-298 -427 -279 -337 -268 -416 -412 0
-298 -427 -279 -337 -268 -213 -416 0
-298 -427 -279 -337 -268 -213 -416 -412 0
-298 -427 -279 -337 -416 0
-298 -427 -279 -337 -416 -412 0
-298 -427 -279 -337 -397 0
-298 -427 -418 -337 -268 -416 0
-298 -427 -418 -337 -268 -416 -412 0
-298 -427 -418 -337 -268 -213 -416 0
-298 -427 -418 -337 -268 -213 -416 -412 0
-298 -427 -418 -337 -416 0
-298 -427 -418 -337 -416 -412 0
-239 -406 -268 -337 -279 0
-239 -406 -268 -337 -279 -298 0
-239 -406 -268 -337 -289 0
-239 -406 -337 -279 0
-239 -406 -337 -279 -298 0
-239 -406 -337 -289 0
-239 -268 -337 -279 0
-239 -268 -337 -279 -298 0
-239 -268 -337 -289 0
-239 -268 -406 -337 -279 0
-239 -268 -406 -337 -279 -298 0
-239 -268 -406 -337 -289 0
-239 -268 -416 -337 -279 0
-239 -268 -416 -337 -279 -298 0
-239 -268 -416 -337 -289 0
-239 -268 -213 -416 -337 -279 0
-239 -268 -213 -416 -337 -279 -298 0
-239 -268 -213 -416 -337 -289 0
-427 -279 -337 -268 -416 -412 0
-427 -279 -337 -268 -213 -416 -412 0
-427 -279 -337 -416 -412 0
-427 -418 -337 -268 -416 -412 0
-427 -418 -337 -268 -213 -416 -412 0
-427 -418 -337 -416 -412 0
-427 -298 -279 -337 -268 -416 -412 0
-427 -298 -279 -337 -268 -213 -416 -412 0
-427 -298 -279 -337 -416 -412 0
-337 -279 -298 -250 -411 0
-337 -279 -298 -250 -411 -412 0
-337 -279 -298 -250 -232 0
-337 -279 -250 -411 0
-337 -279 -250 -411 -412 0
-337 -279 -250 -232 0
-213 -416 -337 -279 -298 -250 0
-213 -416 -337 -279 -298 -250 -408 0
-213 -416 -337 -279 -298 -250 -417 0
-213 -416 -337 -279 -250 0
-213 -416 -337 -279 -250 -408 0
-213 -416 -337 -279 -250 -417 0
-213 -416 -268 -337 -279 -298 -250 0
-213 -416 -268 -337 -279 -298 -250 -408 0
-213 -416 -268 -337 -279 -298 -250 -417 0
-213 -416 -268 -337 -279 -250 0
-213 -416 -268 -337 -279 -250 -408 0
-213 -416 -268 -337 -279 -250 -417 0
-213 -268 -337 -279 -298 -250 0
-213 -268 -337 -279 -298 -250 -408 0
-213 -268 -337 -279 -298 -250 -417 0
-213 -268 -337 -279 -298 -250 -411 0
-213 -268 -337 -279 -298 -250 -232 0
-213 -268 -337 -279 -250 0
-213 -268 -337 -279 -250 -408 0
-213 -268 -337 -279 -250 -417 0
-213 -268 -337 -279 -250 -411 0
-213 -268 -337 -279 -250 -232 0
-213 -268 -406 -337 -279 -298 -250 0
-213 -268 -406 -337 -279 -298 -250 -408 0
-213 -268 -406 -337 -279 -298 -250 -417 0
-213 -268 -406 -337 -279 -250 0
-213 -268 -406 -337 -279 -250 -408 0
-213 -268 -406 -337 -279 -250 -417 0
-213 -268 -416 -337 -279 -298 -250 0
-213 -268 -416 -337 -279 -298 -250 -408 0
-213 -268 -416 -337 -279 -298 -250 -417 0
-213 -268 -416 -337 -279 -250 0
-213 -268 -416 -337 -279 -250 -408 0
-213 -268 -416 -337 -279 -250 -417 0
-298 -250 -279 -337 -268 0
-298 -250 -279 -337 -416 -213 -268 0
-298 -250 -279 -337 -416 -268 0
-298 -250 -279 -337 -406 -268 0
-298 -427 -279 -337 -268 0
-298 -427 -279 -337 -416 -213 -268 0
-298 -427 -279 -337 -416 -268 0
-298 -427 -279 -337 -406 -268 0
-298 -427 -418 -337 -268 0
-298 -427 -418 -337 -416 -213 -268 0
-298 -427 -418 -337 -416 -268 0
-298 -288 -427 -418 -337 -268 0
-298 -288 -427 -418 -337 -416 -213 -268 0
-298 -288 -427 -418 -337 -416 -268 0
-298 -279 -427 -418 -337 -268 0
-298 -279 -427 -418 -337 -416 -213 -268 0
-298 -279 -427 -418 -337 -416 -268 0
-298 -279 -337 -268 0
-298 -279 -337 -416 -213 -268 0
-298 -279 -337 -416 -268 0
-298 -279 -337 -406 -239 -268 0
-298 -279 -337 -406 -268 0
-161 -129 434 0
-162 -130 434 0
-163 -131 434 0
-164 -132 434 0
-165 -133 434 0
-166 -134 434 0
-167 -135 434 0
-168 -136 434 0
-412 -416 -213 -268 -337 -279 -298 -427 -434 0
-412 -416 -213 -268 -337 -279 -427 -434 0
-412 -416 -268 -337 -279 -298 -427 -434 0
-412 -416 -268 -337 -279 -427 -434 0
-412 -416 -337 -279 -298 -427 -434 0
-412 -416 -337 -279 -427 -434 0
-412 -411 -250 -298 -279 -337 -397 0
-412 -411 -250 -279 -337 -397 0
-406 -268 -337 -279 -298 -250 0
-406 -268 -337 -279 -250 0
-406 -337 -279 -298 -250 0
-406 -337 -279 -250 0
-268 -337 -279 -298 -250 0
-268 -337 -279 -298 -250 -411 0
-268 -337 -279 -298 -250 -411 -412 0
-268 -337 -279 -298 -250 -232 0
-268 -337 -279 -250 0
-268 -337 -279 -250 -411 0
-268 -337 -279 -250 -411 -412 0
-268 -337 -279 -250 -232 0
-268 -406 -337 -279 -298 -250 0
-268 -406 -337 -279 -250 0
-268 -416 -337 -279 -298 -250 0
-268 -416 -337 -279 -250 0
-268 -213 -416 -337 -279 -298 -250 0
-268 -213 -416 -337 -279 -250 0
-415 -213 -268 -337 -279 -298 -250 0
-415 -213 -268 -337 -279 -250 0
-415 -213 -268 -406 -337 -279 -298 -250 0
-415 -213 -268 -406 -337 -279 -250 0
-416 -337 -279 -298 -250 0
-416 -337 -279 -250 0
-416 -213 -268 -337 -279 -298 -250 0
-416 -213 -268 -337 -279 -250 0
-416 -268 -337 -279 -298 -250 0
-416 -268 -337 -279 -250 0
-233 -193 -282 -295 0
-233 -193 -282 -295 -246 0
-233 -193 -282 -295 -246 -256 0
-233 -193 -282 -295 -246 -256 -224 0
-233 -193 -282 -345 -295 0
-233 -193 -282 -345 -427 -295 0
-233 -193 -282 -246 0
-233 -193 -282 -246 -256 0
-233 -193 -282 -246 -256 -224 0
-233 -193 -282 -246 -295 0
-410 -211 -256 -246 -295 -282 -333 0
-410 -211 -256 -246 -295 -282 -333 -406 0
-410 -211 -256 -246 -295 -427 0
-410 -211 -256 -246 -282 -295 -427 0
-410 -211 -256 -246 -282 -333 0
-410 -211 -256 -246 -282 -333 -406 0
-410 -240 -224 -256 -425 -295 -282 -333 0
-193 -282 -295 -246 -256 -224 0
-193 -282 -295 -246 -256 -224 -268 0
-193 -282 -246 -256 -224 0
-193 -282 -246 -256 -224 -268 0
-211 -256 -246 -295 -282 -333 -406 -268 0
-211 -256 -246 -295 -282 -333 -268 0
-211 -256 -246 -295 -282 -333 -268 -224 0
-211 -256 -246 -282 -333 -406 -268 0
-211 -256 -246 -282 -333 -268 0
-211 -256 -246 -282 -333 -268 -224 0
-425 -246 -256 -224 -268 -333 -282 -295 0
-425 -246 -295 -282 -333 -268 -224 -256 0
-425 -246 -282 -333 -268 -224 -256 0
-425 -295 -246 -282 -333 -268 -224 -256 0
-425 -295 -282 -333 -268 -240 -224 -256 0
-425 -295 -282 -333 -268 -224 -256 0
-425 -295 -282 -333 -268 -224 -256 -246 0
-425 -295 -345 -282 -333 -268 -224 -256 0
-425 -256 -224 -240 -268 -333 -282 -295 0
-425 -256 -224 -268 -333 -282 -295 0
-425 -256 -224 -268 -333 -282 -295 -246 0
-425 -256 -224 -268 -333 -282 -295 -345 0
-425 -256 -224 -268 -333 -282 -345 0
-425 -256 -224 -268 -333 -282 -345 -295 0
-425 -256 -224 -268 -333 -282 -246 0
-425 -256 -224 -268 -333 -282 -246 -295 0
-256 -425 -246 -295 -282 -333 -268 -224 0
-256 -425 -246 -282 -333 -268 -224 0
-256 -425 -295 -246 -282 -333 -268 -224 0
-256 -425 -295 -282 -333 -268 -240 -224 0
-256 -425 -295 -282 -333 -268 -224 0
-256 -425 -295 -345 -282 -333 -268 -224 0
-256 -211 -410 -240 -406 -333 -282 -295 0
-256 -211 -240 -268 -333 -282 -295 0
-256 -211 -240 -268 -406 -333 -282 -295 0
-256 -211 -240 -224 -268 -333 -282 -295 0
-256 -211 -240 -406 -333 -282 -295 0
-256 -211 -240 -406 -268 -333 -282 -295 0
-256 -224 -240 -268 -333 -282 -295 0
-256 -224 -268 -333 -282 -295 0
-256 -224 -268 -333 -282 -295 -246 0
-256 -224 -268 -333 -282 -295 -345 0
-256 -224 -268 -333 -282 -295 -345 -394 0
-256 -224 -268 -333 -282 -295 -425 -246 0
-256 -224 -268 -333 -282 -345 0
-256 -224 -268 -333 -282 -345 -295 0
-256 -224 -268 -333 -282 -345 -394 0
-256 -224 -268 -333 -282 -246 0
-256 -224 -268 -333 -282 -246 -295 0
-256 -224 -268 -333 -282 -246 -425 -295 0
-256 -246 -425 -295 -282 -333 -268 -224 0
-256 -246 -295 -282 -333 -268 -224 0
-256 -246 -282 -333 -268 -224 0
-240 -268 -333 -282 -295 -425 -256 -224 0
-240 -268 -433 -224 -256 -425 -413 0
-240 -268 -433 -224 -256 -425 -295 0
-240 -268 -433 -224 -256 -425 -295 -282 0
-240 -268 -224 -256 -425 -413 0
-240 -268 -224 -256 -425 -295 0
-240 -268 -224 -256 -425 -295 -282 0
-240 -268 -224 -256 -425 -295 -282 -333 0
-240 -224 -256 -425 -413 0
-240 -224 -256 -425 -295 0
-240 -224 -256 -425 -295 -282 0
-240 -224 -256 -425 -295 -282 -333 0
-240 -224 -256 -425 -295 -282 -333 -268 0
-246 -425 -256 -224 -268 -333 -282 0
-246 -425 -256 -224 -268 -333 -282 -295 0
-246 -256 -224 -268 -333 -282 0
-246 -256 -224 -268 -333 -282 -295 0
-246 -295 -425 -256 -224 -268 -333 -282 0
-246 -282 -333 -268 -224 -256 -425 -295 0
-282 -295 -425 -246 -256 -224 0
-282 -295 -425 -246 -256 -224 -433 0
-282 -295 -425 -246 -256 -224 -433 -268 0
-282 -295 -425 -246 -256 -224 -268 0
-282 -295 -425 -246 -256 -224 -268 -333 0
-282 -295 -425 -246 -256 -224 -268 -433 0
-282 -295 -425 -256 -224 0
-282 -295 -425 -256 -224 -240 -268 0
-282 -295 -425 -256 -224 -240 -268 -333 0
-282 -295 -425 -256 -224 -240 -268 -433 0
-282 -295 -425 -256 -224 -433 0
-282 -295 -425 -256 -224 -433 -268 0
-282 -295 -425 -256 -224 -268 0
-282 -295 -425 -256 -224 -268 -333 0
-282 -295 -425 -256 -224 -268 -433 0
-282 -295 -246 -425 -256 -224 0
-282 -295 -246 -425 -256 -224 -433 0
-282 -295 -246 -425 -256 -224 -433 -268 0
-282 -295 -246 -425 -256 -224 -268 0
-282 -295 -246 -425 -256 -224 -268 -333 0
-282 -295 -246 -425 -256 -224 -268 -433 0
-282 -295 -246 -256 -224 0
-282 -295 -246 -256 -224 -433 0
-282 -295 -246 -256 -224 -433 -268 0
-282 -295 -246 -256 -224 -268 0
-282 -295 -246 -256 -224 -268 -333 0
-282 -295 -246 -256 -224 -268 -433 0
-282 -333 -268 -240 -224 -256 -425 -295 0
-282 -333 -268 -224 -256 -425 -295 0
-282 -333 -268 -224 -256 -425 -295 -345 0
-282 -333 -268 -224 -256 -425 -246 -295 0
-282 -333 -268 -224 -256 -246 -295 0
-282 -333 -268 -224 -256 -246 -425 -295 0
-282 -345 -295 -425 -256 -224 0
-282 -345 -295 -425 -256 -224 -433 0
-282 -345 -295 -425 -256 -224 -433 -268 0
-282 -345 -295 -425 -256 -224 -268 0
-282 -345 -295 -425 -256 -224 -268 -333 0
-282 -345 -295 -425 -256 -224 -268 -433 0
-282 -246 -425 -256 -224 0
-282 -246 -425 -256 -224 -433 0
-282 -246 -425 -256 -224 -433 -268 0
-282 -246 -425 -256 -224 -268 0
-282 -246 -425 -256 -224 -268 -333 0
-282 -246 -425 -256 -224 -268 -433 0
-282 -246 -256 -224 0
-282 -246 -256 -224 -433 0
-282 -246 -256 -224 -433 -268 0
-282 -246 -256 -224 -268 0
-282 -246 -256 -224 -268 -333 0
-282 -246 -256 -224 -268 -433 0
-282 -246 -295 -425 -256 -224 0
-282 -246 -295 -425 -256 -224 -433 0
-282 -246 -295 -425 -256 -224 -433 -268 0
-282 -246 -295 -425 -256 -224 -268 0
-282 -246 -295 -425 -256 -224 -268 -333 0
-282 -246 -295 -425 -256 -224 -268 -433 0
-295 -425 -246 -256 -224 -433 -268 0
-295 -425 -246 -256 -224 -268 0
-295 -425 -246 -282 -333 -268 -224 0
-295 -425 -256 -224 -240 -268 0
-295 -425 -256 -224 -433 -268 0
-295 -425 -256 -224 -268 0
-295 -425 -256 -224 -268 -333 -282 -345 0
-295 -425 -256 -246 -282 -333 -268 -224 0
-295 -246 -425 -256 -224 -433 -268 0
-295 -246 -425 -256 -224 -268 0
-295 -246 -256 -224 -433 -268 0
-295 -246 -256 -224 -268 0
-295 -246 -282 -333 -268 -224 0
-295 -282 -333 -268 -240 -224 0
-295 -282 -333 -268 -240 -211 -256 -224 0
-295 -282 -333 -268 -224 0
-295 -282 -246 -425 -256 -224 -433 -268 0
-295 -282 -246 -425 -256 -224 -268 0
-295 -282 -246 -256 -224 -433 -268 0
-295 -282 -246 -256 -224 -268 0
-295 -345 -282 -333 -268 -224 0
-268 -240 -224 -256 -425 -295 -282 -333 0
-268 -333 -282 -295 -246 -256 -224 0
-268 -333 -282 -295 -246 -425 -256 -224 0
-268 -333 -282 -295 -425 -256 -224 0
-268 -333 -282 -295 -425 -246 -256 -224 0
-268 -333 -282 -345 -295 -425 -256 -224 0
-268 -333 -282 -246 -256 -224 0
-268 -333 -282 -246 -295 -425 -256 -224 0
-268 -333 -282 -246 -425 -256 -224 0
-268 -433 -224 -256 -425 -295 -282 -345 0
-268 -433 -224 -256 -425 -295 -345 0
-268 -433 -224 -256 -246 -295 -427 0
-268 -433 -224 -256 -246 -282 -295 -427 0
-268 -224 -256 -425 -246 -295 -282 -333 0
-268 -224 -256 -425 -246 -282 -333 0
-268 -224 -256 -425 -295 -246 -282 -333 0
-268 -224 -256 -425 -295 -282 -333 0
-268 -224 -256 -425 -295 -282 -345 0
-268 -224 -256 -425 -295 -345 0
-268 -224 -256 -425 -295 -345 -282 -333 0
-268 -224 -256 -246 -425 -295 -282 -333 0
-268 -224 -256 -246 -295 -282 -333 0
-268 -224 -256 -246 -295 -427 0
-268 -224 -256 -246 -282 -295 -427 0
-268 -224 -256 -246 -282 -333 0
-224 -256 -425 -246 -295 0
-224 -256 -425 -246 -282 -295 0
-224 -256 -425 -295 0
-224 -256 -425 -295 -282 -345 0
-224 -256 -425 -295 -345 0
-224 -256 -246 -425 -295 0
-224 -256 -246 -295 0
-224 -256 -246 -282 -295 0
-333 -282 -295 -425 -246 -256 -224 0
-333 -282 -295 -425 -246 -256 -224 -268 0
-333 -282 -295 -425 -256 -224 0
-333 -282 -295 -425 -256 -224 -240 -268 0
-333 -282 -295 -425 -256 -224 -268 0
-333 -282 -295 -246 -425 -256 -224 0
-333 -282 -295 -246 -425 -256 -224 -268 0
-333 -282 -295 -246 -256 -224 0
-333 -282 -295 -246 -256 -224 -268 0
-333 -282 -345 -295 -425 -256 -224 0
-333 -282 -345 -295 -425 -256 -224 -268 0
-333 -282 -246 -425 -256 -224 0
-333 -282 -246 -425 -256 -224 -268 0
-333 -282 -246 -256 -224 0
-333 -282 -246 -256 -224 -268 0
-333 -282 -246 -295 -425 -256 -224 0
-333 -282 -246 -295 -425 -256 -224 -268 0
-240 -224 -256 -425 -295 -282 -333 -268 0
-240 -224 -268 -333 -282 0
-240 -224 -268 -333 -282 -295 0
-240 -224 -268 -333 -282 -295 -425 0
-240 -224 -268 -333 -282 -295 -425 -256 0
-240 -268 -333 -282 0
-240 -268 -333 -282 -295 0
-240 -268 -333 -282 -295 -425 0
-240 -268 -333 -282 -295 -425 -256 0
-240 -268 -333 -282 -295 -425 -256 -224 0
-240 -268 -406 -333 -282 0
-240 -268 -406 -333 -282 -295 0
-240 -268 -406 -333 -282 -295 -425 0
-240 -268 -406 -333 -282 -295 -425 -256 0
-240 -211 -256 -224 -268 -333 -282 0
-240 -211 -256 -224 -268 -333 -282 -295 0
-240 -406 -333 -282 0
-240 -406 -333 -282 -295 0
-240 -406 -333 -282 -295 -425 0
-240 -406 -333 -282 -295 -425 -256 0
-240 -406 -268 -333 -282 0
-240 -406 -268 -333 -282 -295 0
-240 -406 -268 -333 -282 -295 -425 0
-240 -406 -268 -333 -282 -295 -425 -256 0
-224 -240 -268 -333 -282 -295 -425 -256 0
-224 -256 -425 -295 -246 -282 -333 -268 0
-224 -256 -425 -295 -345 -282 -333 -268 0
-224 -256 -425 -295 -282 -333 -268 0
-224 -256 -425 -246 -295 -282 -333 -268 0
-224 -256 -425 -246 -282 -333 -268 0
-224 -256 -246 -295 -282 -333 -268 0
-224 -256 -246 -282 -333 -268 0
-224 -256 -246 -425 -295 -282 -333 -268 0
-224 -268 -333 -282 -295 -425 -246 0
-224 -268 -333 -282 -295 -425 -246 -256 0
-224 -268 -333 -282 -295 -425 -256 0
-224 -268 -333 -282 -295 -425 -256 -246 0
-224 -268 -333 -282 -295 -246 0
-224 -268 -333 -282 -295 -246 -425 -256 0
-224 -268 -333 -282 -295 -246 -256 0
-224 -268 -333 -282 -345 -295 -425 -256 0
-224 -268 -333 -282 -246 0
-224 -268 -333 -282 -246 -425 -256 0
-224 -268 -333 -282 -246 -256 0
-224 -268 -333 -282 -246 -295 -425 -256 0
-256 -224 -240 -268 -333 -282 -295 -425 0
-256 -224 -268 -333 -282 -295 -425 0
-256 -224 -268 -333 -282 -295 -425 -246 0
-256 -224 -268 -333 -282 -295 -246 0
-256 -224 -268 -333 -282 -295 -246 -425 0
-256 -224 -268 -333 -282 -345 -295 -425 0
-256 -224 -268 -333 -282 -246 0
-256 -224 -268 -333 -282 -246 -425 0
-256 -224 -268 -333 -282 -246 -295 -425 0
-256 -425 -295 -246 -282 -333 -268 0
-256 -425 -295 -246 -282 -333 -268 -406 0
-256 -425 -295 -246 -282 -333 -406 0
-256 -425 -295 -246 -282 -333 -406 -268 0
-256 -425 -295 -345 -282 -333 -268 0
-256 -425 -295 -345 -282 -333 -268 -406 0
-256 -425 -295 -345 -282 -333 -406 0
-256 -425 -295 -345 -282 -333 -406 -268 0
-256 -425 -295 -282 -333 -268 0
-256 -425 -295 -282 -333 -268 -240 -406 0
-256 -425 -295 -282 -333 -268 -406 0
-256 -425 -295 -282 -333 -406 0
-256 -425 -295 -282 -333 -406 -240 -410 0
-256 -425 -295 -282 -333 -406 -240 -268 0
-256 -425 -295 -282 -333 -406 -268 0
-256 -425 -246 -295 -282 -333 -268 0
-256 -425 -246 -295 -282 -333 -268 -406 0
-256 -425 -246 -295 -282 -333 -406 0
-256 -425 -246 -295 -282 -333 -406 -268 0
-256 -425 -246 -282 -333 -268 0
-256 -425 -246 -282 -333 -268 -406 0
-256 -425 -246 -282 -333 -406 0
-256 -425 -246 -282 -333 -406 -268 0
-256 -246 -295 -282 -333 -268 0
-256 -246 -295 -282 -333 -268 -406 0
-256 -246 -295 -282 -333 -406 0
-256 -246 -295 -282 -333 -406 -268 0
-256 -246 -282 -333 -268 0
-256 -246 -282 -333 -268 -406 0
-256 -246 -282 -333 -406 0
-256 -246 -282 -333 -406 -268 0
-256 -246 -425 -295 -282 -333 -268 0
-256 -246 -425 -295 -282 -333 -268 -406 0
-256 -246 -425 -295 -282 -333 -406 0
-256 -246 -425 -295 -282 -333 -406 -268 0
-295 -246 -256 -224 -268 -333 0
-295 -246 -256 -224 -268 -333 -282 0
-295 -246 -282 -333 -268 0
-295 -246 -282 -333 -268 -224 -256 -425 0
-295 -246 -282 -333 -268 -224 -256 -211 0
-295 -246 -282 -333 -406 -268 0
-295 -246 -425 -256 -224 -268 -333 0
-295 -246 -425 -256 -224 -268 -333 -282 0
-295 -345 -282 -333 -268 0
-295 -345 -282 -333 -268 -224 -256 -425 0
-295 -345 -282 -333 -268 -224 -256 -211 0
-295 -345 -282 -333 -406 -268 0
-295 -425 -256 -224 -240 -268 -333 0
-295 -425 -256 -224 -240 -268 -333 -282 0
-295 -425 -256 -224 -268 -333 0
-295 -425 -256 -224 -268 -333 -282 0
-295 -425 -256 -224 -268 -333 -282 -345 0
-295 -425 -256 -224 -268 -333 -282 -246 0
-295 -425 -256 -246 -282 -333 -268 0
-295 -425 -256 -246 -282 -333 -406 -268 0
-295 -425 -246 -256 -224 -268 -333 0
-295 -425 -246 -256 -224 -268 -333 -282 0
-295 -425 -246 -282 -333 -268 0
-295 -425 -246 -282 -333 -406 -268 0
-295 -282 -246 -256 -224 -268 -333 0
-295 -282 -246 -425 -256 -224 -268 -333 0
-295 -282 -333 -268 0
-295 -282 -333 -268 -240 -211 0
-295 -282 -333 -268 -240 -224 -256 -425 0
-295 -282 -333 -268 -240 -224 -256 -211 0
-295 -282 -333 -268 -406 -240 -211 0
-295 -282 -333 -268 -224 -256 -425 0
-295 -282 -333 -268 -224 -256 -425 -246 0
-295 -282 -333 -268 -224 -256 -211 0
-295 -282 -333 -268 -224 -256 -246 0
-295 -282 -333 -268 -224 -256 -246 -425 0
-295 -282 -333 -268 -224 -240 -211 0
-295 -282 -333 -406 -240 -410 -211 0
-295 -282 -333 -406 -240 -211 0
-295 -282 -333 -406 -240 -268 0
-295 -282 -333 -406 -268 0
-295 -282 -333 -406 -268 -240 -211 0
-282 -295 -246 -256 -224 -268 -333 0
-282 -295 -246 -425 -256 -224 -268 -333 0
-282 -295 -425 -256 -224 -240 -268 -333 0
-282 -295 -425 -256 -224 -268 -333 0
-282 -295 -425 -246 -256 -224 -268 -333 0
-282 -345 -295 -425 -256 -224 -268 -333 0
-282 -246 -256 -224 -268 -333 0
-282 -246 -295 -425 -256 -224 -268 -333 0
-282 -246 -425 -256 -224 -268 -333 0
-282 -333 -268 -240 -211 0
-282 -333 -268 -240 -224 -256 -425 0
-282 -333 -268 -240 -224 -256 -211 0
-282 -333 -268 -406 -240 -211 0
-282 -333 -268 -224 -256 -425 0
-282 -333 -268 -224 -256 -425 -246 0
-282 -333 -268 -224 -256 -425 -295 -246 0
-282 -333 -268 -224 -256 -425 -295 -345 0
-282 -333 -268 -224 -256 -211 0
-282 -333 -268 -224 -256 -246 0
-282 -333 -268 -224 -256 -246 -425 0
-282 -333 -268 -224 -256 -246 -295 -425 0
-282 -333 -268 -224 -240 -211 0
-282 -333 -406 -240 -410 -211 0
-282 -333 -406 -240 -211 0
-282 -333 -406 -268 -240 -211 0
-333 -268 -240 -224 -256 -425 -413 0
-333 -268 -224 -256 -425 -413 0
-333 -268 -224 -256 -425 -295 -282 -345 0
-333 -268 -224 -256 -425 -295 -345 0
-333 -268 -224 -256 -246 -425 -413 0
-333 -268 -224 -256 -246 -295 -425 -413 0
-433 -268 -224 -256 -425 -295 -282 -345 0
-433 -268 -224 -256 -425 -295 -345 0
-433 -224 -256 -425 -295 -282 -345 0
-433 -224 -256 -425 -295 -345 0
-406 -333 -282 -295 -425 -246 0
-406 -333 -282 -295 -425 -256 -246 0
-406 -333 -282 -295 -246 0
-406 -333 -282 -246 0
-406 -268 -333 -282 -295 -425 -246 0
-406 -268 -333 -282 -295 -425 -256 -246 0
-406 -268 -333 -282 -295 -246 0
-406 -268 -333 -282 -246 0
-410 -240 -406 -333 -282 -295 -425 0
-268 -333 -282 -295 -425 -246 0
-268 -333 -282 -295 -425 -256 -246 0
-268 -333 -282 -295 -246 0
-268 -333 -282 -246 0
-268 -406 -333 -282 -295 -425 -246 0
-268 -406 -333 -282 -295 -425 -256 -246 0
-268 -406 -333 -282 -295 -246 0
-268 -406 -333 -282 -246 0
-211 -256 -224 -268 -333 -282 -295 -246 0
-211 -256 -224 -268 -333 -282 -246 0
-425 -256 -224 -268 -333 -282 -295 -246 0
-425 -256 -224 -268 -333 -282 -246 0
-425 -295 -282 -333 -268 -224 -256 -246 0
-9 -177 435 0
-10 -178 435 0
-11 -179 435 0
-12 -180 435 0
-13 -181 435 0
-14 -182 435 0
-15 -183 435 0
-16 -184 435 0
-236 -435 -250 -411 0
-236 -435 -281 -306 -250 -411 0
-236 -435 -281 -295 -250 -411 0
-236 -435 -281 -250 -411 0
-236 -435 -295 -250 -411 0
-236 -435 -295 -281 -250 -411 0
-415 -213 -240 -268 -370 -423 -281 0
-415 -213 -240 -268 -370 -423 -281 -306 0
-415 -213 -240 -268 -370 -423 -281 -429 -306 0
-415 -213 -240 -268 -370 -423 -295 -281 0
-415 -213 -268 -370 -423 -281 0
-415 -213 -268 -370 -423 -281 -343 -306 0
-415 -213 -268 -370 -423 -281 -250 -306 0
-415 -213 -268 -370 -423 -281 -250 -429 -306 0
-415 -213 -268 -370 -423 -281 -306 0
-415 -213 -268 -370 -423 -281 -429 -306 0
-415 -213 -268 -370 -423 -281 -429 -250 -306 0
-415 -213 -268 -370 -423 -295 -281 0
-415 -213 -268 -370 -423 -295 -250 -281 0
-415 -213 -268 -370 -423 -295 -250 -429 -281 0
-415 -213 -268 -370 -423 -295 -343 -281 0
-415 -213 -268 -370 -423 -343 -281 0
-415 -213 -268 -370 -423 -343 -281 -306 0
-415 -213 -268 -370 -423 -343 -281 -429 -306 0
-415 -213 -268 -370 -423 -343 -295 -281 0
-415 -213 -268 -370 -423 -343 -306 0
-415 -213 -268 -370 -423 -343 -306 -281 0
-415 -213 -268 -370 -423 -343 -306 -429 -281 0
-415 -240 -213 -268 -370 -423 -281 0
-415 -240 -213 -268 -370 -423 -281 -306 0
-415 -240 -213 -268 -370 -423 -281 -429 -306 0
-415 -240 -213 -268 -370 -423 -295 -281 0
-415 -240 -268 -370 -423 -281 0
-415 -240 -268 -370 -423 -281 -306 0
-415 -240 -268 -370 -423 -281 -429 -306 0
-415 -240 -268 -370 -423 -295 -281 0
-213 -415 -240 -268 -370 -423 -281 0
-213 -415 -240 -268 -370 -423 -281 -306 0
-213 -415 -240 -268 -370 -423 -281 -429 -306 0
-213 -415 -240 -268 -370 -423 -281 -295 0
-213 -415 -240 -268 -370 -423 -295 0
-213 -415 -240 -268 -370 -423 -295 -281 0
-213 -240 -268 -370 -423 -281 0
-213 -240 -268 -370 -423 -281 -306 0
-213 -240 -268 -370 -423 -281 -429 -306 0
-213 -240 -268 -370 -423 -281 -295 0
-213 -240 -268 -370 -423 -295 0
-213 -240 -268 -370 -423 -295 -281 0
-213 -240 -268 -365 -373 0
-213 -240 -226 -268 -365 -373 0
-213 -268 -370 -423 -281 0
-213 -268 -370 -423 -281 -343 -295 0
-213 -268 -370 -423 -281 -343 -306 0
-213 -268 -370 -423 -281 -250 -295 0
-213 -268 -370 -423 -281 -250 -306 0
-213 -268 -370 -423 -281 -250 -429 -306 0
-213 -268 -370 -423 -281 -306 0
-213 -268 -370 -423 -281 -429 -306 0
-213 -268 -370 -423 -281 -429 -250 -295 0
-213 -268 -370 -423 -281 -429 -250 -306 0
-213 -268 -370 -423 -281 -295 0
-213 -268 -370 -423 -295 0
-213 -268 -370 -423 -295 -281 0
-213 -268 -370 -423 -295 -250 -281 0
-213 -268 -370 -423 -295 -250 -429 -281 0
-213 -268 -370 -423 -295 -343 -281 0
-213 -268 -370 -423 -343 -281 0
-213 -268 -370 -423 -343 -281 -306 0
-213 -268 -370 -423 -343 -281 -429 -306 0
-213 -268 -370 -423 -343 -281 -295 0
-213 -268 -370 -423 -343 -295 0
-213 -268 -370 -423 -343 -295 -281 0
-213 -268 -370 -423 -343 -306 0
-213 -268 -370 -423 -343 -306 -281 0
-213 -268 -370 -423 -343 -306 -429 -281 0
-213 -268 -365 -373 0
-240 -213 -268 -370 -423 -281 0
-240 -213 -268 -370 -423 -281 -429 0
-240 -213 -268 -370 -423 -281 -429 -306 0
-240 -213 -268 -370 -423 -281 -306 0
-240 -213 -268 -370 -423 -281 -306 -429 0
-240 -213 -268 -370 -423 -281 -295 0
-240 -213 -268 -370 -423 -295 0
-240 -213 -268 -370 -423 -295 -281 0
-240 -213 -268 -370 -423 -295 -281 -429 0
-240 -268 -370 -423 -281 0
-240 -268 -370 -423 -281 -429 0
-240 -268 -370 -423 -281 -429 -306 0
-240 -268 -370 -423 -281 -306 0
-240 -268 -370 -423 -281 -306 -429 0
-240 -268 -370 -423 -281 -295 0
-240 -268 -370 -423 -295 0
-240 -268 -370 -423 -295 -281 0
-240 -268 -370 -423 -295 -281 -429 0
-240 -415 -213 -268 -370 -423 -281 0
-240 -415 -213 -268 -370 -423 -281 -429 0
-240 -415 -213 -268 -370 -423 -281 -429 -306 0
-240 -415 -213 -268 -370 -423 -281 -306 0
-240 -415 -213 -268 -370 -423 -281 -306 -429 0
-240 -415 -213 -268 -370 -423 -281 -295 0
-240 -415 -213 -268 -370 -423 -295 0
-240 -415 -213 -268 -370 -423 -295 -281 0
-240 -415 -213 -268 -370 -423 -295 -281 -429 0
-213 -240 -268 -370 -423 -281 -429 0
-213 -240 -268 -370 -423 -281 -306 -429 0
-213 -240 -268 -370 -423 -295 -281 -429 0
-213 -415 -240 -268 -370 -423 -281 -429 0
-213 -415 -240 -268 -370 -423 -281 -306 -429 0
-213 -415 -240 -268 -370 -423 -295 -281 -429 0
-213 -268 -370 -423 -281 -429 0
-213 -268 -370 -423 -281 -429 -250 0
-213 -268 -370 -423 -281 -429 -306 -250 0
-213 -268 -370 -423 -281 -306 -429 0
-213 -268 -370 -423 -281 -306 -429 -250 0
-213 -268 -370 -423 -281 -306 -250 0
-213 -268 -370 -423 -281 -306 -250 -429 0
-213 -268 -370 -423 -281 -306 -250 -411 0
-213 -268 -370 -423 -281 -295 -250 0
-213 -268 -370 -423 -281 -295 -250 -429 0
-213 -268 -370 -423 -281 -295 -250 -411 0
-213 -268 -370 -423 -281 -343 -306 -429 0
-213 -268 -370 -423 -281 -250 0
-213 -268 -370 -423 -281 -250 -429 0
-213 -268 -370 -423 -281 -250 -306 -429 0
-213 -268 -370 -423 -281 -250 -411 0
-213 -268 -370 -423 -343 -281 -429 0
-213 -268 -370 -423 -343 -281 -306 -429 0
-213 -268 -370 -423 -343 -295 -281 -429 0
-213 -268 -370 -423 -343 -306 -429 0
-213 -268 -370 -423 -343 -306 -281 -429 0
-213 -268 -370 -423 -295 -250 0
-213 -268 -370 -423 -295 -250 -429 0
-213 -268 -370 -423 -295 -250 -411 0
-213 -268 -370 -423 -295 -250 -281 -429 0
-213 -268 -370 -423 -295 -281 -429 0
-213 -268 -370 -423 -295 -281 -429 -250 0
-213 -268 -370 -423 -295 -281 -250 0
-213 -268 -370 -423 -295 -281 -250 -429 0
-213 -268 -370 -423 -295 -281 -250 -411 0
-213 -268 -370 -423 -295 -343 -281 -429 0
-295 -423 -370 -268 0
-295 -281 -343 -423 -370 -268 0
-295 -281 -423 -370 -268 0
-295 -250 -281 -423 -370 -268 0
-295 -250 -429 -281 -423 -370 -268 0
-295 -343 -281 -423 -370 -268 0
-295 -343 -423 -370 -268 0
-370 -423 -281 -306 -250 -411 0
-370 -423 -281 -295 -250 -411 0
-370 -423 -281 -250 -411 0
-370 -423 -295 -250 -411 0
-370 -423 -295 -281 -250 -411 0
-268 -370 -423 -281 -429 -250 0
-268 -370 -423 -281 -429 -250 -306 0
-268 -370 -423 -281 -429 -306 0
-268 -370 -423 -281 -429 -306 -250 0
-268 -370 -423 -281 -306 0
-268 -370 -423 -281 -306 -429 -250 0
-268 -370 -423 -281 -306 -250 0
-268 -370 -423 -281 -306 -250 -411 0
-268 -370 -423 -281 -295 -250 0
-268 -370 -423 -281 -295 -250 -411 0
-268 -370 -423 -281 -343 -306 0
-268 -370 -423 -281 -250 0
-268 -370 -423 -281 -250 -429 -306 0
-268 -370 -423 -281 -250 -306 0
-268 -370 -423 -281 -250 -411 0
-268 -370 -423 -343 -281 -429 -306 0
-268 -370 -423 -343 -281 -306 0
-268 -370 -423 -343 -306 0
-268 -370 -423 -295 -250 0
-268 -370 -423 -295 -250 -411 0
-268 -370 -423 -295 -281 -429 -250 0
-268 -370 -423 -295 -281 -250 0
-268 -370 -423 -295 -281 -250 -411 0
-415 -240 -213 -268 -370 -423 -281 -429 0
-415 -240 -213 -268 -370 -423 -281 -306 -429 0
-415 -240 -213 -268 -370 -423 -295 -281 -429 0
-415 -240 -268 -370 -423 -281 -429 0
-415 -240 -268 -370 -423 -281 -306 -429 0
-415 -240 -268 -370 -423 -295 -281 -429 0
-415 -213 -240 -268 -370 -423 -281 -429 0
-415 -213 -240 -268 -370 -423 -281 -306 -429 0
-415 -213 -240 -268 -370 -423 -295 -281 -429 0
-415 -213 -268 -370 -423 -281 -429 0
-415 -213 -268 -370 -423 -281 -429 -250 0
-415 -213 -268 -370 -423 -281 -429 -306 -250 0
-415 -213 -268 -370 -423 -281 -306 -429 0
-415 -213 -268 -370 -423 -281 -306 -429 -250 0
-415 -213 -268 -370 -423 -281 -306 -250 0
-415 -213 -268 -370 -423 -281 -306 -250 -429 0
-415 -213 -268 -370 -423 -281 -295 -250 0
-415 -213 -268 -370 -423 -281 -295 -250 -429 0
-415 -213 -268 -370 -423 -281 -343 -306 -429 0
-415 -213 -268 -370 -423 -281 -250 0
-415 -213 -268 -370 -423 -281 -250 -429 0
-415 -213 -268 -370 -423 -281 -250 -306 -429 0
-415 -213 -268 -370 -423 -343 -281 -429 0
-415 -213 -268 -370 -423 -343 -281 -306 -429 0
-415 -213 -268 -370 -423 -343 -295 -281 -429 0
-415 -213 -268 -370 -423 -343 -306 -429 0
-415 -213 -268 -370 -423 -343 -306 -281 -429 0
-415 -213 -268 -370 -423 -295 -250 0
-415 -213 -268 -370 -423 -295 -250 -429 0
-415 -213 -268 -370 -423 -295 -250 -281 -429 0
-415 -213 -268 -370 -423 -295 -281 -429 0
-415 -213 -268 -370 -423 -295 -281 -429 -250 0
-415 -213 -268 -370 -423 -295 -281 -250 0
-415 -213 -268 -370 -423 -295 -281 -250 -429 0
-415 -213 -268 -370 -423 -295 -343 -281 -429 0
-417 -276 -227 -262 -365 0
-417 -276 -227 -262 -430 -365 0
-417 -276 -227 -365 0
-417 -192 -276 -227 -262 -365 0
-417 -192 -276 -227 -262 -430 -365 0
-417 -192 -276 -227 -365 0
-192 -417 -276 -227 -252 -262 0
-192 -417 -276 -227 -262 0
-192 -417 -276 -227 -262 -365 0
-192 -417 -276 -227 -262 -430 -365 0
-192 -417 -276 -227 -365 0
-192 -417 -276 -227 -365 -262 0
-192 -417 -276 -227 -365 -430 -262 0
-192 -249 -417 -276 -227 -262 0
-192 -276 -227 -252 -262 0
-192 -276 -227 -262 0
-192 -276 -227 -262 -365 0
-192 -276 -227 -262 -430 -365 0
-192 -276 -227 -365 0
-192 -276 -227 -365 -262 0
-192 -276 -227 -365 -430 -262 0
-249 -417 -276 -227 0
-249 -417 -276 -227 -262 0
-249 -417 -276 -227 -262 -430 0
-249 -417 -192 -276 -227 0
-249 -417 -192 -276 -227 -262 0
-249 -417 -192 -276 -227 -262 -430 0
-249 -192 -417 -276 -227 0
-249 -192 -417 -276 -227 -262 0
-249 -192 -417 -276 -227 -262 -430 0
-249 -192 -276 -227 0
-249 -192 -276 -227 -262 0
-249 -192 -276 -227 -262 -430 0
-249 -304 -192 -276 -227 0
-249 -304 -192 -276 -227 -262 0
-249 -304 -192 -276 -227 -262 -430 0
-289 -249 -417 -276 -227 0
-289 -249 -417 -276 -227 -262 0
-289 -249 -417 -192 -276 -227 0
-289 -249 -417 -192 -276 -227 -262 0
-289 -249 -192 -417 -276 -227 0
-289 -249 -192 -417 -276 -227 -262 0
-289 -249 -192 -276 -227 0
-289 -249 -192 -276 -227 -262 0
-289 -249 -304 -192 -276 -227 0
-289 -249 -304 -192 -276 -227 -262 0
-304 -192 -276 -227 -262 -365 0
-304 -192 -276 -227 -262 -430 -365 0
-304 -192 -276 -227 -365 0
-262 -252 -227 -276 -192 -304 0
-262 -365 -227 -276 -192 -304 0
-262 -430 -365 -227 -276 -192 -304 0
-262 -227 -276 -192 -249 -304 0
-262 -227 -276 -192 -304 0
-309 -378 -392 -339 0
-199 -282 -328 -336 -305 0
-199 -282 -328 -393 -336 -305 0
-199 -282 -328 -305 0
-408 -256 -211 -243 -409 -333 -337 -405 -305 0
-408 -256 -211 -243 -409 -337 -328 -405 -305 0
-408 -256 -211 -243 -409 -337 -328 -305 0
-408 -256 -211 -243 -409 -337 -405 -328 -305 0
-408 -256 -211 -243 -409 -337 -405 -305 0
-408 -256 -243 -269 -337 -328 -405 -305 0
-408 -256 -243 -269 -337 -328 -305 0
-408 -256 -243 -269 -337 -405 -328 -305 0
-408 -256 -243 -269 -337 -405 -305 0
-408 -256 -243 -269 -337 -393 -328 -305 0
-408 -256 -243 -269 -409 -333 -337 -405 -305 0
-408 -256 -243 -269 -409 -337 -328 -405 -305 0
-408 -256 -243 -269 -409 -337 -328 -305 0
-408 -256 -243 -269 -409 -337 -405 -328 -305 0
-408 -256 -243 -269 -409 -337 -405 -305 0
-408 -256 -243 -409 -333 -337 -405 -305 0
-408 -256 -243 -409 -269 -337 -328 -405 -305 0
-408 -256 -243 -409 -269 -337 -328 -305 0
-408 -256 -243 -409 -269 -337 -405 -328 -305 0
-408 -256 -243 -409 -269 -337 -405 -305 0
-408 -256 -243 -409 -337 -328 -405 -305 0
-408 -256 -243 -409 -337 -328 -305 0
-408 -256 -243 -409 -337 -405 -328 -305 0
-408 -256 -243 -409 -337 -405 -305 0
-408 -256 -269 -243 -409 -333 -337 -405 -305 0
-408 -256 -269 -243 -409 -337 -328 -405 -305 0
-408 -256 -269 -243 -409 -337 -328 -305 0
-408 -256 -269 -243 -409 -337 -405 -328 -305 0
-408 -256 -269 -243 -409 -337 -405 -305 0
-408 -256 -269 -337 -328 -405 -305 0
-408 -256 -269 -337 -328 -305 0
-408 -256 -269 -337 -405 -328 -305 0
-408 -256 -269 -337 -405 -305 0
-408 -256 -269 -337 -393 -328 -305 0
-408 -256 -269 -409 -333 -337 -405 -305 0
-408 -256 -269 -409 -337 -328 -405 -305 0
-408 -256 -269 -409 -337 -328 -305 0
-408 -256 -269 -409 -337 -405 -328 -305 0
-408 -256 -269 -409 -337 -405 -305 0
-417 -256 -211 -243 -409 -333 -337 0
-417 -256 -211 -243 -409 -337 0
-417 -256 -211 -243 -409 -337 -328 0
-417 -256 -211 -243 -409 -337 -328 -305 0
-417 -256 -411 -366 0
-417 -256 -243 -269 -337 0
-417 -256 -243 -269 -337 -328 0
-417 -256 -243 -269 -337 -328 -305 0
-417 -256 -243 -269 -366 0
-417 -256 -243 -269 -409 -333 -337 0
-417 -256 -243 -269 -409 -337 0
-417 -256 -243 -269 -409 -337 -328 0
-417 -256 -243 -269 -409 -337 -328 -305 0
-417 -256 -243 -409 -333 -337 0
-417 -256 -243 -409 -269 -337 0
-417 -256 -243 -409 -269 -337 -328 0
-417 -256 -243 -409 -269 -337 -328 -305 0
-417 -256 -243 -409 -269 -366 0
-417 -256 -243 -409 -337 0
-417 -256 -243 -409 -337 -328 0
-417 -256 -243 -409 -337 -328 -305 0
-417 -256 -269 -243 -409 -333 -337 0
-417 -256 -269 -243 -409 -337 0
-417 -256 -269 -243 -409 -337 -328 0
-417 -256 -269 -243 -409 -337 -328 -305 0
-417 -256 -269 -337 0
-417 -256 -269 -337 -328 0
-417 -256 -269 -337 -328 -305 0
-417 -256 -269 -366 0
-417 -256 -269 -409 -333 -337 0
-417 -256 -269 -409 -337 0
-417 -256 -269 -409 -337 -328 0
-417 -256 -269 -409 -337 -328 -305 0
-199 -217 -337 -328 -305 0
-199 -217 -337 -393 -328 -305 0
-199 -217 -337 -393 -381 -328 -305 0
-211 -243 -409 -337 -328 -381 0
-211 -243 -409 -337 -405 -328 -381 0
-211 -243 -409 -337 -405 -305 -328 -381 0
-256 -211 -243 -409 -333 -337 -405 0
-256 -211 -243 -409 -333 -337 -405 -305 0
-256 -211 -243 -409 -337 -328 0
-256 -211 -243 -409 -337 -328 -405 0
-256 -211 -243 -409 -337 -328 -405 -305 0
-256 -211 -243 -409 -337 -328 -305 0
-256 -211 -243 -409 -337 -328 -305 -413 0
-256 -211 -243 -409 -337 -328 -305 -405 0
-256 -211 -243 -409 -337 -405 0
-256 -211 -243 -409 -337 -405 -328 0
-256 -211 -243 -409 -337 -405 -328 -305 0
-256 -211 -243 -409 -337 -405 -305 0
-256 -211 -243 -409 -337 -405 -305 -328 0
-256 -243 -269 -337 -328 0
-256 -243 -269 -337 -328 -405 0
-256 -243 -269 -337 -328 -405 -305 0
-256 -243 -269 -337 -328 -393 0
-256 -243 -269 -337 -328 -305 0
-256 -243 -269 -337 -328 -305 -413 0
-256 -243 -269 -337 -328 -305 -405 0
-256 -243 -269 -337 -405 0
-256 -243 -269 -337 -405 -328 0
-256 -243 -269 -337 -405 -328 -305 0
-256 -243 -269 -337 -405 -305 0
-256 -243 -269 -337 -405 -305 -328 0
-256 -243 -269 -337 -393 0
-256 -243 -269 -337 -393 -328 0
-256 -243 -269 -337 -393 -328 -305 0
-256 -243 -269 -337 -393 -328 -305 -413 0
-256 -243 -269 -366 -401 0
-256 -243 -269 -409 -333 -337 -405 0
-256 -243 -269 -409 -333 -337 -405 -305 0
-256 -243 -269 -409 -337 -328 0
-256 -243 -269 -409 -337 -328 -405 0
-256 -243 -269 -409 -337 -328 -405 -305 0
-256 -243 -269 -409 -337 -328 -305 0
-256 -243 -269 -409 -337 -328 -305 -413 0
-256 -243 -269 -409 -337 -328 -305 -405 0
-256 -243 -269 -409 -337 -405 0
-256 -243 -269 -409 -337 -405 -328 0
-256 -243 -269 -409 -337 -405 -328 -305 0
-256 -243 -269 -409 -337 -405 -305 0
-256 -243 -269 -409 -337 -405 -305 -328 0
-256 -243 -409 -333 -337 -405 0
-256 -243 -409 -333 -337 -405 -305 0
-256 -243 -409 -269 -337 -328 0
-256 -243 -409 -269 -337 -328 -405 0
-256 -243 -409 -269 -337 -328 -405 -305 0
-256 -243 -409 -269 -337 -328 -305 0
-256 -243 -409 -269 -337 -328 -305 -413 0
-256 -243 -409 -269 -337 -328 -305 -405 0
-256 -243 -409 -269 -337 -405 0
-256 -243 -409 -269 -337 -405 -328 0
-256 -243 -409 -269 -337 -405 -328 -305 0
-256 -243 -409 -269 -337 -405 -305 0
-256 -243 -409 -269 -337 -405 -305 -328 0
-256 -243 -409 -269 -366 -401 0
-256 -243 -409 -337 -328 0
-256 -243 -409 -337 -328 -405 0
-256 -243 -409 -337 -328 -405 -305 0
-256 -243 -409 -337 -328 -305 0
-256 -243 -409 -337 -328 -305 -413 0
-256 -243 -409 -337 -328 -305 -405 0
-256 -243 -409 -337 -405 0
-256 -243 -409 -337 -405 -328 0
-256 -243 -409 -337 -405 -328 -305 0
-256 -243 -409 -337 -405 -305 0
-256 -243 -409 -337 -405 -305 -328 0
-256 -269 -243 -409 -333 -337 -405 0
-256 -269 -243 -409 -333 -337 -405 -305 0
-256 -269 -243 -409 -337 -328 0
-256 -269 -243 -409 -337 -328 -405 0
-256 -269 -243 -409 -337 -328 -405 -305 0
-256 -269 -243 -409 -337 -328 -305 0
-256 -269 -243 -409 -337 -328 -305 -413 0
-256 -269 -243 -409 -337 -328 -305 -405 0
-256 -269 -243 -409 -337 -405 0
-256 -269 -243 -409 -337 -405 -328 0
-256 -269 -243 -409 -337 -405 -328 -305 0
-256 -269 -243 -409 -337 -405 -305 0
-256 -269 -243 -409 -337 -405 -305 -328 0
-256 -269 -337 -328 0
-256 -269 -337 -328 -405 0
-256 -269 -337 -328 -405 -305 0
-256 -269 -337 -328 -393 0
-256 -269 -337 -328 -305 0
-256 -269 -337 -328 -305 -413 0
-256 -269 -337 -328 -305 -405 0
-256 -269 -337 -405 0
-256 -269 -337 -405 -328 0
-256 -269 -337 -405 -328 -305 0
-256 -269 -337 -405 -305 0
-256 -269 -337 -405 -305 -328 0
-256 -269 -337 -393 0
-256 -269 -337 -393 -328 0
-256 -269 -337 -393 -328 -305 0
-256 -269 -337 -393 -328 -305 -413 0
-256 -269 -366 -401 0
-256 -269 -409 -333 -337 -405 0
-256 -269 -409 -333 -337 -405 -305 0
-256 -269 -409 -337 -328 0
-256 -269 -409 -337 -328 -405 0
-256 -269 -409 -337 -328 -405 -305 0
-256 -269 -409 -337 -328 -305 0
-256 -269 -409 -337 -328 -305 -413 0
-256 -269 -409 -337 -328 -305 -405 0
-256 -269 -409 -337 -405 0
-256 -269 -409 -337 -405 -328 0
-256 -269 -409 -337 -405 -328 -305 0
-256 -269 -409 -337 -405 -305 0
-256 -269 -409 -337 -405 -305 -328 0
-243 -256 -269 -337 -328 0
-243 -256 -269 -337 -405 -328 0
-243 -256 -269 -337 -405 -305 -328 0
-243 -256 -269 -337 -393 -328 0
-243 -256 -269 -409 -337 -328 0
-243 -256 -269 -409 -337 -405 -328 0
-243 -256 -269 -409 -337 -405 -305 -328 0
-243 -269 -337 -328 0
-243 -269 -337 -328 -393 -381 0
-243 -269 -337 -328 -381 0
-243 -269 -337 -405 -328 0
-243 -269 -337 -405 -328 -381 0
-243 -269 -337 -405 -305 -328 0
-243 -269 -337 -405 -305 -328 -381 0
-243 -269 -337 -393 -381 0
-243 -269 -337 -393 -381 -328 0
-243 -269 -337 -393 -328 0
-243 -269 -337 -393 -328 -381 0
-243 -269 -409 -337 -328 0
-243 -269 -409 -337 -328 -381 0
-243 -269 -409 -337 -405 -328 0
-243 -269 -409 -337 -405 -328 -381 0
-243 -269 -409 -337 -405 -305 -328 0
-243 -269 -409 -337 -405 -305 -328 -381 0
-243 -409 -269 -337 -328 0
-243 -409 -269 -337 -328 -381 0
-243 -409 -269 -337 -405 -328 0
-243 -409 -269 -337 -405 -328 -381 0
-243 -409 -269 -337 -405 -305 -328 0
-243 -409 -269 -337 -405 -305 -328 -381 0
-243 -409 -337 -328 0
-243 -409 -337 -328 -381 0
-243 -409 -337 -405 -328 0
-243 -409 -337 -405 -328 -381 0
-243 -409 -337 -405 -305 -328 0
-243 -409 -337 -405 -305 -328 -381 0
-305 -405 -328 -337 -269 -243 -256 -411 0
-305 -405 -328 -337 -269 -256 -411 0
-305 -405 -337 -269 -243 -256 -411 0
-305 -405 -337 -269 -256 -411 0
-305 -328 -405 -337 -269 -243 -256 -411 0
-305 -328 -405 -337 -269 -256 -411 0
-305 -328 -337 -269 -243 -256 -411 0
-305 -328 -337 -269 -243 -256 -232 0
-305 -328 -337 -269 -256 -411 0
-305 -328 -337 -269 -256 -232 0
-305 -328 -393 -337 -269 -243 -256 -411 0
-305 -328 -393 -337 -269 -256 -411 0
-269 -243 -409 -337 -328 -381 0
-269 -243 -409 -337 -405 -328 -381 0
-269 -243 -409 -337 -405 -305 -328 -381 0
-269 -337 -328 -393 -381 0
-269 -337 -328 -381 0
-269 -337 -405 -328 -381 0
-269 -337 -405 -305 -328 -381 0
-269 -337 -393 -381 0
-269 -337 -393 -328 -381 0
-269 -409 -337 -328 -381 0
-269 -409 -337 -405 -328 -381 0
-269 -409 -337 -405 -305 -328 -381 0
-217 -333 -337 -269 -256 -243 0
-217 -333 -337 -269 -243 0
-217 -337 -269 -256 -243 0
-217 -337 -269 -243 0
-232 -256 -243 -269 -337 0
-232 -256 -243 -269 -337 -328 0
-232 -256 -243 -269 -366 0
-232 -256 -269 -337 0
-232 -256 -269 -337 -328 0
-232 -256 -269 -366 0
-337 -269 -243 -256 -232 -357 0
-337 -269 -256 -232 -357 0
-243 -256 -269 -337 -405 0
-243 -256 -269 -337 -405 -305 0
-243 -256 -269 -337 -405 -328 -305 0
-243 -256 -269 -337 -328 -405 0
-243 -256 -269 -337 -328 -405 -305 0
-243 -256 -269 -337 -328 -305 0
-243 -256 -269 -337 -328 -305 -413 0
-243 -256 -269 -337 -328 -305 -405 0
-243 -256 -269 -337 -393 -328 -305 0
-243 -256 -269 -337 -393 -328 -305 -413 0
-243 -256 -269 -409 -333 -337 -405 0
-243 -256 -269 -409 -333 -337 -405 -305 0
-243 -256 -269 -409 -337 -405 0
-243 -256 -269 -409 -337 -405 -305 0
-243 -256 -269 -409 -337 -405 -328 -305 0
-243 -256 -269 -409 -337 -328 -405 0
-243 -256 -269 -409 -337 -328 -405 -305 0
-243 -256 -269 -409 -337 -328 -305 0
-243 -256 -269 -409 -337 -328 -305 -413 0
-243 -256 -269 -409 -337 -328 -305 -405 0
-243 -269 -337 -405 0
-243 -269 -337 -405 -305 0
-243 -269 -337 -405 -328 -305 0
-243 -269 -337 -328 -405 0
-243 -269 -337 -328 -405 -305 0
-243 -269 -337 -328 -305 0
-243 -269 -337 -328 -305 -413 0
-243 -269 -337 -328 -305 -405 0
-243 -269 -337 -393 -328 -305 0
-243 -269 -337 -393 -328 -305 -413 0
-243 -269 -337 -393 -381 -328 -305 0
-243 -269 -337 -393 -381 -328 -305 -413 0
-243 -269 -409 -333 -337 -405 0
-243 -269 -409 -333 -337 -405 -305 0
-243 -269 -409 -337 -405 0
-243 -269 -409 -337 -405 -305 0
-243 -269 -409 -337 -405 -328 -305 0
-243 -269 -409 -337 -328 -405 0
-243 -269 -409 -337 -328 -405 -305 0
-243 -269 -409 -337 -328 -305 0
-243 -269 -409 -337 -328 -305 -413 0
-243 -269 -409 -337 -328 -305 -405 0
-243 -409 -333 -337 -405 0
-243 -409 -333 -337 -405 -305 0
-243 -409 -337 -405 0
-243 -409 -337 -405 -305 0
-243 -409 -337 -405 -328 -305 0
-243 -409 -337 -328 -405 0
-243 -409 -337 -328 -405 -305 0
-243 -409 -337 -328 -305 0
-243 -409 -337 -328 -305 -413 0
-243 -409 -337 -328 -305 -405 0
-243 -409 -269 -337 -405 0
-243 -409 -269 -337 -405 -305 0
-243 -409 -269 -337 -405 -328 -305 0
-243 -409 -269 -337 -328 -405 0
-243 -409 -269 -337 -328 -405 -305 0
-243 -409 -269 -337 -328 -305 0
-243 -409 -269 -337 -328 -305 -413 0
-243 -409 -269 -337 -328 -305 -405 0
-328 -337 -269 -256 -243 -285 0
-328 -337 -269 -243 -285 0
-337 -269 -256 -243 -285 0
-337 -269 -243 -285 0
-333 -337 -269 -256 -243 -285 0
-333 -337 -269 -243 -285 0
-357 -232 -256 -243 -269 0
-357 -232 -256 -243 -269 -366 0
-357 -232 -256 -269 0
-357 -232 -256 -269 -366 0
-285 -243 -256 -269 -337 -328 -305 0
-285 -243 -269 -337 -328 -305 0
-211 -243 -409 -333 -337 -405 0
-211 -243 -409 -333 -337 -405 -305 0
-211 -243 -409 -337 -405 0
-211 -243 -409 -337 -405 -305 0
-211 -243 -409 -337 -405 -328 -305 0
-211 -243 -409 -337 -328 -405 0
-211 -243 -409 -337 -328 -405 -305 0
-211 -243 -409 -337 -328 -305 0
-211 -243 -409 -337 -328 -305 -413 0
-211 -243 -409 -337 -328 -305 -405 0
-211 -256 -243 -409 -333 -337 -405 0
-211 -256 -243 -409 -333 -337 -405 -305 0
-211 -256 -243 -409 -337 -405 0
-211 -256 -243 -409 -337 -405 -305 0
-211 -256 -243 -409 -337 -405 -328 -305 0
-211 -256 -243 -409 -337 -328 -405 0
-211 -256 -243 -409 -337 -328 -405 -305 0
-211 -256 -243 -409 -337 -328 -305 0
-211 -256 -243 -409 -337 -328 -305 -413 0
-211 -256 -243 -409 -337 -328 -305 -405 0
-269 -337 -405 -305 0
-269 -337 -405 -328 -305 0
-269 -337 -328 -405 -305 0
-269 -337 -328 -305 0
-269 -337 -393 -328 -305 0
-269 -337 -393 -381 -328 -305 0
-269 -243 -409 -333 -337 -405 -305 0
-269 -243 -409 -337 -405 -305 0
-269 -243 -409 -337 -405 -328 -305 0
-269 -243 -409 -337 -328 -405 -305 0
-269 -243 -409 -337 -328 -305 0
-269 -409 -333 -337 -405 -305 0
-269 -409 -337 -405 -305 0
-269 -409 -337 -405 -328 -305 0
-269 -409 -337 -328 -405 -305 0
-269 -409 -337 -328 -305 0
-269 -256 -243 -409 -333 -337 -405 -305 0
-269 -256 -243 -409 -337 -405 -305 0
-269 -256 -243 -409 -337 -405 -328 -305 0
-269 -256 -243 -409 -337 -328 -405 -305 0
-269 -256 -243 -409 -337 -328 -305 0
-233 -194 -282 -423 -336 -305 0
-233 -194 -282 -423 -374 -336 -305 0
-233 -194 -282 -423 -305 0
-243 -211 -210 -263 -370 -374 0
-243 -211 -210 -263 -374 0
-243 -211 -256 -272 -305 0
-243 -210 -263 -370 -374 0
-243 -210 -263 -374 0
-243 -256 -272 -305 0
-243 -416 -210 -263 -370 -374 0
-243 -416 -210 -263 -374 0
-243 -416 -256 -272 -305 0
-194 -282 -263 -210 0
-194 -282 -263 -210 -243 0
-263 -370 -374 -336 -413 -305 0
-263 -370 -374 -336 -305 0
-263 -374 -336 -413 -305 0
-263 -374 -336 -305 0
-243 -210 -263 -282 0
-243 -211 -210 -263 -282 0
-243 -416 -210 -263 -282 0
-282 -263 -210 -211 0
-282 -263 -210 -243 -211 0
-370 -374 -336 -413 -305 -272 0
-370 -374 -336 -305 -272 0
-374 -336 -413 -305 -272 0
-374 -336 -305 -272 0
