c nonrepetitive square spiral:41 colours 5 base<=8 lazy<=12
p cnf 859 20251
1 2 3 4 5 0
-1 -2 0
-1 -3 0
-1 -4 0
-1 -5 0
-2 -3 0
-2 -4 0
-2 -5 0
-3 -4 0
-3 -5 0
-4 -5 0
6 7 8 9 10 0
-6 -7 0
-6 -8 0
-6 -9 0
-6 -10 0
-7 -8 0
-7 -9 0
-7 -10 0
-8 -9 0
-8 -10 0
-9 -10 0
11 12 13 14 15 0
-11 -12 0
-11 -13 0
-11 -14 0
-11 -15 0
-12 -13 0
-12 -14 0
-12 -15 0
-13 -14 0
-13 -15 0
-14 -15 0
16 17 18 19 20 0
-16 -17 0
-16 -18 0
-16 -19 0
-16 -20 0
-17 -18 0
-17 -19 0
-17 -20 0
-18 -19 0
-18 -20 0
-19 -20 0
21 22 23 24 25 0
-21 -22 0
-21 -23 0
-21 -24 0
-21 -25 0
-22 -23 0
-22 -24 0
-22 -25 0
-23 -24 0
-23 -25 0
-24 -25 0
26 27 28 29 30 0
-26 -27 0
-26 -28 0
-26 -29 0
-26 -30 0
-27 -28 0
-27 -29 0
-27 -30 0
-28 -29 0
-28 -30 0
-29 -30 0
31 32 33 34 35 0
-31 -32 0
-31 -33 0
-31 -34 0
-31 -35 0
-32 -33 0
-32 -34 0
-32 -35 0
-33 -34 0
-33 -35 0
-34 -35 0
36 37 38 39 40 0
-36 -37 0
-36 -38 0
-36 -39 0
-36 -40 0
-37 -38 0
-37 -39 0
-37 -40 0
-38 -39 0
-38 -40 0
-39 -40 0
41 42 43 44 45 0
-41 -42 0
-41 -43 0
-41 -44 0
-41 -45 0
-42 -43 0
-42 -44 0
-42 -45 0
-43 -44 0
-43 -45 0
-44 -45 0
46 47 48 49 50 0
-46 -47 0
-46 -48 0
-46 -49 0
-46 -50 0
-47 -48 0
-47 -49 0
-47 -50 0
-48 -49 0
-48 -50 0
-49 -50 0
51 52 53 54 55 0
-51 -52 0
-51 -53 0
-51 -54 0
-51 -55 0
-52 -53 0
-52 -54 0
-52 -55 0
-53 -54 0
-53 -55 0
-54 -55 0
56 57 58 59 60 0
-56 -57 0
-56 -58 0
-56 -59 0
-56 -60 0
-57 -58 0
-57 -59 0
-57 -60 0
-58 -59 0
-58 -60 0
-59 -60 0
61 62 63 64 65 0
-61 -62 0
-61 -63 0
-61 -64 0
-61 -65 0
-62 -63 0
-62 -64 0
-62 -65 0
-63 -64 0
-63 -65 0
-64 -65 0
66 67 68 69 70 0
-66 -67 0
-66 -68 0
-66 -69 0
-66 -70 0
-67 -68 0
-67 -69 0
-67 -70 0
-68 -69 0
-68 -70 0
-69 -70 0
71 72 73 74 75 0
-71 -72 0
-71 -73 0
-71 -74 0
-71 -75 0
-72 -73 0
-72 -74 0
-72 -75 0
-73 -74 0
-73 -75 0
-74 -75 0
76 77 78 79 80 0
-76 -77 0
-76 -78 0
-76 -79 0
-76 -80 0
-77 -78 0
-77 -79 0
-77 -80 0
-78 -79 0
-78 -80 0
-79 -80 0
81 82 83 84 85 0
-81 -82 0
-81 -83 0
-81 -84 0
-81 -85 0
-82 -83 0
-82 -84 0
-82 -85 0
-83 -84 0
-83 -85 0
-84 -85 0
86 87 88 89 90 0
-86 -87 0
-86 -88 0
-86 -89 0
-86 -90 0
-87 -88 0
-87 -89 0
-87 -90 0
-88 -89 0
-88 -90 0
-89 -90 0
91 92 93 94 95 0
-91 -92 0
-91 -93 0
-91 -94 0
-91 -95 0
-92 -93 0
-92 -94 0
-92 -95 0
-93 -94 0
-93 -95 0
-94 -95 0
96 97 98 99 100 0
-96 -97 0
-96 -98 0
-96 -99 0
-96 -100 0
-97 -98 0
-97 -99 0
-97 -100 0
-98 -99 0
-98 -100 0
-99 -100 0
101 102 103 104 105 0
-101 -102 0
-101 -103 0
-101 -104 0
-101 -105 0
-102 -103 0
-102 -104 0
-102 -105 0
-103 -104 0
-103 -105 0
-104 -105 0
106 107 108 109 110 0
-106 -107 0
-106 -108 0
-106 -109 0
-106 -110 0
-107 -108 0
-107 -109 0
-107 -110 0
-108 -109 0
-108 -110 0
-109 -110 0
111 112 113 114 115 0
-111 -112 0
-111 -113 0
-111 -114 0
-111 -115 0
-112 -113 0
-112 -114 0
-112 -115 0
-113 -114 0
-113 -115 0
-114 -115 0
116 117 118 119 120 0
-116 -117 0
-116 -118 0
-116 -119 0
-116 -120 0
-117 -118 0
-117 -119 0
-117 -120 0
-118 -119 0
-118 -120 0
-119 -120 0
121 122 123 124 125 0
-121 -122 0
-121 -123 0
-121 -124 0
-121 -125 0
-122 -123 0
-122 -124 0
-122 -125 0
-123 -124 0
-123 -125 0
-124 -125 0
126 127 128 129 130 0
-126 -127 0
-126 -128 0
-126 -129 0
-126 -130 0
-127 -128 0
-127 -129 0
-127 -130 0
-128 -129 0
-128 -130 0
-129 -130 0
131 132 133 134 135 0
-131 -132 0
-131 -133 0
-131 -134 0
-131 -135 0
-132 -133 0
-132 -134 0
-132 -135 0
-133 -134 0
-133 -135 0
-134 -135 0
136 137 138 139 140 0
-136 -137 0
-136 -138 0
-136 -139 0
-136 -140 0
-137 -138 0
-137 -139 0
-137 -140 0
-138 -139 0
-138 -140 0
-139 -140 0
141 142 143 144 145 0
-141 -142 0
-141 -143 0
-141 -144 0
-141 -145 0
-142 -143 0
-142 -144 0
-142 -145 0
-143 -144 0
-143 -145 0
-144 -145 0
146 147 148 149 150 0
-146 -147 0
-146 -148 0
-146 -149 0
-146 -150 0
-147 -148 0
-147 -149 0
-147 -150 0
-148 -149 0
-148 -150 0
-149 -150 0
151 152 153 154 155 0
-151 -152 0
-151 -153 0
-151 -154 0
-151 -155 0
-152 -153 0
-152 -154 0
-152 -155 0
-153 -154 0
-153 -155 0
-154 -155 0
156 157 158 159 160 0
-156 -157 0
-156 -158 0
-156 -159 0
-156 -160 0
-157 -158 0
-157 -159 0
-157 -160 0
-158 -159 0
-158 -160 0
-159 -160 0
161 162 163 164 165 0
-161 -162 0
-161 -163 0
-161 -164 0
-161 -165 0
-162 -163 0
-162 -164 0
-162 -165 0
-163 -164 0
-163 -165 0
-164 -165 0
166 167 168 169 170 0
-166 -167 0
-166 -168 0
-166 -169 0
-166 -170 0
-167 -168 0
-167 -169 0
-167 -170 0
-168 -169 0
-168 -170 0
-169 -170 0
171 172 173 174 175 0
-171 -172 0
-171 -173 0
-171 -174 0
-171 -175 0
-172 -173 0
-172 -174 0
-172 -175 0
-173 -174 0
-173 -175 0
-174 -175 0
176 177 178 179 180 0
-176 -177 0
-176 -178 0
-176 -179 0
-176 -180 0
-177 -178 0
-177 -179 0
-177 -180 0
-178 -179 0
-178 -180 0
-179 -180 0
181 182 183 184 185 0
-181 -182 0
-181 -183 0
-181 -184 0
-181 -185 0
-182 -183 0
-182 -184 0
-182 -185 0
-183 -184 0
-183 -185 0
-184 -185 0
186 187 188 189 190 0
-186 -187 0
-186 -188 0
-186 -189 0
-186 -190 0
-187 -188 0
-187 -189 0
-187 -190 0
-188 -189 0
-188 -190 0
-189 -190 0
191 192 193 194 195 0
-191 -192 0
-191 -193 0
-191 -194 0
-191 -195 0
-192 -193 0
-192 -194 0
-192 -195 0
-193 -194 0
-193 -195 0
-194 -195 0
196 197 198 199 200 0
-196 -197 0
-196 -198 0
-196 -199 0
-196 -200 0
-197 -198 0
-197 -199 0
-197 -200 0
-198 -199 0
-198 -200 0
-199 -200 0
201 202 203 204 205 0
-201 -202 0
-201 -203 0
-201 -204 0
-201 -205 0
-202 -203 0
-202 -204 0
-202 -205 0
-203 -204 0
-203 -205 0
-204 -205 0
-1 -11 0
-2 -12 0
-3 -13 0
-4 -14 0
-5 -15 0
-1 -41 206 0
-2 -42 206 0
-3 -43 206 0
-4 -44 206 0
-5 -45 206 0
-11 -76 207 0
-12 -77 207 0
-13 -78 207 0
-14 -79 207 0
-15 -80 207 0
-206 -207 0
-1 -76 208 0
-2 -77 208 0
-3 -78 208 0
-4 -79 208 0
-5 -80 208 0
-11 -121 209 0
-12 -122 209 0
-13 -123 209 0
-14 -124 209 0
-15 -125 209 0
-41 -176 210 0
-42 -177 210 0
-43 -178 210 0
-44 -179 210 0
-45 -180 210 0
-208 -209 -210 0
-1 -121 211 0
-2 -122 211 0
-3 -123 211 0
-4 -124 211 0
-5 -125 211 0
-11 -176 212 0
-12 -177 212 0
-13 -178 212 0
-14 -179 212 0
-15 -180 212 0
-41 -171 213 0
-42 -172 213 0
-43 -173 213 0
-44 -174 213 0
-45 -175 213 0
-76 -116 214 0
-77 -117 214 0
-78 -118 214 0
-79 -119 214 0
-80 -120 214 0
-211 -212 -213 -214 0
-76 -166 215 0
-77 -167 215 0
-78 -168 215 0
-79 -169 215 0
-80 -170 215 0
-211 -212 -213 -215 0
-41 -116 216 0
-42 -117 216 0
-43 -118 216 0
-44 -119 216 0
-45 -120 216 0
-208 -209 -216 0
-11 -116 217 0
-12 -117 217 0
-13 -118 217 0
-14 -119 217 0
-15 -120 217 0
-41 -71 218 0
-42 -72 218 0
-43 -73 218 0
-44 -74 218 0
-45 -75 218 0
-76 -36 219 0
-77 -37 219 0
-78 -38 219 0
-79 -39 219 0
-80 -40 219 0
-211 -217 -218 -219 0
-76 -66 220 0
-77 -67 220 0
-78 -68 220 0
-79 -69 220 0
-80 -70 220 0
-211 -217 -218 -220 0
-211 -217 -213 -215 0
-76 -176 221 0
-77 -177 221 0
-78 -178 221 0
-79 -179 221 0
-80 -180 221 0
-211 -217 -213 -221 0
-41 -111 222 0
-42 -112 222 0
-43 -113 222 0
-44 -114 222 0
-45 -115 222 0
-211 -217 -222 -220 0
-211 -217 -222 -215 0
-76 -106 223 0
-77 -107 223 0
-78 -108 223 0
-79 -109 223 0
-80 -110 223 0
-211 -217 -222 -223 0
-11 -71 224 0
-12 -72 224 0
-13 -73 224 0
-14 -74 224 0
-15 -75 224 0
-41 -36 225 0
-42 -37 225 0
-43 -38 225 0
-44 -39 225 0
-45 -40 225 0
-208 -224 -225 0
-1 -71 226 0
-2 -72 226 0
-3 -73 226 0
-4 -74 226 0
-5 -75 226 0
-11 -36 227 0
-12 -37 227 0
-13 -38 227 0
-14 -39 227 0
-15 -40 227 0
-41 -16 228 0
-42 -17 228 0
-43 -18 228 0
-44 -19 228 0
-45 -20 228 0
-76 -6 229 0
-77 -7 229 0
-78 -8 229 0
-79 -9 229 0
-80 -10 229 0
-226 -227 -228 -229 0
-76 -26 230 0
-77 -27 230 0
-78 -28 230 0
-79 -29 230 0
-80 -30 230 0
-226 -227 -228 -230 0
-41 -31 231 0
-42 -32 231 0
-43 -33 231 0
-44 -34 231 0
-45 -35 231 0
-226 -227 -231 -230 0
-226 -227 -231 -220 0
-76 -56 232 0
-77 -57 232 0
-78 -58 232 0
-79 -59 232 0
-80 -60 232 0
-226 -227 -231 -232 0
-208 -224 -216 0
-226 -217 -213 -215 0
-226 -217 -213 -221 0
-226 -217 -222 -220 0
-226 -217 -222 -215 0
-226 -217 -222 -223 0
-41 -121 233 0
-42 -122 233 0
-43 -123 233 0
-44 -124 233 0
-45 -125 233 0
-226 -217 -233 -221 0
-41 -66 234 0
-42 -67 234 0
-43 -68 234 0
-44 -69 234 0
-45 -70 234 0
-208 -224 -234 0
-11 -66 235 0
-12 -67 235 0
-13 -68 235 0
-14 -69 235 0
-15 -70 235 0
-226 -235 -231 -230 0
-226 -235 -231 -232 0
-226 -235 -231 -219 0
-226 -235 -222 -215 0
-226 -235 -222 -223 0
-226 -235 -222 -214 0
-41 -61 236 0
-42 -62 236 0
-43 -63 236 0
-44 -64 236 0
-45 -65 236 0
-226 -235 -236 -232 0
-226 -235 -236 -223 0
-76 -96 237 0
-77 -97 237 0
-78 -98 237 0
-79 -99 237 0
-80 -100 237 0
-226 -235 -236 -237 0
-206 -227 0
-1 -36 238 0
-2 -37 238 0
-3 -38 238 0
-4 -39 238 0
-5 -40 238 0
-11 -16 239 0
-12 -17 239 0
-13 -18 239 0
-14 -19 239 0
-15 -20 239 0
-41 -6 240 0
-42 -7 240 0
-43 -8 240 0
-44 -9 240 0
-45 -10 240 0
-238 -239 -240 0
-1 -16 241 0
-2 -17 241 0
-3 -18 241 0
-4 -19 241 0
-5 -20 241 0
-11 -6 242 0
-12 -7 242 0
-13 -8 242 0
-14 -9 242 0
-15 -10 242 0
-41 -21 243 0
-42 -22 243 0
-43 -23 243 0
-44 -24 243 0
-45 -25 243 0
-36 -26 244 0
-37 -27 244 0
-38 -28 244 0
-39 -29 244 0
-40 -30 244 0
-241 -242 -243 -244 0
-36 -46 245 0
-37 -47 245 0
-38 -48 245 0
-39 -49 245 0
-40 -50 245 0
-241 -242 -243 -245 0
-41 -26 246 0
-42 -27 246 0
-43 -28 246 0
-44 -29 246 0
-45 -30 246 0
-238 -239 -246 0
-11 -26 247 0
-12 -27 247 0
-13 -28 247 0
-14 -29 247 0
-15 -30 247 0
-36 -6 248 0
-37 -7 248 0
-38 -8 248 0
-39 -9 248 0
-40 -10 248 0
-241 -247 -243 -248 0
-241 -247 -243 -245 0
-36 -66 249 0
-37 -67 249 0
-38 -68 249 0
-39 -69 249 0
-40 -70 249 0
-241 -247 -231 -249 0
-36 -56 250 0
-37 -57 250 0
-38 -58 250 0
-39 -59 250 0
-40 -60 250 0
-241 -247 -231 -250 0
-41 -51 251 0
-42 -52 251 0
-43 -53 251 0
-44 -54 251 0
-45 -55 251 0
-241 -247 -251 -245 0
-241 -247 -251 -250 0
-36 -86 252 0
-37 -87 252 0
-38 -88 252 0
-39 -89 252 0
-40 -90 252 0
-241 -247 -251 -252 0
-238 -224 -216 0
-36 -166 253 0
-37 -167 253 0
-38 -168 253 0
-39 -169 253 0
-40 -170 253 0
-226 -217 -213 -253 0
-36 -176 254 0
-37 -177 254 0
-38 -178 254 0
-39 -179 254 0
-40 -180 254 0
-226 -217 -213 -254 0
-226 -217 -222 -249 0
-226 -217 -222 -253 0
-36 -106 255 0
-37 -107 255 0
-38 -108 255 0
-39 -109 255 0
-40 -110 255 0
-226 -217 -222 -255 0
-226 -217 -233 -219 0
-226 -217 -233 -254 0
-238 -224 -234 0
-226 -235 -231 -244 0
-226 -235 -231 -250 0
-226 -235 -222 -253 0
-226 -235 -222 -255 0
-36 -116 256 0
-37 -117 256 0
-38 -118 256 0
-39 -119 256 0
-40 -120 256 0
-226 -235 -222 -256 0
-226 -235 -236 -250 0
-226 -235 -236 -255 0
-36 -96 257 0
-37 -97 257 0
-38 -98 257 0
-39 -99 257 0
-40 -100 257 0
-226 -235 -236 -257 0
-41 -76 258 0
-42 -77 258 0
-43 -78 258 0
-44 -79 258 0
-45 -80 258 0
-238 -224 -258 0
-226 -207 -233 -254 0
-226 -207 -233 -256 0
-11 -31 259 0
-12 -32 259 0
-13 -33 259 0
-14 -34 259 0
-15 -35 259 0
-238 -259 -246 0
-1 -31 260 0
-2 -32 260 0
-3 -33 260 0
-4 -34 260 0
-5 -35 260 0
-260 -247 -228 -248 0
-260 -247 -243 -248 0
-260 -247 -243 -245 0
-260 -247 -251 -245 0
-260 -247 -251 -250 0
-260 -247 -251 -252 0
-238 -259 -234 0
-260 -235 -222 -253 0
-260 -235 -222 -255 0
-260 -235 -222 -256 0
-260 -235 -236 -250 0
-260 -235 -236 -255 0
-260 -235 -236 -257 0
-260 -235 -218 -256 0
-260 -235 -218 -219 0
-41 -56 261 0
-42 -57 261 0
-43 -58 261 0
-44 -59 261 0
-45 -60 261 0
-238 -259 -261 0
-11 -56 262 0
-12 -57 262 0
-13 -58 262 0
-14 -59 262 0
-15 -60 262 0
-260 -262 -251 -244 0
-260 -262 -251 -245 0
-260 -262 -251 -252 0
-260 -262 -236 -255 0
-260 -262 -236 -257 0
-260 -262 -236 -249 0
-41 -91 263 0
-42 -92 263 0
-43 -93 263 0
-44 -94 263 0
-45 -95 263 0
-260 -262 -263 -252 0
-260 -262 -263 -257 0
-36 -136 264 0
-37 -137 264 0
-38 -138 264 0
-39 -139 264 0
-40 -140 264 0
-260 -262 -263 -264 0
-241 -242 0
-1 -6 265 0
-2 -7 265 0
-3 -8 265 0
-4 -9 265 0
-5 -10 265 0
-11 -21 266 0
-12 -22 266 0
-13 -23 266 0
-14 -24 266 0
-15 -25 266 0
-16 -26 267 0
-17 -27 267 0
-18 -28 267 0
-19 -29 267 0
-20 -30 267 0
-265 -266 -267 0
-1 -21 268 0
-2 -22 268 0
-3 -23 268 0
-4 -24 268 0
-5 -25 268 0
-16 -31 269 0
-17 -32 269 0
-18 -33 269 0
-19 -34 269 0
-20 -35 269 0
-6 -66 270 0
-7 -67 270 0
-8 -68 270 0
-9 -69 270 0
-10 -70 270 0
-268 -247 -269 -270 0
-6 -56 271 0
-7 -57 271 0
-8 -58 271 0
-9 -59 271 0
-10 -60 271 0
-268 -247 -269 -271 0
-268 -247 -269 -248 0
-16 -51 272 0
-17 -52 272 0
-18 -53 272 0
-19 -54 272 0
-20 -55 272 0
-6 -46 273 0
-7 -47 273 0
-8 -48 273 0
-9 -49 273 0
-10 -50 273 0
-268 -247 -272 -273 0
-268 -247 -272 -271 0
-6 -86 274 0
-7 -87 274 0
-8 -88 274 0
-9 -89 274 0
-10 -90 274 0
-268 -247 -272 -274 0
-16 -46 275 0
-17 -47 275 0
-18 -48 275 0
-19 -49 275 0
-20 -50 275 0
-265 -266 -275 0
-11 -46 276 0
-12 -47 276 0
-13 -48 276 0
-14 -49 276 0
-15 -50 276 0
-6 -26 277 0
-7 -27 277 0
-8 -28 277 0
-9 -29 277 0
-10 -30 277 0
-268 -276 -272 -277 0
-268 -276 -272 -271 0
-268 -276 -272 -274 0
-16 -81 278 0
-17 -82 278 0
-18 -83 278 0
-19 -84 278 0
-20 -85 278 0
-268 -276 -278 -274 0
-6 -126 279 0
-7 -127 279 0
-8 -128 279 0
-9 -129 279 0
-10 -130 279 0
-268 -276 -278 -279 0
-241 -227 0
-16 -116 280 0
-17 -117 280 0
-18 -118 280 0
-19 -119 280 0
-20 -120 280 0
-238 -224 -280 0
-16 -171 281 0
-17 -172 281 0
-18 -173 281 0
-19 -174 281 0
-20 -175 281 0
-226 -217 -281 -253 0
-226 -217 -281 -254 0
-16 -111 282 0
-17 -112 282 0
-18 -113 282 0
-19 -114 282 0
-20 -115 282 0
-226 -217 -282 -249 0
-226 -217 -282 -253 0
-226 -217 -282 -255 0
-16 -121 283 0
-17 -122 283 0
-18 -123 283 0
-19 -124 283 0
-20 -125 283 0
-226 -217 -283 -219 0
-226 -217 -283 -254 0
-16 -66 284 0
-17 -67 284 0
-18 -68 284 0
-19 -69 284 0
-20 -70 284 0
-238 -224 -284 0
-226 -235 -269 -244 0
-226 -235 -269 -250 0
-226 -235 -282 -253 0
-226 -235 -282 -255 0
-226 -235 -282 -256 0
-16 -61 285 0
-17 -62 285 0
-18 -63 285 0
-19 -64 285 0
-20 -65 285 0
-226 -235 -285 -250 0
-226 -235 -285 -255 0
-226 -235 -285 -257 0
-16 -76 286 0
-17 -77 286 0
-18 -78 286 0
-19 -79 286 0
-20 -80 286 0
-238 -224 -286 0
-226 -207 -283 -254 0
-226 -207 -283 -256 0
-238 -259 -267 0
-16 -21 287 0
-17 -22 287 0
-18 -23 287 0
-19 -24 287 0
-20 -25 287 0
-260 -247 -287 -248 0
-260 -247 -287 -245 0
-260 -247 -272 -245 0
-260 -247 -272 -250 0
-260 -247 -272 -252 0
-238 -259 -284 0
-260 -235 -282 -253 0
-260 -235 -282 -255 0
-260 -235 -282 -256 0
-260 -235 -285 -250 0
-260 -235 -285 -255 0
-260 -235 -285 -257 0
-16 -71 288 0
-17 -72 288 0
-18 -73 288 0
-19 -74 288 0
-20 -75 288 0
-260 -235 -288 -256 0
-260 -235 -288 -219 0
-16 -56 289 0
-17 -57 289 0
-18 -58 289 0
-19 -59 289 0
-20 -60 289 0
-238 -259 -289 0
-260 -262 -272 -244 0
-260 -262 -272 -245 0
-260 -262 -272 -252 0
-260 -262 -285 -255 0
-260 -262 -285 -257 0
-260 -262 -285 -249 0
-16 -91 290 0
-17 -92 290 0
-18 -93 290 0
-19 -94 290 0
-20 -95 290 0
-260 -262 -290 -252 0
-260 -262 -290 -257 0
-260 -262 -290 -264 0
-11 -41 291 0
-12 -42 291 0
-13 -43 291 0
-14 -44 291 0
-15 -45 291 0
-238 -291 -286 0
-206 -207 -283 -254 0
-206 -207 -283 -256 0
-206 -207 -288 -256 0
-206 -207 -288 -249 0
-241 -247 0
-1 -26 292 0
-2 -27 292 0
-3 -28 292 0
-4 -29 292 0
-5 -30 292 0
-16 -6 293 0
-17 -7 293 0
-18 -8 293 0
-19 -9 293 0
-20 -10 293 0
-292 -266 -293 0
-292 -266 -275 0
-26 -56 294 0
-27 -57 294 0
-28 -58 294 0
-29 -59 294 0
-30 -60 294 0
-268 -276 -272 -294 0
-26 -86 295 0
-27 -87 295 0
-28 -88 295 0
-29 -89 295 0
-30 -90 295 0
-268 -276 -272 -295 0
-268 -276 -278 -295 0
-26 -126 296 0
-27 -127 296 0
-28 -128 296 0
-29 -129 296 0
-30 -130 296 0
-268 -276 -278 -296 0
-292 -259 -284 0
-26 -166 297 0
-27 -167 297 0
-28 -168 297 0
-29 -169 297 0
-30 -170 297 0
-260 -235 -282 -297 0
-26 -106 298 0
-27 -107 298 0
-28 -108 298 0
-29 -109 298 0
-30 -110 298 0
-260 -235 -282 -298 0
-26 -116 299 0
-27 -117 299 0
-28 -118 299 0
-29 -119 299 0
-30 -120 299 0
-260 -235 -282 -299 0
-260 -235 -285 -294 0
-260 -235 -285 -298 0
-26 -96 300 0
-27 -97 300 0
-28 -98 300 0
-29 -99 300 0
-30 -100 300 0
-260 -235 -285 -300 0
-260 -235 -288 -244 0
-260 -235 -288 -299 0
-260 -235 -288 -230 0
-292 -259 -289 0
-26 -46 301 0
-27 -47 301 0
-28 -48 301 0
-29 -49 301 0
-30 -50 301 0
-260 -262 -272 -301 0
-260 -262 -272 -295 0
-260 -262 -285 -298 0
-260 -262 -285 -300 0
-26 -66 302 0
-27 -67 302 0
-28 -68 302 0
-29 -69 302 0
-30 -70 302 0
-260 -262 -285 -302 0
-260 -262 -290 -295 0
-260 -262 -290 -300 0
-26 -136 303 0
-27 -137 303 0
-28 -138 303 0
-29 -139 303 0
-30 -140 303 0
-260 -262 -290 -303 0
-16 -36 304 0
-17 -37 304 0
-18 -38 304 0
-19 -39 304 0
-20 -40 304 0
-292 -259 -304 0
-260 -227 -288 -299 0
-260 -227 -288 -302 0
-260 -227 -288 -230 0
-260 -227 -228 -230 0
-11 -51 305 0
-12 -52 305 0
-13 -53 305 0
-14 -54 305 0
-15 -55 305 0
-292 -305 -275 0
-1 -51 306 0
-2 -52 306 0
-3 -53 306 0
-4 -54 306 0
-5 -55 306 0
-306 -276 -287 -277 0
-306 -276 -278 -295 0
-306 -276 -278 -296 0
-292 -305 -289 0
-306 -262 -269 -302 0
-306 -262 -269 -244 0
-306 -262 -285 -298 0
-306 -262 -285 -300 0
-306 -262 -285 -302 0
-306 -262 -290 -295 0
-306 -262 -290 -300 0
-306 -262 -290 -303 0
-16 -86 307 0
-17 -87 307 0
-18 -88 307 0
-19 -89 307 0
-20 -90 307 0
-292 -305 -307 0
-11 -86 308 0
-12 -87 308 0
-13 -88 308 0
-14 -89 308 0
-15 -90 308 0
-306 -308 -278 -301 0
-306 -308 -278 -296 0
-306 -308 -290 -294 0
-306 -308 -290 -300 0
-306 -308 -290 -303 0
-16 -131 309 0
-17 -132 309 0
-18 -133 309 0
-19 -134 309 0
-20 -135 309 0
-306 -308 -309 -296 0
-306 -308 -309 -303 0
-26 -186 310 0
-27 -187 310 0
-28 -188 310 0
-29 -189 310 0
-30 -190 310 0
-306 -308 -309 -310 0
-1 -6 0
-2 -7 0
-3 -8 0
-4 -9 0
-5 -10 0
-241 -242 0
-1 -11 311 0
-2 -12 311 0
-3 -13 311 0
-4 -14 311 0
-5 -15 311 0
-311 -240 -286 0
-206 -229 -283 -212 0
-206 -229 -283 -217 0
-206 -229 -288 -227 0
-206 -229 -288 -217 0
-206 -229 -288 -235 0
-311 -240 -304 0
-206 -248 -288 -217 0
-206 -248 -288 -235 0
-206 -248 -288 -207 0
-206 -248 -269 -247 0
-206 -248 -269 -235 0
-206 -248 -269 -262 0
-241 -248 0
-6 -71 312 0
-7 -72 312 0
-8 -73 312 0
-9 -74 312 0
-10 -75 312 0
-238 -312 -280 0
-6 -116 313 0
-7 -117 313 0
-8 -118 313 0
-9 -119 313 0
-10 -120 313 0
-226 -313 -281 -253 0
-226 -313 -281 -254 0
-226 -313 -282 -249 0
-226 -313 -282 -253 0
-226 -313 -282 -255 0
-226 -313 -283 -219 0
-226 -313 -283 -254 0
-238 -312 -284 0
-226 -270 -269 -244 0
-226 -270 -269 -250 0
-226 -270 -282 -253 0
-226 -270 -282 -255 0
-226 -270 -282 -256 0
-226 -270 -285 -250 0
-226 -270 -285 -255 0
-226 -270 -285 -257 0
-238 -312 -286 0
-226 -229 -228 -227 0
-226 -229 -283 -254 0
-226 -229 -283 -256 0
-6 -31 314 0
-7 -32 314 0
-8 -33 314 0
-9 -34 314 0
-10 -35 314 0
-238 -314 -267 0
-260 -277 -287 -245 0
-260 -277 -272 -245 0
-260 -277 -272 -250 0
-260 -277 -272 -252 0
-238 -314 -284 0
-260 -270 -282 -253 0
-260 -270 -282 -255 0
-260 -270 -282 -256 0
-260 -270 -285 -250 0
-260 -270 -285 -255 0
-260 -270 -285 -257 0
-260 -270 -288 -256 0
-260 -270 -288 -219 0
-238 -314 -289 0
-260 -271 -272 -244 0
-260 -271 -272 -245 0
-260 -271 -272 -252 0
-260 -271 -285 -255 0
-260 -271 -285 -257 0
-260 -271 -285 -249 0
-260 -271 -290 -252 0
-260 -271 -290 -257 0
-260 -271 -290 -264 0
-238 -240 -239 0
-238 -240 -286 0
-206 -229 -283 -254 0
-206 -229 -283 -256 0
-206 -229 -288 -256 0
-206 -229 -288 -249 0
-241 -277 0
-6 -21 315 0
-7 -22 315 0
-8 -23 315 0
-9 -24 315 0
-10 -25 315 0
-292 -315 -275 0
-268 -273 -272 -294 0
-268 -273 -272 -295 0
-268 -273 -278 -295 0
-268 -273 -278 -296 0
-292 -314 -284 0
-260 -270 -282 -297 0
-260 -270 -282 -298 0
-260 -270 -282 -299 0
-260 -270 -285 -294 0
-260 -270 -285 -298 0
-260 -270 -285 -300 0
-260 -270 -288 -244 0
-260 -270 -288 -299 0
-260 -270 -288 -230 0
-292 -314 -289 0
-260 -271 -272 -301 0
-260 -271 -272 -295 0
-260 -271 -285 -298 0
-260 -271 -285 -300 0
-260 -271 -285 -302 0
-260 -271 -290 -295 0
-260 -271 -290 -300 0
-260 -271 -290 -303 0
-292 -314 -304 0
-260 -248 -288 -299 0
-260 -248 -288 -302 0
-260 -248 -288 -230 0
-260 -248 -228 -247 0
-260 -248 -228 -230 0
-6 -51 316 0
-7 -52 316 0
-8 -53 316 0
-9 -54 316 0
-10 -55 316 0
-292 -316 -275 0
-306 -273 -278 -295 0
-306 -273 -278 -296 0
-292 -316 -289 0
-306 -271 -269 -302 0
-306 -271 -269 -244 0
-306 -271 -285 -298 0
-306 -271 -285 -300 0
-306 -271 -285 -302 0
-306 -271 -290 -295 0
-306 -271 -290 -300 0
-306 -271 -290 -303 0
-292 -316 -307 0
-306 -274 -278 -301 0
-306 -274 -278 -296 0
-306 -274 -290 -294 0
-306 -274 -290 -300 0
-306 -274 -290 -303 0
-306 -274 -309 -296 0
-306 -274 -309 -303 0
-306 -274 -309 -310 0
-268 -277 0
-292 -293 -266 0
-241 -242 -243 -230 0
-241 -242 -243 -244 0
-21 -36 317 0
-22 -37 317 0
-23 -38 317 0
-24 -39 317 0
-25 -40 317 0
-292 -293 -317 0
-21 -71 318 0
-22 -72 318 0
-23 -73 318 0
-24 -74 318 0
-25 -75 318 0
-241 -248 -318 -299 0
-241 -248 -318 -302 0
-241 -248 -318 -230 0
-21 -31 319 0
-22 -32 319 0
-23 -33 319 0
-24 -34 319 0
-25 -35 319 0
-241 -248 -319 -302 0
-241 -248 -319 -294 0
-241 -248 -243 -247 0
-241 -248 -243 -230 0
-21 -66 320 0
-22 -67 320 0
-23 -68 320 0
-24 -69 320 0
-25 -70 320 0
-292 -314 -320 0
-21 -111 321 0
-22 -112 321 0
-23 -113 321 0
-24 -114 321 0
-25 -115 321 0
-260 -270 -321 -297 0
-260 -270 -321 -298 0
-260 -270 -321 -299 0
-21 -61 322 0
-22 -62 322 0
-23 -63 322 0
-24 -64 322 0
-25 -65 322 0
-260 -270 -322 -294 0
-260 -270 -322 -298 0
-260 -270 -322 -300 0
-260 -270 -318 -244 0
-260 -270 -318 -299 0
-260 -270 -318 -230 0
-21 -56 323 0
-22 -57 323 0
-23 -58 323 0
-24 -59 323 0
-25 -60 323 0
-292 -314 -323 0
-21 -51 324 0
-22 -52 324 0
-23 -53 324 0
-24 -54 324 0
-25 -55 324 0
-260 -271 -324 -301 0
-260 -271 -324 -295 0
-260 -271 -322 -298 0
-260 -271 -322 -300 0
-260 -271 -322 -302 0
-21 -91 325 0
-22 -92 325 0
-23 -93 325 0
-24 -94 325 0
-25 -95 325 0
-260 -271 -325 -295 0
-260 -271 -325 -300 0
-260 -271 -325 -303 0
-292 -314 -317 0
-260 -248 -287 -247 0
-260 -248 -318 -299 0
-260 -248 -318 -302 0
-260 -248 -318 -230 0
-260 -248 -243 -247 0
-260 -248 -243 -230 0
-21 -46 326 0
-22 -47 326 0
-23 -48 326 0
-24 -49 326 0
-25 -50 326 0
-292 -316 -326 0
-21 -81 327 0
-22 -82 327 0
-23 -83 327 0
-24 -84 327 0
-25 -85 327 0
-306 -273 -327 -295 0
-306 -273 -327 -296 0
-292 -316 -323 0
-306 -271 -319 -302 0
-306 -271 -319 -244 0
-306 -271 -322 -298 0
-306 -271 -322 -300 0
-306 -271 -322 -302 0
-306 -271 -325 -295 0
-306 -271 -325 -300 0
-306 -271 -325 -303 0
-21 -86 328 0
-22 -87 328 0
-23 -88 328 0
-24 -89 328 0
-25 -90 328 0
-292 -316 -328 0
-306 -274 -327 -301 0
-306 -274 -327 -296 0
-306 -274 -325 -294 0
-306 -274 -325 -300 0
-306 -274 -325 -303 0
-21 -131 329 0
-22 -132 329 0
-23 -133 329 0
-24 -134 329 0
-25 -135 329 0
-306 -274 -329 -296 0
-306 -274 -329 -303 0
-306 -274 -329 -310 0
-268 -273 0
-1 -46 330 0
-2 -47 330 0
-3 -48 330 0
-4 -49 330 0
-5 -50 330 0
-21 -26 331 0
-22 -27 331 0
-23 -28 331 0
-24 -29 331 0
-25 -30 331 0
-330 -316 -331 0
-306 -277 -287 -276 0
-306 -277 -287 -245 0
-46 -66 332 0
-47 -67 332 0
-48 -68 332 0
-49 -69 332 0
-50 -70 332 0
-306 -277 -319 -332 0
-46 -56 333 0
-47 -57 333 0
-48 -58 333 0
-49 -59 333 0
-50 -60 333 0
-306 -277 -319 -333 0
-306 -277 -319 -245 0
-330 -316 -323 0
-306 -271 -319 -301 0
-306 -271 -319 -332 0
-306 -271 -319 -245 0
-46 -106 334 0
-47 -107 334 0
-48 -108 334 0
-49 -109 334 0
-50 -110 334 0
-306 -271 -322 -334 0
-46 -96 335 0
-47 -97 335 0
-48 -98 335 0
-49 -99 335 0
-50 -100 335 0
-306 -271 -322 -335 0
-306 -271 -322 -332 0
-46 -86 336 0
-47 -87 336 0
-48 -88 336 0
-49 -89 336 0
-50 -90 336 0
-306 -271 -325 -336 0
-306 -271 -325 -335 0
-46 -136 337 0
-47 -137 337 0
-48 -138 337 0
-49 -139 337 0
-50 -140 337 0
-306 -271 -325 -337 0
-330 -316 -328 0
-46 -126 338 0
-47 -127 338 0
-48 -128 338 0
-49 -129 338 0
-50 -130 338 0
-306 -274 -327 -338 0
-306 -274 -325 -333 0
-306 -274 -325 -335 0
-306 -274 -325 -337 0
-306 -274 -329 -338 0
-306 -274 -329 -337 0
-46 -186 339 0
-47 -187 339 0
-48 -188 339 0
-49 -189 339 0
-50 -190 339 0
-306 -274 -329 -339 0
-6 -81 340 0
-7 -82 340 0
-8 -83 340 0
-9 -84 340 0
-10 -85 340 0
-330 -340 -328 0
-1 -81 341 0
-2 -82 341 0
-3 -83 341 0
-4 -84 341 0
-5 -85 341 0
-341 -274 -324 -301 0
-341 -274 -324 -333 0
-341 -274 -325 -333 0
-341 -274 -325 -335 0
-341 -274 -325 -337 0
-341 -274 -329 -338 0
-341 -274 -329 -337 0
-341 -274 -329 -339 0
-21 -126 342 0
-22 -127 342 0
-23 -128 342 0
-24 -129 342 0
-25 -130 342 0
-330 -340 -342 0
-341 -279 -329 -336 0
-341 -279 -329 -337 0
-341 -279 -329 -339 0
-21 -181 343 0
-22 -182 343 0
-23 -183 343 0
-24 -184 343 0
-25 -185 343 0
-341 -279 -343 -339 0
-242 -206 0
-240 -208 -209 0
-229 -211 -212 -213 0
-229 -211 -217 -218 0
-229 -211 -217 -213 0
-229 -211 -217 -222 0
-240 -208 -224 0
-229 -226 -227 -228 0
-229 -226 -227 -231 0
-229 -226 -217 -213 0
-229 -226 -217 -222 0
-229 -226 -217 -233 0
-229 -226 -235 -231 0
-229 -226 -235 -222 0
-229 -226 -235 -236 0
-240 -238 -239 0
-248 -241 -247 -243 0
-248 -241 -247 -231 0
-248 -241 -247 -251 0
-240 -238 -224 0
-248 -226 -217 -213 0
-248 -226 -217 -222 0
-248 -226 -217 -233 0
-248 -226 -235 -231 0
-248 -226 -235 -222 0
-248 -226 -235 -236 0
-248 -226 -207 -233 0
-240 -238 -259 0
-248 -260 -247 -228 0
-248 -260 -247 -243 0
-248 -260 -247 -251 0
-248 -260 -235 -222 0
-248 -260 -235 -236 0
-248 -260 -235 -218 0
-248 -260 -262 -251 0
-248 -260 -262 -236 0
-248 -260 -262 -263 0
-242 -241 0
-293 -238 -224 0
-248 -226 -217 -281 0
-248 -226 -217 -282 0
-248 -226 -217 -283 0
-248 -226 -235 -269 0
-248 -226 -235 -282 0
-248 -226 -235 -285 0
-248 -226 -207 -228 0
-248 -226 -207 -283 0
-293 -238 -259 0
-248 -260 -247 -287 0
-248 -260 -247 -272 0
-248 -260 -235 -282 0
-248 -260 -235 -285 0
-248 -260 -235 -288 0
-248 -260 -262 -272 0
-248 -260 -262 -285 0
-248 -260 -262 -290 0
-293 -238 -291 0
-248 -206 -207 -283 0
-248 -206 -207 -288 0
-293 -292 -266 0
-277 -268 -276 -272 0
-277 -268 -276 -278 0
-293 -292 -259 0
-277 -260 -235 -282 0
-277 -260 -235 -285 0
-277 -260 -235 -288 0
-277 -260 -262 -272 0
-277 -260 -262 -285 0
-277 -260 -262 -290 0
-277 -260 -227 -288 0
-277 -260 -227 -228 0
-293 -292 -305 0
-277 -306 -276 -287 0
-277 -306 -276 -278 0
-277 -306 -262 -269 0
-277 -306 -262 -285 0
-277 -306 -262 -290 0
-277 -306 -308 -278 0
-277 -306 -308 -290 0
-277 -306 -308 -309 0
-6 -16 0
-7 -17 0
-8 -18 0
-9 -19 0
-10 -20 0
-242 -228 0
-240 -286 -209 0
-229 -283 -212 -213 0
-229 -283 -217 -218 0
-229 -283 -217 -213 0
-229 -283 -217 -222 0
-240 -286 -224 0
-229 -288 -227 -231 0
-229 -288 -217 -213 0
-229 -288 -217 -222 0
-229 -288 -217 -233 0
-229 -288 -235 -231 0
-229 -288 -235 -222 0
-229 -288 -235 -236 0
-240 -304 -224 0
-248 -288 -217 -213 0
-248 -288 -217 -222 0
-248 -288 -217 -233 0
-248 -288 -235 -231 0
-248 -288 -235 -222 0
-248 -288 -235 -236 0
-248 -288 -207 -233 0
-240 -304 -259 0
-248 -269 -247 -243 0
-248 -269 -247 -251 0
-248 -269 -235 -222 0
-248 -269 -235 -236 0
-248 -269 -235 -218 0
-248 -269 -262 -251 0
-248 -269 -262 -236 0
-248 -269 -262 -263 0
-248 -288 0
-36 -171 344 0
-37 -172 344 0
-38 -173 344 0
-39 -174 344 0
-40 -175 344 0
-312 -280 -344 0
-71 -111 345 0
-72 -112 345 0
-73 -113 345 0
-74 -114 345 0
-75 -115 345 0
-313 -281 -253 -345 0
-71 -161 346 0
-72 -162 346 0
-73 -163 346 0
-74 -164 346 0
-75 -165 346 0
-313 -281 -253 -346 0
-71 -121 347 0
-72 -122 347 0
-73 -123 347 0
-74 -124 347 0
-75 -125 347 0
-313 -281 -254 -347 0
-36 -111 348 0
-37 -112 348 0
-38 -113 348 0
-39 -114 348 0
-40 -115 348 0
-312 -280 -348 0
-71 -31 349 0
-72 -32 349 0
-73 -33 349 0
-74 -34 349 0
-75 -35 349 0
-313 -282 -249 -349 0
-71 -61 350 0
-72 -62 350 0
-73 -63 350 0
-74 -64 350 0
-75 -65 350 0
-313 -282 -249 -350 0
-313 -282 -253 -346 0
-71 -171 351 0
-72 -172 351 0
-73 -173 351 0
-74 -174 351 0
-75 -175 351 0
-313 -282 -253 -351 0
-313 -282 -255 -350 0
-313 -282 -255 -346 0
-71 -101 352 0
-72 -102 352 0
-73 -103 352 0
-74 -104 352 0
-75 -105 352 0
-313 -282 -255 -352 0
-36 -121 353 0
-37 -122 353 0
-38 -123 353 0
-39 -124 353 0
-40 -125 353 0
-312 -280 -353 0
-313 -283 -219 -218 0
-313 -283 -254 -351 0
-36 -31 354 0
-37 -32 354 0
-38 -33 354 0
-39 -34 354 0
-40 -35 354 0
-312 -284 -354 0
-270 -269 -244 -318 0
-71 -51 355 0
-72 -52 355 0
-73 -53 355 0
-74 -54 355 0
-75 -55 355 0
-270 -269 -244 -355 0
-270 -269 -250 -355 0
-270 -269 -250 -350 0
-71 -91 356 0
-72 -92 356 0
-73 -93 356 0
-74 -94 356 0
-75 -95 356 0
-270 -269 -250 -356 0
-312 -284 -348 0
-270 -282 -253 -346 0
-270 -282 -253 -351 0
-270 -282 -255 -350 0
-270 -282 -255 -346 0
-270 -282 -255 -352 0
-270 -282 -256 -351 0
-270 -282 -256 -347 0
-36 -61 357 0
-37 -62 357 0
-38 -63 357 0
-39 -64 357 0
-40 -65 357 0
-312 -284 -357 0
-270 -285 -250 -349 0
-270 -285 -250 -355 0
-270 -285 -250 -356 0
-270 -285 -255 -346 0
-270 -285 -255 -352 0
-270 -285 -255 -345 0
-270 -285 -257 -356 0
-270 -285 -257 -352 0
-71 -141 358 0
-72 -142 358 0
-73 -143 358 0
-74 -144 358 0
-75 -145 358 0
-270 -285 -257 -358 0
-312 -286 -225 0
-312 -286 -353 0
-229 -283 -254 -351 0
-229 -283 -256 -351 0
-229 -283 -256 -345 0
-248 -269 0
-314 -267 -317 0
-31 -51 359 0
-32 -52 359 0
-33 -53 359 0
-34 -54 359 0
-35 -55 359 0
-277 -287 -245 -359 0
-31 -81 360 0
-32 -82 360 0
-33 -83 360 0
-34 -84 360 0
-35 -85 360 0
-277 -287 -245 -360 0
-36 -51 361 0
-37 -52 361 0
-38 -53 361 0
-39 -54 361 0
-40 -55 361 0
-314 -267 -361 0
-277 -272 -245 -319 0
-277 -272 -245 -360 0
-31 -61 362 0
-32 -62 362 0
-33 -63 362 0
-34 -64 362 0
-35 -65 362 0
-277 -272 -250 -362 0
-31 -91 363 0
-32 -92 363 0
-33 -93 363 0
-34 -94 363 0
-35 -95 363 0
-277 -272 -250 -363 0
-277 -272 -252 -360 0
-277 -272 -252 -363 0
-31 -131 364 0
-32 -132 364 0
-33 -133 364 0
-34 -134 364 0
-35 -135 364 0
-277 -272 -252 -364 0
-314 -284 -348 0
-31 -161 365 0
-32 -162 365 0
-33 -163 365 0
-34 -164 365 0
-35 -165 365 0
-270 -282 -253 -365 0
-31 -171 366 0
-32 -172 366 0
-33 -173 366 0
-34 -174 366 0
-35 -175 366 0
-270 -282 -253 -366 0
-270 -282 -255 -362 0
-270 -282 -255 -365 0
-31 -101 367 0
-32 -102 367 0
-33 -103 367 0
-34 -104 367 0
-35 -105 367 0
-270 -282 -255 -367 0
-270 -282 -256 -349 0
-270 -282 -256 -366 0
-31 -121 368 0
-32 -122 368 0
-33 -123 368 0
-34 -124 368 0
-35 -125 368 0
-270 -282 -256 -368 0
-314 -284 -357 0
-270 -285 -250 -359 0
-270 -285 -250 -363 0
-270 -285 -255 -365 0
-270 -285 -255 -367 0
-31 -111 369 0
-32 -112 369 0
-33 -113 369 0
-34 -114 369 0
-35 -115 369 0
-270 -285 -255 -369 0
-270 -285 -257 -363 0
-270 -285 -257 -367 0
-31 -141 370 0
-32 -142 370 0
-33 -143 370 0
-34 -144 370 0
-35 -145 370 0
-270 -285 -257 -370 0
-36 -71 371 0
-37 -72 371 0
-38 -73 371 0
-39 -74 371 0
-40 -75 371 0
-314 -284 -371 0
-270 -288 -256 -366 0
-270 -288 -256 -369 0
-270 -288 -256 -368 0
-270 -288 -219 -231 0
-270 -288 -219 -368 0
-314 -289 -361 0
-271 -272 -244 -319 0
-271 -272 -245 -319 0
-271 -272 -245 -360 0
-271 -272 -252 -360 0
-271 -272 -252 -363 0
-271 -272 -252 -364 0
-314 -289 -357 0
-271 -285 -255 -365 0
-271 -285 -255 -367 0
-271 -285 -255 -369 0
-271 -285 -257 -363 0
-271 -285 -257 -367 0
-271 -285 -257 -370 0
-271 -285 -249 -369 0
-271 -285 -249 -349 0
-36 -91 372 0
-37 -92 372 0
-38 -93 372 0
-39 -94 372 0
-40 -95 372 0
-314 -289 -372 0
-271 -290 -252 -359 0
-271 -290 -252 -360 0
-271 -290 -252 -364 0
-271 -290 -257 -362 0
-271 -290 -257 -367 0
-271 -290 -257 -370 0
-271 -290 -264 -364 0
-271 -290 -264 -370 0
-31 -191 373 0
-32 -192 373 0
-33 -193 373 0
-34 -194 373 0
-35 -195 373 0
-271 -290 -264 -373 0
-248 -228 0
-240 -286 -353 0
-229 -283 -254 -213 0
-229 -283 -256 -218 0
-229 -283 -256 -213 0
-229 -283 -256 -222 0
-240 -286 -371 0
-229 -288 -256 -213 0
-229 -288 -256 -222 0
-229 -288 -256 -233 0
-229 -288 -249 -231 0
-229 -288 -249 -222 0
-229 -288 -249 -236 0
-277 -287 0
-26 -51 374 0
-27 -52 374 0
-28 -53 374 0
-29 -54 374 0
-30 -55 374 0
-315 -275 -374 0
-273 -272 -294 -319 0
-273 -272 -294 -322 0
-273 -272 -294 -325 0
-273 -272 -295 -327 0
-273 -272 -295 -325 0
-273 -272 -295 -329 0
-26 -81 375 0
-27 -82 375 0
-28 -83 375 0
-29 -84 375 0
-30 -85 375 0
-315 -275 -375 0
-273 -278 -295 -324 0
-273 -278 -295 -325 0
-273 -278 -295 -329 0
-273 -278 -296 -329 0
-273 -278 -296 -343 0
-277 -269 0
-26 -111 376 0
-27 -112 376 0
-28 -113 376 0
-29 -114 376 0
-30 -115 376 0
-314 -284 -376 0
-270 -282 -297 -365 0
-270 -282 -297 -366 0
-270 -282 -298 -362 0
-270 -282 -298 -365 0
-270 -282 -298 -367 0
-270 -282 -299 -349 0
-270 -282 -299 -366 0
-270 -282 -299 -368 0
-26 -61 377 0
-27 -62 377 0
-28 -63 377 0
-29 -64 377 0
-30 -65 377 0
-314 -284 -377 0
-270 -285 -294 -359 0
-270 -285 -294 -363 0
-270 -285 -298 -365 0
-270 -285 -298 -367 0
-270 -285 -298 -369 0
-270 -285 -300 -363 0
-270 -285 -300 -367 0
-270 -285 -300 -370 0
-26 -71 378 0
-27 -72 378 0
-28 -73 378 0
-29 -74 378 0
-30 -75 378 0
-314 -284 -378 0
-270 -288 -244 -231 0
-270 -288 -299 -366 0
-270 -288 -299 -369 0
-270 -288 -299 -368 0
-270 -288 -230 -231 0
-270 -288 -230 -368 0
-314 -289 -374 0
-271 -272 -301 -319 0
-271 -272 -301 -360 0
-271 -272 -295 -360 0
-271 -272 -295 -363 0
-271 -272 -295 -364 0
-314 -289 -377 0
-271 -285 -298 -365 0
-271 -285 -298 -367 0
-271 -285 -298 -369 0
-271 -285 -300 -363 0
-271 -285 -300 -367 0
-271 -285 -300 -370 0
-271 -285 -302 -369 0
-271 -285 -302 -349 0
-26 -91 379 0
-27 -92 379 0
-28 -93 379 0
-29 -94 379 0
-30 -95 379 0
-314 -289 -379 0
-271 -290 -295 -359 0
-271 -290 -295 -360 0
-271 -290 -295 -364 0
-271 -290 -300 -362 0
-271 -290 -300 -367 0
-271 -290 -300 -370 0
-271 -290 -303 -364 0
-271 -290 -303 -370 0
-271 -290 -303 -373 0
-314 -304 -378 0
-248 -288 -299 -366 0
-248 -288 -299 -369 0
-248 -288 -299 -368 0
-248 -288 -302 -369 0
-248 -288 -302 -362 0
-248 -288 -230 -231 0
-248 -288 -230 -368 0
-314 -304 -246 0
-248 -228 -230 -368 0
-248 -228 -230 -349 0
-277 -272 0
-316 -275 -331 0
-316 -275 -375 0
-51 -91 380 0
-52 -92 380 0
-53 -93 380 0
-54 -94 380 0
-55 -95 380 0
-273 -278 -295 -380 0
-51 -131 381 0
-52 -132 381 0
-53 -133 381 0
-54 -134 381 0
-55 -135 381 0
-273 -278 -295 -381 0
-273 -278 -296 -381 0
-51 -181 382 0
-52 -182 382 0
-53 -183 382 0
-54 -184 382 0
-55 -185 382 0
-273 -278 -296 -382 0
-26 -31 383 0
-27 -32 383 0
-28 -33 383 0
-29 -34 383 0
-30 -35 383 0
-316 -289 -383 0
-51 -111 384 0
-52 -112 384 0
-53 -113 384 0
-54 -114 384 0
-55 -115 384 0
-271 -269 -302 -384 0
-51 -61 385 0
-52 -62 385 0
-53 -63 385 0
-54 -64 385 0
-55 -65 385 0
-271 -269 -302 -385 0
-271 -269 -302 -355 0
-271 -269 -244 -355 0
-271 -269 -244 -251 0
-316 -289 -377 0
-51 -161 386 0
-52 -162 386 0
-53 -163 386 0
-54 -164 386 0
-55 -165 386 0
-271 -285 -298 -386 0
-51 -101 387 0
-52 -102 387 0
-53 -103 387 0
-54 -104 387 0
-55 -105 387 0
-271 -285 -298 -387 0
-271 -285 -298 -384 0
-271 -285 -300 -380 0
-271 -285 -300 -387 0
-51 -141 388 0
-52 -142 388 0
-53 -143 388 0
-54 -144 388 0
-55 -145 388 0
-271 -285 -300 -388 0
-271 -285 -302 -359 0
-271 -285 -302 -384 0
-271 -285 -302 -355 0
-316 -289 -379 0
-51 -81 389 0
-52 -82 389 0
-53 -83 389 0
-54 -84 389 0
-55 -85 389 0
-271 -290 -295 -389 0
-271 -290 -295 -381 0
-271 -290 -300 -385 0
-271 -290 -300 -387 0
-271 -290 -300 -388 0
-271 -290 -303 -381 0
-271 -290 -303 -388 0
-51 -191 390 0
-52 -192 390 0
-53 -193 390 0
-54 -194 390 0
-55 -195 390 0
-271 -290 -303 -390 0
-316 -307 -375 0
-274 -278 -301 -324 0
-274 -278 -296 -381 0
-274 -278 -296 -382 0
-316 -307 -379 0
-274 -290 -294 -359 0
-274 -290 -294 -385 0
-274 -290 -300 -385 0
-274 -290 -300 -387 0
-274 -290 -300 -388 0
-274 -290 -303 -381 0
-274 -290 -303 -388 0
-274 -290 -303 -390 0
-26 -131 391 0
-27 -132 391 0
-28 -133 391 0
-29 -134 391 0
-30 -135 391 0
-316 -307 -391 0
-274 -309 -296 -389 0
-274 -309 -296 -382 0
-274 -309 -303 -380 0
-274 -309 -303 -388 0
-274 -309 -303 -390 0
-274 -309 -310 -382 0
-274 -309 -310 -390 0
-6 -21 0
-7 -22 0
-8 -23 0
-9 -24 0
-10 -25 0
-277 -287 0
-293 -266 -246 0
-242 -243 -230 -283 0
-242 -243 -230 -288 0
-242 -243 -244 -288 0
-242 -243 -244 -269 0
-293 -317 -378 0
-248 -318 -299 -281 0
-248 -318 -299 -282 0
-248 -318 -299 -283 0
-248 -318 -302 -269 0
-248 -318 -302 -282 0
-248 -318 -302 -285 0
-248 -318 -230 -228 0
-248 -318 -230 -283 0
-293 -317 -383 0
-248 -319 -302 -282 0
-248 -319 -302 -285 0
-248 -319 -302 -288 0
-248 -319 -294 -272 0
-248 -319 -294 -285 0
-248 -319 -294 -290 0
-293 -317 -246 0
-248 -243 -230 -283 0
-248 -243 -230 -288 0
-277 -319 0
-314 -320 -376 0
-270 -321 -297 -365 0
-270 -321 -297 -366 0
-270 -321 -298 -362 0
-270 -321 -298 -365 0
-270 -321 -298 -367 0
-270 -321 -299 -349 0
-270 -321 -299 -366 0
-270 -321 -299 -368 0
-314 -320 -377 0
-270 -322 -294 -359 0
-270 -322 -294 -363 0
-270 -322 -298 -365 0
-270 -322 -298 -367 0
-270 -322 -298 -369 0
-270 -322 -300 -363 0
-270 -322 -300 -367 0
-270 -322 -300 -370 0
-314 -320 -378 0
-270 -318 -244 -269 0
-270 -318 -244 -231 0
-270 -318 -299 -366 0
-270 -318 -299 -369 0
-270 -318 -299 -368 0
-270 -318 -230 -231 0
-270 -318 -230 -368 0
-314 -323 -374 0
-271 -324 -301 -360 0
-271 -324 -295 -360 0
-271 -324 -295 -363 0
-271 -324 -295 -364 0
-314 -323 -377 0
-271 -322 -298 -365 0
-271 -322 -298 -367 0
-271 -322 -298 -369 0
-271 -322 -300 -363 0
-271 -322 -300 -367 0
-271 -322 -300 -370 0
-271 -322 -302 -369 0
-271 -322 -302 -349 0
-314 -323 -379 0
-271 -325 -295 -359 0
-271 -325 -295 -360 0
-271 -325 -295 -364 0
-271 -325 -300 -362 0
-271 -325 -300 -367 0
-271 -325 -300 -370 0
-271 -325 -303 -364 0
-271 -325 -303 -370 0
-271 -325 -303 -373 0
-314 -317 -267 0
-248 -287 -247 -231 0
-314 -317 -378 0
-248 -318 -299 -366 0
-248 -318 -299 -369 0
-248 -318 -299 -368 0
-248 -318 -302 -369 0
-248 -318 -302 -362 0
-248 -318 -230 -231 0
-248 -318 -230 -368 0
-314 -317 -246 0
-248 -243 -247 -269 0
-248 -243 -230 -368 0
-248 -243 -230 -349 0
-277 -324 0
-316 -326 -375 0
-273 -327 -295 -380 0
-273 -327 -295 -381 0
-273 -327 -296 -381 0
-273 -327 -296 -382 0
-316 -323 -383 0
-271 -319 -302 -384 0
-271 -319 -302 -385 0
-271 -319 -302 -355 0
-271 -319 -244 -272 0
-271 -319 -244 -355 0
-271 -319 -244 -251 0
-316 -323 -377 0
-271 -322 -298 -386 0
-271 -322 -298 -387 0
-271 -322 -298 -384 0
-271 -322 -300 -380 0
-271 -322 -300 -387 0
-271 -322 -300 -388 0
-271 -322 -302 -359 0
-271 -322 -302 -384 0
-271 -322 -302 -355 0
-316 -323 -379 0
-271 -325 -295 -389 0
-271 -325 -295 -381 0
-271 -325 -300 -385 0
-271 -325 -300 -387 0
-271 -325 -300 -388 0
-271 -325 -303 -381 0
-271 -325 -303 -388 0
-271 -325 -303 -390 0
-316 -328 -375 0
-274 -327 -296 -381 0
-274 -327 -296 -382 0
-316 -328 -379 0
-274 -325 -294 -359 0
-274 -325 -294 -385 0
-274 -325 -300 -385 0
-274 -325 -300 -387 0
-274 -325 -300 -388 0
-274 -325 -303 -381 0
-274 -325 -303 -388 0
-274 -325 -303 -390 0
-316 -328 -391 0
-274 -329 -296 -389 0
-274 -329 -296 -382 0
-274 -329 -303 -380 0
-274 -329 -303 -388 0
-274 -329 -303 -390 0
-274 -329 -310 -382 0
-274 -329 -310 -390 0
-273 -324 0
-316 -331 -275 0
-277 -287 -276 -251 0
-277 -287 -245 -355 0
-277 -287 -245 -359 0
-277 -287 -245 -251 0
-46 -31 392 0
-47 -32 392 0
-48 -33 392 0
-49 -34 392 0
-50 -35 392 0
-316 -331 -392 0
-277 -319 -332 -384 0
-277 -319 -332 -385 0
-277 -319 -332 -355 0
-277 -319 -333 -385 0
-277 -319 -333 -380 0
-277 -319 -245 -272 0
-277 -319 -245 -355 0
-277 -319 -245 -251 0
-316 -323 -392 0
-271 -319 -301 -272 0
-271 -319 -332 -384 0
-271 -319 -332 -385 0
-271 -319 -332 -355 0
-271 -319 -245 -272 0
-271 -319 -245 -355 0
-271 -319 -245 -251 0
-46 -61 393 0
-47 -62 393 0
-48 -63 393 0
-49 -64 393 0
-50 -65 393 0
-316 -323 -393 0
-271 -322 -334 -386 0
-271 -322 -334 -387 0
-271 -322 -334 -384 0
-271 -322 -335 -380 0
-271 -322 -335 -387 0
-271 -322 -335 -388 0
-271 -322 -332 -359 0
-271 -322 -332 -384 0
-271 -322 -332 -355 0
-46 -91 394 0
-47 -92 394 0
-48 -93 394 0
-49 -94 394 0
-50 -95 394 0
-316 -323 -394 0
-271 -325 -336 -389 0
-271 -325 -336 -381 0
-271 -325 -335 -385 0
-271 -325 -335 -387 0
-271 -325 -335 -388 0
-271 -325 -337 -381 0
-271 -325 -337 -388 0
-271 -325 -337 -390 0
-46 -81 395 0
-47 -82 395 0
-48 -83 395 0
-49 -84 395 0
-50 -85 395 0
-316 -328 -395 0
-274 -327 -338 -381 0
-274 -327 -338 -382 0
-316 -328 -394 0
-274 -325 -333 -359 0
-274 -325 -333 -385 0
-274 -325 -335 -385 0
-274 -325 -335 -387 0
-274 -325 -335 -388 0
-274 -325 -337 -381 0
-274 -325 -337 -388 0
-274 -325 -337 -390 0
-46 -131 396 0
-47 -132 396 0
-48 -133 396 0
-49 -134 396 0
-50 -135 396 0
-316 -328 -396 0
-274 -329 -338 -389 0
-274 -329 -338 -382 0
-274 -329 -337 -380 0
-274 -329 -337 -388 0
-274 -329 -337 -390 0
-274 -329 -339 -382 0
-274 -329 -339 -390 0
-273 -327 0
-46 -51 397 0
-47 -52 397 0
-48 -53 397 0
-49 -54 397 0
-50 -55 397 0
-340 -328 -397 0
-274 -324 -301 -278 0
-274 -324 -301 -360 0
-274 -324 -333 -360 0
-81 -61 398 0
-82 -62 398 0
-83 -63 398 0
-84 -64 398 0
-85 -65 398 0
-274 -324 -333 -398 0
-81 -91 399 0
-82 -92 399 0
-83 -93 399 0
-84 -94 399 0
-85 -95 399 0
-274 -324 -333 -399 0
-340 -328 -394 0
-274 -325 -333 -360 0
-274 -325 -333 -389 0
-274 -325 -333 -398 0
-274 -325 -335 -398 0
-81 -101 400 0
-82 -102 400 0
-83 -103 400 0
-84 -104 400 0
-85 -105 400 0
-274 -325 -335 -400 0
-81 -141 401 0
-82 -142 401 0
-83 -143 401 0
-84 -144 401 0
-85 -145 401 0
-274 -325 -335 -401 0
-81 -131 402 0
-82 -132 402 0
-83 -133 402 0
-84 -134 402 0
-85 -135 402 0
-274 -325 -337 -402 0
-274 -325 -337 -401 0
-81 -191 403 0
-82 -192 403 0
-83 -193 403 0
-84 -194 403 0
-85 -195 403 0
-274 -325 -337 -403 0
-340 -328 -396 0
-81 -181 404 0
-82 -182 404 0
-83 -183 404 0
-84 -184 404 0
-85 -185 404 0
-274 -329 -338 -404 0
-274 -329 -337 -399 0
-274 -329 -337 -401 0
-274 -329 -337 -403 0
-274 -329 -339 -404 0
-274 -329 -339 -403 0
-340 -342 -396 0
-279 -329 -336 -389 0
-279 -329 -336 -399 0
-279 -329 -337 -399 0
-279 -329 -337 -401 0
-279 -329 -337 -403 0
-279 -329 -339 -404 0
-279 -329 -339 -403 0
-46 -181 405 0
-47 -182 405 0
-48 -183 405 0
-49 -184 405 0
-50 -185 405 0
-340 -342 -405 0
-279 -343 -339 -402 0
-279 -343 -339 -403 0
-242 -241 0
-239 -238 -312 0
-227 -226 -313 -281 0
-227 -226 -313 -282 0
-227 -226 -313 -283 0
-227 -226 -270 -269 0
-227 -226 -270 -282 0
-227 -226 -270 -285 0
-227 -226 -229 -228 0
-227 -226 -229 -283 0
-239 -238 -314 0
-227 -260 -277 -287 0
-227 -260 -277 -272 0
-227 -260 -270 -282 0
-227 -260 -270 -285 0
-227 -260 -270 -288 0
-227 -260 -271 -272 0
-227 -260 -271 -285 0
-227 -260 -271 -290 0
-239 -238 -240 0
-227 -206 -229 -283 0
-227 -206 -229 -288 0
-239 -292 -315 0
-247 -268 -273 -272 0
-247 -268 -273 -278 0
-239 -292 -314 0
-247 -260 -270 -282 0
-247 -260 -270 -285 0
-247 -260 -270 -288 0
-247 -260 -271 -272 0
-247 -260 -271 -285 0
-247 -260 -271 -290 0
-247 -260 -248 -288 0
-247 -260 -248 -228 0
-239 -292 -316 0
-247 -306 -273 -287 0
-247 -306 -273 -278 0
-247 -306 -271 -269 0
-247 -306 -271 -285 0
-247 -306 -271 -290 0
-247 -306 -274 -278 0
-247 -306 -274 -290 0
-247 -306 -274 -309 0
-242 -268 0
-266 -292 -293 0
-247 -241 -248 -318 0
-247 -241 -248 -319 0
-247 -241 -248 -243 0
-266 -292 -314 0
-247 -260 -270 -321 0
-247 -260 -270 -322 0
-247 -260 -270 -318 0
-247 -260 -271 -324 0
-247 -260 -271 -322 0
-247 -260 -271 -325 0
-247 -260 -248 -287 0
-247 -260 -248 -318 0
-247 -260 -248 -243 0
-266 -292 -316 0
-247 -306 -273 -327 0
-247 -306 -271 -319 0
-247 -306 -271 -322 0
-247 -306 -271 -325 0
-247 -306 -274 -327 0
-247 -306 -274 -325 0
-247 -306 -274 -329 0
-266 -330 -316 0
-276 -306 -277 -287 0
-276 -306 -277 -319 0
-276 -306 -271 -319 0
-276 -306 -271 -322 0
-276 -306 -271 -325 0
-276 -306 -274 -327 0
-276 -306 -274 -325 0
-276 -306 -274 -329 0
-266 -330 -340 0
-276 -341 -274 -324 0
-276 -341 -274 -325 0
-276 -341 -274 -329 0
-276 -341 -279 -329 0
-276 -341 -279 -343 0
-11 -41 0
-12 -42 0
-13 -43 0
-14 -44 0
-15 -45 0
-207 -233 0
-76 -171 406 0
-77 -172 406 0
-78 -173 406 0
-79 -174 406 0
-80 -175 406 0
-209 -210 -406 0
-212 -213 -214 -347 0
-121 -111 407 0
-122 -112 407 0
-123 -113 407 0
-124 -114 407 0
-125 -115 407 0
-212 -213 -214 -407 0
-212 -213 -215 -407 0
-121 -161 408 0
-122 -162 408 0
-123 -163 408 0
-124 -164 408 0
-125 -165 408 0
-212 -213 -215 -408 0
-76 -71 409 0
-77 -72 409 0
-78 -73 409 0
-79 -74 409 0
-80 -75 409 0
-209 -216 -409 0
-217 -218 -219 -283 0
-217 -218 -219 -368 0
-217 -218 -220 -368 0
-217 -218 -220 -407 0
-121 -61 410 0
-122 -62 410 0
-123 -63 410 0
-124 -64 410 0
-125 -65 410 0
-217 -218 -220 -410 0
-209 -216 -406 0
-217 -213 -215 -407 0
-217 -213 -215 -408 0
-76 -111 411 0
-77 -112 411 0
-78 -113 411 0
-79 -114 411 0
-80 -115 411 0
-209 -216 -411 0
-217 -222 -220 -368 0
-217 -222 -220 -410 0
-217 -222 -220 -347 0
-217 -222 -215 -408 0
-121 -171 412 0
-122 -172 412 0
-123 -173 412 0
-124 -174 412 0
-125 -175 412 0
-217 -222 -215 -412 0
-217 -222 -223 -410 0
-217 -222 -223 -408 0
-121 -101 413 0
-122 -102 413 0
-123 -103 413 0
-124 -104 413 0
-125 -105 413 0
-217 -222 -223 -413 0
-207 -218 0
-224 -225 -286 0
-227 -228 -229 -318 0
-227 -228 -230 -318 0
-227 -228 -230 -349 0
-227 -228 -230 -355 0
-76 -31 414 0
-77 -32 414 0
-78 -33 414 0
-79 -34 414 0
-80 -35 414 0
-224 -225 -414 0
-227 -231 -230 -288 0
-227 -231 -230 -318 0
-227 -231 -230 -355 0
-227 -231 -220 -345 0
-227 -231 -220 -350 0
-227 -231 -232 -355 0
-227 -231 -232 -350 0
-227 -231 -232 -356 0
-224 -216 -406 0
-217 -213 -215 -345 0
-217 -213 -215 -346 0
-217 -213 -221 -347 0
-224 -216 -411 0
-217 -222 -220 -349 0
-217 -222 -220 -350 0
-217 -222 -215 -346 0
-217 -222 -215 -351 0
-217 -222 -223 -350 0
-217 -222 -223 -346 0
-217 -222 -223 -352 0
-76 -121 415 0
-77 -122 415 0
-78 -123 415 0
-79 -124 415 0
-80 -125 415 0
-224 -216 -415 0
-217 -233 -221 -351 0
-224 -234 -414 0
-235 -231 -230 -288 0
-235 -231 -230 -318 0
-235 -231 -230 -355 0
-235 -231 -232 -355 0
-235 -231 -232 -350 0
-235 -231 -232 -356 0
-235 -231 -219 -288 0
-224 -234 -411 0
-235 -222 -215 -346 0
-235 -222 -215 -351 0
-235 -222 -223 -350 0
-235 -222 -223 -346 0
-235 -222 -223 -352 0
-235 -222 -214 -351 0
-235 -222 -214 -347 0
-76 -61 416 0
-77 -62 416 0
-78 -63 416 0
-79 -64 416 0
-80 -65 416 0
-224 -234 -416 0
-235 -236 -232 -349 0
-235 -236 -232 -355 0
-235 -236 -232 -356 0
-235 -236 -223 -346 0
-235 -236 -223 -352 0
-235 -236 -223 -345 0
-235 -236 -237 -356 0
-235 -236 -237 -352 0
-235 -236 -237 -358 0
-227 -228 0
-239 -240 -317 0
-242 -243 -244 -269 0
-242 -243 -244 -272 0
-242 -243 -245 -272 0
-242 -243 -245 -278 0
-239 -246 -317 0
-247 -243 -245 -272 0
-247 -243 -245 -278 0
-239 -246 -354 0
-247 -231 -249 -282 0
-247 -231 -249 -285 0
-247 -231 -249 -288 0
-247 -231 -250 -272 0
-247 -231 -250 -285 0
-247 -231 -250 -290 0
-239 -246 -361 0
-247 -251 -245 -287 0
-247 -251 -245 -278 0
-247 -251 -250 -269 0
-247 -251 -250 -285 0
-247 -251 -250 -290 0
-247 -251 -252 -278 0
-247 -251 -252 -290 0
-247 -251 -252 -309 0
-227 -218 0
-224 -216 -344 0
-217 -213 -253 -345 0
-217 -213 -253 -346 0
-217 -213 -254 -347 0
-224 -216 -348 0
-217 -222 -249 -349 0
-217 -222 -249 -350 0
-217 -222 -253 -346 0
-217 -222 -253 -351 0
-217 -222 -255 -350 0
-217 -222 -255 -346 0
-217 -222 -255 -352 0
-224 -216 -353 0
-217 -233 -254 -351 0
-224 -234 -354 0
-235 -231 -244 -288 0
-235 -231 -244 -318 0
-235 -231 -244 -355 0
-235 -231 -250 -355 0
-235 -231 -250 -350 0
-235 -231 -250 -356 0
-224 -234 -348 0
-235 -222 -253 -346 0
-235 -222 -253 -351 0
-235 -222 -255 -350 0
-235 -222 -255 -346 0
-235 -222 -255 -352 0
-235 -222 -256 -351 0
-235 -222 -256 -347 0
-224 -234 -357 0
-235 -236 -250 -349 0
-235 -236 -250 -355 0
-235 -236 -250 -356 0
-235 -236 -255 -346 0
-235 -236 -255 -352 0
-235 -236 -255 -345 0
-235 -236 -257 -356 0
-235 -236 -257 -352 0
-235 -236 -257 -358 0
-224 -258 -353 0
-207 -233 -254 -351 0
-207 -233 -256 -351 0
-207 -233 -256 -345 0
-227 -231 0
-259 -246 -304 0
-247 -228 -248 -319 0
-259 -246 -317 0
-247 -243 -248 -269 0
-247 -243 -245 -359 0
-247 -243 -245 -360 0
-259 -246 -361 0
-247 -251 -245 -319 0
-247 -251 -245 -360 0
-247 -251 -250 -362 0
-247 -251 -250 -363 0
-247 -251 -252 -360 0
-247 -251 -252 -363 0
-247 -251 -252 -364 0
-259 -234 -348 0
-235 -222 -253 -365 0
-235 -222 -253 -366 0
-235 -222 -255 -362 0
-235 -222 -255 -365 0
-235 -222 -255 -367 0
-235 -222 -256 -349 0
-235 -222 -256 -366 0
-235 -222 -256 -368 0
-259 -234 -357 0
-235 -236 -250 -359 0
-235 -236 -250 -363 0
-235 -236 -255 -365 0
-235 -236 -255 -367 0
-235 -236 -255 -369 0
-235 -236 -257 -363 0
-235 -236 -257 -367 0
-235 -236 -257 -370 0
-259 -234 -371 0
-235 -218 -256 -366 0
-235 -218 -256 -369 0
-235 -218 -256 -368 0
-235 -218 -219 -368 0
-259 -261 -361 0
-262 -251 -244 -269 0
-262 -251 -244 -319 0
-262 -251 -245 -319 0
-262 -251 -245 -360 0
-262 -251 -252 -360 0
-262 -251 -252 -363 0
-262 -251 -252 -364 0
-259 -261 -357 0
-262 -236 -255 -365 0
-262 -236 -255 -367 0
-262 -236 -255 -369 0
-262 -236 -257 -363 0
-262 -236 -257 -367 0
-262 -236 -257 -370 0
-262 -236 -249 -369 0
-262 -236 -249 -349 0
-259 -261 -372 0
-262 -263 -252 -359 0
-262 -263 -252 -360 0
-262 -263 -252 -364 0
-262 -263 -257 -362 0
-262 -263 -257 -367 0
-262 -263 -257 -370 0
-262 -263 -264 -364 0
-262 -263 -264 -370 0
-262 -263 -264 -373 0
-11 -16 0
-12 -17 0
-13 -18 0
-14 -19 0
-15 -20 0
-242 -287 0
-266 -267 -314 0
-247 -269 -270 -321 0
-247 -269 -270 -322 0
-247 -269 -270 -318 0
-247 -269 -271 -324 0
-247 -269 -271 -322 0
-247 -269 -271 -325 0
-247 -269 -248 -318 0
-247 -269 -248 -243 0
-266 -267 -316 0
-247 -272 -273 -327 0
-247 -272 -271 -319 0
-247 -272 -271 -322 0
-247 -272 -271 -325 0
-247 -272 -274 -327 0
-247 -272 -274 -325 0
-247 -272 -274 -329 0
-266 -275 -316 0
-276 -272 -277 -319 0
-276 -272 -271 -319 0
-276 -272 -271 -322 0
-276 -272 -271 -325 0
-276 -272 -274 -327 0
-276 -272 -274 -325 0
-276 -272 -274 -329 0
-266 -275 -340 0
-276 -278 -274 -324 0
-276 -278 -274 -325 0
-276 -278 -274 -329 0
-276 -278 -279 -329 0
-276 -278 -279 -343 0
-227 -288 0
-224 -280 -344 0
-217 -281 -253 -345 0
-217 -281 -253 -346 0
-217 -281 -254 -347 0
-224 -280 -348 0
-217 -282 -249 -349 0
-217 -282 -249 -350 0
-217 -282 -253 -346 0
-217 -282 -253 -351 0
-217 -282 -255 -350 0
-217 -282 -255 -346 0
-217 -282 -255 -352 0
-224 -280 -353 0
-217 -283 -219 -218 0
-217 -283 -254 -351 0
-224 -284 -354 0
-235 -269 -244 -318 0
-235 -269 -244 -355 0
-235 -269 -250 -355 0
-235 -269 -250 -350 0
-235 -269 -250 -356 0
-224 -284 -348 0
-235 -282 -253 -346 0
-235 -282 -253 -351 0
-235 -282 -255 -350 0
-235 -282 -255 -346 0
-235 -282 -255 -352 0
-235 -282 -256 -351 0
-235 -282 -256 -347 0
-224 -284 -357 0
-235 -285 -250 -349 0
-235 -285 -250 -355 0
-235 -285 -250 -356 0
-235 -285 -255 -346 0
-235 -285 -255 -352 0
-235 -285 -255 -345 0
-235 -285 -257 -356 0
-235 -285 -257 -352 0
-235 -285 -257 -358 0
-224 -286 -225 0
-224 -286 -353 0
-207 -283 -254 -351 0
-207 -283 -256 -351 0
-207 -283 -256 -345 0
-227 -269 0
-259 -267 -317 0
-247 -287 -245 -359 0
-247 -287 -245 -360 0
-259 -267 -361 0
-247 -272 -245 -319 0
-247 -272 -245 -360 0
-247 -272 -250 -362 0
-247 -272 -250 -363 0
-247 -272 -252 -360 0
-247 -272 -252 -363 0
-247 -272 -252 -364 0
-259 -284 -348 0
-235 -282 -253 -365 0
-235 -282 -253 -366 0
-235 -282 -255 -362 0
-235 -282 -255 -365 0
-235 -282 -255 -367 0
-235 -282 -256 -349 0
-235 -282 -256 -366 0
-235 -282 -256 -368 0
-259 -284 -357 0
-235 -285 -250 -359 0
-235 -285 -250 -363 0
-235 -285 -255 -365 0
-235 -285 -255 -367 0
-235 -285 -255 -369 0
-235 -285 -257 -363 0
-235 -285 -257 -367 0
-235 -285 -257 -370 0
-259 -284 -371 0
-235 -288 -256 -366 0
-235 -288 -256 -369 0
-235 -288 -256 -368 0
-235 -288 -219 -231 0
-235 -288 -219 -368 0
-259 -289 -361 0
-262 -272 -244 -319 0
-262 -272 -245 -319 0
-262 -272 -245 -360 0
-262 -272 -252 -360 0
-262 -272 -252 -363 0
-262 -272 -252 -364 0
-259 -289 -357 0
-262 -285 -255 -365 0
-262 -285 -255 -367 0
-262 -285 -255 -369 0
-262 -285 -257 -363 0
-262 -285 -257 -367 0
-262 -285 -257 -370 0
-262 -285 -249 -369 0
-262 -285 -249 -349 0
-259 -289 -372 0
-262 -290 -252 -359 0
-262 -290 -252 -360 0
-262 -290 -252 -364 0
-262 -290 -257 -362 0
-262 -290 -257 -367 0
-262 -290 -257 -370 0
-262 -290 -264 -364 0
-262 -290 -264 -370 0
-262 -290 -264 -373 0
-227 -228 0
-291 -286 -353 0
-207 -283 -254 -213 0
-207 -283 -256 -218 0
-207 -283 -256 -213 0
-207 -283 -256 -222 0
-291 -286 -371 0
-207 -288 -256 -213 0
-207 -288 -256 -222 0
-207 -288 -256 -233 0
-207 -288 -249 -231 0
-207 -288 -249 -222 0
-207 -288 -249 -236 0
-247 -287 0
-266 -275 -374 0
-276 -272 -294 -319 0
-276 -272 -294 -322 0
-276 -272 -294 -325 0
-276 -272 -295 -327 0
-276 -272 -295 -325 0
-276 -272 -295 -329 0
-266 -275 -375 0
-276 -278 -295 -324 0
-276 -278 -295 -325 0
-276 -278 -295 -329 0
-276 -278 -296 -329 0
-276 -278 -296 -343 0
-247 -269 0
-259 -284 -376 0
-235 -282 -297 -365 0
-235 -282 -297 -366 0
-235 -282 -298 -362 0
-235 -282 -298 -365 0
-235 -282 -298 -367 0
-235 -282 -299 -349 0
-235 -282 -299 -366 0
-235 -282 -299 -368 0
-259 -284 -377 0
-235 -285 -294 -359 0
-235 -285 -294 -363 0
-235 -285 -298 -365 0
-235 -285 -298 -367 0
-235 -285 -298 -369 0
-235 -285 -300 -363 0
-235 -285 -300 -367 0
-235 -285 -300 -370 0
-259 -284 -378 0
-235 -288 -244 -231 0
-235 -288 -299 -366 0
-235 -288 -299 -369 0
-235 -288 -299 -368 0
-235 -288 -230 -231 0
-235 -288 -230 -368 0
-259 -289 -374 0
-262 -272 -301 -319 0
-262 -272 -301 -360 0
-262 -272 -295 -360 0
-262 -272 -295 -363 0
-262 -272 -295 -364 0
-259 -289 -377 0
-262 -285 -298 -365 0
-262 -285 -298 -367 0
-262 -285 -298 -369 0
-262 -285 -300 -363 0
-262 -285 -300 -367 0
-262 -285 -300 -370 0
-262 -285 -302 -369 0
-262 -285 -302 -349 0
-259 -289 -379 0
-262 -290 -295 -359 0
-262 -290 -295 -360 0
-262 -290 -295 -364 0
-262 -290 -300 -362 0
-262 -290 -300 -367 0
-262 -290 -300 -370 0
-262 -290 -303 -364 0
-262 -290 -303 -370 0
-262 -290 -303 -373 0
-259 -304 -378 0
-227 -288 -299 -366 0
-227 -288 -299 -369 0
-227 -288 -299 -368 0
-227 -288 -302 -369 0
-227 -288 -302 -362 0
-227 -288 -230 -231 0
-227 -288 -230 -368 0
-259 -304 -246 0
-227 -228 -230 -368 0
-227 -228 -230 -349 0
-247 -272 0
-305 -275 -331 0
-305 -275 -375 0
-276 -278 -295 -380 0
-276 -278 -295 -381 0
-276 -278 -296 -381 0
-276 -278 -296 -382 0
-305 -289 -383 0
-262 -269 -302 -384 0
-262 -269 -302 -385 0
-262 -269 -302 -355 0
-262 -269 -244 -355 0
-262 -269 -244 -251 0
-305 -289 -377 0
-262 -285 -298 -386 0
-262 -285 -298 -387 0
-262 -285 -298 -384 0
-262 -285 -300 -380 0
-262 -285 -300 -387 0
-262 -285 -300 -388 0
-262 -285 -302 -359 0
-262 -285 -302 -384 0
-262 -285 -302 -355 0
-305 -289 -379 0
-262 -290 -295 -389 0
-262 -290 -295 -381 0
-262 -290 -300 -385 0
-262 -290 -300 -387 0
-262 -290 -300 -388 0
-262 -290 -303 -381 0
-262 -290 -303 -388 0
-262 -290 -303 -390 0
-305 -307 -375 0
-308 -278 -301 -324 0
-308 -278 -296 -381 0
-308 -278 -296 -382 0
-305 -307 -379 0
-308 -290 -294 -359 0
-308 -290 -294 -385 0
-308 -290 -300 -385 0
-308 -290 -300 -387 0
-308 -290 -300 -388 0
-308 -290 -303 -381 0
-308 -290 -303 -388 0
-308 -290 -303 -390 0
-305 -307 -391 0
-308 -309 -296 -389 0
-308 -309 -296 -382 0
-308 -309 -303 -380 0
-308 -309 -303 -388 0
-308 -309 -303 -390 0
-308 -309 -310 -382 0
-308 -309 -310 -390 0
-239 -240 -208 0
-228 -229 -211 -212 0
-228 -229 -211 -217 0
-228 -229 -226 -227 0
-228 -229 -226 -217 0
-228 -229 -226 -235 0
-239 -240 -238 0
-228 -248 -226 -217 0
-228 -248 -226 -235 0
-228 -248 -226 -207 0
-228 -248 -260 -247 0
-228 -248 -260 -235 0
-228 -248 -260 -262 0
-287 -277 0
-267 -314 -320 0
-269 -270 -321 -297 0
-269 -270 -321 -298 0
-269 -270 -321 -299 0
-269 -270 -322 -294 0
-269 -270 -322 -298 0
-269 -270 -322 -300 0
-269 -270 -318 -244 0
-269 -270 -318 -299 0
-269 -270 -318 -230 0
-267 -314 -323 0
-269 -271 -324 -301 0
-269 -271 -324 -295 0
-269 -271 -322 -298 0
-269 -271 -322 -300 0
-269 -271 -322 -302 0
-269 -271 -325 -295 0
-269 -271 -325 -300 0
-269 -271 -325 -303 0
-267 -314 -317 0
-269 -248 -318 -299 0
-269 -248 -318 -302 0
-269 -248 -318 -230 0
-269 -248 -243 -230 0
-267 -316 -326 0
-272 -273 -327 -295 0
-272 -273 -327 -296 0
-267 -316 -323 0
-272 -271 -319 -302 0
-272 -271 -319 -244 0
-272 -271 -322 -298 0
-272 -271 -322 -300 0
-272 -271 -322 -302 0
-272 -271 -325 -295 0
-272 -271 -325 -300 0
-272 -271 -325 -303 0
-267 -316 -328 0
-272 -274 -327 -301 0
-272 -274 -327 -296 0
-272 -274 -325 -294 0
-272 -274 -325 -300 0
-272 -274 -325 -303 0
-272 -274 -329 -296 0
-272 -274 -329 -303 0
-272 -274 -329 -310 0
-287 -273 0
-275 -316 -331 0
-272 -277 -319 -332 0
-272 -277 -319 -333 0
-272 -277 -319 -245 0
-275 -316 -323 0
-272 -271 -319 -301 0
-272 -271 -319 -332 0
-272 -271 -319 -245 0
-272 -271 -322 -334 0
-272 -271 -322 -335 0
-272 -271 -322 -332 0
-272 -271 -325 -336 0
-272 -271 -325 -335 0
-272 -271 -325 -337 0
-275 -316 -328 0
-272 -274 -327 -338 0
-272 -274 -325 -333 0
-272 -274 -325 -335 0
-272 -274 -325 -337 0
-272 -274 -329 -338 0
-272 -274 -329 -337 0
-272 -274 -329 -339 0
-275 -340 -328 0
-278 -274 -324 -301 0
-278 -274 -324 -333 0
-278 -274 -325 -333 0
-278 -274 -325 -335 0
-278 -274 -325 -337 0
-278 -274 -329 -338 0
-278 -274 -329 -337 0
-278 -274 -329 -339 0
-275 -340 -342 0
-278 -279 -329 -336 0
-278 -279 -329 -337 0
-278 -279 -329 -339 0
-278 -279 -343 -339 0
-293 -266 -292 0
-287 -247 -260 -270 0
-287 -247 -260 -271 0
-287 -247 -260 -248 0
-287 -247 -306 -273 0
-287 -247 -306 -271 0
-287 -247 -306 -274 0
-293 -266 -330 0
-287 -276 -306 -277 0
-287 -276 -306 -271 0
-287 -276 -306 -274 0
-287 -276 -341 -274 0
-287 -276 -341 -279 0
-228 -207 0
-286 -209 -210 0
-283 -212 -213 -214 0
-283 -212 -213 -215 0
-286 -209 -216 0
-283 -217 -218 -219 0
-283 -217 -218 -220 0
-283 -217 -213 -215 0
-283 -217 -213 -221 0
-283 -217 -222 -220 0
-283 -217 -222 -215 0
-283 -217 -222 -223 0
-286 -224 -225 0
-288 -227 -231 -230 0
-288 -227 -231 -220 0
-288 -227 -231 -232 0
-286 -224 -216 0
-288 -217 -213 -215 0
-288 -217 -213 -221 0
-288 -217 -222 -220 0
-288 -217 -222 -215 0
-288 -217 -222 -223 0
-288 -217 -233 -221 0
-286 -224 -234 0
-288 -235 -231 -230 0
-288 -235 -231 -232 0
-288 -235 -231 -219 0
-288 -235 -222 -215 0
-288 -235 -222 -223 0
-288 -235 -222 -214 0
-288 -235 -236 -232 0
-288 -235 -236 -223 0
-288 -235 -236 -237 0
-228 -227 0
-304 -224 -216 0
-288 -217 -213 -253 0
-288 -217 -213 -254 0
-288 -217 -222 -249 0
-288 -217 -222 -253 0
-288 -217 -222 -255 0
-288 -217 -233 -219 0
-288 -217 -233 -254 0
-304 -224 -234 0
-288 -235 -231 -244 0
-288 -235 -231 -250 0
-288 -235 -222 -253 0
-288 -235 -222 -255 0
-288 -235 -222 -256 0
-288 -235 -236 -250 0
-288 -235 -236 -255 0
-288 -235 -236 -257 0
-304 -224 -258 0
-288 -207 -233 -254 0
-288 -207 -233 -256 0
-304 -259 -246 0
-269 -247 -243 -245 0
-269 -247 -251 -245 0
-269 -247 -251 -250 0
-269 -247 -251 -252 0
-304 -259 -234 0
-269 -235 -222 -253 0
-269 -235 -222 -255 0
-269 -235 -222 -256 0
-269 -235 -236 -250 0
-269 -235 -236 -255 0
-269 -235 -236 -257 0
-269 -235 -218 -256 0
-269 -235 -218 -219 0
-304 -259 -261 0
-269 -262 -251 -244 0
-269 -262 -251 -245 0
-269 -262 -251 -252 0
-269 -262 -236 -255 0
-269 -262 -236 -257 0
-269 -262 -236 -249 0
-269 -262 -263 -252 0
-269 -262 -263 -257 0
-269 -262 -263 -264 0
-16 -36 0
-17 -37 0
-18 -38 0
-19 -39 0
-20 -40 0
-288 -256 0
-71 -166 417 0
-72 -167 417 0
-73 -168 417 0
-74 -169 417 0
-75 -170 417 0
-280 -344 -417 0
-116 -66 418 0
-117 -67 418 0
-118 -68 418 0
-119 -69 418 0
-120 -70 418 0
-281 -253 -345 -418 0
-116 -106 419 0
-117 -107 419 0
-118 -108 419 0
-119 -109 419 0
-120 -110 419 0
-281 -253 -345 -419 0
-281 -253 -346 -419 0
-116 -156 420 0
-117 -157 420 0
-118 -158 420 0
-119 -159 420 0
-120 -160 420 0
-281 -253 -346 -420 0
-71 -176 421 0
-72 -177 421 0
-73 -178 421 0
-74 -179 421 0
-75 -180 421 0
-280 -344 -421 0
-281 -254 -347 -214 0
-71 -66 422 0
-72 -67 422 0
-73 -68 422 0
-74 -69 422 0
-75 -70 422 0
-280 -348 -422 0
-282 -249 -349 -299 0
-116 -56 423 0
-117 -57 423 0
-118 -58 423 0
-119 -59 423 0
-120 -60 423 0
-282 -249 -349 -423 0
-282 -249 -350 -423 0
-282 -249 -350 -419 0
-116 -96 424 0
-117 -97 424 0
-118 -98 424 0
-119 -99 424 0
-120 -100 424 0
-282 -249 -350 -424 0
-280 -348 -417 0
-282 -253 -346 -419 0
-282 -253 -346 -420 0
-116 -176 425 0
-117 -177 425 0
-118 -178 425 0
-119 -179 425 0
-120 -180 425 0
-282 -253 -351 -425 0
-71 -106 426 0
-72 -107 426 0
-73 -108 426 0
-74 -109 426 0
-75 -110 426 0
-280 -348 -426 0
-282 -255 -350 -423 0
-282 -255 -350 -424 0
-282 -255 -350 -418 0
-282 -255 -346 -420 0
-116 -166 427 0
-117 -167 427 0
-118 -168 427 0
-119 -169 427 0
-120 -170 427 0
-282 -255 -346 -427 0
-282 -255 -352 -424 0
-282 -255 -352 -420 0
-116 -146 428 0
-117 -147 428 0
-118 -148 428 0
-119 -149 428 0
-120 -150 428 0
-282 -255 -352 -428 0
-280 -353 -409 0
-280 -353 -421 0
-283 -254 -351 -427 0
-288 -249 0
-284 -354 -378 0
-269 -244 -318 -332 0
-269 -244 -355 -332 0
-66 -56 429 0
-67 -57 429 0
-68 -58 429 0
-69 -59 429 0
-70 -60 429 0
-269 -244 -355 -429 0
-66 -86 430 0
-67 -87 430 0
-68 -88 430 0
-69 -89 430 0
-70 -90 430 0
-269 -244 -355 -430 0
-71 -56 431 0
-72 -57 431 0
-73 -58 431 0
-74 -59 431 0
-75 -60 431 0
-284 -354 -431 0
-269 -250 -355 -302 0
-269 -250 -355 -332 0
-269 -250 -355 -430 0
-66 -106 432 0
-67 -107 432 0
-68 -108 432 0
-69 -109 432 0
-70 -110 432 0
-269 -250 -350 -432 0
-66 -96 433 0
-67 -97 433 0
-68 -98 433 0
-69 -99 433 0
-70 -100 433 0
-269 -250 -350 -433 0
-269 -250 -356 -430 0
-269 -250 -356 -433 0
-66 -136 434 0
-67 -137 434 0
-68 -138 434 0
-69 -139 434 0
-70 -140 434 0
-269 -250 -356 -434 0
-284 -348 -417 0
-282 -253 -346 -432 0
-66 -156 435 0
-67 -157 435 0
-68 -158 435 0
-69 -159 435 0
-70 -160 435 0
-282 -253 -346 -435 0
-282 -253 -351 -418 0
-66 -176 436 0
-67 -177 436 0
-68 -178 436 0
-69 -179 436 0
-70 -180 436 0
-282 -253 -351 -436 0
-284 -348 -426 0
-282 -255 -350 -429 0
-282 -255 -350 -433 0
-282 -255 -346 -435 0
-66 -166 437 0
-67 -167 437 0
-68 -168 437 0
-69 -169 437 0
-70 -170 437 0
-282 -255 -346 -437 0
-282 -255 -352 -433 0
-282 -255 -352 -435 0
-66 -146 438 0
-67 -147 438 0
-68 -148 438 0
-69 -149 438 0
-70 -150 438 0
-282 -255 -352 -438 0
-71 -116 439 0
-72 -117 439 0
-73 -118 439 0
-74 -119 439 0
-75 -120 439 0
-284 -348 -439 0
-282 -256 -351 -437 0
-282 -256 -351 -436 0
-282 -256 -347 -220 0
-282 -256 -347 -436 0
-284 -357 -431 0
-285 -250 -349 -302 0
-285 -250 -355 -302 0
-285 -250 -355 -332 0
-285 -250 -355 -430 0
-285 -250 -356 -430 0
-285 -250 -356 -433 0
-285 -250 -356 -434 0
-284 -357 -426 0
-285 -255 -346 -435 0
-285 -255 -346 -437 0
-285 -255 -352 -433 0
-285 -255 -352 -435 0
-285 -255 -352 -438 0
-285 -255 -345 -437 0
-285 -255 -345 -418 0
-71 -96 440 0
-72 -97 440 0
-73 -98 440 0
-74 -99 440 0
-75 -100 440 0
-284 -357 -440 0
-285 -257 -356 -429 0
-285 -257 -356 -430 0
-285 -257 -356 -434 0
-285 -257 -352 -435 0
-285 -257 -352 -438 0
-285 -257 -352 -432 0
-285 -257 -358 -434 0
-285 -257 -358 -438 0
-66 -196 441 0
-67 -197 441 0
-68 -198 441 0
-69 -199 441 0
-70 -200 441 0
-285 -257 -358 -441 0
-288 -219 0
-286 -353 -421 0
-283 -254 -351 -214 0
-283 -254 -351 -215 0
-286 -353 -439 0
-283 -256 -351 -215 0
-283 -256 -351 -221 0
-283 -256 -345 -220 0
-283 -256 -345 -215 0
-283 -256 -345 -223 0
-269 -244 0
-267 -317 -392 0
-287 -245 -359 -294 0
-287 -245 -359 -295 0
-287 -245 -360 -295 0
-287 -245 -360 -296 0
-267 -361 -392 0
-272 -245 -360 -295 0
-272 -245 -360 -296 0
-31 -56 442 0
-32 -57 442 0
-33 -58 442 0
-34 -59 442 0
-35 -60 442 0
-267 -361 -442 0
-272 -250 -362 -298 0
-272 -250 -362 -300 0
-272 -250 -362 -302 0
-272 -250 -363 -295 0
-272 -250 -363 -300 0
-272 -250 -363 -303 0
-31 -86 443 0
-32 -87 443 0
-33 -88 443 0
-34 -89 443 0
-35 -90 443 0
-267 -361 -443 0
-272 -252 -360 -301 0
-272 -252 -360 -296 0
-272 -252 -363 -294 0
-272 -252 -363 -300 0
-272 -252 -363 -303 0
-272 -252 -364 -296 0
-272 -252 -364 -303 0
-272 -252 -364 -310 0
-269 -249 0
-31 -166 444 0
-32 -167 444 0
-33 -168 444 0
-34 -169 444 0
-35 -170 444 0
-284 -348 -444 0
-282 -253 -365 -432 0
-282 -253 -365 -435 0
-282 -253 -366 -418 0
-282 -253 -366 -436 0
-31 -106 445 0
-32 -107 445 0
-33 -108 445 0
-34 -109 445 0
-35 -110 445 0
-284 -348 -445 0
-282 -255 -362 -429 0
-282 -255 -362 -433 0
-282 -255 -365 -435 0
-282 -255 -365 -437 0
-282 -255 -367 -433 0
-282 -255 -367 -435 0
-282 -255 -367 -438 0
-31 -116 446 0
-32 -117 446 0
-33 -118 446 0
-34 -119 446 0
-35 -120 446 0
-284 -348 -446 0
-282 -256 -349 -220 0
-282 -256 -366 -437 0
-282 -256 -366 -436 0
-282 -256 -368 -220 0
-282 -256 -368 -436 0
-284 -357 -442 0
-285 -250 -359 -302 0
-285 -250 -359 -332 0
-285 -250 -359 -430 0
-285 -250 -363 -430 0
-285 -250 -363 -433 0
-285 -250 -363 -434 0
-284 -357 -445 0
-285 -255 -365 -435 0
-285 -255 -365 -437 0
-285 -255 -367 -433 0
-285 -255 -367 -435 0
-285 -255 -367 -438 0
-285 -255 -369 -437 0
-285 -255 -369 -418 0
-31 -96 447 0
-32 -97 447 0
-33 -98 447 0
-34 -99 447 0
-35 -100 447 0
-284 -357 -447 0
-285 -257 -363 -429 0
-285 -257 -363 -430 0
-285 -257 -363 -434 0
-285 -257 -367 -435 0
-285 -257 -367 -438 0
-285 -257 -367 -432 0
-285 -257 -370 -434 0
-285 -257 -370 -438 0
-285 -257 -370 -441 0
-284 -371 -446 0
-288 -256 -366 -437 0
-288 -256 -366 -436 0
-288 -256 -369 -437 0
-288 -256 -369 -432 0
-288 -256 -368 -220 0
-288 -256 -368 -436 0
-284 -371 -414 0
-288 -219 -368 -436 0
-288 -219 -368 -418 0
-269 -250 0
-289 -361 -383 0
-272 -244 -319 -333 0
-289 -361 -392 0
-272 -245 -319 -294 0
-56 -86 448 0
-57 -87 448 0
-58 -88 448 0
-59 -89 448 0
-60 -90 448 0
-272 -245 -360 -448 0
-56 -126 449 0
-57 -127 449 0
-58 -128 449 0
-59 -129 449 0
-60 -130 449 0
-272 -245 -360 -449 0
-289 -361 -443 0
-272 -252 -360 -333 0
-272 -252 -360 -449 0
-56 -96 450 0
-57 -97 450 0
-58 -98 450 0
-59 -99 450 0
-60 -100 450 0
-272 -252 -363 -450 0
-56 -136 451 0
-57 -137 451 0
-58 -138 451 0
-59 -139 451 0
-60 -140 451 0
-272 -252 -363 -451 0
-272 -252 -364 -449 0
-272 -252 -364 -451 0
-56 -186 452 0
-57 -187 452 0
-58 -188 452 0
-59 -189 452 0
-60 -190 452 0
-272 -252 -364 -452 0
-289 -357 -445 0
-56 -156 453 0
-57 -157 453 0
-58 -158 453 0
-59 -159 453 0
-60 -160 453 0
-285 -255 -365 -453 0
-56 -166 454 0
-57 -167 454 0
-58 -168 454 0
-59 -169 454 0
-60 -170 454 0
-285 -255 -365 -454 0
-285 -255 -367 -450 0
-285 -255 -367 -453 0
-56 -146 455 0
-57 -147 455 0
-58 -148 455 0
-59 -149 455 0
-60 -150 455 0
-285 -255 -367 -455 0
-285 -255 -369 -429 0
-285 -255 -369 -454 0
-285 -255 -369 -423 0
-289 -357 -447 0
-285 -257 -363 -448 0
-285 -257 -363 -451 0
-285 -257 -367 -453 0
-285 -257 -367 -455 0
-56 -106 456 0
-57 -107 456 0
-58 -108 456 0
-59 -109 456 0
-60 -110 456 0
-285 -257 -367 -456 0
-285 -257 -370 -451 0
-285 -257 -370 -455 0
-56 -196 457 0
-57 -197 457 0
-58 -198 457 0
-59 -199 457 0
-60 -200 457 0
-285 -257 -370 -457 0
-31 -66 458 0
-32 -67 458 0
-33 -68 458 0
-34 -69 458 0
-35 -70 458 0
-289 -357 -458 0
-285 -249 -369 -454 0
-285 -249 -369 -456 0
-285 -249 -369 -423 0
-285 -249 -349 -423 0
-285 -249 -349 -232 0
-289 -372 -443 0
-290 -252 -359 -294 0
-290 -252 -359 -333 0
-290 -252 -360 -333 0
-290 -252 -360 -449 0
-290 -252 -364 -449 0
-290 -252 -364 -451 0
-290 -252 -364 -452 0
-289 -372 -447 0
-290 -257 -362 -456 0
-290 -257 -362 -429 0
-290 -257 -367 -453 0
-290 -257 -367 -455 0
-290 -257 -367 -456 0
-290 -257 -370 -451 0
-290 -257 -370 -455 0
-290 -257 -370 -457 0
-31 -136 459 0
-32 -137 459 0
-33 -138 459 0
-34 -139 459 0
-35 -140 459 0
-289 -372 -459 0
-290 -264 -364 -448 0
-290 -264 -364 -449 0
-290 -264 -364 -452 0
-290 -264 -370 -450 0
-290 -264 -370 -455 0
-290 -264 -370 -457 0
-290 -264 -373 -452 0
-290 -264 -373 -457 0
-241 -248 -243 -247 0
-241 -248 -243 -276 0
-228 -219 0
-286 -353 -210 0
-283 -254 -213 -214 0
-283 -254 -213 -215 0
-286 -353 -216 0
-283 -256 -218 -220 0
-283 -256 -213 -215 0
-283 -256 -213 -221 0
-283 -256 -222 -220 0
-283 -256 -222 -215 0
-283 -256 -222 -223 0
-286 -371 -216 0
-288 -256 -213 -215 0
-288 -256 -213 -221 0
-288 -256 -222 -220 0
-288 -256 -222 -215 0
-288 -256 -222 -223 0
-288 -256 -233 -221 0
-286 -371 -234 0
-288 -249 -231 -230 0
-288 -249 -231 -232 0
-288 -249 -222 -215 0
-288 -249 -222 -223 0
-288 -249 -222 -214 0
-288 -249 -236 -232 0
-288 -249 -236 -223 0
-288 -249 -236 -237 0
-16 -26 0
-17 -27 0
-18 -28 0
-19 -29 0
-20 -30 0
-241 -247 -243 -229 0
-241 -247 -243 -248 0
-287 -301 0
-275 -374 -323 0
-272 -294 -319 -332 0
-272 -294 -319 -245 0
-272 -294 -322 -334 0
-272 -294 -322 -335 0
-272 -294 -322 -332 0
-272 -294 -325 -336 0
-272 -294 -325 -335 0
-272 -294 -325 -337 0
-275 -374 -328 0
-272 -295 -327 -338 0
-272 -295 -325 -333 0
-272 -295 -325 -335 0
-272 -295 -325 -337 0
-272 -295 -329 -338 0
-272 -295 -329 -337 0
-272 -295 -329 -339 0
-275 -375 -328 0
-278 -295 -324 -333 0
-278 -295 -325 -333 0
-278 -295 -325 -335 0
-278 -295 -325 -337 0
-278 -295 -329 -338 0
-278 -295 -329 -337 0
-278 -295 -329 -339 0
-275 -375 -342 0
-278 -296 -329 -336 0
-278 -296 -329 -337 0
-278 -296 -329 -339 0
-278 -296 -343 -339 0
-269 -302 0
-284 -376 -444 0
-282 -297 -365 -432 0
-282 -297 -365 -435 0
-282 -297 -366 -418 0
-282 -297 -366 -436 0
-284 -376 -445 0
-282 -298 -362 -429 0
-282 -298 -362 -433 0
-282 -298 -365 -435 0
-282 -298 -365 -437 0
-282 -298 -367 -433 0
-282 -298 -367 -435 0
-282 -298 -367 -438 0
-284 -376 -446 0
-282 -299 -349 -249 0
-282 -299 -349 -220 0
-282 -299 -366 -437 0
-282 -299 -366 -436 0
-282 -299 -368 -220 0
-282 -299 -368 -436 0
-284 -377 -442 0
-285 -294 -359 -332 0
-285 -294 -359 -430 0
-285 -294 -363 -430 0
-285 -294 -363 -433 0
-285 -294 -363 -434 0
-284 -377 -445 0
-285 -298 -365 -435 0
-285 -298 -365 -437 0
-285 -298 -367 -433 0
-285 -298 -367 -435 0
-285 -298 -367 -438 0
-285 -298 -369 -437 0
-285 -298 -369 -418 0
-284 -377 -447 0
-285 -300 -363 -429 0
-285 -300 -363 -430 0
-285 -300 -363 -434 0
-285 -300 -367 -435 0
-285 -300 -367 -438 0
-285 -300 -367 -432 0
-285 -300 -370 -434 0
-285 -300 -370 -438 0
-285 -300 -370 -441 0
-284 -378 -354 0
-288 -244 -231 -220 0
-284 -378 -446 0
-288 -299 -366 -437 0
-288 -299 -366 -436 0
-288 -299 -369 -437 0
-288 -299 -369 -432 0
-288 -299 -368 -220 0
-288 -299 -368 -436 0
-284 -378 -414 0
-288 -230 -231 -249 0
-288 -230 -368 -436 0
-288 -230 -368 -418 0
-269 -294 0
-289 -374 -392 0
-272 -301 -360 -448 0
-272 -301 -360 -449 0
-289 -374 -443 0
-272 -295 -360 -333 0
-272 -295 -360 -449 0
-272 -295 -363 -450 0
-272 -295 -363 -451 0
-272 -295 -364 -449 0
-272 -295 -364 -451 0
-272 -295 -364 -452 0
-289 -377 -445 0
-285 -298 -365 -453 0
-285 -298 -365 -454 0
-285 -298 -367 -450 0
-285 -298 -367 -453 0
-285 -298 -367 -455 0
-285 -298 -369 -429 0
-285 -298 -369 -454 0
-285 -298 -369 -423 0
-289 -377 -447 0
-285 -300 -363 -448 0
-285 -300 -363 -451 0
-285 -300 -367 -453 0
-285 -300 -367 -455 0
-285 -300 -367 -456 0
-285 -300 -370 -451 0
-285 -300 -370 -455 0
-285 -300 -370 -457 0
-289 -377 -458 0
-285 -302 -369 -454 0
-285 -302 -369 -456 0
-285 -302 -369 -423 0
-285 -302 -349 -250 0
-285 -302 -349 -423 0
-285 -302 -349 -232 0
-289 -379 -443 0
-290 -295 -359 -333 0
-290 -295 -360 -333 0
-290 -295 -360 -449 0
-290 -295 -364 -449 0
-290 -295 -364 -451 0
-290 -295 -364 -452 0
-289 -379 -447 0
-290 -300 -362 -456 0
-290 -300 -362 -429 0
-290 -300 -367 -453 0
-290 -300 -367 -455 0
-290 -300 -367 -456 0
-290 -300 -370 -451 0
-290 -300 -370 -455 0
-290 -300 -370 -457 0
-289 -379 -459 0
-290 -303 -364 -448 0
-290 -303 -364 -449 0
-290 -303 -364 -452 0
-290 -303 -370 -450 0
-290 -303 -370 -455 0
-290 -303 -370 -457 0
-290 -303 -373 -452 0
-290 -303 -373 -457 0
-269 -244 0
-304 -378 -446 0
-288 -299 -366 -253 0
-288 -299 -366 -254 0
-288 -299 -369 -249 0
-288 -299 -369 -253 0
-288 -299 -369 -255 0
-288 -299 -368 -219 0
-288 -299 -368 -254 0
-304 -378 -458 0
-288 -302 -369 -253 0
-288 -302 -369 -255 0
-288 -302 -369 -256 0
-288 -302 -362 -250 0
-288 -302 -362 -255 0
-288 -302 -362 -257 0
-304 -378 -414 0
-288 -230 -368 -254 0
-288 -230 -368 -256 0
-304 -246 -414 0
-228 -230 -368 -254 0
-228 -230 -368 -256 0
-228 -230 -349 -256 0
-228 -230 -349 -249 0
-272 -301 0
-51 -86 460 0
-52 -87 460 0
-53 -88 460 0
-54 -89 460 0
-55 -90 460 0
-275 -375 -460 0
-278 -295 -380 -333 0
-278 -295 -380 -335 0
-278 -295 -380 -337 0
-278 -295 -381 -338 0
-278 -295 -381 -337 0
-278 -295 -381 -339 0
-51 -126 461 0
-52 -127 461 0
-53 -128 461 0
-54 -129 461 0
-55 -130 461 0
-275 -375 -461 0
-278 -296 -381 -336 0
-278 -296 -381 -337 0
-278 -296 -381 -339 0
-278 -296 -382 -339 0
-272 -294 0
-51 -66 462 0
-52 -67 462 0
-53 -68 462 0
-54 -69 462 0
-55 -70 462 0
-289 -383 -462 0
-269 -302 -384 -454 0
-269 -302 -384 -456 0
-269 -302 -384 -423 0
-269 -302 -385 -456 0
-269 -302 -385 -450 0
-269 -302 -355 -250 0
-269 -302 -355 -423 0
-269 -302 -355 -232 0
-289 -383 -361 0
-269 -244 -355 -423 0
-269 -244 -355 -429 0
-269 -244 -355 -232 0
-269 -244 -251 -232 0
-51 -106 463 0
-52 -107 463 0
-53 -108 463 0
-54 -109 463 0
-55 -110 463 0
-289 -377 -463 0
-285 -298 -386 -453 0
-285 -298 -386 -454 0
-285 -298 -387 -450 0
-285 -298 -387 -453 0
-285 -298 -387 -455 0
-285 -298 -384 -429 0
-285 -298 -384 -454 0
-285 -298 -384 -423 0
-51 -96 464 0
-52 -97 464 0
-53 -98 464 0
-54 -99 464 0
-55 -100 464 0
-289 -377 -464 0
-285 -300 -380 -448 0
-285 -300 -380 -451 0
-285 -300 -387 -453 0
-285 -300 -387 -455 0
-285 -300 -387 -456 0
-285 -300 -388 -451 0
-285 -300 -388 -455 0
-285 -300 -388 -457 0
-289 -377 -462 0
-285 -302 -359 -250 0
-285 -302 -384 -454 0
-285 -302 -384 -456 0
-285 -302 -384 -423 0
-285 -302 -355 -250 0
-285 -302 -355 -423 0
-285 -302 -355 -232 0
-289 -379 -460 0
-290 -295 -389 -333 0
-290 -295 -389 -449 0
-290 -295 -381 -449 0
-290 -295 -381 -451 0
-290 -295 -381 -452 0
-289 -379 -464 0
-290 -300 -385 -456 0
-290 -300 -385 -429 0
-290 -300 -387 -453 0
-290 -300 -387 -455 0
-290 -300 -387 -456 0
-290 -300 -388 -451 0
-290 -300 -388 -455 0
-290 -300 -388 -457 0
-51 -136 465 0
-52 -137 465 0
-53 -138 465 0
-54 -139 465 0
-55 -140 465 0
-289 -379 -465 0
-290 -303 -381 -448 0
-290 -303 -381 -449 0
-290 -303 -381 -452 0
-290 -303 -388 -450 0
-290 -303 -388 -455 0
-290 -303 -388 -457 0
-290 -303 -390 -452 0
-290 -303 -390 -457 0
-272 -295 0
-307 -375 -397 0
-307 -375 -461 0
-86 -136 466 0
-87 -137 466 0
-88 -138 466 0
-89 -139 466 0
-90 -140 466 0
-278 -296 -381 -466 0
-86 -186 467 0
-87 -187 467 0
-88 -188 467 0
-89 -189 467 0
-90 -190 467 0
-278 -296 -381 -467 0
-278 -296 -382 -467 0
-51 -56 468 0
-52 -57 468 0
-53 -58 468 0
-54 -59 468 0
-55 -60 468 0
-307 -379 -468 0
-290 -294 -359 -430 0
-290 -294 -359 -252 0
-86 -106 469 0
-87 -107 469 0
-88 -108 469 0
-89 -109 469 0
-90 -110 469 0
-290 -294 -385 -469 0
-86 -96 470 0
-87 -97 470 0
-88 -98 470 0
-89 -99 470 0
-90 -100 470 0
-290 -294 -385 -470 0
-290 -294 -385 -430 0
-307 -379 -464 0
-290 -300 -385 -448 0
-290 -300 -385 -469 0
-290 -300 -385 -430 0
-86 -156 471 0
-87 -157 471 0
-88 -158 471 0
-89 -159 471 0
-90 -160 471 0
-290 -300 -387 -471 0
-86 -146 472 0
-87 -147 472 0
-88 -148 472 0
-89 -149 472 0
-90 -150 472 0
-290 -300 -387 -472 0
-290 -300 -387 -469 0
-290 -300 -388 -466 0
-290 -300 -388 -472 0
-86 -196 473 0
-87 -197 473 0
-88 -198 473 0
-89 -199 473 0
-90 -200 473 0
-290 -300 -388 -473 0
-307 -379 -465 0
-86 -126 474 0
-87 -127 474 0
-88 -128 474 0
-89 -129 474 0
-90 -130 474 0
-290 -303 -381 -474 0
-290 -303 -381 -467 0
-290 -303 -388 -470 0
-290 -303 -388 -472 0
-290 -303 -388 -473 0
-290 -303 -390 -467 0
-290 -303 -390 -473 0
-307 -391 -461 0
-309 -296 -389 -336 0
-309 -296 -382 -467 0
-307 -391 -465 0
-309 -303 -380 -448 0
-309 -303 -380 -470 0
-309 -303 -388 -470 0
-309 -303 -388 -472 0
-309 -303 -388 -473 0
-309 -303 -390 -467 0
-309 -303 -390 -473 0
-51 -186 475 0
-52 -187 475 0
-53 -188 475 0
-54 -189 475 0
-55 -190 475 0
-307 -391 -475 0
-309 -310 -382 -474 0
-309 -310 -390 -466 0
-309 -310 -390 -473 0
-266 -240 -208 0
-243 -229 -211 -212 0
-243 -229 -211 -217 0
-243 -229 -226 -227 0
-243 -229 -226 -217 0
-243 -229 -226 -235 0
-266 -240 -238 0
-243 -248 -241 -247 0
-243 -248 -226 -217 0
-243 -248 -226 -235 0
-243 -248 -226 -207 0
-243 -248 -260 -247 0
-243 -248 -260 -235 0
-243 -248 -260 -262 0
-266 -293 -238 0
-287 -248 -226 -217 0
-287 -248 -226 -235 0
-287 -248 -226 -207 0
-287 -248 -260 -247 0
-287 -248 -260 -235 0
-287 -248 -260 -262 0
-287 -248 -206 -207 0
-266 -293 -292 0
-287 -277 -260 -235 0
-287 -277 -260 -262 0
-287 -277 -260 -227 0
-287 -277 -306 -276 0
-287 -277 -306 -262 0
-287 -277 -306 -308 0
-266 -240 -286 0
-243 -229 -283 -212 0
-243 -229 -283 -217 0
-243 -229 -288 -227 0
-243 -229 -288 -217 0
-243 -229 -288 -235 0
-266 -240 -304 0
-243 -248 -288 -217 0
-243 -248 -288 -235 0
-243 -248 -288 -207 0
-243 -248 -269 -247 0
-243 -248 -269 -235 0
-243 -248 -269 -262 0
-287 -248 0
-317 -312 -280 0
-318 -313 -281 -253 0
-318 -313 -281 -254 0
-318 -313 -282 -249 0
-318 -313 -282 -253 0
-318 -313 -282 -255 0
-318 -313 -283 -219 0
-318 -313 -283 -254 0
-317 -312 -284 0
-318 -270 -269 -244 0
-318 -270 -269 -250 0
-318 -270 -282 -253 0
-318 -270 -282 -255 0
-318 -270 -282 -256 0
-318 -270 -285 -250 0
-318 -270 -285 -255 0
-318 -270 -285 -257 0
-317 -312 -286 0
-318 -229 -283 -254 0
-318 -229 -283 -256 0
-317 -314 -267 0
-319 -277 -272 -245 0
-319 -277 -272 -250 0
-319 -277 -272 -252 0
-317 -314 -284 0
-319 -270 -282 -253 0
-319 -270 -282 -255 0
-319 -270 -282 -256 0
-319 -270 -285 -250 0
-319 -270 -285 -255 0
-319 -270 -285 -257 0
-319 -270 -288 -256 0
-319 -270 -288 -219 0
-317 -314 -289 0
-319 -271 -272 -244 0
-319 -271 -272 -245 0
-319 -271 -272 -252 0
-319 -271 -285 -255 0
-319 -271 -285 -257 0
-319 -271 -285 -249 0
-319 -271 -290 -252 0
-319 -271 -290 -257 0
-319 -271 -290 -264 0
-317 -240 -286 0
-243 -229 -283 -254 0
-243 -229 -283 -256 0
-243 -229 -288 -256 0
-243 -229 -288 -249 0
-287 -277 0
-331 -314 -284 0
-319 -270 -282 -297 0
-319 -270 -282 -298 0
-319 -270 -282 -299 0
-319 -270 -285 -294 0
-319 -270 -285 -298 0
-319 -270 -285 -300 0
-319 -270 -288 -244 0
-319 -270 -288 -299 0
-319 -270 -288 -230 0
-331 -314 -289 0
-319 -271 -272 -301 0
-319 -271 -272 -295 0
-319 -271 -285 -298 0
-319 -271 -285 -300 0
-319 -271 -285 -302 0
-319 -271 -290 -295 0
-319 -271 -290 -300 0
-319 -271 -290 -303 0
-331 -314 -304 0
-319 -248 -288 -299 0
-319 -248 -288 -302 0
-319 -248 -288 -230 0
-319 -248 -228 -230 0
-331 -316 -275 0
-324 -273 -278 -295 0
-324 -273 -278 -296 0
-331 -316 -289 0
-324 -271 -269 -302 0
-324 -271 -269 -244 0
-324 -271 -285 -298 0
-324 -271 -285 -300 0
-324 -271 -285 -302 0
-324 -271 -290 -295 0
-324 -271 -290 -300 0
-324 -271 -290 -303 0
-331 -316 -307 0
-324 -274 -278 -301 0
-324 -274 -278 -296 0
-324 -274 -290 -294 0
-324 -274 -290 -300 0
-324 -274 -290 -303 0
-324 -274 -309 -296 0
-324 -274 -309 -303 0
-324 -274 -309 -310 0
-21 -26 0
-22 -27 0
-23 -28 0
-24 -29 0
-25 -30 0
-268 -247 -228 -229 0
-268 -247 -228 -248 0
-266 -246 -286 0
-243 -230 -283 -212 0
-243 -230 -283 -217 0
-243 -230 -288 -227 0
-243 -230 -288 -217 0
-243 -230 -288 -235 0
-266 -246 -304 0
-243 -244 -288 -217 0
-243 -244 -288 -235 0
-243 -244 -288 -207 0
-243 -244 -269 -235 0
-243 -244 -269 -262 0
-287 -244 0
-317 -378 -280 0
-318 -299 -281 -253 0
-318 -299 -281 -254 0
-318 -299 -282 -249 0
-318 -299 -282 -253 0
-318 -299 -282 -255 0
-318 -299 -283 -219 0
-318 -299 -283 -254 0
-317 -378 -284 0
-318 -302 -269 -250 0
-318 -302 -282 -253 0
-318 -302 -282 -255 0
-318 -302 -282 -256 0
-318 -302 -285 -250 0
-318 -302 -285 -255 0
-318 -302 -285 -257 0
-317 -378 -286 0
-318 -230 -283 -254 0
-318 -230 -283 -256 0
-317 -383 -284 0
-319 -302 -282 -253 0
-319 -302 -282 -255 0
-319 -302 -282 -256 0
-319 -302 -285 -250 0
-319 -302 -285 -255 0
-319 -302 -285 -257 0
-319 -302 -288 -256 0
-319 -302 -288 -219 0
-317 -383 -289 0
-319 -294 -272 -245 0
-319 -294 -272 -252 0
-319 -294 -285 -255 0
-319 -294 -285 -257 0
-319 -294 -285 -249 0
-319 -294 -290 -252 0
-319 -294 -290 -257 0
-319 -294 -290 -264 0
-317 -246 -286 0
-243 -230 -283 -254 0
-243 -230 -283 -256 0
-243 -230 -288 -256 0
-243 -230 -288 -249 0
-319 -302 0
-320 -376 -444 0
-321 -297 -365 -432 0
-321 -297 -365 -435 0
-321 -297 -366 -418 0
-321 -297 -366 -436 0
-320 -376 -445 0
-321 -298 -362 -429 0
-321 -298 -362 -433 0
-321 -298 -365 -435 0
-321 -298 -365 -437 0
-321 -298 -367 -433 0
-321 -298 -367 -435 0
-321 -298 -367 -438 0
-320 -376 -446 0
-321 -299 -349 -249 0
-321 -299 -349 -220 0
-321 -299 -366 -437 0
-321 -299 -366 -436 0
-321 -299 -368 -220 0
-321 -299 -368 -436 0
-320 -377 -442 0
-322 -294 -359 -332 0
-322 -294 -359 -430 0
-322 -294 -363 -430 0
-322 -294 -363 -433 0
-322 -294 -363 -434 0
-320 -377 -445 0
-322 -298 -365 -435 0
-322 -298 -365 -437 0
-322 -298 -367 -433 0
-322 -298 -367 -435 0
-322 -298 -367 -438 0
-322 -298 -369 -437 0
-322 -298 -369 -418 0
-320 -377 -447 0
-322 -300 -363 -429 0
-322 -300 -363 -430 0
-322 -300 -363 -434 0
-322 -300 -367 -435 0
-322 -300 -367 -438 0
-322 -300 -367 -432 0
-322 -300 -370 -434 0
-322 -300 -370 -438 0
-322 -300 -370 -441 0
-320 -378 -354 0
-318 -244 -231 -220 0
-320 -378 -446 0
-318 -299 -366 -437 0
-318 -299 -366 -436 0
-318 -299 -369 -437 0
-318 -299 -369 -432 0
-318 -299 -368 -220 0
-318 -299 -368 -436 0
-320 -378 -414 0
-318 -230 -231 -249 0
-318 -230 -368 -436 0
-318 -230 -368 -418 0
-319 -294 0
-323 -374 -392 0
-324 -301 -360 -448 0
-324 -301 -360 -449 0
-323 -374 -443 0
-324 -295 -360 -333 0
-324 -295 -360 -449 0
-324 -295 -363 -450 0
-324 -295 -363 -451 0
-324 -295 -364 -449 0
-324 -295 -364 -451 0
-324 -295 -364 -452 0
-323 -377 -445 0
-322 -298 -365 -453 0
-322 -298 -365 -454 0
-322 -298 -367 -450 0
-322 -298 -367 -453 0
-322 -298 -367 -455 0
-322 -298 -369 -429 0
-322 -298 -369 -454 0
-322 -298 -369 -423 0
-323 -377 -447 0
-322 -300 -363 -448 0
-322 -300 -363 -451 0
-322 -300 -367 -453 0
-322 -300 -367 -455 0
-322 -300 -367 -456 0
-322 -300 -370 -451 0
-322 -300 -370 -455 0
-322 -300 -370 -457 0
-323 -377 -458 0
-322 -302 -369 -454 0
-322 -302 -369 -456 0
-322 -302 -369 -423 0
-322 -302 -349 -250 0
-322 -302 -349 -423 0
-322 -302 -349 -232 0
-323 -379 -443 0
-325 -295 -359 -333 0
-325 -295 -360 -333 0
-325 -295 -360 -449 0
-325 -295 -364 -449 0
-325 -295 -364 -451 0
-325 -295 -364 -452 0
-323 -379 -447 0
-325 -300 -362 -456 0
-325 -300 -362 -429 0
-325 -300 -367 -453 0
-325 -300 -367 -455 0
-325 -300 -367 -456 0
-325 -300 -370 -451 0
-325 -300 -370 -455 0
-325 -300 -370 -457 0
-323 -379 -459 0
-325 -303 -364 -448 0
-325 -303 -364 -449 0
-325 -303 -364 -452 0
-325 -303 -370 -450 0
-325 -303 -370 -455 0
-325 -303 -370 -457 0
-325 -303 -373 -452 0
-325 -303 -373 -457 0
-319 -244 0
-287 -247 -231 -219 0
-317 -378 -446 0
-318 -299 -366 -253 0
-318 -299 -366 -254 0
-318 -299 -369 -249 0
-318 -299 -369 -253 0
-318 -299 -369 -255 0
-318 -299 -368 -219 0
-318 -299 -368 -254 0
-317 -378 -458 0
-318 -302 -369 -253 0
-318 -302 -369 -255 0
-318 -302 -369 -256 0
-318 -302 -362 -250 0
-318 -302 -362 -255 0
-318 -302 -362 -257 0
-317 -378 -414 0
-318 -230 -368 -254 0
-318 -230 -368 -256 0
-317 -246 -414 0
-243 -230 -368 -254 0
-243 -230 -368 -256 0
-243 -230 -349 -256 0
-243 -230 -349 -249 0
-324 -301 0
-326 -375 -460 0
-327 -295 -380 -333 0
-327 -295 -380 -335 0
-327 -295 -380 -337 0
-327 -295 -381 -338 0
-327 -295 -381 -337 0
-327 -295 -381 -339 0
-326 -375 -461 0
-327 -296 -381 -336 0
-327 -296 -381 -337 0
-327 -296 -381 -339 0
-327 -296 -382 -339 0
-324 -294 0
-323 -383 -462 0
-319 -302 -384 -454 0
-319 -302 -384 -456 0
-319 -302 -384 -423 0
-319 -302 -385 -456 0
-319 -302 -385 -450 0
-319 -302 -355 -250 0
-319 -302 -355 -423 0
-319 -302 -355 -232 0
-323 -383 -361 0
-319 -244 -355 -423 0
-319 -244 -355 -429 0
-319 -244 -355 -232 0
-319 -244 -251 -232 0
-323 -377 -463 0
-322 -298 -386 -453 0
-322 -298 -386 -454 0
-322 -298 -387 -450 0
-322 -298 -387 -453 0
-322 -298 -387 -455 0
-322 -298 -384 -429 0
-322 -298 -384 -454 0
-322 -298 -384 -423 0
-323 -377 -464 0
-322 -300 -380 -448 0
-322 -300 -380 -451 0
-322 -300 -387 -453 0
-322 -300 -387 -455 0
-322 -300 -387 -456 0
-322 -300 -388 -451 0
-322 -300 -388 -455 0
-322 -300 -388 -457 0
-323 -377 -462 0
-322 -302 -359 -250 0
-322 -302 -384 -454 0
-322 -302 -384 -456 0
-322 -302 -384 -423 0
-322 -302 -355 -250 0
-322 -302 -355 -423 0
-322 -302 -355 -232 0
-323 -379 -460 0
-325 -295 -389 -333 0
-325 -295 -389 -449 0
-325 -295 -381 -449 0
-325 -295 -381 -451 0
-325 -295 -381 -452 0
-323 -379 -464 0
-325 -300 -385 -456 0
-325 -300 -385 -429 0
-325 -300 -387 -453 0
-325 -300 -387 -455 0
-325 -300 -387 -456 0
-325 -300 -388 -451 0
-325 -300 -388 -455 0
-325 -300 -388 -457 0
-323 -379 -465 0
-325 -303 -381 -448 0
-325 -303 -381 -449 0
-325 -303 -381 -452 0
-325 -303 -388 -450 0
-325 -303 -388 -455 0
-325 -303 -388 -457 0
-325 -303 -390 -452 0
-325 -303 -390 -457 0
-324 -295 0
-328 -375 -397 0
-328 -375 -461 0
-327 -296 -381 -466 0
-327 -296 -381 -467 0
-327 -296 -382 -467 0
-328 -379 -468 0
-325 -294 -359 -430 0
-325 -294 -359 -252 0
-325 -294 -385 -469 0
-325 -294 -385 -470 0
-325 -294 -385 -430 0
-328 -379 -464 0
-325 -300 -385 -448 0
-325 -300 -385 -469 0
-325 -300 -385 -430 0
-325 -300 -387 -471 0
-325 -300 -387 -472 0
-325 -300 -387 -469 0
-325 -300 -388 -466 0
-325 -300 -388 -472 0
-325 -300 -388 -473 0
-328 -379 -465 0
-325 -303 -381 -474 0
-325 -303 -381 -467 0
-325 -303 -388 -470 0
-325 -303 -388 -472 0
-325 -303 -388 -473 0
-325 -303 -390 -467 0
-325 -303 -390 -473 0
-328 -391 -461 0
-329 -296 -389 -336 0
-329 -296 -382 -467 0
-328 -391 -465 0
-329 -303 -380 -448 0
-329 -303 -380 -470 0
-329 -303 -388 -470 0
-329 -303 -388 -472 0
-329 -303 -388 -473 0
-329 -303 -390 -467 0
-329 -303 -390 -473 0
-328 -391 -475 0
-329 -310 -382 -474 0
-329 -310 -390 -466 0
-329 -310 -390 -473 0
-21 -46 0
-22 -47 0
-23 -48 0
-24 -49 0
-25 -50 0
-324 -301 0
-287 -276 -251 -230 0
-287 -276 -251 -244 0
-331 -275 -361 0
-287 -245 -355 -299 0
-287 -245 -355 -302 0
-287 -245 -355 -230 0
-287 -245 -359 -302 0
-287 -245 -359 -294 0
-287 -245 -251 -230 0
-331 -392 -462 0
-319 -332 -384 -297 0
-319 -332 -384 -298 0
-319 -332 -384 -299 0
-319 -332 -385 -294 0
-319 -332 -385 -298 0
-319 -332 -385 -300 0
-319 -332 -355 -244 0
-319 -332 -355 -299 0
-319 -332 -355 -230 0
-331 -392 -468 0
-319 -333 -385 -298 0
-319 -333 -385 -300 0
-319 -333 -385 -302 0
-319 -333 -380 -295 0
-319 -333 -380 -300 0
-319 -333 -380 -303 0
-331 -392 -361 0
-319 -245 -355 -299 0
-319 -245 -355 -302 0
-319 -245 -355 -230 0
-319 -245 -251 -230 0
-324 -333 0
-323 -392 -374 0
-319 -301 -272 -250 0
-323 -392 -462 0
-319 -332 -384 -454 0
-319 -332 -384 -456 0
-319 -332 -384 -423 0
-319 -332 -385 -456 0
-319 -332 -385 -450 0
-319 -332 -355 -250 0
-319 -332 -355 -423 0
-319 -332 -355 -232 0
-323 -392 -361 0
-319 -245 -272 -294 0
-319 -245 -355 -423 0
-319 -245 -355 -429 0
-319 -245 -355 -232 0
-319 -245 -251 -232 0
-323 -393 -463 0
-322 -334 -386 -453 0
-322 -334 -386 -454 0
-322 -334 -387 -450 0
-322 -334 -387 -453 0
-322 -334 -387 -455 0
-322 -334 -384 -429 0
-322 -334 -384 -454 0
-322 -334 -384 -423 0
-323 -393 -464 0
-322 -335 -380 -448 0
-322 -335 -380 -451 0
-322 -335 -387 -453 0
-322 -335 -387 -455 0
-322 -335 -387 -456 0
-322 -335 -388 -451 0
-322 -335 -388 -455 0
-322 -335 -388 -457 0
-323 -393 -462 0
-322 -332 -359 -294 0
-322 -332 -359 -250 0
-322 -332 -384 -454 0
-322 -332 -384 -456 0
-322 -332 -384 -423 0
-322 -332 -355 -250 0
-322 -332 -355 -423 0
-322 -332 -355 -232 0
-323 -394 -460 0
-325 -336 -389 -449 0
-325 -336 -381 -449 0
-325 -336 -381 -451 0
-325 -336 -381 -452 0
-323 -394 -464 0
-325 -335 -385 -456 0
-325 -335 -385 -429 0
-325 -335 -387 -453 0
-325 -335 -387 -455 0
-325 -335 -387 -456 0
-325 -335 -388 -451 0
-325 -335 -388 -455 0
-325 -335 -388 -457 0
-323 -394 -465 0
-325 -337 -381 -448 0
-325 -337 -381 -449 0
-325 -337 -381 -452 0
-325 -337 -388 -450 0
-325 -337 -388 -455 0
-325 -337 -388 -457 0
-325 -337 -390 -452 0
-325 -337 -390 -457 0
-324 -336 0
-328 -395 -461 0
-327 -338 -381 -466 0
-327 -338 -381 -467 0
-327 -338 -382 -467 0
-328 -394 -468 0
-325 -333 -359 -295 0
-325 -333 -359 -430 0
-325 -333 -359 -252 0
-325 -333 -385 -469 0
-325 -333 -385 -470 0
-325 -333 -385 -430 0
-328 -394 -464 0
-325 -335 -385 -448 0
-325 -335 -385 -469 0
-325 -335 -385 -430 0
-325 -335 -387 -471 0
-325 -335 -387 -472 0
-325 -335 -387 -469 0
-325 -335 -388 -466 0
-325 -335 -388 -472 0
-325 -335 -388 -473 0
-328 -394 -465 0
-325 -337 -381 -474 0
-325 -337 -381 -467 0
-325 -337 -388 -470 0
-325 -337 -388 -472 0
-325 -337 -388 -473 0
-325 -337 -390 -467 0
-325 -337 -390 -473 0
-328 -396 -461 0
-329 -338 -382 -467 0
-328 -396 -465 0
-329 -337 -380 -448 0
-329 -337 -380 -470 0
-329 -337 -388 -470 0
-329 -337 -388 -472 0
-329 -337 -388 -473 0
-329 -337 -390 -467 0
-329 -337 -390 -473 0
-328 -396 -475 0
-329 -339 -382 -474 0
-329 -339 -390 -466 0
-329 -339 -390 -473 0
-327 -336 0
-328 -397 -375 0
-324 -301 -278 -252 0
-324 -301 -360 -430 0
-324 -301 -360 -448 0
-324 -301 -360 -252 0
-81 -56 476 0
-82 -57 476 0
-83 -58 476 0
-84 -59 476 0
-85 -60 476 0
-328 -397 -476 0
-324 -333 -360 -295 0
-324 -333 -360 -430 0
-324 -333 -360 -252 0
-324 -333 -398 -469 0
-324 -333 -398 -470 0
-324 -333 -398 -430 0
-324 -333 -399 -470 0
-324 -333 -399 -466 0
-328 -394 -476 0
-325 -333 -360 -295 0
-325 -333 -360 -430 0
-325 -333 -360 -252 0
-325 -333 -389 -295 0
-325 -333 -398 -469 0
-325 -333 -398 -470 0
-325 -333 -398 -430 0
-81 -96 477 0
-82 -97 477 0
-83 -98 477 0
-84 -99 477 0
-85 -100 477 0
-328 -394 -477 0
-325 -335 -398 -448 0
-325 -335 -398 -469 0
-325 -335 -398 -430 0
-325 -335 -400 -471 0
-325 -335 -400 -472 0
-325 -335 -400 -469 0
-325 -335 -401 -466 0
-325 -335 -401 -472 0
-325 -335 -401 -473 0
-81 -136 478 0
-82 -137 478 0
-83 -138 478 0
-84 -139 478 0
-85 -140 478 0
-328 -394 -478 0
-325 -337 -402 -474 0
-325 -337 -402 -467 0
-325 -337 -401 -470 0
-325 -337 -401 -472 0
-325 -337 -401 -473 0
-325 -337 -403 -467 0
-325 -337 -403 -473 0
-81 -126 479 0
-82 -127 479 0
-83 -128 479 0
-84 -129 479 0
-85 -130 479 0
-328 -396 -479 0
-329 -338 -404 -467 0
-328 -396 -478 0
-329 -337 -399 -448 0
-329 -337 -399 -470 0
-329 -337 -401 -470 0
-329 -337 -401 -472 0
-329 -337 -401 -473 0
-329 -337 -403 -467 0
-329 -337 -403 -473 0
-81 -186 480 0
-82 -187 480 0
-83 -188 480 0
-84 -189 480 0
-85 -190 480 0
-328 -396 -480 0
-329 -339 -404 -474 0
-329 -339 -403 -466 0
-329 -339 -403 -473 0
-327 -338 0
-81 -86 481 0
-82 -87 481 0
-83 -88 481 0
-84 -89 481 0
-85 -90 481 0
-342 -396 -481 0
-329 -336 -389 -296 0
-329 -336 -389 -449 0
-329 -336 -399 -449 0
-126 -96 482 0
-127 -97 482 0
-128 -98 482 0
-129 -99 482 0
-130 -100 482 0
-329 -336 -399 -482 0
-126 -136 483 0
-127 -137 483 0
-128 -138 483 0
-129 -139 483 0
-130 -140 483 0
-329 -336 -399 -483 0
-342 -396 -478 0
-329 -337 -399 -449 0
-329 -337 -399 -474 0
-329 -337 -399 -482 0
-329 -337 -401 -482 0
-126 -146 484 0
-127 -147 484 0
-128 -148 484 0
-129 -149 484 0
-130 -150 484 0
-329 -337 -401 -484 0
-126 -196 485 0
-127 -197 485 0
-128 -198 485 0
-129 -199 485 0
-130 -200 485 0
-329 -337 -401 -485 0
-126 -186 486 0
-127 -187 486 0
-128 -188 486 0
-129 -189 486 0
-130 -190 486 0
-329 -337 -403 -486 0
-329 -337 -403 -485 0
-342 -396 -480 0
-329 -339 -403 -483 0
-329 -339 -403 -485 0
-342 -405 -480 0
-343 -339 -402 -474 0
-343 -339 -402 -483 0
-343 -339 -403 -483 0
-343 -339 -403 -485 0
-292 -239 -240 0
-247 -228 -229 -211 0
-247 -228 -229 -226 0
-247 -228 -248 -226 0
-247 -228 -248 -260 0
-331 -275 -316 0
-301 -272 -271 -319 0
-301 -272 -271 -322 0
-301 -272 -271 -325 0
-301 -272 -274 -327 0
-301 -272 -274 -325 0
-301 -272 -274 -329 0
-331 -275 -340 0
-301 -278 -274 -324 0
-301 -278 -274 -325 0
-301 -278 -274 -329 0
-301 -278 -279 -329 0
-301 -278 -279 -343 0
-277 -287 -276 -306 0
-277 -287 -276 -341 0
-247 -228 0
-246 -286 -209 0
-230 -283 -212 -213 0
-230 -283 -217 -218 0
-230 -283 -217 -213 0
-230 -283 -217 -222 0
-246 -286 -224 0
-230 -288 -227 -231 0
-230 -288 -217 -213 0
-230 -288 -217 -222 0
-230 -288 -217 -233 0
-230 -288 -235 -231 0
-230 -288 -235 -222 0
-230 -288 -235 -236 0
-246 -304 -224 0
-244 -288 -217 -213 0
-244 -288 -217 -222 0
-244 -288 -217 -233 0
-244 -288 -235 -231 0
-244 -288 -235 -222 0
-244 -288 -235 -236 0
-244 -288 -207 -233 0
-246 -304 -259 0
-244 -269 -235 -222 0
-244 -269 -235 -236 0
-244 -269 -235 -218 0
-244 -269 -262 -251 0
-244 -269 -262 -236 0
-244 -269 -262 -263 0
-244 -288 0
-378 -280 -344 0
-299 -281 -253 -345 0
-299 -281 -253 -346 0
-299 -281 -254 -347 0
-378 -280 -348 0
-299 -282 -249 -349 0
-299 -282 -249 -350 0
-299 -282 -253 -346 0
-299 -282 -253 -351 0
-299 -282 -255 -350 0
-299 -282 -255 -346 0
-299 -282 -255 -352 0
-378 -280 -353 0
-299 -283 -219 -218 0
-299 -283 -254 -351 0
-378 -284 -354 0
-302 -269 -250 -355 0
-302 -269 -250 -350 0
-302 -269 -250 -356 0
-378 -284 -348 0
-302 -282 -253 -346 0
-302 -282 -253 -351 0
-302 -282 -255 -350 0
-302 -282 -255 -346 0
-302 -282 -255 -352 0
-302 -282 -256 -351 0
-302 -282 -256 -347 0
-378 -284 -357 0
-302 -285 -250 -349 0
-302 -285 -250 -355 0
-302 -285 -250 -356 0
-302 -285 -255 -346 0
-302 -285 -255 -352 0
-302 -285 -255 -345 0
-302 -285 -257 -356 0
-302 -285 -257 -352 0
-302 -285 -257 -358 0
-378 -286 -225 0
-378 -286 -353 0
-230 -283 -254 -351 0
-230 -283 -256 -351 0
-230 -283 -256 -345 0
-244 -269 0
-383 -284 -348 0
-302 -282 -253 -365 0
-302 -282 -253 -366 0
-302 -282 -255 -362 0
-302 -282 -255 -365 0
-302 -282 -255 -367 0
-302 -282 -256 -349 0
-302 -282 -256 -366 0
-302 -282 -256 -368 0
-383 -284 -357 0
-302 -285 -250 -359 0
-302 -285 -250 -363 0
-302 -285 -255 -365 0
-302 -285 -255 -367 0
-302 -285 -255 -369 0
-302 -285 -257 -363 0
-302 -285 -257 -367 0
-302 -285 -257 -370 0
-383 -284 -371 0
-302 -288 -256 -366 0
-302 -288 -256 -369 0
-302 -288 -256 -368 0
-302 -288 -219 -231 0
-302 -288 -219 -368 0
-383 -289 -361 0
-294 -272 -245 -360 0
-294 -272 -252 -360 0
-294 -272 -252 -363 0
-294 -272 -252 -364 0
-383 -289 -357 0
-294 -285 -255 -365 0
-294 -285 -255 -367 0
-294 -285 -255 -369 0
-294 -285 -257 -363 0
-294 -285 -257 -367 0
-294 -285 -257 -370 0
-294 -285 -249 -369 0
-294 -285 -249 -349 0
-383 -289 -372 0
-294 -290 -252 -359 0
-294 -290 -252 -360 0
-294 -290 -252 -364 0
-294 -290 -257 -362 0
-294 -290 -257 -367 0
-294 -290 -257 -370 0
-294 -290 -264 -364 0
-294 -290 -264 -370 0
-294 -290 -264 -373 0
-244 -228 0
-246 -286 -353 0
-230 -283 -254 -213 0
-230 -283 -256 -218 0
-230 -283 -256 -213 0
-230 -283 -256 -222 0
-246 -286 -371 0
-230 -288 -256 -213 0
-230 -288 -256 -222 0
-230 -288 -256 -233 0
-230 -288 -249 -231 0
-230 -288 -249 -222 0
-230 -288 -249 -236 0
-292 -266 -240 0
-247 -243 -229 -211 0
-247 -243 -229 -226 0
-247 -243 -248 -226 0
-247 -243 -248 -260 0
-247 -287 -248 -226 0
-247 -287 -248 -260 0
-247 -287 -248 -206 0
-267 -266 -240 0
-247 -243 -229 -283 0
-247 -243 -229 -288 0
-247 -243 -248 -288 0
-247 -243 -248 -269 0
-267 -317 -312 0
-244 -318 -313 -281 0
-244 -318 -313 -282 0
-244 -318 -313 -283 0
-244 -318 -270 -269 0
-244 -318 -270 -282 0
-244 -318 -270 -285 0
-244 -318 -229 -228 0
-244 -318 -229 -283 0
-267 -317 -314 0
-244 -319 -270 -282 0
-244 -319 -270 -285 0
-244 -319 -270 -288 0
-244 -319 -271 -272 0
-244 -319 -271 -285 0
-244 -319 -271 -290 0
-267 -317 -240 0
-244 -243 -229 -283 0
-244 -243 -229 -288 0
-301 -324 0
-374 -323 -392 0
-294 -319 -332 -384 0
-294 -319 -332 -385 0
-294 -319 -332 -355 0
-294 -319 -245 -355 0
-294 -319 -245 -251 0
-374 -323 -393 0
-294 -322 -334 -386 0
-294 -322 -334 -387 0
-294 -322 -334 -384 0
-294 -322 -335 -380 0
-294 -322 -335 -387 0
-294 -322 -335 -388 0
-294 -322 -332 -359 0
-294 -322 -332 -384 0
-294 -322 -332 -355 0
-374 -323 -394 0
-294 -325 -336 -389 0
-294 -325 -336 -381 0
-294 -325 -335 -385 0
-294 -325 -335 -387 0
-294 -325 -335 -388 0
-294 -325 -337 -381 0
-294 -325 -337 -388 0
-294 -325 -337 -390 0
-374 -328 -395 0
-295 -327 -338 -381 0
-295 -327 -338 -382 0
-374 -328 -394 0
-295 -325 -333 -359 0
-295 -325 -333 -385 0
-295 -325 -335 -385 0
-295 -325 -335 -387 0
-295 -325 -335 -388 0
-295 -325 -337 -381 0
-295 -325 -337 -388 0
-295 -325 -337 -390 0
-374 -328 -396 0
-295 -329 -338 -389 0
-295 -329 -338 -382 0
-295 -329 -337 -380 0
-295 -329 -337 -388 0
-295 -329 -337 -390 0
-295 -329 -339 -382 0
-295 -329 -339 -390 0
-301 -327 0
-375 -328 -397 0
-295 -324 -333 -360 0
-295 -324 -333 -398 0
-295 -324 -333 -399 0
-375 -328 -394 0
-295 -325 -333 -360 0
-295 -325 -333 -389 0
-295 -325 -333 -398 0
-295 -325 -335 -398 0
-295 -325 -335 -400 0
-295 -325 -335 -401 0
-295 -325 -337 -402 0
-295 -325 -337 -401 0
-295 -325 -337 -403 0
-375 -328 -396 0
-295 -329 -338 -404 0
-295 -329 -337 -399 0
-295 -329 -337 -401 0
-295 -329 -337 -403 0
-295 -329 -339 -404 0
-295 -329 -339 -403 0
-375 -342 -396 0
-296 -329 -336 -389 0
-296 -329 -336 -399 0
-296 -329 -337 -399 0
-296 -329 -337 -401 0
-296 -329 -337 -403 0
-296 -329 -339 -404 0
-296 -329 -339 -403 0
-375 -342 -405 0
-296 -343 -339 -402 0
-296 -343 -339 -403 0
-26 -31 0
-27 -32 0
-28 -33 0
-29 -34 0
-30 -35 0
-302 -369 0
-66 -161 487 0
-67 -162 487 0
-68 -163 487 0
-69 -164 487 0
-70 -165 487 0
-376 -444 -487 0
-111 -61 488 0
-112 -62 488 0
-113 -63 488 0
-114 -64 488 0
-115 -65 488 0
-297 -365 -432 -488 0
-111 -101 489 0
-112 -102 489 0
-113 -103 489 0
-114 -104 489 0
-115 -105 489 0
-297 -365 -432 -489 0
-297 -365 -435 -489 0
-111 -151 490 0
-112 -152 490 0
-113 -153 490 0
-114 -154 490 0
-115 -155 490 0
-297 -365 -435 -490 0
-66 -171 491 0
-67 -172 491 0
-68 -173 491 0
-69 -174 491 0
-70 -175 491 0
-376 -444 -491 0
-297 -366 -418 -345 0
-297 -366 -418 -407 0
-297 -366 -436 -407 0
-66 -61 492 0
-67 -62 492 0
-68 -63 492 0
-69 -64 492 0
-70 -65 492 0
-376 -445 -492 0
-298 -362 -429 -384 0
-111 -91 493 0
-112 -92 493 0
-113 -93 493 0
-114 -94 493 0
-115 -95 493 0
-298 -362 -429 -493 0
-298 -362 -433 -493 0
-298 -362 -433 -489 0
-111 -141 494 0
-112 -142 494 0
-113 -143 494 0
-114 -144 494 0
-115 -145 494 0
-298 -362 -433 -494 0
-376 -445 -487 0
-298 -365 -435 -489 0
-298 -365 -435 -490 0
-111 -171 495 0
-112 -172 495 0
-113 -173 495 0
-114 -174 495 0
-115 -175 495 0
-298 -365 -437 -495 0
-66 -101 496 0
-67 -102 496 0
-68 -103 496 0
-69 -104 496 0
-70 -105 496 0
-376 -445 -496 0
-298 -367 -433 -488 0
-298 -367 -433 -493 0
-298 -367 -433 -494 0
-298 -367 -435 -490 0
-111 -161 497 0
-112 -162 497 0
-113 -163 497 0
-114 -164 497 0
-115 -165 497 0
-298 -367 -435 -497 0
-298 -367 -438 -494 0
-298 -367 -438 -490 0
-111 -201 498 0
-112 -202 498 0
-113 -203 498 0
-114 -204 498 0
-115 -205 498 0
-298 -367 -438 -498 0
-376 -446 -422 0
-299 -349 -249 -222 0
-299 -349 -220 -222 0
-299 -349 -220 -407 0
-376 -446 -491 0
-299 -366 -437 -497 0
-299 -366 -436 -407 0
-66 -121 499 0
-67 -122 499 0
-68 -123 499 0
-69 -124 499 0
-70 -125 499 0
-376 -446 -499 0
-299 -368 -220 -222 0
-299 -368 -220 -345 0
-299 -368 -436 -495 0
-302 -362 0
-377 -442 -462 0
-294 -359 -332 -398 0
-294 -359 -430 -398 0
-61 -91 500 0
-62 -92 500 0
-63 -93 500 0
-64 -94 500 0
-65 -95 500 0
-294 -359 -430 -500 0
-61 -131 501 0
-62 -132 501 0
-63 -133 501 0
-64 -134 501 0
-65 -135 501 0
-294 -359 -430 -501 0
-66 -91 502 0
-67 -92 502 0
-68 -93 502 0
-69 -94 502 0
-70 -95 502 0
-377 -442 -502 0
-294 -363 -430 -385 0
-294 -363 -430 -398 0
-294 -363 -430 -501 0
-61 -101 503 0
-62 -102 503 0
-63 -103 503 0
-64 -104 503 0
-65 -105 503 0
-294 -363 -433 -503 0
-61 -141 504 0
-62 -142 504 0
-63 -143 504 0
-64 -144 504 0
-65 -145 504 0
-294 -363 -433 -504 0
-294 -363 -434 -501 0
-294 -363 -434 -504 0
-61 -191 505 0
-62 -192 505 0
-63 -193 505 0
-64 -194 505 0
-65 -195 505 0
-294 -363 -434 -505 0
-377 -445 -487 0
-298 -365 -435 -503 0
-61 -151 506 0
-62 -152 506 0
-63 -153 506 0
-64 -154 506 0
-65 -155 506 0
-298 -365 -435 -506 0
-298 -365 -437 -488 0
-61 -171 507 0
-62 -172 507 0
-63 -173 507 0
-64 -174 507 0
-65 -175 507 0
-298 -365 -437 -507 0
-377 -445 -496 0
-298 -367 -433 -500 0
-298 -367 -433 -504 0
-298 -367 -435 -506 0
-61 -161 508 0
-62 -162 508 0
-63 -163 508 0
-64 -164 508 0
-65 -165 508 0
-298 -367 -435 -508 0
-298 -367 -438 -504 0
-298 -367 -438 -506 0
-61 -201 509 0
-62 -202 509 0
-63 -203 509 0
-64 -204 509 0
-65 -205 509 0
-298 -367 -438 -509 0
-66 -111 510 0
-67 -112 510 0
-68 -113 510 0
-69 -114 510 0
-70 -115 510 0
-377 -445 -510 0
-298 -369 -437 -508 0
-298 -369 -437 -507 0
-298 -369 -418 -350 0
-298 -369 -418 -507 0
-298 -369 -418 -410 0
-377 -447 -502 0
-300 -363 -429 -385 0
-300 -363 -430 -385 0
-300 -363 -430 -398 0
-300 -363 -430 -501 0
-300 -363 -434 -501 0
-300 -363 -434 -504 0
-300 -363 -434 -505 0
-377 -447 -496 0
-300 -367 -435 -506 0
-300 -367 -435 -508 0
-300 -367 -438 -504 0
-300 -367 -438 -506 0
-300 -367 -438 -509 0
-300 -367 -432 -508 0
-300 -367 -432 -488 0
-66 -141 511 0
-67 -142 511 0
-68 -143 511 0
-69 -144 511 0
-70 -145 511 0
-377 -447 -511 0
-300 -370 -434 -500 0
-300 -370 -434 -501 0
-300 -370 -434 -505 0
-300 -370 -438 -503 0
-300 -370 -438 -506 0
-300 -370 -438 -509 0
-300 -370 -441 -505 0
-300 -370 -441 -509 0
-302 -349 0
-244 -269 -235 -218 0
-378 -354 -234 0
-244 -231 -220 -347 0
-378 -446 -491 0
-299 -366 -437 -345 0
-299 -366 -437 -346 0
-299 -366 -436 -347 0
-378 -446 -510 0
-299 -369 -437 -346 0
-299 -369 -437 -351 0
-299 -369 -432 -350 0
-299 -369 -432 -346 0
-299 -369 -432 -352 0
-378 -446 -499 0
-299 -368 -220 -218 0
-299 -368 -436 -351 0
-378 -414 -234 0
-378 -414 -499 0
-230 -368 -436 -351 0
-230 -368 -418 -351 0
-230 -368 -418 -345 0
-294 -359 0
-374 -392 -476 0
-301 -360 -448 -380 0
-301 -360 -448 -381 0
-301 -360 -449 -381 0
-301 -360 -449 -382 0
-374 -443 -476 0
-295 -360 -449 -381 0
-295 -360 -449 -382 0
-56 -91 512 0
-57 -92 512 0
-58 -93 512 0
-59 -94 512 0
-60 -95 512 0
-374 -443 -512 0
-295 -363 -450 -385 0
-295 -363 -450 -387 0
-295 -363 -450 -388 0
-295 -363 -451 -381 0
-295 -363 -451 -388 0
-295 -363 -451 -390 0
-56 -131 513 0
-57 -132 513 0
-58 -133 513 0
-59 -134 513 0
-60 -135 513 0
-374 -443 -513 0
-295 -364 -449 -389 0
-295 -364 -449 -382 0
-295 -364 -451 -380 0
-295 -364 -451 -388 0
-295 -364 -451 -390 0
-295 -364 -452 -382 0
-295 -364 -452 -390 0
-294 -362 0
-56 -161 514 0
-57 -162 514 0
-58 -163 514 0
-59 -164 514 0
-60 -165 514 0
-377 -445 -514 0
-298 -365 -453 -503 0
-298 -365 -453 -506 0
-298 -365 -454 -488 0
-298 -365 -454 -507 0
-56 -101 515 0
-57 -102 515 0
-58 -103 515 0
-59 -104 515 0
-60 -105 515 0
-377 -445 -515 0
-298 -367 -450 -500 0
-298 -367 -450 -504 0
-298 -367 -453 -506 0
-298 -367 -453 -508 0
-298 -367 -455 -504 0
-298 -367 -455 -506 0
-298 -367 -455 -509 0
-56 -111 516 0
-57 -112 516 0
-58 -113 516 0
-59 -114 516 0
-60 -115 516 0
-377 -445 -516 0
-298 -369 -429 -350 0
-298 -369 -454 -508 0
-298 -369 -454 -507 0
-298 -369 -423 -350 0
-298 -369 -423 -507 0
-298 -369 -423 -410 0
-377 -447 -512 0
-300 -363 -448 -385 0
-300 -363 -448 -398 0
-300 -363 -448 -501 0
-300 -363 -451 -501 0
-300 -363 -451 -504 0
-300 -363 -451 -505 0
-377 -447 -515 0
-300 -367 -453 -506 0
-300 -367 -453 -508 0
-300 -367 -455 -504 0
-300 -367 -455 -506 0
-300 -367 -455 -509 0
-300 -367 -456 -508 0
-300 -367 -456 -488 0
-56 -141 517 0
-57 -142 517 0
-58 -143 517 0
-59 -144 517 0
-60 -145 517 0
-377 -447 -517 0
-300 -370 -451 -500 0
-300 -370 -451 -501 0
-300 -370 -451 -505 0
-300 -370 -455 -503 0
-300 -370 -455 -506 0
-300 -370 -455 -509 0
-300 -370 -457 -505 0
-300 -370 -457 -509 0
-377 -458 -516 0
-302 -369 -454 -508 0
-302 -369 -454 -507 0
-302 -369 -456 -508 0
-302 -369 -456 -503 0
-302 -369 -423 -350 0
-302 -369 -423 -507 0
-302 -369 -423 -410 0
-377 -458 -431 0
-302 -349 -250 -236 0
-302 -349 -423 -507 0
-302 -349 -423 -488 0
-302 -349 -423 -410 0
-302 -349 -232 -236 0
-302 -349 -232 -410 0
-294 -363 0
-379 -443 -468 0
-295 -359 -333 -399 0
-379 -443 -476 0
-295 -360 -333 -380 0
-91 -131 518 0
-92 -132 518 0
-93 -133 518 0
-94 -134 518 0
-95 -135 518 0
-295 -360 -449 -518 0
-91 -181 519 0
-92 -182 519 0
-93 -183 519 0
-94 -184 519 0
-95 -185 519 0
-295 -360 -449 -519 0
-379 -443 -513 0
-295 -364 -449 -399 0
-295 -364 -449 -519 0
-91 -141 520 0
-92 -142 520 0
-93 -143 520 0
-94 -144 520 0
-95 -145 520 0
-295 -364 -451 -520 0
-91 -191 521 0
-92 -192 521 0
-93 -193 521 0
-94 -194 521 0
-95 -195 521 0
-295 -364 -451 -521 0
-295 -364 -452 -519 0
-295 -364 -452 -521 0
-56 -61 522 0
-57 -62 522 0
-58 -63 522 0
-59 -64 522 0
-60 -65 522 0
-379 -447 -522 0
-91 -161 523 0
-92 -162 523 0
-93 -163 523 0
-94 -164 523 0
-95 -165 523 0
-300 -362 -456 -523 0
-91 -101 524 0
-92 -102 524 0
-93 -103 524 0
-94 -104 524 0
-95 -105 524 0
-300 -362 -456 -524 0
-300 -362 -456 -493 0
-300 -362 -429 -493 0
-300 -362 -429 -356 0
-379 -447 -515 0
-91 -151 525 0
-92 -152 525 0
-93 -153 525 0
-94 -154 525 0
-95 -155 525 0
-300 -367 -453 -525 0
-300 -367 -453 -523 0
-300 -367 -455 -520 0
-300 -367 -455 -525 0
-91 -201 526 0
-92 -202 526 0
-93 -203 526 0
-94 -204 526 0
-95 -205 526 0
-300 -367 -455 -526 0
-300 -367 -456 -500 0
-300 -367 -456 -523 0
-300 -367 -456 -493 0
-379 -447 -517 0
-300 -370 -451 -518 0
-300 -370 -451 -521 0
-300 -370 -455 -524 0
-300 -370 -455 -525 0
-300 -370 -455 -526 0
-300 -370 -457 -521 0
-300 -370 -457 -526 0
-379 -459 -513 0
-303 -364 -448 -380 0
-303 -364 -448 -399 0
-303 -364 -449 -399 0
-303 -364 -449 -519 0
-303 -364 -452 -519 0
-303 -364 -452 -521 0
-379 -459 -517 0
-303 -370 -450 -500 0
-303 -370 -450 -524 0
-303 -370 -455 -524 0
-303 -370 -455 -525 0
-303 -370 -455 -526 0
-303 -370 -457 -521 0
-303 -370 -457 -526 0
-56 -191 527 0
-57 -192 527 0
-58 -193 527 0
-59 -194 527 0
-60 -195 527 0
-379 -459 -527 0
-303 -373 -452 -518 0
-303 -373 -452 -519 0
-303 -373 -457 -520 0
-303 -373 -457 -526 0
-277 -260 -227 -228 0
-277 -319 -245 -272 0
-277 -319 -245 -278 0
-267 -259 -225 0
-247 -231 -219 -283 0
-247 -231 -219 -288 0
-244 -349 0
-378 -446 -344 0
-299 -366 -253 -345 0
-299 -366 -253 -346 0
-299 -366 -254 -347 0
-378 -446 -348 0
-299 -369 -249 -350 0
-299 -369 -253 -346 0
-299 -369 -253 -351 0
-299 -369 -255 -350 0
-299 -369 -255 -346 0
-299 -369 -255 -352 0
-378 -446 -353 0
-299 -368 -219 -218 0
-299 -368 -254 -351 0
-378 -458 -348 0
-302 -369 -253 -346 0
-302 -369 -253 -351 0
-302 -369 -255 -350 0
-302 -369 -255 -346 0
-302 -369 -255 -352 0
-302 -369 -256 -351 0
-302 -369 -256 -347 0
-378 -458 -357 0
-302 -362 -250 -355 0
-302 -362 -250 -356 0
-302 -362 -255 -346 0
-302 -362 -255 -352 0
-302 -362 -255 -345 0
-302 -362 -257 -356 0
-302 -362 -257 -352 0
-302 -362 -257 -358 0
-378 -414 -225 0
-378 -414 -353 0
-230 -368 -254 -351 0
-230 -368 -256 -351 0
-230 -368 -256 -345 0
-244 -231 0
-246 -414 -353 0
-230 -368 -254 -213 0
-230 -368 -256 -218 0
-230 -368 -256 -213 0
-230 -368 -256 -222 0
-246 -414 -371 0
-230 -349 -256 -213 0
-230 -349 -256 -222 0
-230 -349 -256 -233 0
-230 -349 -249 -222 0
-230 -349 -249 -236 0
-26 -51 0
-27 -52 0
-28 -53 0
-29 -54 0
-30 -55 0
-277 -306 -276 -243 0
-277 -272 -276 -243 0
-277 -272 -245 -318 0
-277 -272 -245 -319 0
-277 -272 -245 -243 0
-301 -389 0
-375 -460 -394 0
-295 -380 -333 -360 0
-295 -380 -333 -398 0
-295 -380 -335 -398 0
-295 -380 -335 -400 0
-295 -380 -335 -401 0
-295 -380 -337 -402 0
-295 -380 -337 -401 0
-295 -380 -337 -403 0
-375 -460 -396 0
-295 -381 -338 -404 0
-295 -381 -337 -399 0
-295 -381 -337 -401 0
-295 -381 -337 -403 0
-295 -381 -339 -404 0
-295 -381 -339 -403 0
-375 -461 -396 0
-296 -381 -336 -399 0
-296 -381 -337 -399 0
-296 -381 -337 -401 0
-296 -381 -337 -403 0
-296 -381 -339 -404 0
-296 -381 -339 -403 0
-375 -461 -405 0
-296 -382 -339 -402 0
-296 -382 -339 -403 0
-294 -359 0
-383 -462 -516 0
-302 -384 -454 -365 0
-302 -384 -454 -366 0
-302 -384 -456 -362 0
-302 -384 -456 -365 0
-302 -384 -456 -367 0
-302 -384 -423 -349 0
-302 -384 -423 -366 0
-302 -384 -423 -368 0
-383 -462 -522 0
-302 -385 -456 -365 0
-302 -385 -456 -367 0
-302 -385 -456 -369 0
-302 -385 -450 -363 0
-302 -385 -450 -367 0
-302 -385 -450 -370 0
-383 -462 -431 0
-302 -355 -250 -231 0
-302 -355 -423 -366 0
-302 -355 -423 -369 0
-302 -355 -423 -368 0
-302 -355 -232 -231 0
-302 -355 -232 -368 0
-244 -272 -262 -231 0
-383 -361 -431 0
-244 -355 -423 -366 0
-244 -355 -423 -369 0
-244 -355 -423 -368 0
-244 -355 -429 -369 0
-244 -355 -429 -362 0
-244 -355 -232 -231 0
-244 -355 -232 -368 0
-383 -361 -261 0
-244 -251 -232 -368 0
-244 -251 -232 -349 0
-294 -385 0
-377 -463 -514 0
-298 -386 -453 -503 0
-298 -386 -453 -506 0
-298 -386 -454 -488 0
-298 -386 -454 -507 0
-377 -463 -515 0
-298 -387 -450 -500 0
-298 -387 -450 -504 0
-298 -387 -453 -506 0
-298 -387 -453 -508 0
-298 -387 -455 -504 0
-298 -387 -455 -506 0
-298 -387 -455 -509 0
-377 -463 -516 0
-298 -384 -429 -362 0
-298 -384 -429 -350 0
-298 -384 -454 -508 0
-298 -384 -454 -507 0
-298 -384 -423 -350 0
-298 -384 -423 -507 0
-298 -384 -423 -410 0
-377 -464 -512 0
-300 -380 -448 -398 0
-300 -380 -448 -501 0
-300 -380 -451 -501 0
-300 -380 -451 -504 0
-300 -380 -451 -505 0
-377 -464 -515 0
-300 -387 -453 -506 0
-300 -387 -453 -508 0
-300 -387 -455 -504 0
-300 -387 -455 -506 0
-300 -387 -455 -509 0
-300 -387 -456 -508 0
-300 -387 -456 -488 0
-377 -464 -517 0
-300 -388 -451 -500 0
-300 -388 -451 -501 0
-300 -388 -451 -505 0
-300 -388 -455 -503 0
-300 -388 -455 -506 0
-300 -388 -455 -509 0
-300 -388 -457 -505 0
-300 -388 -457 -509 0
-377 -462 -442 0
-302 -359 -250 -350 0
-302 -359 -250 -236 0
-377 -462 -516 0
-302 -384 -454 -508 0
-302 -384 -454 -507 0
-302 -384 -456 -508 0
-302 -384 -456 -503 0
-302 -384 -423 -350 0
-302 -384 -423 -507 0
-302 -384 -423 -410 0
-377 -462 -431 0
-302 -355 -250 -362 0
-302 -355 -250 -236 0
-302 -355 -423 -507 0
-302 -355 -423 -488 0
-302 -355 -423 -410 0
-302 -355 -232 -236 0
-302 -355 -232 -410 0
-294 -380 0
-379 -460 -476 0
-295 -389 -449 -518 0
-295 -389 -449 -519 0
-379 -460 -513 0
-295 -381 -449 -399 0
-295 -381 -449 -519 0
-295 -381 -451 -520 0
-295 -381 -451 -521 0
-295 -381 -452 -519 0
-295 -381 -452 -521 0
-379 -464 -522 0
-300 -385 -456 -523 0
-300 -385 -456 -524 0
-300 -385 -456 -493 0
-300 -385 -429 -363 0
-300 -385 -429 -493 0
-300 -385 -429 -356 0
-379 -464 -515 0
-300 -387 -453 -525 0
-300 -387 -453 -523 0
-300 -387 -455 -520 0
-300 -387 -455 -525 0
-300 -387 -455 -526 0
-300 -387 -456 -500 0
-300 -387 -456 -523 0
-300 -387 -456 -493 0
-379 -464 -517 0
-300 -388 -451 -518 0
-300 -388 -451 -521 0
-300 -388 -455 -524 0
-300 -388 -455 -525 0
-300 -388 -455 -526 0
-300 -388 -457 -521 0
-300 -388 -457 -526 0
-379 -465 -513 0
-303 -381 -448 -399 0
-303 -381 -449 -399 0
-303 -381 -449 -519 0
-303 -381 -452 -519 0
-303 -381 -452 -521 0
-379 -465 -517 0
-303 -388 -450 -500 0
-303 -388 -450 -524 0
-303 -388 -455 -524 0
-303 -388 -455 -525 0
-303 -388 -455 -526 0
-303 -388 -457 -521 0
-303 -388 -457 -526 0
-379 -465 -527 0
-303 -390 -452 -518 0
-303 -390 -452 -519 0
-303 -390 -457 -520 0
-303 -390 -457 -526 0
-295 -389 0
-86 -131 528 0
-87 -132 528 0
-88 -133 528 0
-89 -134 528 0
-90 -135 528 0
-375 -461 -528 0
-296 -381 -466 -399 0
-296 -381 -466 -401 0
-296 -381 -466 -403 0
-296 -381 -467 -404 0
-296 -381 -467 -403 0
-86 -181 529 0
-87 -182 529 0
-88 -183 529 0
-89 -184 529 0
-90 -185 529 0
-375 -461 -529 0
-296 -382 -467 -402 0
-296 -382 -467 -403 0
-295 -380 0
-379 -468 -443 0
-294 -359 -430 -493 0
-294 -359 -430 -500 0
-294 -359 -430 -356 0
-294 -359 -252 -356 0
-294 -359 -252 -263 0
-86 -61 530 0
-87 -62 530 0
-88 -63 530 0
-89 -64 530 0
-90 -65 530 0
-379 -468 -530 0
-294 -385 -469 -523 0
-294 -385 -469 -524 0
-294 -385 -469 -493 0
-294 -385 -470 -524 0
-294 -385 -470 -520 0
-294 -385 -430 -363 0
-294 -385 -430 -493 0
-294 -385 -430 -356 0
-379 -464 -530 0
-300 -385 -448 -363 0
-300 -385 -469 -523 0
-300 -385 -469 -524 0
-300 -385 -469 -493 0
-300 -385 -430 -363 0
-300 -385 -430 -493 0
-300 -385 -430 -356 0
-86 -101 531 0
-87 -102 531 0
-88 -103 531 0
-89 -104 531 0
-90 -105 531 0
-379 -464 -531 0
-300 -387 -471 -525 0
-300 -387 -471 -523 0
-300 -387 -472 -520 0
-300 -387 -472 -525 0
-300 -387 -472 -526 0
-300 -387 -469 -500 0
-300 -387 -469 -523 0
-300 -387 -469 -493 0
-86 -141 532 0
-87 -142 532 0
-88 -143 532 0
-89 -144 532 0
-90 -145 532 0
-379 -464 -532 0
-300 -388 -466 -518 0
-300 -388 -466 -521 0
-300 -388 -472 -524 0
-300 -388 -472 -525 0
-300 -388 -472 -526 0
-300 -388 -473 -521 0
-300 -388 -473 -526 0
-379 -465 -528 0
-303 -381 -474 -399 0
-303 -381 -474 -519 0
-303 -381 -467 -519 0
-303 -381 -467 -521 0
-379 -465 -532 0
-303 -388 -470 -500 0
-303 -388 -470 -524 0
-303 -388 -472 -524 0
-303 -388 -472 -525 0
-303 -388 -472 -526 0
-303 -388 -473 -521 0
-303 -388 -473 -526 0
-86 -191 533 0
-87 -192 533 0
-88 -193 533 0
-89 -194 533 0
-90 -195 533 0
-379 -465 -533 0
-303 -390 -467 -518 0
-303 -390 -467 -519 0
-303 -390 -473 -520 0
-303 -390 -473 -526 0
-295 -381 0
-391 -461 -481 0
-391 -461 -529 0
-131 -191 534 0
-132 -192 534 0
-133 -193 534 0
-134 -194 534 0
-135 -195 534 0
-296 -382 -467 -534 0
-86 -91 535 0
-87 -92 535 0
-88 -93 535 0
-89 -94 535 0
-90 -95 535 0
-391 -465 -535 0
-303 -380 -448 -364 0
-303 -380 -448 -501 0
-303 -380 -470 -501 0
-131 -101 536 0
-132 -102 536 0
-133 -103 536 0
-134 -104 536 0
-135 -105 536 0
-303 -380 -470 -536 0
-131 -141 537 0
-132 -142 537 0
-133 -143 537 0
-134 -144 537 0
-135 -145 537 0
-303 -380 -470 -537 0
-391 -465 -532 0
-303 -388 -470 -501 0
-303 -388 -470 -518 0
-303 -388 -470 -536 0
-303 -388 -472 -536 0
-131 -151 538 0
-132 -152 538 0
-133 -153 538 0
-134 -154 538 0
-135 -155 538 0
-303 -388 -472 -538 0
-131 -201 539 0
-132 -202 539 0
-133 -203 539 0
-134 -204 539 0
-135 -205 539 0
-303 -388 -472 -539 0
-303 -388 -473 -534 0
-303 -388 -473 -539 0
-391 -465 -533 0
-131 -181 540 0
-132 -182 540 0
-133 -183 540 0
-134 -184 540 0
-135 -185 540 0
-303 -390 -467 -540 0
-303 -390 -473 -537 0
-303 -390 -473 -539 0
-391 -475 -529 0
-310 -382 -474 -402 0
-391 -475 -533 0
-310 -390 -466 -518 0
-310 -390 -466 -537 0
-310 -390 -473 -537 0
-310 -390 -473 -539 0
-260 -247 -228 -229 0
-260 -247 -228 -248 0
-314 -331 -275 0
-319 -301 -272 -271 0
-319 -301 -272 -274 0
-319 -301 -278 -274 0
-319 -301 -278 -279 0
-260 -277 -287 -276 0
-259 -246 -286 0
-231 -230 -283 -212 0
-231 -230 -283 -217 0
-231 -230 -288 -227 0
-231 -230 -288 -217 0
-231 -230 -288 -235 0
-259 -246 -304 0
-231 -244 -288 -217 0
-231 -244 -288 -235 0
-231 -244 -288 -207 0
-269 -244 0
-354 -378 -280 0
-349 -299 -281 -253 0
-349 -299 -281 -254 0
-349 -299 -282 -249 0
-349 -299 -282 -253 0
-349 -299 -282 -255 0
-349 -299 -283 -219 0
-349 -299 -283 -254 0
-354 -378 -284 0
-349 -302 -282 -253 0
-349 -302 -282 -255 0
-349 -302 -282 -256 0
-349 -302 -285 -250 0
-349 -302 -285 -255 0
-349 -302 -285 -257 0
-354 -378 -286 0
-349 -230 -283 -254 0
-349 -230 -283 -256 0
-354 -246 -286 0
-231 -230 -283 -254 0
-231 -230 -283 -256 0
-231 -230 -288 -256 0
-231 -230 -288 -249 0
-260 -247 -243 -229 0
-260 -247 -243 -248 0
-260 -247 -287 -248 0
-269 -247 -243 -229 0
-269 -247 -243 -248 0
-314 -267 -317 0
-269 -244 -318 -313 0
-269 -244 -318 -270 0
-269 -244 -318 -229 0
-269 -244 -243 -229 0
-319 -301 0
-392 -374 -323 0
-359 -294 -322 -334 0
-359 -294 -322 -335 0
-359 -294 -322 -332 0
-359 -294 -325 -336 0
-359 -294 -325 -335 0
-359 -294 -325 -337 0
-392 -374 -328 0
-359 -295 -327 -338 0
-359 -295 -325 -333 0
-359 -295 -325 -335 0
-359 -295 -325 -337 0
-359 -295 -329 -338 0
-359 -295 -329 -337 0
-359 -295 -329 -339 0
-392 -375 -328 0
-360 -295 -324 -333 0
-360 -295 -325 -333 0
-360 -295 -325 -335 0
-360 -295 -325 -337 0
-360 -295 -329 -338 0
-360 -295 -329 -337 0
-360 -295 -329 -339 0
-392 -375 -342 0
-360 -296 -329 -336 0
-360 -296 -329 -337 0
-360 -296 -329 -339 0
-360 -296 -343 -339 0
-359 -301 0
-319 -277 -272 -245 0
-392 -375 -460 0
-360 -295 -380 -333 0
-360 -295 -380 -335 0
-360 -295 -380 -337 0
-360 -295 -381 -338 0
-360 -295 -381 -337 0
-360 -295 -381 -339 0
-392 -375 -461 0
-360 -296 -381 -336 0
-360 -296 -381 -337 0
-360 -296 -381 -339 0
-360 -296 -382 -339 0
-359 -294 0
-442 -377 -463 0
-362 -298 -386 -453 0
-362 -298 -386 -454 0
-362 -298 -387 -450 0
-362 -298 -387 -453 0
-362 -298 -387 -455 0
-362 -298 -384 -429 0
-362 -298 -384 -454 0
-362 -298 -384 -423 0
-442 -377 -464 0
-362 -300 -380 -448 0
-362 -300 -380 -451 0
-362 -300 -387 -453 0
-362 -300 -387 -455 0
-362 -300 -387 -456 0
-362 -300 -388 -451 0
-362 -300 -388 -455 0
-362 -300 -388 -457 0
-442 -377 -462 0
-362 -302 -384 -454 0
-362 -302 -384 -456 0
-362 -302 -384 -423 0
-362 -302 -355 -250 0
-362 -302 -355 -423 0
-362 -302 -355 -232 0
-442 -379 -460 0
-363 -295 -389 -333 0
-363 -295 -389 -449 0
-363 -295 -381 -449 0
-363 -295 -381 -451 0
-363 -295 -381 -452 0
-442 -379 -464 0
-363 -300 -385 -456 0
-363 -300 -385 -429 0
-363 -300 -387 -453 0
-363 -300 -387 -455 0
-363 -300 -387 -456 0
-363 -300 -388 -451 0
-363 -300 -388 -455 0
-363 -300 -388 -457 0
-442 -379 -465 0
-363 -303 -381 -448 0
-363 -303 -381 -449 0
-363 -303 -381 -452 0
-363 -303 -388 -450 0
-363 -303 -388 -455 0
-363 -303 -388 -457 0
-363 -303 -390 -452 0
-363 -303 -390 -457 0
-359 -295 0
-443 -375 -397 0
-443 -375 -461 0
-360 -296 -381 -466 0
-360 -296 -381 -467 0
-360 -296 -382 -467 0
-443 -379 -468 0
-363 -294 -385 -469 0
-363 -294 -385 -470 0
-363 -294 -385 -430 0
-443 -379 -464 0
-363 -300 -385 -448 0
-363 -300 -385 -469 0
-363 -300 -385 -430 0
-363 -300 -387 -471 0
-363 -300 -387 -472 0
-363 -300 -387 -469 0
-363 -300 -388 -466 0
-363 -300 -388 -472 0
-363 -300 -388 -473 0
-443 -379 -465 0
-363 -303 -381 -474 0
-363 -303 -381 -467 0
-363 -303 -388 -470 0
-363 -303 -388 -472 0
-363 -303 -388 -473 0
-363 -303 -390 -467 0
-363 -303 -390 -473 0
-443 -391 -461 0
-364 -296 -389 -336 0
-364 -296 -382 -467 0
-443 -391 -465 0
-364 -303 -380 -448 0
-364 -303 -380 -470 0
-364 -303 -388 -470 0
-364 -303 -388 -472 0
-364 -303 -388 -473 0
-364 -303 -390 -467 0
-364 -303 -390 -473 0
-443 -391 -475 0
-364 -310 -382 -474 0
-364 -310 -390 -466 0
-364 -310 -390 -473 0
-31 -66 0
-32 -67 0
-33 -68 0
-34 -69 0
-35 -70 0
-369 -437 0
-111 -106 541 0
-112 -107 541 0
-113 -108 541 0
-114 -109 541 0
-115 -110 541 0
-444 -487 -541 0
-365 -432 -488 -454 0
-166 -96 542 0
-167 -97 542 0
-168 -98 542 0
-169 -99 542 0
-170 -100 542 0
-365 -432 -488 -542 0
-365 -432 -489 -542 0
-166 -156 543 0
-167 -157 543 0
-168 -158 543 0
-169 -159 543 0
-170 -160 543 0
-365 -432 -489 -543 0
-166 -146 544 0
-167 -147 544 0
-168 -148 544 0
-169 -149 544 0
-170 -150 544 0
-365 -432 -489 -544 0
-111 -156 545 0
-112 -157 545 0
-113 -158 545 0
-114 -159 545 0
-115 -160 545 0
-444 -487 -545 0
-365 -435 -489 -542 0
-365 -435 -489 -544 0
-166 -106 546 0
-167 -107 546 0
-168 -108 546 0
-169 -109 546 0
-170 -110 546 0
-365 -435 -489 -546 0
-365 -435 -490 -544 0
-111 -116 547 0
-112 -117 547 0
-113 -118 547 0
-114 -119 547 0
-115 -120 547 0
-444 -491 -547 0
-366 -418 -345 -253 0
-366 -418 -345 -215 0
-366 -418 -407 -215 0
-166 -176 548 0
-167 -177 548 0
-168 -178 548 0
-169 -179 548 0
-170 -180 548 0
-366 -418 -407 -548 0
-111 -176 549 0
-112 -177 549 0
-113 -178 549 0
-114 -179 549 0
-115 -180 549 0
-444 -491 -549 0
-366 -436 -407 -215 0
-366 -436 -407 -427 0
-369 -432 0
-445 -492 -516 0
-362 -429 -384 -334 0
-362 -429 -384 -469 0
-362 -429 -493 -469 0
-106 -96 550 0
-107 -97 550 0
-108 -98 550 0
-109 -99 550 0
-110 -100 550 0
-362 -429 -493 -550 0
-106 -136 551 0
-107 -137 551 0
-108 -138 551 0
-109 -139 551 0
-110 -140 551 0
-362 -429 -493 -551 0
-111 -96 552 0
-112 -97 552 0
-113 -98 552 0
-114 -99 552 0
-115 -100 552 0
-445 -492 -552 0
-362 -433 -493 -456 0
-362 -433 -493 -469 0
-362 -433 -493 -551 0
-106 -156 553 0
-107 -157 553 0
-108 -158 553 0
-109 -159 553 0
-110 -160 553 0
-362 -433 -489 -553 0
-106 -146 554 0
-107 -147 554 0
-108 -148 554 0
-109 -149 554 0
-110 -150 554 0
-362 -433 -489 -554 0
-362 -433 -494 -551 0
-362 -433 -494 -554 0
-106 -196 555 0
-107 -197 555 0
-108 -198 555 0
-109 -199 555 0
-110 -200 555 0
-362 -433 -494 -555 0
-445 -487 -545 0
-365 -435 -489 -550 0
-365 -435 -489 -554 0
-365 -435 -490 -554 0
-111 -166 556 0
-112 -167 556 0
-113 -168 556 0
-114 -169 556 0
-115 -170 556 0
-445 -487 -556 0
-365 -437 -495 -419 0
-106 -176 557 0
-107 -177 557 0
-108 -178 557 0
-109 -179 557 0
-110 -180 557 0
-365 -437 -495 -557 0
-445 -496 -552 0
-367 -433 -488 -456 0
-367 -433 -493 -456 0
-367 -433 -493 -469 0
-367 -433 -493 -551 0
-367 -433 -494 -551 0
-367 -433 -494 -554 0
-367 -433 -494 -555 0
-445 -496 -545 0
-367 -435 -490 -554 0
-367 -435 -497 -546 0
-111 -146 558 0
-112 -147 558 0
-113 -148 558 0
-114 -149 558 0
-115 -150 558 0
-445 -496 -558 0
-367 -438 -494 -550 0
-367 -438 -494 -551 0
-367 -438 -494 -555 0
-367 -438 -490 -553 0
-367 -438 -498 -555 0
-369 -418 0
-446 -422 -348 0
-349 -249 -222 -214 0
-446 -422 -411 0
-349 -220 -222 -256 0
-349 -220 -407 -425 0
-446 -491 -556 0
-366 -437 -497 -419 0
-366 -437 -497 -420 0
-446 -491 -549 0
-366 -436 -407 -214 0
-446 -499 -411 0
-368 -220 -222 -256 0
-368 -220 -345 -256 0
-446 -499 -549 0
-368 -436 -495 -427 0
-362 -429 0
-359 -302 -285 -250 0
-359 -302 -322 -333 0
-442 -462 -393 0
-359 -332 -398 -448 0
-359 -332 -398 -449 0
-442 -462 -530 0
-359 -430 -398 -333 0
-359 -430 -398 -449 0
-359 -430 -500 -450 0
-359 -430 -500 -451 0
-359 -430 -501 -449 0
-359 -430 -501 -451 0
-359 -430 -501 -452 0
-442 -502 -530 0
-363 -430 -385 -333 0
-363 -430 -398 -333 0
-363 -430 -398 -449 0
-363 -430 -501 -449 0
-363 -430 -501 -451 0
-363 -430 -501 -452 0
-61 -96 559 0
-62 -97 559 0
-63 -98 559 0
-64 -99 559 0
-65 -100 559 0
-442 -502 -559 0
-363 -433 -503 -453 0
-363 -433 -503 -455 0
-363 -433 -503 -456 0
-363 -433 -504 -451 0
-363 -433 -504 -455 0
-363 -433 -504 -457 0
-61 -136 560 0
-62 -137 560 0
-63 -138 560 0
-64 -139 560 0
-65 -140 560 0
-442 -502 -560 0
-363 -434 -501 -448 0
-363 -434 -501 -449 0
-363 -434 -501 -452 0
-363 -434 -504 -450 0
-363 -434 -504 -455 0
-363 -434 -504 -457 0
-363 -434 -505 -452 0
-363 -434 -505 -457 0
-362 -432 0
-61 -156 561 0
-62 -157 561 0
-63 -158 561 0
-64 -159 561 0
-65 -160 561 0
-445 -487 -561 0
-365 -435 -503 -550 0
-365 -435 -503 -554 0
-365 -435 -506 -554 0
-61 -166 562 0
-62 -167 562 0
-63 -168 562 0
-64 -169 562 0
-65 -170 562 0
-445 -487 -562 0
-365 -437 -488 -419 0
-365 -437 -507 -419 0
-365 -437 -507 -557 0
-445 -496 -559 0
-367 -433 -500 -456 0
-367 -433 -500 -469 0
-367 -433 -500 -551 0
-367 -433 -504 -551 0
-367 -433 -504 -554 0
-367 -433 -504 -555 0
-445 -496 -561 0
-367 -435 -506 -554 0
-367 -435 -508 -546 0
-61 -146 563 0
-62 -147 563 0
-63 -148 563 0
-64 -149 563 0
-65 -150 563 0
-445 -496 -563 0
-367 -438 -504 -550 0
-367 -438 -504 -551 0
-367 -438 -504 -555 0
-367 -438 -506 -553 0
-367 -438 -509 -555 0
-445 -510 -562 0
-369 -437 -508 -553 0
-369 -437 -507 -419 0
-369 -437 -507 -557 0
-61 -116 564 0
-62 -117 564 0
-63 -118 564 0
-64 -119 564 0
-65 -120 564 0
-445 -510 -564 0
-369 -418 -350 -255 0
-369 -418 -350 -223 0
-369 -418 -507 -546 0
-369 -418 -507 -557 0
-369 -418 -410 -223 0
-369 -418 -410 -557 0
-362 -433 0
-447 -502 -522 0
-363 -429 -385 -335 0
-363 -429 -385 -470 0
-447 -502 -530 0
-363 -430 -385 -335 0
-363 -430 -385 -450 0
-363 -430 -398 -335 0
-363 -430 -398 -482 0
-363 -430 -501 -482 0
-96 -136 565 0
-97 -137 565 0
-98 -138 565 0
-99 -139 565 0
-100 -140 565 0
-363 -430 -501 -565 0
-96 -186 566 0
-97 -187 566 0
-98 -188 566 0
-99 -189 566 0
-100 -190 566 0
-363 -430 -501 -566 0
-447 -502 -560 0
-363 -434 -501 -470 0
-363 -434 -501 -482 0
-363 -434 -501 -566 0
-96 -146 567 0
-97 -147 567 0
-98 -148 567 0
-99 -149 567 0
-100 -150 567 0
-363 -434 -504 -567 0
-96 -196 568 0
-97 -197 568 0
-98 -198 568 0
-99 -199 568 0
-100 -200 568 0
-363 -434 -504 -568 0
-363 -434 -505 -566 0
-363 -434 -505 -568 0
-447 -496 -561 0
-367 -435 -506 -567 0
-367 -435 -508 -550 0
-367 -435 -508 -542 0
-447 -496 -563 0
-367 -438 -504 -565 0
-367 -438 -504 -568 0
-96 -156 569 0
-97 -157 569 0
-98 -158 569 0
-99 -159 569 0
-100 -160 569 0
-367 -438 -506 -569 0
-367 -438 -509 -568 0
-61 -106 570 0
-62 -107 570 0
-63 -108 570 0
-64 -109 570 0
-65 -110 570 0
-447 -496 -570 0
-367 -432 -508 -569 0
-367 -432 -508 -542 0
-367 -432 -488 -542 0
-367 -432 -488 -424 0
-447 -511 -560 0
-370 -434 -500 -450 0
-370 -434 -500 -470 0
-370 -434 -501 -470 0
-370 -434 -501 -482 0
-370 -434 -501 -566 0
-370 -434 -505 -566 0
-370 -434 -505 -568 0
-447 -511 -563 0
-370 -438 -503 -569 0
-370 -438 -503 -550 0
-370 -438 -506 -569 0
-370 -438 -509 -568 0
-61 -196 571 0
-62 -197 571 0
-63 -198 571 0
-64 -199 571 0
-65 -200 571 0
-447 -511 -571 0
-370 -441 -505 -565 0
-370 -441 -505 -566 0
-370 -441 -509 -567 0
-349 -249 0
-269 -270 -318 -245 0
-269 -235 -218 -219 0
-269 -302 -318 -245 0
-269 -302 -355 -245 0
-269 -302 -355 -250 0
-269 -302 -355 -252 0
-354 -234 -409 0
-231 -220 -347 -254 0
-231 -220 -347 -256 0
-349 -418 0
-446 -491 -417 0
-366 -437 -345 -419 0
-366 -437 -346 -419 0
-366 -437 -346 -420 0
-446 -491 -421 0
-366 -436 -347 -214 0
-446 -510 -417 0
-369 -437 -346 -419 0
-369 -437 -346 -420 0
-369 -437 -351 -425 0
-446 -510 -426 0
-369 -432 -350 -423 0
-369 -432 -350 -424 0
-369 -432 -346 -420 0
-369 -432 -346 -427 0
-369 -432 -352 -424 0
-369 -432 -352 -420 0
-369 -432 -352 -428 0
-446 -499 -409 0
-368 -220 -218 -256 0
-446 -499 -421 0
-368 -436 -351 -427 0
-349 -220 0
-231 -235 -288 -219 0
-414 -234 -371 0
-414 -499 -421 0
-368 -436 -351 -214 0
-368 -436 -351 -215 0
-414 -499 -439 0
-368 -418 -351 -215 0
-368 -418 -351 -221 0
-368 -418 -345 -215 0
-368 -418 -345 -223 0
-31 -56 0
-32 -57 0
-33 -58 0
-34 -59 0
-35 -60 0
-269 -271 -324 -301 0
-269 -262 -251 -230 0
-269 -262 -251 -244 0
-383 -289 -361 0
-269 -250 -355 -299 0
-269 -250 -355 -302 0
-269 -250 -355 -230 0
-269 -250 -251 -230 0
-319 -271 -272 -244 0
-383 -323 -397 0
-319 -333 -389 -295 0
-319 -333 -389 -296 0
-359 -333 0
-319 -271 -272 -245 0
-319 -294 -272 -245 0
-392 -476 -460 0
-360 -448 -380 -335 0
-360 -448 -380 -337 0
-360 -448 -381 -338 0
-360 -448 -381 -337 0
-360 -448 -381 -339 0
-392 -476 -461 0
-360 -449 -381 -336 0
-360 -449 -381 -337 0
-360 -449 -381 -339 0
-360 -449 -382 -339 0
-359 -448 0
-443 -476 -397 0
-443 -476 -461 0
-360 -449 -381 -466 0
-360 -449 -381 -467 0
-360 -449 -382 -467 0
-443 -512 -464 0
-363 -450 -385 -469 0
-363 -450 -385 -430 0
-363 -450 -387 -471 0
-363 -450 -387 -472 0
-363 -450 -387 -469 0
-363 -450 -388 -466 0
-363 -450 -388 -472 0
-363 -450 -388 -473 0
-443 -512 -465 0
-363 -451 -381 -474 0
-363 -451 -381 -467 0
-363 -451 -388 -470 0
-363 -451 -388 -472 0
-363 -451 -388 -473 0
-363 -451 -390 -467 0
-363 -451 -390 -473 0
-443 -513 -461 0
-364 -449 -389 -336 0
-364 -449 -382 -467 0
-443 -513 -465 0
-364 -451 -380 -470 0
-364 -451 -388 -470 0
-364 -451 -388 -472 0
-364 -451 -388 -473 0
-364 -451 -390 -467 0
-364 -451 -390 -473 0
-443 -513 -475 0
-364 -452 -382 -474 0
-364 -452 -390 -466 0
-364 -452 -390 -473 0
-362 -456 0
-445 -514 -561 0
-365 -453 -503 -550 0
-365 -453 -503 -554 0
-365 -453 -506 -554 0
-445 -514 -562 0
-365 -454 -488 -432 0
-365 -454 -488 -419 0
-365 -454 -507 -419 0
-365 -454 -507 -557 0
-445 -515 -559 0
-367 -450 -500 -469 0
-367 -450 -500 -551 0
-367 -450 -504 -551 0
-367 -450 -504 -554 0
-367 -450 -504 -555 0
-445 -515 -561 0
-367 -453 -506 -554 0
-367 -453 -508 -546 0
-445 -515 -563 0
-367 -455 -504 -550 0
-367 -455 -504 -551 0
-367 -455 -504 -555 0
-367 -455 -506 -553 0
-367 -455 -509 -555 0
-445 -516 -492 0
-369 -429 -350 -255 0
-369 -429 -350 -419 0
-369 -429 -350 -223 0
-445 -516 -562 0
-369 -454 -508 -553 0
-369 -454 -507 -419 0
-369 -454 -507 -557 0
-445 -516 -564 0
-369 -423 -350 -255 0
-369 -423 -350 -432 0
-369 -423 -350 -223 0
-369 -423 -507 -546 0
-369 -423 -507 -557 0
-369 -423 -410 -223 0
-369 -423 -410 -557 0
-362 -450 0
-447 -512 -530 0
-363 -448 -385 -335 0
-363 -448 -398 -335 0
-363 -448 -398 -482 0
-363 -448 -501 -482 0
-363 -448 -501 -565 0
-363 -448 -501 -566 0
-447 -512 -560 0
-363 -451 -501 -470 0
-363 -451 -501 -482 0
-363 -451 -501 -566 0
-363 -451 -504 -567 0
-363 -451 -504 -568 0
-363 -451 -505 -566 0
-363 -451 -505 -568 0
-447 -515 -561 0
-367 -453 -506 -567 0
-367 -453 -508 -550 0
-367 -453 -508 -542 0
-447 -515 -563 0
-367 -455 -504 -565 0
-367 -455 -504 -568 0
-367 -455 -506 -569 0
-367 -455 -509 -568 0
-447 -515 -570 0
-367 -456 -508 -569 0
-367 -456 -508 -542 0
-367 -456 -488 -433 0
-367 -456 -488 -542 0
-367 -456 -488 -424 0
-447 -517 -560 0
-370 -451 -500 -470 0
-370 -451 -501 -470 0
-370 -451 -501 -482 0
-370 -451 -501 -566 0
-370 -451 -505 -566 0
-370 -451 -505 -568 0
-447 -517 -563 0
-370 -455 -503 -569 0
-370 -455 -503 -550 0
-370 -455 -506 -569 0
-370 -455 -509 -568 0
-447 -517 -571 0
-370 -457 -505 -565 0
-370 -457 -505 -566 0
-370 -457 -509 -567 0
-362 -429 0
-458 -516 -562 0
-369 -454 -508 -432 0
-369 -454 -508 -435 0
-369 -454 -507 -418 0
-369 -454 -507 -436 0
-458 -516 -570 0
-369 -456 -508 -435 0
-369 -456 -508 -437 0
-369 -456 -503 -433 0
-369 -456 -503 -435 0
-369 -456 -503 -438 0
-458 -516 -564 0
-369 -423 -350 -249 0
-369 -423 -350 -220 0
-369 -423 -507 -437 0
-369 -423 -507 -436 0
-369 -423 -410 -220 0
-369 -423 -410 -436 0
-458 -431 -357 0
-349 -250 -236 -220 0
-458 -431 -564 0
-349 -423 -507 -437 0
-349 -423 -507 -436 0
-349 -423 -488 -437 0
-349 -423 -488 -432 0
-349 -423 -410 -220 0
-349 -423 -410 -436 0
-458 -431 -416 0
-349 -232 -236 -249 0
-349 -232 -410 -436 0
-349 -232 -410 -418 0
-363 -448 0
-359 -294 -290 -252 0
-359 -294 -325 -336 0
-443 -468 -394 0
-359 -333 -399 -474 0
-443 -476 -394 0
-91 -126 572 0
-92 -127 572 0
-93 -128 572 0
-94 -129 572 0
-95 -130 572 0
-443 -476 -572 0
-360 -449 -518 -466 0
-360 -449 -518 -467 0
-360 -449 -519 -467 0
-443 -513 -572 0
-364 -449 -399 -336 0
-364 -449 -519 -467 0
-91 -136 573 0
-92 -137 573 0
-93 -138 573 0
-94 -139 573 0
-95 -140 573 0
-443 -513 -573 0
-364 -451 -520 -470 0
-364 -451 -520 -472 0
-364 -451 -520 -473 0
-364 -451 -521 -467 0
-364 -451 -521 -473 0
-91 -186 574 0
-92 -187 574 0
-93 -188 574 0
-94 -189 574 0
-95 -190 574 0
-443 -513 -574 0
-364 -452 -519 -474 0
-364 -452 -521 -466 0
-364 -452 -521 -473 0
-363 -450 0
-91 -106 575 0
-92 -107 575 0
-93 -108 575 0
-94 -109 575 0
-95 -110 575 0
-447 -522 -575 0
-362 -456 -523 -569 0
-362 -456 -523 -542 0
-362 -456 -524 -569 0
-362 -456 -524 -567 0
-362 -456 -493 -433 0
-362 -456 -493 -542 0
-362 -456 -493 -424 0
-447 -522 -502 0
-362 -429 -493 -542 0
-362 -429 -493 -550 0
-362 -429 -493 -424 0
-362 -429 -356 -257 0
-362 -429 -356 -424 0
-362 -429 -356 -237 0
-91 -156 576 0
-92 -157 576 0
-93 -158 576 0
-94 -159 576 0
-95 -160 576 0
-447 -515 -576 0
-367 -453 -525 -567 0
-367 -453 -523 -550 0
-367 -453 -523 -542 0
-91 -146 577 0
-92 -147 577 0
-93 -148 577 0
-94 -149 577 0
-95 -150 577 0
-447 -515 -577 0
-367 -455 -520 -565 0
-367 -455 -520 -568 0
-367 -455 -525 -569 0
-367 -455 -526 -568 0
-447 -515 -575 0
-367 -456 -500 -433 0
-367 -456 -523 -569 0
-367 -456 -523 -542 0
-367 -456 -493 -433 0
-367 -456 -493 -542 0
-367 -456 -493 -424 0
-447 -517 -573 0
-370 -451 -518 -470 0
-370 -451 -518 -482 0
-370 -451 -518 -566 0
-370 -451 -521 -566 0
-370 -451 -521 -568 0
-447 -517 -577 0
-370 -455 -524 -569 0
-370 -455 -524 -550 0
-370 -455 -525 -569 0
-370 -455 -526 -568 0
-91 -196 578 0
-92 -197 578 0
-93 -198 578 0
-94 -199 578 0
-95 -200 578 0
-447 -517 -578 0
-370 -457 -521 -565 0
-370 -457 -521 -566 0
-370 -457 -526 -567 0
-363 -451 0
-459 -513 -535 0
-364 -448 -380 -337 0
-364 -448 -399 -337 0
-364 -448 -399 -483 0
-459 -513 -572 0
-364 -449 -399 -337 0
-364 -449 -399 -466 0
-136 -186 579 0
-137 -187 579 0
-138 -188 579 0
-139 -189 579 0
-140 -190 579 0
-364 -449 -519 -579 0
-459 -513 -574 0
-364 -452 -519 -483 0
-136 -196 580 0
-137 -197 580 0
-138 -198 580 0
-139 -199 580 0
-140 -200 580 0
-364 -452 -521 -580 0
-91 -96 581 0
-92 -97 581 0
-93 -98 581 0
-94 -99 581 0
-95 -100 581 0
-459 -517 -581 0
-370 -450 -500 -551 0
-370 -450 -500 -434 0
-136 -156 582 0
-137 -157 582 0
-138 -158 582 0
-139 -159 582 0
-140 -160 582 0
-370 -450 -524 -582 0
-136 -146 583 0
-137 -147 583 0
-138 -148 583 0
-139 -149 583 0
-140 -150 583 0
-370 -450 -524 -583 0
-370 -450 -524 -551 0
-459 -517 -577 0
-370 -455 -524 -565 0
-370 -455 -524 -582 0
-370 -455 -524 -551 0
-370 -455 -525 -582 0
-370 -455 -526 -580 0
-459 -517 -578 0
-370 -457 -521 -579 0
-370 -457 -526 -583 0
-459 -527 -574 0
-373 -452 -518 -466 0
-373 -452 -518 -483 0
-373 -452 -519 -483 0
-459 -527 -578 0
-373 -457 -520 -565 0
-373 -457 -520 -583 0
-373 -457 -526 -583 0
-31 -36 0
-32 -37 0
-33 -38 0
-34 -39 0
-35 -40 0
-260 -227 -228 -229 0
-319 -244 -272 -273 0
-319 -244 -272 -271 0
-319 -244 -272 -274 0
-314 -317 -275 0
-319 -245 -272 -271 0
-319 -245 -272 -274 0
-319 -245 -278 -274 0
-319 -245 -278 -279 0
-260 -248 -287 -276 0
-259 -225 -286 0
-231 -219 -283 -212 0
-231 -219 -283 -217 0
-231 -219 -288 -217 0
-231 -219 -288 -235 0
-383 -317 -275 0
-319 -245 -272 -294 0
-319 -245 -272 -295 0
-319 -245 -278 -295 0
-319 -245 -278 -296 0
-383 -361 -275 0
-359 -245 -278 -295 0
-359 -245 -278 -296 0
-383 -361 -289 0
-359 -250 -285 -298 0
-359 -250 -285 -300 0
-359 -250 -285 -302 0
-359 -250 -290 -295 0
-359 -250 -290 -300 0
-359 -250 -290 -303 0
-383 -361 -307 0
-359 -252 -278 -301 0
-359 -252 -278 -296 0
-359 -252 -290 -294 0
-359 -252 -290 -300 0
-359 -252 -290 -303 0
-359 -252 -309 -296 0
-359 -252 -309 -303 0
-359 -252 -309 -310 0
-349 -256 0
-446 -344 -417 0
-366 -253 -345 -418 0
-366 -253 -345 -419 0
-366 -253 -346 -419 0
-366 -253 -346 -420 0
-446 -344 -421 0
-366 -254 -347 -214 0
-446 -348 -422 0
-369 -249 -350 -423 0
-369 -249 -350 -419 0
-369 -249 -350 -424 0
-446 -348 -417 0
-369 -253 -346 -419 0
-369 -253 -346 -420 0
-369 -253 -351 -425 0
-446 -348 -426 0
-369 -255 -350 -423 0
-369 -255 -350 -424 0
-369 -255 -350 -418 0
-369 -255 -346 -420 0
-369 -255 -346 -427 0
-369 -255 -352 -424 0
-369 -255 -352 -420 0
-369 -255 -352 -428 0
-446 -353 -409 0
-446 -353 -421 0
-368 -254 -351 -427 0
-349 -249 0
-458 -348 -417 0
-369 -253 -346 -432 0
-369 -253 -346 -435 0
-369 -253 -351 -418 0
-369 -253 -351 -436 0
-458 -348 -426 0
-369 -255 -350 -429 0
-369 -255 -350 -433 0
-369 -255 -346 -435 0
-369 -255 -346 -437 0
-369 -255 -352 -433 0
-369 -255 -352 -435 0
-369 -255 -352 -438 0
-458 -348 -439 0
-369 -256 -351 -437 0
-369 -256 -351 -436 0
-369 -256 -347 -220 0
-369 -256 -347 -436 0
-458 -357 -431 0
-362 -250 -355 -332 0
-362 -250 -355 -430 0
-362 -250 -356 -430 0
-362 -250 -356 -433 0
-362 -250 -356 -434 0
-458 -357 -426 0
-362 -255 -346 -435 0
-362 -255 -346 -437 0
-362 -255 -352 -433 0
-362 -255 -352 -435 0
-362 -255 -352 -438 0
-362 -255 -345 -437 0
-362 -255 -345 -418 0
-458 -357 -440 0
-362 -257 -356 -429 0
-362 -257 -356 -430 0
-362 -257 -356 -434 0
-362 -257 -352 -435 0
-362 -257 -352 -438 0
-362 -257 -352 -432 0
-362 -257 -358 -434 0
-362 -257 -358 -438 0
-362 -257 -358 -441 0
-349 -219 0
-414 -353 -421 0
-368 -254 -351 -214 0
-368 -254 -351 -215 0
-414 -353 -439 0
-368 -256 -351 -215 0
-368 -256 -351 -221 0
-368 -256 -345 -220 0
-368 -256 -345 -215 0
-368 -256 -345 -223 0
-260 -248 -243 -276 0
-269 -248 -243 -276 0
-269 -244 -243 -276 0
-269 -244 -251 -276 0
-269 -244 -251 -262 0
-269 -244 -251 -308 0
-231 -219 0
-414 -353 -210 0
-368 -254 -213 -214 0
-368 -254 -213 -215 0
-414 -353 -216 0
-368 -256 -218 -220 0
-368 -256 -213 -215 0
-368 -256 -213 -221 0
-368 -256 -222 -220 0
-368 -256 -222 -215 0
-368 -256 -222 -223 0
-414 -371 -216 0
-349 -256 -213 -215 0
-349 -256 -213 -221 0
-349 -256 -222 -220 0
-349 -256 -222 -215 0
-349 -256 -222 -223 0
-349 -256 -233 -221 0
-414 -371 -234 0
-349 -249 -222 -215 0
-349 -249 -222 -223 0
-349 -249 -222 -214 0
-349 -249 -236 -232 0
-349 -249 -236 -223 0
-349 -249 -236 -237 0
-238 -239 -240 0
-227 -228 -229 -211 0
-227 -228 -229 -226 0
-244 -269 -270 -321 0
-244 -269 -270 -322 0
-244 -269 -270 -318 0
-244 -269 -271 -324 0
-244 -269 -271 -322 0
-244 -269 -271 -325 0
-317 -267 -316 0
-244 -272 -273 -327 0
-244 -272 -271 -322 0
-244 -272 -271 -325 0
-244 -272 -274 -327 0
-244 -272 -274 -325 0
-244 -272 -274 -329 0
-317 -275 -316 0
-245 -272 -271 -322 0
-245 -272 -271 -325 0
-245 -272 -274 -327 0
-245 -272 -274 -325 0
-245 -272 -274 -329 0
-317 -275 -340 0
-245 -278 -274 -324 0
-245 -278 -274 -325 0
-245 -278 -274 -329 0
-245 -278 -279 -329 0
-245 -278 -279 -343 0
-248 -287 -247 -306 0
-248 -287 -276 -306 0
-248 -287 -276 -341 0
-227 -228 0
-225 -286 -209 0
-219 -283 -212 -213 0
-219 -283 -217 -218 0
-219 -283 -217 -213 0
-219 -283 -217 -222 0
-225 -286 -224 0
-219 -288 -217 -213 0
-219 -288 -217 -222 0
-219 -288 -217 -233 0
-219 -288 -235 -222 0
-219 -288 -235 -236 0
-248 -241 -247 -243 0
-317 -275 -374 0
-245 -272 -294 -322 0
-245 -272 -294 -325 0
-245 -272 -295 -327 0
-245 -272 -295 -325 0
-245 -272 -295 -329 0
-317 -275 -375 0
-245 -278 -295 -324 0
-245 -278 -295 -325 0
-245 -278 -295 -329 0
-245 -278 -296 -329 0
-245 -278 -296 -343 0
-354 -284 -376 0
-249 -282 -297 -365 0
-249 -282 -297 -366 0
-249 -282 -298 -362 0
-249 -282 -298 -365 0
-249 -282 -298 -367 0
-249 -282 -299 -349 0
-249 -282 -299 -366 0
-249 -282 -299 -368 0
-354 -284 -377 0
-249 -285 -294 -359 0
-249 -285 -294 -363 0
-249 -285 -298 -365 0
-249 -285 -298 -367 0
-249 -285 -298 -369 0
-249 -285 -300 -363 0
-249 -285 -300 -367 0
-249 -285 -300 -370 0
-354 -284 -378 0
-249 -288 -299 -366 0
-249 -288 -299 -369 0
-249 -288 -299 -368 0
-249 -288 -230 -231 0
-249 -288 -230 -368 0
-354 -289 -374 0
-250 -272 -301 -360 0
-250 -272 -295 -360 0
-250 -272 -295 -363 0
-250 -272 -295 -364 0
-354 -289 -377 0
-250 -285 -298 -365 0
-250 -285 -298 -367 0
-250 -285 -298 -369 0
-250 -285 -300 -363 0
-250 -285 -300 -367 0
-250 -285 -300 -370 0
-250 -285 -302 -369 0
-250 -285 -302 -349 0
-354 -289 -379 0
-250 -290 -295 -359 0
-250 -290 -295 -360 0
-250 -290 -295 -364 0
-250 -290 -300 -362 0
-250 -290 -300 -367 0
-250 -290 -300 -370 0
-250 -290 -303 -364 0
-250 -290 -303 -370 0
-250 -290 -303 -373 0
-244 -272 0
-361 -275 -375 0
-245 -278 -295 -380 0
-245 -278 -295 -381 0
-245 -278 -296 -381 0
-245 -278 -296 -382 0
-250 -269 -302 -384 0
-250 -269 -302 -385 0
-250 -269 -302 -355 0
-361 -289 -377 0
-250 -285 -298 -386 0
-250 -285 -298 -387 0
-250 -285 -298 -384 0
-250 -285 -300 -380 0
-250 -285 -300 -387 0
-250 -285 -300 -388 0
-250 -285 -302 -384 0
-250 -285 -302 -355 0
-361 -289 -379 0
-250 -290 -295 -389 0
-250 -290 -295 -381 0
-250 -290 -300 -385 0
-250 -290 -300 -387 0
-250 -290 -300 -388 0
-250 -290 -303 -381 0
-250 -290 -303 -388 0
-250 -290 -303 -390 0
-361 -307 -375 0
-252 -278 -296 -381 0
-252 -278 -296 -382 0
-361 -307 -379 0
-252 -290 -294 -385 0
-252 -290 -300 -385 0
-252 -290 -300 -387 0
-252 -290 -300 -388 0
-252 -290 -303 -381 0
-252 -290 -303 -388 0
-252 -290 -303 -390 0
-361 -307 -391 0
-252 -309 -296 -389 0
-252 -309 -296 -382 0
-252 -309 -303 -380 0
-252 -309 -303 -388 0
-252 -309 -303 -390 0
-252 -309 -310 -382 0
-252 -309 -310 -390 0
-36 -71 0
-37 -72 0
-38 -73 0
-39 -74 0
-40 -75 0
-256 -351 0
-344 -417 -547 0
-253 -345 -418 -507 0
-253 -345 -419 -507 0
-171 -161 584 0
-172 -162 584 0
-173 -163 584 0
-174 -164 584 0
-175 -165 584 0
-253 -345 -419 -584 0
-171 -101 585 0
-172 -102 585 0
-173 -103 585 0
-174 -104 585 0
-175 -105 585 0
-253 -345 -419 -585 0
-116 -161 586 0
-117 -162 586 0
-118 -163 586 0
-119 -164 586 0
-120 -165 586 0
-344 -417 -586 0
-253 -346 -419 -507 0
-253 -346 -419 -585 0
-253 -346 -419 -495 0
-253 -346 -420 -585 0
-171 -151 587 0
-172 -152 587 0
-173 -153 587 0
-174 -154 587 0
-175 -155 587 0
-253 -346 -420 -587 0
-116 -121 588 0
-117 -122 588 0
-118 -123 588 0
-119 -124 588 0
-120 -125 588 0
-344 -421 -588 0
-254 -347 -214 -213 0
-256 -345 0
-249 -349 -299 -384 0
-249 -349 -423 -384 0
-249 -349 -423 -488 0
-249 -349 -423 -493 0
-348 -422 -564 0
-249 -350 -423 -384 0
-249 -350 -423 -493 0
-249 -350 -419 -497 0
-249 -350 -419 -489 0
-249 -350 -424 -493 0
-249 -350 -424 -489 0
-249 -350 -424 -494 0
-348 -417 -586 0
-253 -346 -419 -488 0
-253 -346 -419 -489 0
-253 -346 -420 -489 0
-253 -346 -420 -490 0
-116 -171 589 0
-117 -172 589 0
-118 -173 589 0
-119 -174 589 0
-120 -175 589 0
-348 -417 -589 0
-253 -351 -425 -407 0
-348 -426 -564 0
-255 -350 -423 -384 0
-255 -350 -423 -493 0
-255 -350 -424 -493 0
-255 -350 -424 -489 0
-255 -350 -424 -494 0
-348 -426 -586 0
-255 -346 -420 -489 0
-255 -346 -420 -490 0
-255 -346 -427 -495 0
-116 -101 590 0
-117 -102 590 0
-118 -103 590 0
-119 -104 590 0
-120 -105 590 0
-348 -426 -590 0
-255 -352 -424 -488 0
-255 -352 -424 -493 0
-255 -352 -424 -494 0
-255 -352 -420 -490 0
-255 -352 -420 -497 0
-255 -352 -428 -494 0
-255 -352 -428 -490 0
-255 -352 -428 -498 0
-256 -347 0
-353 -409 -216 0
-353 -421 -589 0
-254 -351 -427 -407 0
-254 -351 -427 -408 0
-244 -288 -235 -231 0
-244 -318 -332 -359 0
-244 -318 -332 -360 0
-354 -378 -462 0
-244 -355 -332 -360 0
-244 -355 -429 -362 0
-244 -355 -429 -363 0
-244 -355 -430 -360 0
-244 -355 -430 -363 0
-244 -355 -430 -364 0
-354 -431 -462 0
-250 -355 -332 -360 0
-250 -355 -430 -360 0
-250 -355 -430 -363 0
-250 -355 -430 -364 0
-354 -431 -492 0
-250 -350 -432 -365 0
-250 -350 -432 -367 0
-250 -350 -432 -369 0
-250 -350 -433 -363 0
-250 -350 -433 -367 0
-250 -350 -433 -370 0
-354 -431 -502 0
-250 -356 -430 -359 0
-250 -356 -430 -360 0
-250 -356 -430 -364 0
-250 -356 -433 -362 0
-250 -356 -433 -367 0
-250 -356 -433 -370 0
-250 -356 -434 -364 0
-250 -356 -434 -370 0
-250 -356 -434 -373 0
-249 -345 0
-348 -417 -487 0
-253 -346 -432 -488 0
-253 -346 -432 -489 0
-253 -346 -435 -489 0
-253 -346 -435 -490 0
-348 -417 -491 0
-253 -351 -418 -407 0
-253 -351 -436 -407 0
-348 -426 -492 0
-255 -350 -429 -384 0
-255 -350 -429 -493 0
-255 -350 -433 -493 0
-255 -350 -433 -489 0
-255 -350 -433 -494 0
-348 -426 -487 0
-255 -346 -435 -489 0
-255 -346 -435 -490 0
-255 -346 -437 -495 0
-348 -426 -496 0
-255 -352 -433 -488 0
-255 -352 -433 -493 0
-255 -352 -433 -494 0
-255 -352 -435 -490 0
-255 -352 -435 -497 0
-255 -352 -438 -494 0
-255 -352 -438 -490 0
-255 -352 -438 -498 0
-348 -439 -491 0
-256 -351 -437 -497 0
-256 -351 -436 -407 0
-348 -439 -499 0
-256 -347 -220 -222 0
-256 -347 -436 -495 0
-249 -350 0
-250 -349 -302 -385 0
-357 -431 -462 0
-250 -355 -332 -398 0
-250 -355 -430 -398 0
-250 -355 -430 -500 0
-250 -355 -430 -501 0
-357 -431 -502 0
-250 -356 -430 -385 0
-250 -356 -430 -398 0
-250 -356 -430 -501 0
-250 -356 -433 -503 0
-250 -356 -433 -504 0
-250 -356 -434 -501 0
-250 -356 -434 -504 0
-250 -356 -434 -505 0
-357 -426 -487 0
-255 -346 -435 -503 0
-255 -346 -435 -506 0
-255 -346 -437 -488 0
-255 -346 -437 -507 0
-357 -426 -496 0
-255 -352 -433 -500 0
-255 -352 -433 -504 0
-255 -352 -435 -506 0
-255 -352 -435 -508 0
-255 -352 -438 -504 0
-255 -352 -438 -506 0
-255 -352 -438 -509 0
-357 -426 -510 0
-255 -345 -437 -508 0
-255 -345 -437 -507 0
-255 -345 -418 -507 0
-255 -345 -418 -410 0
-357 -440 -502 0
-257 -356 -429 -385 0
-257 -356 -430 -385 0
-257 -356 -430 -398 0
-257 -356 -430 -501 0
-257 -356 -434 -501 0
-257 -356 -434 -504 0
-257 -356 -434 -505 0
-357 -440 -496 0
-257 -352 -435 -506 0
-257 -352 -435 -508 0
-257 -352 -438 -504 0
-257 -352 -438 -506 0
-257 -352 -438 -509 0
-257 -352 -432 -508 0
-257 -352 -432 -488 0
-357 -440 -511 0
-257 -358 -434 -500 0
-257 -358 -434 -501 0
-257 -358 -434 -505 0
-257 -358 -438 -503 0
-257 -358 -438 -506 0
-257 -358 -438 -509 0
-257 -358 -441 -505 0
-257 -358 -441 -509 0
-219 -218 0
-227 -288 -230 -251 0
-219 -347 0
-353 -421 -406 0
-254 -351 -214 -407 0
-254 -351 -215 -407 0
-254 -351 -215 -408 0
-353 -439 -406 0
-256 -351 -215 -407 0
-256 -351 -215 -408 0
-353 -439 -411 0
-256 -345 -220 -410 0
-256 -345 -215 -408 0
-256 -345 -215 -412 0
-256 -345 -223 -410 0
-256 -345 -223 -408 0
-256 -345 -223 -413 0
-248 -260 -247 -228 0
-248 -319 -301 -272 0
-248 -319 -301 -278 0
-304 -259 -246 0
-227 -231 -230 -283 0
-227 -231 -230 -288 0
-248 -260 -247 -243 0
-248 -269 -247 -243 0
-317 -392 -374 0
-245 -359 -294 -322 0
-245 -359 -294 -325 0
-245 -359 -295 -327 0
-245 -359 -295 -325 0
-245 -359 -295 -329 0
-317 -392 -375 0
-245 -360 -295 -324 0
-245 -360 -295 -325 0
-245 -360 -295 -329 0
-245 -360 -296 -329 0
-245 -360 -296 -343 0
-244 -359 0
-361 -392 -375 0
-245 -360 -295 -380 0
-245 -360 -295 -381 0
-245 -360 -296 -381 0
-245 -360 -296 -382 0
-361 -442 -377 0
-250 -362 -298 -386 0
-250 -362 -298 -387 0
-250 -362 -298 -384 0
-250 -362 -300 -380 0
-250 -362 -300 -387 0
-250 -362 -300 -388 0
-250 -362 -302 -384 0
-250 -362 -302 -355 0
-361 -442 -379 0
-250 -363 -295 -389 0
-250 -363 -295 -381 0
-250 -363 -300 -385 0
-250 -363 -300 -387 0
-250 -363 -300 -388 0
-250 -363 -303 -381 0
-250 -363 -303 -388 0
-250 -363 -303 -390 0
-361 -443 -375 0
-252 -360 -296 -381 0
-252 -360 -296 -382 0
-361 -443 -379 0
-252 -363 -294 -385 0
-252 -363 -300 -385 0
-252 -363 -300 -387 0
-252 -363 -300 -388 0
-252 -363 -303 -381 0
-252 -363 -303 -388 0
-252 -363 -303 -390 0
-361 -443 -391 0
-252 -364 -296 -389 0
-252 -364 -296 -382 0
-252 -364 -303 -380 0
-252 -364 -303 -388 0
-252 -364 -303 -390 0
-252 -364 -310 -382 0
-252 -364 -310 -390 0
-249 -369 0
-348 -444 -487 0
-253 -365 -432 -488 0
-253 -365 -432 -489 0
-253 -365 -435 -489 0
-253 -365 -435 -490 0
-348 -444 -491 0
-253 -366 -418 -345 0
-253 -366 -418 -407 0
-253 -366 -436 -407 0
-348 -445 -492 0
-255 -362 -429 -384 0
-255 -362 -429 -493 0
-255 -362 -433 -493 0
-255 -362 -433 -489 0
-255 -362 -433 -494 0
-348 -445 -487 0
-255 -365 -435 -489 0
-255 -365 -435 -490 0
-255 -365 -437 -495 0
-348 -445 -496 0
-255 -367 -433 -488 0
-255 -367 -433 -493 0
-255 -367 -433 -494 0
-255 -367 -435 -490 0
-255 -367 -435 -497 0
-255 -367 -438 -494 0
-255 -367 -438 -490 0
-255 -367 -438 -498 0
-348 -446 -422 0
-256 -349 -220 -222 0
-256 -349 -220 -407 0
-348 -446 -491 0
-256 -366 -437 -497 0
-256 -366 -436 -407 0
-348 -446 -499 0
-256 -368 -220 -222 0
-256 -368 -220 -345 0
-256 -368 -436 -495 0
-249 -362 0
-357 -442 -462 0
-250 -359 -332 -398 0
-250 -359 -430 -398 0
-250 -359 -430 -500 0
-250 -359 -430 -501 0
-357 -442 -502 0
-250 -363 -430 -385 0
-250 -363 -430 -398 0
-250 -363 -430 -501 0
-250 -363 -433 -503 0
-250 -363 -433 -504 0
-250 -363 -434 -501 0
-250 -363 -434 -504 0
-250 -363 -434 -505 0
-357 -445 -487 0
-255 -365 -435 -503 0
-255 -365 -435 -506 0
-255 -365 -437 -488 0
-255 -365 -437 -507 0
-357 -445 -496 0
-255 -367 -433 -500 0
-255 -367 -433 -504 0
-255 -367 -435 -506 0
-255 -367 -435 -508 0
-255 -367 -438 -504 0
-255 -367 -438 -506 0
-255 -367 -438 -509 0
-357 -445 -510 0
-255 -369 -437 -508 0
-255 -369 -437 -507 0
-255 -369 -418 -350 0
-255 -369 -418 -507 0
-255 -369 -418 -410 0
-357 -447 -502 0
-257 -363 -429 -385 0
-257 -363 -430 -385 0
-257 -363 -430 -398 0
-257 -363 -430 -501 0
-257 -363 -434 -501 0
-257 -363 -434 -504 0
-257 -363 -434 -505 0
-357 -447 -496 0
-257 -367 -435 -506 0
-257 -367 -435 -508 0
-257 -367 -438 -504 0
-257 -367 -438 -506 0
-257 -367 -438 -509 0
-257 -367 -432 -508 0
-257 -367 -432 -488 0
-357 -447 -511 0
-257 -370 -434 -500 0
-257 -370 -434 -501 0
-257 -370 -434 -505 0
-257 -370 -438 -503 0
-257 -370 -438 -506 0
-257 -370 -438 -509 0
-257 -370 -441 -505 0
-257 -370 -441 -509 0
-249 -349 0
-371 -446 -491 0
-256 -366 -437 -345 0
-256 -366 -437 -346 0
-256 -366 -436 -347 0
-371 -446 -510 0
-256 -369 -437 -346 0
-256 -369 -437 -351 0
-256 -369 -432 -350 0
-256 -369 -432 -346 0
-256 -369 -432 -352 0
-371 -446 -499 0
-256 -368 -220 -218 0
-256 -368 -436 -351 0
-371 -414 -234 0
-371 -414 -499 0
-219 -368 -436 -351 0
-219 -368 -418 -351 0
-219 -368 -418 -345 0
-250 -359 0
-244 -269 -262 -251 0
-244 -319 -333 -389 0
-361 -392 -476 0
-245 -360 -448 -380 0
-245 -360 -448 -381 0
-245 -360 -449 -381 0
-245 -360 -449 -382 0
-361 -443 -476 0
-252 -360 -449 -381 0
-252 -360 -449 -382 0
-361 -443 -512 0
-252 -363 -450 -385 0
-252 -363 -450 -387 0
-252 -363 -450 -388 0
-252 -363 -451 -381 0
-252 -363 -451 -388 0
-252 -363 -451 -390 0
-361 -443 -513 0
-252 -364 -449 -389 0
-252 -364 -449 -382 0
-252 -364 -451 -380 0
-252 -364 -451 -388 0
-252 -364 -451 -390 0
-252 -364 -452 -382 0
-252 -364 -452 -390 0
-250 -362 0
-357 -445 -514 0
-255 -365 -453 -503 0
-255 -365 -453 -506 0
-255 -365 -454 -488 0
-255 -365 -454 -507 0
-357 -445 -515 0
-255 -367 -450 -500 0
-255 -367 -450 -504 0
-255 -367 -453 -506 0
-255 -367 -453 -508 0
-255 -367 -455 -504 0
-255 -367 -455 -506 0
-255 -367 -455 -509 0
-357 -445 -516 0
-255 -369 -429 -350 0
-255 -369 -454 -508 0
-255 -369 -454 -507 0
-255 -369 -423 -350 0
-255 -369 -423 -507 0
-255 -369 -423 -410 0
-357 -447 -512 0
-257 -363 -448 -385 0
-257 -363 -448 -398 0
-257 -363 -448 -501 0
-257 -363 -451 -501 0
-257 -363 -451 -504 0
-257 -363 -451 -505 0
-357 -447 -515 0
-257 -367 -453 -506 0
-257 -367 -453 -508 0
-257 -367 -455 -504 0
-257 -367 -455 -506 0
-257 -367 -455 -509 0
-257 -367 -456 -508 0
-257 -367 -456 -488 0
-357 -447 -517 0
-257 -370 -451 -500 0
-257 -370 -451 -501 0
-257 -370 -451 -505 0
-257 -370 -455 -503 0
-257 -370 -455 -506 0
-257 -370 -455 -509 0
-257 -370 -457 -505 0
-257 -370 -457 -509 0
-357 -458 -516 0
-249 -369 -454 -508 0
-249 -369 -454 -507 0
-249 -369 -456 -508 0
-249 -369 -456 -503 0
-249 -369 -423 -350 0
-249 -369 -423 -507 0
-249 -369 -423 -410 0
-357 -458 -431 0
-249 -349 -423 -507 0
-249 -349 -423 -488 0
-249 -349 -423 -410 0
-249 -349 -232 -236 0
-249 -349 -232 -410 0
-250 -363 0
-372 -443 -468 0
-252 -359 -333 -399 0
-372 -443 -476 0
-252 -360 -333 -380 0
-252 -360 -449 -518 0
-252 -360 -449 -519 0
-372 -443 -513 0
-252 -364 -449 -399 0
-252 -364 -449 -519 0
-252 -364 -451 -520 0
-252 -364 -451 -521 0
-252 -364 -452 -519 0
-252 -364 -452 -521 0
-372 -447 -522 0
-257 -362 -456 -523 0
-257 -362 -456 -524 0
-257 -362 -456 -493 0
-257 -362 -429 -493 0
-257 -362 -429 -356 0
-372 -447 -515 0
-257 -367 -453 -525 0
-257 -367 -453 -523 0
-257 -367 -455 -520 0
-257 -367 -455 -525 0
-257 -367 -455 -526 0
-257 -367 -456 -500 0
-257 -367 -456 -523 0
-257 -367 -456 -493 0
-372 -447 -517 0
-257 -370 -451 -518 0
-257 -370 -451 -521 0
-257 -370 -455 -524 0
-257 -370 -455 -525 0
-257 -370 -455 -526 0
-257 -370 -457 -521 0
-257 -370 -457 -526 0
-372 -459 -513 0
-264 -364 -448 -380 0
-264 -364 -448 -399 0
-264 -364 -449 -399 0
-264 -364 -449 -519 0
-264 -364 -452 -519 0
-264 -364 -452 -521 0
-372 -459 -517 0
-264 -370 -450 -500 0
-264 -370 -450 -524 0
-264 -370 -455 -524 0
-264 -370 -455 -525 0
-264 -370 -455 -526 0
-264 -370 -457 -521 0
-264 -370 -457 -526 0
-372 -459 -527 0
-264 -373 -452 -518 0
-264 -373 -452 -519 0
-264 -373 -457 -520 0
-264 -373 -457 -526 0
-36 -41 0
-37 -42 0
-38 -43 0
-39 -44 0
-40 -45 0
-248 -228 -247 -306 0
-248 -243 -247 -306 0
-248 -243 -276 -306 0
-248 -243 -276 -341 0
-248 -243 -247 -272 0
-248 -243 -276 -272 0
-248 -243 -276 -278 0
-244 -243 -276 -272 0
-244 -243 -276 -278 0
-244 -231 -235 -282 0
-244 -231 -235 -285 0
-244 -231 -235 -288 0
-244 -231 -262 -272 0
-244 -231 -262 -285 0
-244 -231 -262 -290 0
-304 -246 -305 0
-244 -251 -276 -278 0
-244 -251 -262 -285 0
-244 -251 -262 -290 0
-244 -251 -308 -278 0
-244 -251 -308 -290 0
-244 -251 -308 -309 0
-219 -233 0
-353 -210 -406 0
-254 -213 -214 -347 0
-254 -213 -214 -407 0
-254 -213 -215 -407 0
-254 -213 -215 -408 0
-353 -216 -409 0
-256 -218 -220 -407 0
-256 -218 -220 -410 0
-353 -216 -406 0
-256 -213 -215 -407 0
-256 -213 -215 -408 0
-353 -216 -411 0
-256 -222 -220 -410 0
-256 -222 -220 -347 0
-256 -222 -215 -408 0
-256 -222 -215 -412 0
-256 -222 -223 -410 0
-256 -222 -223 -408 0
-256 -222 -223 -413 0
-219 -218 0
-371 -216 -406 0
-256 -213 -215 -345 0
-256 -213 -215 -346 0
-256 -213 -221 -347 0
-371 -216 -411 0
-256 -222 -220 -350 0
-256 -222 -215 -346 0
-256 -222 -215 -351 0
-256 -222 -223 -350 0
-256 -222 -223 -346 0
-256 -222 -223 -352 0
-371 -216 -415 0
-256 -233 -221 -351 0
-249 -231 -230 -355 0
-249 -231 -232 -355 0
-249 -231 -232 -350 0
-249 -231 -232 -356 0
-371 -234 -411 0
-249 -222 -215 -346 0
-249 -222 -215 -351 0
-249 -222 -223 -350 0
-249 -222 -223 -346 0
-249 -222 -223 -352 0
-249 -222 -214 -351 0
-249 -222 -214 -347 0
-371 -234 -416 0
-249 -236 -232 -355 0
-249 -236 -232 -356 0
-249 -236 -223 -346 0
-249 -236 -223 -352 0
-249 -236 -223 -345 0
-249 -236 -237 -356 0
-249 -236 -237 -352 0
-249 -236 -237 -358 0
-228 -227 -226 -313 0
-228 -227 -226 -270 0
-228 -227 -226 -229 0
-228 -227 -260 -270 0
-228 -227 -260 -271 0
-228 -247 -268 -273 0
-228 -247 -260 -270 0
-228 -247 -260 -271 0
-228 -247 -306 -273 0
-228 -247 -306 -271 0
-228 -247 -306 -274 0
-243 -247 -260 -270 0
-243 -247 -260 -271 0
-243 -247 -306 -273 0
-243 -247 -306 -271 0
-243 -247 -306 -274 0
-240 -266 -330 0
-243 -276 -306 -271 0
-243 -276 -306 -274 0
-243 -276 -341 -274 0
-243 -276 -341 -279 0
-243 -247 -269 -270 0
-243 -247 -269 -271 0
-243 -247 -272 -273 0
-243 -247 -272 -271 0
-243 -247 -272 -274 0
-240 -266 -275 0
-243 -276 -272 -271 0
-243 -276 -272 -274 0
-243 -276 -278 -274 0
-243 -276 -278 -279 0
-225 -224 -280 0
-218 -217 -281 -253 0
-218 -217 -281 -254 0
-218 -217 -282 -249 0
-218 -217 -282 -253 0
-218 -217 -282 -255 0
-218 -217 -283 -219 0
-218 -217 -283 -254 0
-225 -224 -284 0
-218 -235 -269 -250 0
-218 -235 -282 -253 0
-218 -235 -282 -255 0
-218 -235 -282 -256 0
-218 -235 -285 -250 0
-218 -235 -285 -255 0
-218 -235 -285 -257 0
-225 -224 -286 0
-218 -207 -283 -254 0
-218 -207 -283 -256 0
-231 -247 -287 -245 0
-231 -247 -272 -245 0
-231 -247 -272 -250 0
-231 -247 -272 -252 0
-225 -259 -284 0
-231 -235 -282 -253 0
-231 -235 -282 -255 0
-231 -235 -282 -256 0
-231 -235 -285 -250 0
-231 -235 -285 -255 0
-231 -235 -285 -257 0
-231 -235 -288 -256 0
-231 -235 -288 -219 0
-225 -259 -289 0
-231 -262 -272 -245 0
-231 -262 -272 -252 0
-231 -262 -285 -255 0
-231 -262 -285 -257 0
-231 -262 -285 -249 0
-231 -262 -290 -252 0
-231 -262 -290 -257 0
-231 -262 -290 -264 0
-246 -266 -275 0
-243 -276 -272 -294 0
-243 -276 -272 -295 0
-243 -276 -278 -295 0
-243 -276 -278 -296 0
-246 -259 -284 0
-231 -235 -282 -297 0
-231 -235 -282 -298 0
-231 -235 -282 -299 0
-231 -235 -285 -294 0
-231 -235 -285 -298 0
-231 -235 -285 -300 0
-231 -235 -288 -299 0
-231 -235 -288 -230 0
-246 -259 -289 0
-231 -262 -272 -301 0
-231 -262 -272 -295 0
-231 -262 -285 -298 0
-231 -262 -285 -300 0
-231 -262 -285 -302 0
-231 -262 -290 -295 0
-231 -262 -290 -300 0
-231 -262 -290 -303 0
-231 -227 -288 -299 0
-231 -227 -288 -302 0
-231 -227 -288 -230 0
-246 -305 -275 0
-251 -276 -278 -295 0
-251 -276 -278 -296 0
-246 -305 -289 0
-251 -262 -269 -302 0
-251 -262 -285 -298 0
-251 -262 -285 -300 0
-251 -262 -285 -302 0
-251 -262 -290 -295 0
-251 -262 -290 -300 0
-251 -262 -290 -303 0
-246 -305 -307 0
-251 -308 -278 -301 0
-251 -308 -278 -296 0
-251 -308 -290 -294 0
-251 -308 -290 -300 0
-251 -308 -290 -303 0
-251 -308 -309 -296 0
-251 -308 -309 -303 0
-251 -308 -309 -310 0
-41 -76 0
-42 -77 0
-43 -78 0
-44 -79 0
-45 -80 0
-233 -221 0
-210 -406 -588 0
-213 -214 -347 -436 0
-213 -214 -407 -436 0
-213 -214 -407 -548 0
-213 -214 -407 -557 0
-121 -166 591 0
-122 -167 591 0
-123 -168 591 0
-124 -169 591 0
-125 -170 591 0
-210 -406 -591 0
-213 -215 -407 -436 0
-213 -215 -407 -557 0
-213 -215 -407 -425 0
-213 -215 -408 -557 0
-176 -156 592 0
-177 -157 592 0
-178 -158 592 0
-179 -159 592 0
-180 -160 592 0
-213 -215 -408 -592 0
-233 -214 0
-218 -219 -368 -418 0
-218 -219 -368 -423 0
-216 -409 -499 0
-218 -220 -368 -423 0
-218 -220 -407 -427 0
-218 -220 -407 -419 0
-218 -220 -410 -423 0
-218 -220 -410 -419 0
-218 -220 -410 -424 0
-216 -406 -591 0
-213 -215 -407 -418 0
-213 -215 -407 -419 0
-213 -215 -408 -419 0
-213 -215 -408 -420 0
-121 -176 593 0
-122 -177 593 0
-123 -178 593 0
-124 -179 593 0
-125 -180 593 0
-216 -406 -593 0
-216 -411 -499 0
-222 -220 -368 -423 0
-222 -220 -410 -423 0
-222 -220 -410 -419 0
-222 -220 -410 -424 0
-216 -411 -591 0
-222 -215 -408 -419 0
-222 -215 -408 -420 0
-222 -215 -412 -425 0
-121 -106 594 0
-122 -107 594 0
-123 -108 594 0
-124 -109 594 0
-125 -110 594 0
-216 -411 -594 0
-222 -223 -410 -423 0
-222 -223 -410 -424 0
-222 -223 -410 -418 0
-222 -223 -408 -420 0
-222 -223 -408 -427 0
-222 -223 -413 -424 0
-222 -223 -413 -420 0
-222 -223 -413 -428 0
-228 -229 -318 -245 0
-228 -230 -318 -245 0
-228 -230 -349 -249 0
-228 -230 -349 -250 0
-228 -230 -355 -245 0
-228 -230 -355 -250 0
-228 -230 -355 -252 0
-231 -230 -318 -245 0
-231 -230 -355 -245 0
-231 -230 -355 -250 0
-231 -230 -355 -252 0
-225 -414 -422 0
-231 -220 -345 -253 0
-231 -220 -345 -255 0
-231 -220 -345 -256 0
-231 -220 -350 -250 0
-231 -220 -350 -255 0
-231 -220 -350 -257 0
-225 -414 -431 0
-231 -232 -355 -245 0
-231 -232 -355 -252 0
-231 -232 -350 -255 0
-231 -232 -350 -257 0
-231 -232 -350 -249 0
-231 -232 -356 -252 0
-231 -232 -356 -257 0
-231 -232 -356 -264 0
-218 -214 0
-216 -406 -417 0
-213 -215 -345 -418 0
-213 -215 -345 -419 0
-213 -215 -346 -419 0
-213 -215 -346 -420 0
-216 -406 -421 0
-216 -411 -422 0
-222 -220 -349 -423 0
-222 -220 -350 -423 0
-222 -220 -350 -419 0
-222 -220 -350 -424 0
-216 -411 -417 0
-222 -215 -346 -419 0
-222 -215 -346 -420 0
-222 -215 -351 -425 0
-216 -411 -426 0
-222 -223 -350 -423 0
-222 -223 -350 -424 0
-222 -223 -350 -418 0
-222 -223 -346 -420 0
-222 -223 -346 -427 0
-222 -223 -352 -424 0
-222 -223 -352 -420 0
-222 -223 -352 -428 0
-216 -415 -421 0
-233 -221 -351 -427 0
-218 -220 0
-231 -230 -318 -332 0
-231 -230 -355 -332 0
-231 -230 -355 -429 0
-231 -230 -355 -430 0
-234 -414 -431 0
-231 -232 -355 -332 0
-231 -232 -355 -430 0
-231 -232 -350 -432 0
-231 -232 -350 -433 0
-231 -232 -356 -430 0
-231 -232 -356 -433 0
-231 -232 -356 -434 0
-234 -411 -417 0
-222 -215 -346 -432 0
-222 -215 -346 -435 0
-222 -215 -351 -418 0
-222 -215 -351 -436 0
-234 -411 -426 0
-222 -223 -350 -429 0
-222 -223 -350 -433 0
-222 -223 -346 -435 0
-222 -223 -346 -437 0
-222 -223 -352 -433 0
-222 -223 -352 -435 0
-222 -223 -352 -438 0
-234 -411 -439 0
-222 -214 -351 -437 0
-222 -214 -351 -436 0
-222 -214 -347 -436 0
-234 -416 -431 0
-236 -232 -355 -332 0
-236 -232 -355 -430 0
-236 -232 -356 -430 0
-236 -232 -356 -433 0
-236 -232 -356 -434 0
-234 -416 -426 0
-236 -223 -346 -435 0
-236 -223 -346 -437 0
-236 -223 -352 -433 0
-236 -223 -352 -435 0
-236 -223 -352 -438 0
-236 -223 -345 -437 0
-236 -223 -345 -418 0
-234 -416 -440 0
-236 -237 -356 -429 0
-236 -237 -356 -430 0
-236 -237 -356 -434 0
-236 -237 -352 -435 0
-236 -237 -352 -438 0
-236 -237 -352 -432 0
-236 -237 -358 -434 0
-236 -237 -358 -438 0
-236 -237 -358 -441 0
-243 -244 -269 -270 0
-243 -244 -269 -271 0
-243 -244 -272 -273 0
-243 -244 -272 -271 0
-243 -244 -272 -274 0
-240 -317 -275 0
-243 -245 -272 -271 0
-243 -245 -272 -274 0
-243 -245 -278 -274 0
-243 -245 -278 -279 0
-206 -248 -287 -276 0
-246 -317 -275 0
-243 -245 -272 -294 0
-243 -245 -272 -295 0
-243 -245 -278 -295 0
-243 -245 -278 -296 0
-246 -354 -284 0
-231 -249 -282 -297 0
-231 -249 -282 -298 0
-231 -249 -282 -299 0
-231 -249 -285 -294 0
-231 -249 -285 -298 0
-231 -249 -285 -300 0
-231 -249 -288 -299 0
-231 -249 -288 -230 0
-246 -354 -289 0
-231 -250 -272 -301 0
-231 -250 -272 -295 0
-231 -250 -285 -298 0
-231 -250 -285 -300 0
-231 -250 -285 -302 0
-231 -250 -290 -295 0
-231 -250 -290 -300 0
-231 -250 -290 -303 0
-246 -361 -275 0
-251 -245 -278 -295 0
-251 -245 -278 -296 0
-246 -361 -289 0
-251 -250 -269 -302 0
-251 -250 -285 -298 0
-251 -250 -285 -300 0
-251 -250 -285 -302 0
-251 -250 -290 -295 0
-251 -250 -290 -300 0
-251 -250 -290 -303 0
-246 -361 -307 0
-251 -252 -278 -301 0
-251 -252 -278 -296 0
-251 -252 -290 -294 0
-251 -252 -290 -300 0
-251 -252 -290 -303 0
-251 -252 -309 -296 0
-251 -252 -309 -303 0
-251 -252 -309 -310 0
-218 -256 0
-216 -344 -417 0
-213 -253 -345 -418 0
-213 -253 -345 -419 0
-213 -253 -346 -419 0
-213 -253 -346 -420 0
-216 -344 -421 0
-213 -254 -347 -214 0
-216 -348 -422 0
-222 -249 -349 -423 0
-222 -249 -350 -423 0
-222 -249 -350 -419 0
-222 -249 -350 -424 0
-216 -348 -417 0
-222 -253 -346 -419 0
-222 -253 -346 -420 0
-222 -253 -351 -425 0
-216 -348 -426 0
-222 -255 -350 -423 0
-222 -255 -350 -424 0
-222 -255 -350 -418 0
-222 -255 -346 -420 0
-222 -255 -346 -427 0
-222 -255 -352 -424 0
-222 -255 -352 -420 0
-222 -255 -352 -428 0
-216 -353 -409 0
-216 -353 -421 0
-233 -254 -351 -427 0
-218 -249 0
-231 -244 -318 -332 0
-231 -244 -355 -332 0
-231 -244 -355 -429 0
-231 -244 -355 -430 0
-234 -354 -431 0
-231 -250 -355 -332 0
-231 -250 -355 -430 0
-231 -250 -350 -432 0
-231 -250 -350 -433 0
-231 -250 -356 -430 0
-231 -250 -356 -433 0
-231 -250 -356 -434 0
-234 -348 -417 0
-222 -253 -346 -432 0
-222 -253 -346 -435 0
-222 -253 -351 -418 0
-222 -253 -351 -436 0
-234 -348 -426 0
-222 -255 -350 -429 0
-222 -255 -350 -433 0
-222 -255 -346 -435 0
-222 -255 -346 -437 0
-222 -255 -352 -433 0
-222 -255 -352 -435 0
-222 -255 -352 -438 0
-234 -348 -439 0
-222 -256 -351 -437 0
-222 -256 -351 -436 0
-222 -256 -347 -220 0
-222 -256 -347 -436 0
-234 -357 -431 0
-236 -250 -355 -332 0
-236 -250 -355 -430 0
-236 -250 -356 -430 0
-236 -250 -356 -433 0
-236 -250 -356 -434 0
-234 -357 -426 0
-236 -255 -346 -435 0
-236 -255 -346 -437 0
-236 -255 -352 -433 0
-236 -255 -352 -435 0
-236 -255 -352 -438 0
-236 -255 -345 -437 0
-236 -255 -345 -418 0
-234 -357 -440 0
-236 -257 -356 -429 0
-236 -257 -356 -430 0
-236 -257 -356 -434 0
-236 -257 -352 -435 0
-236 -257 -352 -438 0
-236 -257 -352 -432 0
-236 -257 -358 -434 0
-236 -257 -358 -438 0
-236 -257 -358 -441 0
-218 -219 0
-258 -353 -421 0
-233 -254 -351 -214 0
-233 -254 -351 -215 0
-258 -353 -439 0
-233 -256 -351 -215 0
-233 -256 -351 -221 0
-233 -256 -345 -220 0
-233 -256 -345 -215 0
-233 -256 -345 -223 0
-228 -248 -319 -301 0
-246 -317 -392 0
-243 -245 -359 -294 0
-243 -245 -359 -295 0
-243 -245 -360 -295 0
-243 -245 -360 -296 0
-246 -361 -392 0
-251 -245 -360 -295 0
-251 -245 -360 -296 0
-246 -361 -442 0
-251 -250 -362 -298 0
-251 -250 -362 -300 0
-251 -250 -362 -302 0
-251 -250 -363 -295 0
-251 -250 -363 -300 0
-251 -250 -363 -303 0
-246 -361 -443 0
-251 -252 -360 -301 0
-251 -252 -360 -296 0
-251 -252 -363 -294 0
-251 -252 -363 -300 0
-251 -252 -363 -303 0
-251 -252 -364 -296 0
-251 -252 -364 -303 0
-251 -252 -364 -310 0
-231 -249 0
-234 -348 -444 0
-222 -253 -365 -432 0
-222 -253 -365 -435 0
-222 -253 -366 -418 0
-222 -253 -366 -436 0
-234 -348 -445 0
-222 -255 -362 -429 0
-222 -255 -362 -433 0
-222 -255 -365 -435 0
-222 -255 -365 -437 0
-222 -255 -367 -433 0
-222 -255 -367 -435 0
-222 -255 -367 -438 0
-234 -348 -446 0
-222 -256 -349 -220 0
-222 -256 -366 -437 0
-222 -256 -366 -436 0
-222 -256 -368 -220 0
-222 -256 -368 -436 0
-234 -357 -442 0
-236 -250 -359 -332 0
-236 -250 -359 -430 0
-236 -250 -363 -430 0
-236 -250 -363 -433 0
-236 -250 -363 -434 0
-234 -357 -445 0
-236 -255 -365 -435 0
-236 -255 -365 -437 0
-236 -255 -367 -433 0
-236 -255 -367 -435 0
-236 -255 -367 -438 0
-236 -255 -369 -437 0
-236 -255 -369 -418 0
-234 -357 -447 0
-236 -257 -363 -429 0
-236 -257 -363 -430 0
-236 -257 -363 -434 0
-236 -257 -367 -435 0
-236 -257 -367 -438 0
-236 -257 -367 -432 0
-236 -257 -370 -434 0
-236 -257 -370 -438 0
-236 -257 -370 -441 0
-234 -371 -446 0
-218 -256 -366 -437 0
-218 -256 -366 -436 0
-218 -256 -369 -437 0
-218 -256 -369 -432 0
-218 -256 -368 -220 0
-218 -256 -368 -436 0
-234 -371 -414 0
-218 -219 -368 -436 0
-218 -219 -368 -418 0
-231 -250 0
-251 -244 -319 -333 0
-261 -361 -392 0
-251 -245 -360 -448 0
-251 -245 -360 -449 0
-261 -361 -443 0
-251 -252 -360 -333 0
-251 -252 -360 -449 0
-251 -252 -363 -450 0
-251 -252 -363 -451 0
-251 -252 -364 -449 0
-251 -252 -364 -451 0
-251 -252 -364 -452 0
-261 -357 -445 0
-236 -255 -365 -453 0
-236 -255 -365 -454 0
-236 -255 -367 -450 0
-236 -255 -367 -453 0
-236 -255 -367 -455 0
-236 -255 -369 -429 0
-236 -255 -369 -454 0
-236 -255 -369 -423 0
-261 -357 -447 0
-236 -257 -363 -448 0
-236 -257 -363 -451 0
-236 -257 -367 -453 0
-236 -257 -367 -455 0
-236 -257 -367 -456 0
-236 -257 -370 -451 0
-236 -257 -370 -455 0
-236 -257 -370 -457 0
-261 -357 -458 0
-236 -249 -369 -454 0
-236 -249 -369 -456 0
-236 -249 -369 -423 0
-236 -249 -349 -423 0
-236 -249 -349 -232 0
-261 -372 -443 0
-263 -252 -359 -333 0
-263 -252 -360 -333 0
-263 -252 -360 -449 0
-263 -252 -364 -449 0
-263 -252 -364 -451 0
-263 -252 -364 -452 0
-261 -372 -447 0
-263 -257 -362 -456 0
-263 -257 -362 -429 0
-263 -257 -367 -453 0
-263 -257 -367 -455 0
-263 -257 -367 -456 0
-263 -257 -370 -451 0
-263 -257 -370 -455 0
-263 -257 -370 -457 0
-261 -372 -459 0
-263 -264 -364 -448 0
-263 -264 -364 -449 0
-263 -264 -364 -452 0
-263 -264 -370 -450 0
-263 -264 -370 -455 0
-263 -264 -370 -457 0
-263 -264 -373 -452 0
-263 -264 -373 -457 0
-276 -243 -229 -211 0
-276 -243 -229 -226 0
-276 -243 -248 -226 0
-276 -287 -248 -226 0
-276 -287 -277 -306 0
-276 -243 -229 -283 0
-276 -243 -229 -288 0
-276 -243 -248 -288 0
-275 -317 -312 0
-245 -318 -313 -281 0
-245 -318 -313 -282 0
-245 -318 -313 -283 0
-245 -318 -270 -282 0
-245 -318 -270 -285 0
-245 -318 -229 -283 0
-245 -319 -277 -272 0
-245 -319 -270 -282 0
-245 -319 -270 -285 0
-245 -319 -270 -288 0
-245 -319 -271 -272 0
-245 -319 -271 -285 0
-245 -319 -271 -290 0
-245 -243 -229 -283 0
-245 -243 -229 -288 0
-301 -319 -270 -282 0
-301 -319 -270 -285 0
-301 -319 -270 -288 0
-301 -319 -271 -272 0
-301 -319 -271 -285 0
-301 -319 -271 -290 0
-301 -319 -248 -288 0
-275 -331 -316 0
-301 -324 -271 -285 0
-301 -324 -271 -290 0
-301 -324 -274 -278 0
-301 -324 -274 -290 0
-301 -324 -274 -309 0
-276 -243 -230 -283 0
-276 -243 -230 -288 0
-276 -243 -244 -288 0
-275 -317 -378 0
-245 -318 -299 -281 0
-245 -318 -299 -282 0
-245 -318 -299 -283 0
-245 -318 -302 -282 0
-245 -318 -302 -285 0
-245 -318 -230 -283 0
-245 -319 -302 -282 0
-245 -319 -302 -285 0
-245 -319 -302 -288 0
-245 -319 -294 -272 0
-245 -319 -294 -285 0
-245 -319 -294 -290 0
-245 -243 -230 -283 0
-245 -243 -230 -288 0
-392 -320 -376 0
-332 -321 -297 -365 0
-332 -321 -297 -366 0
-332 -321 -298 -362 0
-332 -321 -298 -365 0
-332 -321 -298 -367 0
-332 -321 -299 -349 0
-332 -321 -299 -366 0
-332 -321 -299 -368 0
-392 -320 -377 0
-332 -322 -294 -359 0
-332 -322 -294 -363 0
-332 -322 -298 -365 0
-332 -322 -298 -367 0
-332 -322 -298 -369 0
-332 -322 -300 -363 0
-332 -322 -300 -367 0
-332 -322 -300 -370 0
-392 -320 -378 0
-332 -318 -299 -366 0
-332 -318 -299 -369 0
-332 -318 -299 -368 0
-332 -318 -230 -368 0
-392 -323 -374 0
-333 -324 -295 -360 0
-333 -324 -295 -363 0
-333 -324 -295 -364 0
-392 -323 -377 0
-333 -322 -298 -365 0
-333 -322 -298 -367 0
-333 -322 -298 -369 0
-333 -322 -300 -363 0
-333 -322 -300 -367 0
-333 -322 -300 -370 0
-333 -322 -302 -369 0
-333 -322 -302 -349 0
-392 -323 -379 0
-333 -325 -295 -359 0
-333 -325 -295 -360 0
-333 -325 -295 -364 0
-333 -325 -300 -362 0
-333 -325 -300 -367 0
-333 -325 -300 -370 0
-333 -325 -303 -364 0
-333 -325 -303 -370 0
-333 -325 -303 -373 0
-392 -317 -378 0
-245 -318 -299 -366 0
-245 -318 -299 -369 0
-245 -318 -299 -368 0
-245 -318 -302 -369 0
-245 -318 -302 -362 0
-245 -318 -230 -368 0
-245 -243 -230 -368 0
-245 -243 -230 -349 0
-301 -324 0
-333 -319 -302 -384 0
-333 -319 -302 -385 0
-333 -319 -302 -355 0
-333 -319 -244 -355 0
-397 -323 -377 0
-333 -322 -298 -386 0
-333 -322 -298 -387 0
-333 -322 -298 -384 0
-333 -322 -300 -380 0
-333 -322 -300 -387 0
-333 -322 -300 -388 0
-333 -322 -302 -384 0
-333 -322 -302 -355 0
-397 -323 -379 0
-333 -325 -295 -389 0
-333 -325 -295 -381 0
-333 -325 -300 -385 0
-333 -325 -300 -387 0
-333 -325 -300 -388 0
-333 -325 -303 -381 0
-333 -325 -303 -388 0
-333 -325 -303 -390 0
-397 -328 -375 0
-336 -327 -296 -381 0
-336 -327 -296 -382 0
-397 -328 -379 0
-336 -325 -294 -385 0
-336 -325 -300 -385 0
-336 -325 -300 -387 0
-336 -325 -300 -388 0
-336 -325 -303 -381 0
-336 -325 -303 -388 0
-336 -325 -303 -390 0
-397 -328 -391 0
-336 -329 -296 -389 0
-336 -329 -296 -382 0
-336 -329 -303 -380 0
-336 -329 -303 -388 0
-336 -329 -303 -390 0
-336 -329 -310 -382 0
-336 -329 -310 -390 0
-46 -51 0
-47 -52 0
-48 -53 0
-49 -54 0
-50 -55 0
-276 -251 -230 -283 0
-276 -251 -230 -288 0
-276 -251 -244 -288 0
-275 -361 -378 0
-245 -355 -299 -281 0
-245 -355 -299 -282 0
-245 -355 -299 -283 0
-245 -355 -302 -282 0
-245 -355 -302 -285 0
-245 -355 -230 -283 0
-245 -359 -302 -282 0
-245 -359 -302 -285 0
-245 -359 -302 -288 0
-245 -359 -294 -285 0
-245 -359 -294 -290 0
-245 -251 -230 -283 0
-245 -251 -230 -288 0
-273 -272 -244 -318 0
-392 -462 -376 0
-332 -384 -297 -365 0
-332 -384 -297 -366 0
-332 -384 -298 -362 0
-332 -384 -298 -365 0
-332 -384 -298 -367 0
-332 -384 -299 -349 0
-332 -384 -299 -366 0
-332 -384 -299 -368 0
-392 -462 -377 0
-332 -385 -294 -363 0
-332 -385 -298 -365 0
-332 -385 -298 -367 0
-332 -385 -298 -369 0
-332 -385 -300 -363 0
-332 -385 -300 -367 0
-332 -385 -300 -370 0
-392 -462 -378 0
-332 -355 -299 -366 0
-332 -355 -299 -369 0
-332 -355 -299 -368 0
-332 -355 -230 -368 0
-392 -468 -377 0
-333 -385 -298 -365 0
-333 -385 -298 -367 0
-333 -385 -298 -369 0
-333 -385 -300 -363 0
-333 -385 -300 -367 0
-333 -385 -300 -370 0
-333 -385 -302 -369 0
-333 -385 -302 -349 0
-392 -468 -379 0
-333 -380 -295 -360 0
-333 -380 -295 -364 0
-333 -380 -300 -362 0
-333 -380 -300 -367 0
-333 -380 -300 -370 0
-333 -380 -303 -364 0
-333 -380 -303 -370 0
-333 -380 -303 -373 0
-392 -361 -378 0
-245 -355 -299 -366 0
-245 -355 -299 -369 0
-245 -355 -299 -368 0
-245 -355 -302 -369 0
-245 -355 -302 -362 0
-245 -355 -230 -368 0
-245 -251 -230 -368 0
-245 -251 -230 -349 0
-301 -272 -250 -349 0
-392 -462 -516 0
-332 -384 -454 -365 0
-332 -384 -454 -366 0
-332 -384 -456 -362 0
-332 -384 -456 -365 0
-332 -384 -456 -367 0
-332 -384 -423 -349 0
-332 -384 -423 -366 0
-332 -384 -423 -368 0
-392 -462 -522 0
-332 -385 -456 -365 0
-332 -385 -456 -367 0
-332 -385 -456 -369 0
-332 -385 -450 -363 0
-332 -385 -450 -367 0
-332 -385 -450 -370 0
-392 -462 -431 0
-332 -355 -423 -366 0
-332 -355 -423 -369 0
-332 -355 -423 -368 0
-332 -355 -232 -368 0
-392 -361 -431 0
-245 -355 -423 -366 0
-245 -355 -423 -369 0
-245 -355 -423 -368 0
-245 -355 -429 -369 0
-245 -355 -429 -362 0
-245 -355 -232 -368 0
-245 -251 -232 -368 0
-245 -251 -232 -349 0
-333 -385 0
-393 -463 -514 0
-334 -386 -453 -503 0
-334 -386 -453 -506 0
-334 -386 -454 -488 0
-334 -386 -454 -507 0
-393 -463 -515 0
-334 -387 -450 -500 0
-334 -387 -450 -504 0
-334 -387 -453 -506 0
-334 -387 -453 -508 0
-334 -387 -455 -504 0
-334 -387 -455 -506 0
-334 -387 -455 -509 0
-393 -463 -516 0
-334 -384 -429 -350 0
-334 -384 -454 -508 0
-334 -384 -454 -507 0
-334 -384 -423 -350 0
-334 -384 -423 -507 0
-334 -384 -423 -410 0
-393 -464 -512 0
-335 -380 -448 -398 0
-335 -380 -448 -501 0
-335 -380 -451 -501 0
-335 -380 -451 -504 0
-335 -380 -451 -505 0
-393 -464 -515 0
-335 -387 -453 -506 0
-335 -387 -453 -508 0
-335 -387 -455 -504 0
-335 -387 -455 -506 0
-335 -387 -455 -509 0
-335 -387 -456 -508 0
-335 -387 -456 -488 0
-393 -464 -517 0
-335 -388 -451 -500 0
-335 -388 -451 -501 0
-335 -388 -451 -505 0
-335 -388 -455 -503 0
-335 -388 -455 -506 0
-335 -388 -455 -509 0
-335 -388 -457 -505 0
-335 -388 -457 -509 0
-332 -359 -250 -350 0
-393 -462 -516 0
-332 -384 -454 -508 0
-332 -384 -454 -507 0
-332 -384 -456 -508 0
-332 -384 -456 -503 0
-332 -384 -423 -350 0
-332 -384 -423 -507 0
-332 -384 -423 -410 0
-393 -462 -431 0
-332 -355 -423 -507 0
-332 -355 -423 -488 0
-332 -355 -423 -410 0
-332 -355 -232 -410 0
-333 -380 0
-394 -460 -476 0
-336 -389 -449 -518 0
-336 -389 -449 -519 0
-394 -460 -513 0
-336 -381 -449 -399 0
-336 -381 -449 -519 0
-336 -381 -451 -520 0
-336 -381 -451 -521 0
-336 -381 -452 -519 0
-336 -381 -452 -521 0
-394 -464 -522 0
-335 -385 -456 -523 0
-335 -385 -456 -524 0
-335 -385 -456 -493 0
-335 -385 -429 -493 0
-335 -385 -429 -356 0
-394 -464 -515 0
-335 -387 -453 -525 0
-335 -387 -453 -523 0
-335 -387 -455 -520 0
-335 -387 -455 -525 0
-335 -387 -455 -526 0
-335 -387 -456 -500 0
-335 -387 -456 -523 0
-335 -387 -456 -493 0
-394 -464 -517 0
-335 -388 -451 -518 0
-335 -388 -451 -521 0
-335 -388 -455 -524 0
-335 -388 -455 -525 0
-335 -388 -455 -526 0
-335 -388 -457 -521 0
-335 -388 -457 -526 0
-394 -465 -513 0
-337 -381 -448 -399 0
-337 -381 -449 -399 0
-337 -381 -449 -519 0
-337 -381 -452 -519 0
-337 -381 -452 -521 0
-394 -465 -517 0
-337 -388 -450 -500 0
-337 -388 -450 -524 0
-337 -388 -455 -524 0
-337 -388 -455 -525 0
-337 -388 -455 -526 0
-337 -388 -457 -521 0
-337 -388 -457 -526 0
-394 -465 -527 0
-337 -390 -452 -518 0
-337 -390 -452 -519 0
-337 -390 -457 -520 0
-337 -390 -457 -526 0
-336 -389 0
-395 -461 -528 0
-338 -381 -466 -399 0
-338 -381 -466 -401 0
-338 -381 -466 -403 0
-338 -381 -467 -404 0
-338 -381 -467 -403 0
-395 -461 -529 0
-338 -382 -467 -402 0
-338 -382 -467 -403 0
-336 -380 0
-333 -359 -430 -493 0
-333 -359 -430 -500 0
-333 -359 -430 -356 0
-333 -359 -252 -356 0
-394 -468 -530 0
-333 -385 -469 -523 0
-333 -385 -469 -524 0
-333 -385 -469 -493 0
-333 -385 -470 -524 0
-333 -385 -470 -520 0
-333 -385 -430 -493 0
-333 -385 -430 -356 0
-394 -464 -530 0
-335 -385 -469 -523 0
-335 -385 -469 -524 0
-335 -385 -469 -493 0
-335 -385 -430 -493 0
-335 -385 -430 -356 0
-394 -464 -531 0
-335 -387 -471 -525 0
-335 -387 -471 -523 0
-335 -387 -472 -520 0
-335 -387 -472 -525 0
-335 -387 -472 -526 0
-335 -387 -469 -500 0
-335 -387 -469 -523 0
-335 -387 -469 -493 0
-394 -464 -532 0
-335 -388 -466 -518 0
-335 -388 -466 -521 0
-335 -388 -472 -524 0
-335 -388 -472 -525 0
-335 -388 -472 -526 0
-335 -388 -473 -521 0
-335 -388 -473 -526 0
-394 -465 -528 0
-337 -381 -474 -399 0
-337 -381 -474 -519 0
-337 -381 -467 -519 0
-337 -381 -467 -521 0
-394 -465 -532 0
-337 -388 -470 -500 0
-337 -388 -470 -524 0
-337 -388 -472 -524 0
-337 -388 -472 -525 0
-337 -388 -472 -526 0
-337 -388 -473 -521 0
-337 -388 -473 -526 0
-394 -465 -533 0
-337 -390 -467 -518 0
-337 -390 -467 -519 0
-337 -390 -473 -520 0
-337 -390 -473 -526 0
-336 -381 0
-396 -461 -481 0
-396 -461 -529 0
-338 -382 -467 -534 0
-396 -465 -535 0
-337 -380 -448 -501 0
-337 -380 -470 -501 0
-337 -380 -470 -536 0
-337 -380 -470 -537 0
-396 -465 -532 0
-337 -388 -470 -501 0
-337 -388 -470 -518 0
-337 -388 -470 -536 0
-337 -388 -472 -536 0
-337 -388 -472 -538 0
-337 -388 -472 -539 0
-337 -388 -473 -534 0
-337 -388 -473 -539 0
-396 -465 -533 0
-337 -390 -467 -540 0
-337 -390 -473 -537 0
-337 -390 -473 -539 0
-396 -475 -529 0
-339 -382 -474 -402 0
-396 -475 -533 0
-339 -390 -466 -518 0
-339 -390 -466 -537 0
-339 -390 -473 -537 0
-339 -390 -473 -539 0
-46 -81 0
-47 -82 0
-48 -83 0
-49 -84 0
-50 -85 0
-336 -389 0
-301 -278 -252 -355 0
-301 -360 -430 -384 0
-301 -360 -430 -385 0
-301 -360 -430 -355 0
-301 -360 -448 -385 0
-301 -360 -448 -380 0
-301 -360 -252 -355 0
-333 -360 -430 -384 0
-333 -360 -430 -385 0
-333 -360 -430 -355 0
-333 -360 -252 -355 0
-397 -476 -530 0
-333 -398 -469 -386 0
-333 -398 -469 -387 0
-333 -398 -469 -384 0
-333 -398 -470 -380 0
-333 -398 -470 -387 0
-333 -398 -470 -388 0
-333 -398 -430 -384 0
-333 -398 -430 -355 0
-397 -476 -535 0
-333 -399 -470 -385 0
-333 -399 -470 -387 0
-333 -399 -470 -388 0
-333 -399 -466 -381 0
-333 -399 -466 -388 0
-333 -399 -466 -390 0
-336 -399 0
-333 -360 -295 -380 0
-333 -360 -430 -493 0
-333 -360 -430 -500 0
-333 -360 -430 -356 0
-333 -360 -252 -356 0
-394 -476 -460 0
-394 -476 -530 0
-333 -398 -469 -523 0
-333 -398 -469 -524 0
-333 -398 -469 -493 0
-333 -398 -470 -524 0
-333 -398 -470 -520 0
-333 -398 -430 -493 0
-333 -398 -430 -356 0
-394 -477 -530 0
-335 -398 -448 -380 0
-335 -398 -469 -523 0
-335 -398 -469 -524 0
-335 -398 -469 -493 0
-335 -398 -430 -493 0
-335 -398 -430 -356 0
-394 -477 -531 0
-335 -400 -471 -525 0
-335 -400 -471 -523 0
-335 -400 -472 -520 0
-335 -400 -472 -525 0
-335 -400 -472 -526 0
-335 -400 -469 -500 0
-335 -400 -469 -523 0
-335 -400 -469 -493 0
-394 -477 -532 0
-335 -401 -466 -518 0
-335 -401 -466 -521 0
-335 -401 -472 -524 0
-335 -401 -472 -525 0
-335 -401 -472 -526 0
-335 -401 -473 -521 0
-335 -401 -473 -526 0
-394 -478 -528 0
-337 -402 -474 -519 0
-337 -402 -467 -519 0
-337 -402 -467 -521 0
-394 -478 -532 0
-337 -401 -470 -500 0
-337 -401 -470 -524 0
-337 -401 -472 -524 0
-337 -401 -472 -525 0
-337 -401 -472 -526 0
-337 -401 -473 -521 0
-337 -401 -473 -526 0
-394 -478 -533 0
-337 -403 -467 -518 0
-337 -403 -467 -519 0
-337 -403 -473 -520 0
-337 -403 -473 -526 0
-336 -402 0
-396 -479 -529 0
-338 -404 -467 -534 0
-396 -478 -535 0
-337 -399 -448 -381 0
-337 -399 -448 -501 0
-337 -399 -470 -501 0
-337 -399 -470 -536 0
-337 -399 -470 -537 0
-396 -478 -532 0
-337 -401 -470 -501 0
-337 -401 -470 -518 0
-337 -401 -470 -536 0
-337 -401 -472 -536 0
-337 -401 -472 -538 0
-337 -401 -472 -539 0
-337 -401 -473 -534 0
-337 -401 -473 -539 0
-396 -478 -533 0
-337 -403 -467 -540 0
-337 -403 -473 -537 0
-337 -403 -473 -539 0
-396 -480 -529 0
-396 -480 -533 0
-339 -403 -466 -518 0
-339 -403 -466 -537 0
-339 -403 -473 -537 0
-339 -403 -473 -539 0
-338 -402 0
-396 -481 -461 0
-336 -389 -449 -501 0
-336 -389 -449 -518 0
-396 -481 -572 0
-336 -399 -449 -381 0
-336 -399 -449 -501 0
-336 -399 -482 -501 0
-336 -399 -482 -536 0
-336 -399 -482 -537 0
-336 -399 -483 -537 0
-336 -399 -483 -534 0
-396 -478 -572 0
-337 -399 -449 -381 0
-337 -399 -449 -501 0
-337 -399 -474 -381 0
-337 -399 -482 -501 0
-337 -399 -482 -536 0
-337 -399 -482 -537 0
-126 -141 595 0
-127 -142 595 0
-128 -143 595 0
-129 -144 595 0
-130 -145 595 0
-396 -478 -595 0
-337 -401 -482 -501 0
-337 -401 -482 -518 0
-337 -401 -482 -536 0
-337 -401 -484 -536 0
-337 -401 -484 -538 0
-337 -401 -484 -539 0
-337 -401 -485 -534 0
-337 -401 -485 -539 0
-126 -191 596 0
-127 -192 596 0
-128 -193 596 0
-129 -194 596 0
-130 -195 596 0
-396 -478 -596 0
-337 -403 -486 -540 0
-337 -403 -485 -537 0
-337 -403 -485 -539 0
-126 -181 597 0
-127 -182 597 0
-128 -183 597 0
-129 -184 597 0
-130 -185 597 0
-396 -480 -597 0
-396 -480 -596 0
-339 -403 -483 -518 0
-339 -403 -483 -537 0
-339 -403 -485 -537 0
-339 -403 -485 -539 0
-338 -404 0
-126 -131 598 0
-127 -132 598 0
-128 -133 598 0
-129 -134 598 0
-130 -135 598 0
-405 -480 -598 0
-339 -402 -474 -382 0
-339 -402 -474 -519 0
-339 -402 -483 -519 0
-181 -141 599 0
-182 -142 599 0
-183 -143 599 0
-184 -144 599 0
-185 -145 599 0
-339 -402 -483 -599 0
-181 -191 600 0
-182 -192 600 0
-183 -193 600 0
-184 -194 600 0
-185 -195 600 0
-339 -402 -483 -600 0
-405 -480 -596 0
-339 -403 -483 -519 0
-339 -403 -483 -540 0
-339 -403 -483 -599 0
-339 -403 -485 -599 0
-181 -201 601 0
-182 -202 601 0
-183 -203 601 0
-184 -204 601 0
-185 -205 601 0
-339 -403 -485 -601 0
-306 -247 -228 -229 0
-324 -301 -278 -274 0
-324 -301 -278 -279 0
-305 -246 -286 0
-251 -230 -283 -212 0
-251 -230 -283 -217 0
-251 -230 -288 -217 0
-251 -230 -288 -235 0
-251 -244 -288 -217 0
-251 -244 -288 -235 0
-251 -244 -288 -207 0
-251 -244 -269 -235 0
-251 -244 -269 -262 0
-361 -378 -280 0
-355 -299 -281 -253 0
-355 -299 -281 -254 0
-355 -299 -282 -249 0
-355 -299 -282 -253 0
-355 -299 -282 -255 0
-355 -299 -283 -219 0
-355 -299 -283 -254 0
-361 -378 -284 0
-355 -302 -269 -250 0
-355 -302 -282 -253 0
-355 -302 -282 -255 0
-355 -302 -282 -256 0
-355 -302 -285 -250 0
-355 -302 -285 -255 0
-355 -302 -285 -257 0
-361 -378 -286 0
-355 -230 -283 -254 0
-355 -230 -283 -256 0
-361 -383 -284 0
-359 -302 -282 -253 0
-359 -302 -282 -255 0
-359 -302 -282 -256 0
-359 -302 -285 -250 0
-359 -302 -285 -255 0
-359 -302 -285 -257 0
-359 -302 -288 -256 0
-359 -302 -288 -219 0
-361 -383 -289 0
-359 -294 -285 -255 0
-359 -294 -285 -257 0
-359 -294 -285 -249 0
-359 -294 -290 -252 0
-359 -294 -290 -257 0
-359 -294 -290 -264 0
-361 -246 -286 0
-251 -230 -283 -254 0
-251 -230 -283 -256 0
-251 -230 -288 -256 0
-251 -230 -288 -249 0
-306 -247 -243 -229 0
-272 -247 -243 -229 0
-272 -244 -318 -313 0
-272 -244 -318 -270 0
-272 -244 -318 -229 0
-272 -244 -319 -270 0
-272 -244 -319 -271 0
-272 -244 -243 -229 0
-397 -375 -328 0
-389 -295 -325 -333 0
-389 -295 -325 -335 0
-389 -295 -325 -337 0
-389 -295 -329 -338 0
-389 -295 -329 -337 0
-389 -295 -329 -339 0
-397 -375 -342 0
-389 -296 -329 -336 0
-389 -296 -329 -337 0
-389 -296 -329 -339 0
-389 -296 -343 -339 0
-359 -302 0
-462 -376 -444 0
-384 -297 -365 -432 0
-384 -297 -365 -435 0
-384 -297 -366 -418 0
-384 -297 -366 -436 0
-462 -376 -445 0
-384 -298 -362 -429 0
-384 -298 -362 -433 0
-384 -298 -365 -435 0
-384 -298 -365 -437 0
-384 -298 -367 -433 0
-384 -298 -367 -435 0
-384 -298 -367 -438 0
-462 -376 -446 0
-384 -299 -349 -220 0
-384 -299 -366 -437 0
-384 -299 -366 -436 0
-384 -299 -368 -220 0
-384 -299 -368 -436 0
-462 -377 -442 0
-385 -294 -363 -430 0
-385 -294 -363 -433 0
-385 -294 -363 -434 0
-462 -377 -445 0
-385 -298 -365 -435 0
-385 -298 -365 -437 0
-385 -298 -367 -433 0
-385 -298 -367 -435 0
-385 -298 -367 -438 0
-385 -298 -369 -437 0
-385 -298 -369 -418 0
-462 -377 -447 0
-385 -300 -363 -429 0
-385 -300 -363 -430 0
-385 -300 -363 -434 0
-385 -300 -367 -435 0
-385 -300 -367 -438 0
-385 -300 -367 -432 0
-385 -300 -370 -434 0
-385 -300 -370 -438 0
-385 -300 -370 -441 0
-355 -244 -231 -220 0
-462 -378 -446 0
-355 -299 -366 -437 0
-355 -299 -366 -436 0
-355 -299 -369 -437 0
-355 -299 -369 -432 0
-355 -299 -368 -220 0
-355 -299 -368 -436 0
-462 -378 -414 0
-355 -230 -368 -436 0
-355 -230 -368 -418 0
-359 -294 0
-468 -377 -445 0
-385 -298 -365 -453 0
-385 -298 -365 -454 0
-385 -298 -367 -450 0
-385 -298 -367 -453 0
-385 -298 -367 -455 0
-385 -298 -369 -429 0
-385 -298 -369 -454 0
-385 -298 -369 -423 0
-468 -377 -447 0
-385 -300 -363 -448 0
-385 -300 -363 -451 0
-385 -300 -367 -453 0
-385 -300 -367 -455 0
-385 -300 -367 -456 0
-385 -300 -370 -451 0
-385 -300 -370 -455 0
-385 -300 -370 -457 0
-468 -377 -458 0
-385 -302 -369 -454 0
-385 -302 -369 -456 0
-385 -302 -369 -423 0
-385 -302 -349 -423 0
-385 -302 -349 -232 0
-468 -379 -443 0
-380 -295 -360 -449 0
-380 -295 -364 -449 0
-380 -295 -364 -451 0
-380 -295 -364 -452 0
-468 -379 -447 0
-380 -300 -362 -456 0
-380 -300 -362 -429 0
-380 -300 -367 -453 0
-380 -300 -367 -455 0
-380 -300 -367 -456 0
-380 -300 -370 -451 0
-380 -300 -370 -455 0
-380 -300 -370 -457 0
-468 -379 -459 0
-380 -303 -364 -448 0
-380 -303 -364 -449 0
-380 -303 -364 -452 0
-380 -303 -370 -450 0
-380 -303 -370 -455 0
-380 -303 -370 -457 0
-380 -303 -373 -452 0
-380 -303 -373 -457 0
-272 -247 -231 -219 0
-361 -378 -446 0
-355 -299 -366 -253 0
-355 -299 -366 -254 0
-355 -299 -369 -249 0
-355 -299 -369 -253 0
-355 -299 -369 -255 0
-355 -299 -368 -219 0
-355 -299 -368 -254 0
-361 -378 -458 0
-355 -302 -369 -253 0
-355 -302 -369 -255 0
-355 -302 -369 -256 0
-355 -302 -362 -250 0
-355 -302 -362 -255 0
-355 -302 -362 -257 0
-361 -378 -414 0
-355 -230 -368 -254 0
-355 -230 -368 -256 0
-361 -246 -414 0
-251 -230 -368 -254 0
-251 -230 -368 -256 0
-251 -230 -349 -256 0
-251 -230 -349 -249 0
-306 -276 -243 -229 0
-272 -276 -243 -229 0
-272 -245 -318 -313 0
-272 -245 -318 -270 0
-272 -245 -318 -229 0
-272 -245 -319 -270 0
-272 -245 -319 -271 0
-272 -245 -243 -229 0
-272 -301 -319 -270 0
-272 -301 -319 -271 0
-272 -276 -243 -230 0
-272 -245 -318 -299 0
-272 -245 -318 -302 0
-272 -245 -318 -230 0
-272 -245 -319 -302 0
-272 -245 -319 -294 0
-272 -245 -243 -230 0
-374 -392 -320 0
-359 -332 -321 -297 0
-359 -332 -321 -298 0
-359 -332 -321 -299 0
-359 -332 -322 -294 0
-359 -332 -322 -298 0
-359 -332 -322 -300 0
-359 -332 -318 -299 0
-359 -332 -318 -230 0
-374 -392 -323 0
-359 -333 -322 -298 0
-359 -333 -322 -300 0
-359 -333 -322 -302 0
-359 -333 -325 -295 0
-359 -333 -325 -300 0
-359 -333 -325 -303 0
-359 -245 -318 -299 0
-359 -245 -318 -302 0
-359 -245 -318 -230 0
-359 -245 -243 -230 0
-389 -336 0
-460 -394 -476 0
-380 -333 -360 -430 0
-380 -333 -398 -469 0
-380 -333 -398 -470 0
-380 -333 -398 -430 0
-460 -394 -477 0
-380 -335 -398 -448 0
-380 -335 -398 -469 0
-380 -335 -398 -430 0
-380 -335 -400 -471 0
-380 -335 -400 -472 0
-380 -335 -400 -469 0
-380 -335 -401 -466 0
-380 -335 -401 -472 0
-380 -335 -401 -473 0
-460 -394 -478 0
-380 -337 -402 -474 0
-380 -337 -402 -467 0
-380 -337 -401 -470 0
-380 -337 -401 -472 0
-380 -337 -401 -473 0
-380 -337 -403 -467 0
-380 -337 -403 -473 0
-460 -396 -479 0
-381 -338 -404 -467 0
-460 -396 -478 0
-381 -337 -399 -448 0
-381 -337 -399 -470 0
-381 -337 -401 -470 0
-381 -337 -401 -472 0
-381 -337 -401 -473 0
-381 -337 -403 -467 0
-381 -337 -403 -473 0
-460 -396 -480 0
-381 -339 -404 -474 0
-381 -339 -403 -466 0
-381 -339 -403 -473 0
-389 -338 0
-461 -396 -481 0
-381 -336 -399 -449 0
-381 -336 -399 -482 0
-381 -336 -399 -483 0
-461 -396 -478 0
-381 -337 -399 -449 0
-381 -337 -399 -474 0
-381 -337 -399 -482 0
-381 -337 -401 -482 0
-381 -337 -401 -484 0
-381 -337 -401 -485 0
-381 -337 -403 -486 0
-381 -337 -403 -485 0
-461 -396 -480 0
-381 -339 -403 -483 0
-381 -339 -403 -485 0
-461 -405 -480 0
-382 -339 -402 -474 0
-382 -339 -402 -483 0
-382 -339 -403 -483 0
-382 -339 -403 -485 0
-51 -56 0
-52 -57 0
-53 -58 0
-54 -59 0
-55 -60 0
-272 -262 -231 -230 0
-272 -250 -349 -299 0
-272 -250 -349 -302 0
-272 -250 -349 -230 0
-272 -250 -231 -230 0
-324 -333 -360 -295 0
-324 -333 -360 -296 0
-359 -429 0
-462 -516 -444 0
-384 -454 -365 -432 0
-384 -454 -365 -435 0
-384 -454 -366 -418 0
-384 -454 -366 -436 0
-462 -516 -445 0
-384 -456 -362 -433 0
-384 -456 -365 -435 0
-384 -456 -365 -437 0
-384 -456 -367 -433 0
-384 -456 -367 -435 0
-384 -456 -367 -438 0
-462 -516 -446 0
-384 -423 -349 -220 0
-384 -423 -366 -437 0
-384 -423 -366 -436 0
-384 -423 -368 -220 0
-384 -423 -368 -436 0
-462 -522 -445 0
-385 -456 -365 -435 0
-385 -456 -365 -437 0
-385 -456 -367 -433 0
-385 -456 -367 -435 0
-385 -456 -367 -438 0
-385 -456 -369 -437 0
-385 -456 -369 -418 0
-462 -522 -447 0
-385 -450 -363 -430 0
-385 -450 -363 -434 0
-385 -450 -367 -435 0
-385 -450 -367 -438 0
-385 -450 -367 -432 0
-385 -450 -370 -434 0
-385 -450 -370 -438 0
-385 -450 -370 -441 0
-355 -250 -231 -220 0
-462 -431 -446 0
-355 -423 -366 -437 0
-355 -423 -366 -436 0
-355 -423 -369 -437 0
-355 -423 -369 -432 0
-355 -423 -368 -220 0
-355 -423 -368 -436 0
-462 -431 -414 0
-355 -232 -368 -436 0
-355 -232 -368 -418 0
-272 -262 -231 -219 0
-361 -431 -446 0
-355 -423 -366 -253 0
-355 -423 -366 -254 0
-355 -423 -369 -249 0
-355 -423 -369 -253 0
-355 -423 -369 -255 0
-355 -423 -368 -219 0
-355 -423 -368 -254 0
-361 -431 -458 0
-355 -429 -369 -253 0
-355 -429 -369 -255 0
-355 -429 -369 -256 0
-355 -429 -362 -255 0
-355 -429 -362 -257 0
-361 -431 -414 0
-355 -232 -368 -254 0
-355 -232 -368 -256 0
-361 -261 -414 0
-251 -232 -368 -254 0
-251 -232 -368 -256 0
-251 -232 -349 -256 0
-251 -232 -349 -249 0
-385 -456 0
-463 -514 -561 0
-386 -453 -503 -550 0
-386 -453 -503 -554 0
-386 -453 -506 -554 0
-463 -514 -562 0
-386 -454 -488 -432 0
-386 -454 -488 -419 0
-386 -454 -507 -419 0
-386 -454 -507 -557 0
-463 -515 -559 0
-387 -450 -500 -469 0
-387 -450 -500 -551 0
-387 -450 -504 -551 0
-387 -450 -504 -554 0
-387 -450 -504 -555 0
-463 -515 -561 0
-387 -453 -506 -554 0
-387 -453 -508 -546 0
-463 -515 -563 0
-387 -455 -504 -550 0
-387 -455 -504 -551 0
-387 -455 -504 -555 0
-387 -455 -506 -553 0
-387 -455 -509 -555 0
-463 -516 -492 0
-384 -429 -350 -419 0
-384 -429 -350 -223 0
-463 -516 -562 0
-384 -454 -508 -553 0
-384 -454 -507 -419 0
-384 -454 -507 -557 0
-463 -516 -564 0
-384 -423 -350 -432 0
-384 -423 -350 -223 0
-384 -423 -507 -546 0
-384 -423 -507 -557 0
-384 -423 -410 -223 0
-384 -423 -410 -557 0
-385 -450 0
-464 -512 -530 0
-380 -448 -398 -482 0
-380 -448 -501 -482 0
-380 -448 -501 -565 0
-380 -448 -501 -566 0
-464 -512 -560 0
-380 -451 -501 -470 0
-380 -451 -501 -482 0
-380 -451 -501 -566 0
-380 -451 -504 -567 0
-380 -451 -504 -568 0
-380 -451 -505 -566 0
-380 -451 -505 -568 0
-464 -515 -561 0
-387 -453 -506 -567 0
-387 -453 -508 -550 0
-387 -453 -508 -542 0
-464 -515 -563 0
-387 -455 -504 -565 0
-387 -455 -504 -568 0
-387 -455 -506 -569 0
-387 -455 -509 -568 0
-464 -515 -570 0
-387 -456 -508 -569 0
-387 -456 -508 -542 0
-387 -456 -488 -433 0
-387 -456 -488 -542 0
-387 -456 -488 -424 0
-464 -517 -560 0
-388 -451 -500 -470 0
-388 -451 -501 -470 0
-388 -451 -501 -482 0
-388 -451 -501 -566 0
-388 -451 -505 -566 0
-388 -451 -505 -568 0
-464 -517 -563 0
-388 -455 -503 -569 0
-388 -455 -503 -550 0
-388 -455 -506 -569 0
-388 -455 -509 -568 0
-464 -517 -571 0
-388 -457 -505 -565 0
-388 -457 -505 -566 0
-388 -457 -509 -567 0
-385 -429 0
-359 -250 -350 -418 0
-359 -250 -350 -220 0
-359 -250 -236 -220 0
-462 -516 -562 0
-384 -454 -508 -432 0
-384 -454 -508 -435 0
-384 -454 -507 -418 0
-384 -454 -507 -436 0
-462 -516 -570 0
-384 -456 -508 -435 0
-384 -456 -508 -437 0
-384 -456 -503 -433 0
-384 -456 -503 -435 0
-384 -456 -503 -438 0
-462 -516 -564 0
-384 -423 -350 -220 0
-384 -423 -507 -437 0
-384 -423 -507 -436 0
-384 -423 -410 -220 0
-384 -423 -410 -436 0
-355 -250 -236 -220 0
-462 -431 -564 0
-355 -423 -507 -437 0
-355 -423 -507 -436 0
-355 -423 -488 -437 0
-355 -423 -488 -432 0
-355 -423 -410 -220 0
-355 -423 -410 -436 0
-462 -431 -416 0
-355 -232 -410 -436 0
-355 -232 -410 -418 0
-380 -448 0
-460 -476 -572 0
-389 -449 -518 -466 0
-389 -449 -518 -467 0
-389 -449 -519 -467 0
-460 -513 -572 0
-381 -449 -519 -467 0
-460 -513 -573 0
-381 -451 -520 -470 0
-381 -451 -520 -472 0
-381 -451 -520 -473 0
-381 -451 -521 -467 0
-381 -451 -521 -473 0
-460 -513 -574 0
-381 -452 -519 -474 0
-381 -452 -521 -466 0
-381 -452 -521 -473 0
-380 -450 0
-464 -522 -575 0
-385 -456 -523 -569 0
-385 -456 -523 -542 0
-385 -456 -524 -569 0
-385 -456 -524 -567 0
-385 -456 -493 -433 0
-385 -456 -493 -542 0
-385 -456 -493 -424 0
-464 -522 -502 0
-385 -429 -493 -542 0
-385 -429 -493 -550 0
-385 -429 -493 -424 0
-385 -429 -356 -424 0
-385 -429 -356 -237 0
-464 -515 -576 0
-387 -453 -525 -567 0
-387 -453 -523 -550 0
-387 -453 -523 -542 0
-464 -515 -577 0
-387 -455 -520 -565 0
-387 -455 -520 -568 0
-387 -455 -525 -569 0
-387 -455 -526 -568 0
-464 -515 -575 0
-387 -456 -500 -433 0
-387 -456 -523 -569 0
-387 -456 -523 -542 0
-387 -456 -493 -433 0
-387 -456 -493 -542 0
-387 -456 -493 -424 0
-464 -517 -573 0
-388 -451 -518 -470 0
-388 -451 -518 -482 0
-388 -451 -518 -566 0
-388 -451 -521 -566 0
-388 -451 -521 -568 0
-464 -517 -577 0
-388 -455 -524 -569 0
-388 -455 -524 -550 0
-388 -455 -525 -569 0
-388 -455 -526 -568 0
-464 -517 -578 0
-388 -457 -521 -565 0
-388 -457 -521 -566 0
-388 -457 -526 -567 0
-380 -451 0
-465 -513 -535 0
-381 -448 -399 -483 0
-465 -513 -572 0
-381 -449 -399 -466 0
-381 -449 -519 -579 0
-465 -513 -574 0
-381 -452 -519 -483 0
-381 -452 -521 -580 0
-465 -517 -581 0
-388 -450 -500 -551 0
-388 -450 -500 -434 0
-388 -450 -524 -582 0
-388 -450 -524 -583 0
-388 -450 -524 -551 0
-465 -517 -577 0
-388 -455 -524 -565 0
-388 -455 -524 -582 0
-388 -455 -524 -551 0
-388 -455 -525 -582 0
-388 -455 -526 -580 0
-465 -517 -578 0
-388 -457 -521 -579 0
-388 -457 -526 -583 0
-465 -527 -574 0
-390 -452 -518 -466 0
-390 -452 -518 -483 0
-390 -452 -519 -483 0
-465 -527 -578 0
-390 -457 -520 -565 0
-390 -457 -520 -583 0
-390 -457 -526 -583 0
-51 -86 0
-52 -87 0
-53 -88 0
-54 -89 0
-55 -90 0
-324 -295 -360 -332 0
-324 -295 -360 -333 0
-389 -474 0
-461 -528 -478 0
-381 -466 -399 -449 0
-381 -466 -399 -482 0
-381 -466 -401 -482 0
-381 -466 -401 -484 0
-381 -466 -401 -485 0
-381 -466 -403 -486 0
-381 -466 -403 -485 0
-461 -528 -480 0
-381 -467 -403 -483 0
-381 -467 -403 -485 0
-461 -529 -480 0
-382 -467 -402 -483 0
-382 -467 -403 -483 0
-382 -467 -403 -485 0
-380 -448 0
-468 -443 -502 0
-359 -430 -493 -454 0
-359 -430 -493 -456 0
-359 -430 -493 -423 0
-359 -430 -500 -456 0
-359 -430 -500 -450 0
-359 -430 -356 -423 0
-359 -430 -356 -232 0
-359 -252 -356 -423 0
-359 -252 -356 -429 0
-359 -252 -356 -232 0
-359 -252 -263 -232 0
-468 -530 -575 0
-385 -469 -523 -453 0
-385 -469 -523 -454 0
-385 -469 -524 -450 0
-385 -469 -524 -453 0
-385 -469 -524 -455 0
-385 -469 -493 -429 0
-385 -469 -493 -454 0
-385 -469 -493 -423 0
-468 -530 -581 0
-385 -470 -524 -453 0
-385 -470 -524 -455 0
-385 -470 -524 -456 0
-385 -470 -520 -451 0
-385 -470 -520 -455 0
-385 -470 -520 -457 0
-468 -530 -502 0
-385 -430 -493 -454 0
-385 -430 -493 -456 0
-385 -430 -493 -423 0
-385 -430 -356 -423 0
-385 -430 -356 -232 0
-380 -470 0
-464 -530 -512 0
-385 -448 -363 -433 0
-464 -530 -575 0
-385 -469 -523 -569 0
-385 -469 -523 -542 0
-385 -469 -524 -569 0
-385 -469 -524 -567 0
-385 -469 -493 -433 0
-385 -469 -493 -542 0
-385 -469 -493 -424 0
-464 -530 -502 0
-385 -430 -363 -450 0
-385 -430 -493 -542 0
-385 -430 -493 -550 0
-385 -430 -493 -424 0
-385 -430 -356 -424 0
-385 -430 -356 -237 0
-464 -531 -576 0
-387 -471 -525 -567 0
-387 -471 -523 -550 0
-387 -471 -523 -542 0
-464 -531 -577 0
-387 -472 -520 -565 0
-387 -472 -520 -568 0
-387 -472 -525 -569 0
-387 -472 -526 -568 0
-464 -531 -575 0
-387 -469 -500 -450 0
-387 -469 -500 -433 0
-387 -469 -523 -569 0
-387 -469 -523 -542 0
-387 -469 -493 -433 0
-387 -469 -493 -542 0
-387 -469 -493 -424 0
-464 -532 -573 0
-388 -466 -518 -482 0
-388 -466 -518 -566 0
-388 -466 -521 -566 0
-388 -466 -521 -568 0
-464 -532 -577 0
-388 -472 -524 -569 0
-388 -472 -524 -550 0
-388 -472 -525 -569 0
-388 -472 -526 -568 0
-464 -532 -578 0
-388 -473 -521 -565 0
-388 -473 -521 -566 0
-388 -473 -526 -567 0
-380 -466 0
-465 -528 -572 0
-381 -474 -519 -579 0
-465 -528 -574 0
-381 -467 -519 -483 0
-381 -467 -521 -580 0
-465 -532 -581 0
-388 -470 -500 -451 0
-388 -470 -500 -551 0
-388 -470 -500 -434 0
-388 -470 -524 -582 0
-388 -470 -524 -583 0
-388 -470 -524 -551 0
-465 -532 -577 0
-388 -472 -524 -565 0
-388 -472 -524 -582 0
-388 -472 -524 -551 0
-388 -472 -525 -582 0
-388 -472 -526 -580 0
-465 -532 -578 0
-388 -473 -521 -579 0
-388 -473 -526 -583 0
-465 -533 -574 0
-390 -467 -518 -483 0
-390 -467 -519 -483 0
-465 -533 -578 0
-390 -473 -520 -565 0
-390 -473 -520 -583 0
-390 -473 -526 -583 0
-381 -474 0
-131 -186 602 0
-132 -187 602 0
-133 -188 602 0
-134 -189 602 0
-135 -190 602 0
-461 -529 -602 0
-382 -467 -534 -483 0
-382 -467 -534 -485 0
-381 -466 0
-465 -535 -513 0
-380 -448 -364 -434 0
-380 -448 -501 -551 0
-380 -448 -501 -565 0
-380 -448 -501 -434 0
-131 -96 603 0
-132 -97 603 0
-133 -98 603 0
-134 -99 603 0
-135 -100 603 0
-465 -535 -603 0
-380 -470 -501 -451 0
-380 -470 -501 -551 0
-380 -470 -501 -434 0
-380 -470 -536 -582 0
-380 -470 -536 -583 0
-380 -470 -536 -551 0
-380 -470 -537 -583 0
-380 -470 -537 -580 0
-465 -532 -603 0
-388 -470 -501 -451 0
-388 -470 -501 -551 0
-388 -470 -501 -434 0
-388 -470 -518 -451 0
-388 -470 -536 -582 0
-388 -470 -536 -583 0
-388 -470 -536 -551 0
-131 -146 604 0
-132 -147 604 0
-133 -148 604 0
-134 -149 604 0
-135 -150 604 0
-465 -532 -604 0
-388 -472 -536 -565 0
-388 -472 -536 -582 0
-388 -472 -536 -551 0
-388 -472 -538 -582 0
-388 -472 -539 -580 0
-131 -196 605 0
-132 -197 605 0
-133 -198 605 0
-134 -199 605 0
-135 -200 605 0
-465 -532 -605 0
-388 -473 -534 -579 0
-388 -473 -539 -583 0
-465 -533 -602 0
-390 -467 -540 -483 0
-465 -533 -605 0
-390 -473 -537 -565 0
-390 -473 -537 -583 0
-390 -473 -539 -583 0
-381 -467 0
-475 -529 -598 0
-131 -136 606 0
-132 -137 606 0
-133 -138 606 0
-134 -139 606 0
-135 -140 606 0
-475 -533 -606 0
-390 -466 -518 -452 0
-390 -466 -518 -566 0
-390 -466 -537 -566 0
-186 -146 607 0
-187 -147 607 0
-188 -148 607 0
-189 -149 607 0
-190 -150 607 0
-390 -466 -537 -607 0
-186 -196 608 0
-187 -197 608 0
-188 -198 608 0
-189 -199 608 0
-190 -200 608 0
-390 -466 -537 -608 0
-475 -533 -605 0
-390 -473 -537 -566 0
-390 -473 -537 -579 0
-390 -473 -537 -607 0
-390 -473 -539 -607 0
-271 -319 -301 -278 0
-262 -231 -230 -283 0
-262 -231 -230 -288 0
-262 -231 -244 -288 0
-289 -354 -378 0
-250 -349 -299 -281 0
-250 -349 -299 -282 0
-250 -349 -299 -283 0
-250 -349 -302 -282 0
-250 -349 -302 -285 0
-250 -349 -230 -283 0
-250 -231 -230 -283 0
-250 -231 -230 -288 0
-271 -269 -244 -318 0
-333 -359 -295 -327 0
-333 -359 -295 -325 0
-333 -359 -295 -329 0
-323 -392 -375 0
-333 -360 -295 -325 0
-333 -360 -295 -329 0
-333 -360 -296 -329 0
-333 -360 -296 -343 0
-468 -392 -375 0
-333 -360 -295 -380 0
-333 -360 -295 -381 0
-333 -360 -296 -381 0
-333 -360 -296 -382 0
-468 -443 -375 0
-448 -360 -296 -381 0
-448 -360 -296 -382 0
-468 -443 -379 0
-448 -363 -300 -385 0
-448 -363 -300 -387 0
-448 -363 -300 -388 0
-448 -363 -303 -381 0
-448 -363 -303 -388 0
-448 -363 -303 -390 0
-468 -443 -391 0
-448 -364 -296 -389 0
-448 -364 -296 -382 0
-448 -364 -303 -380 0
-448 -364 -303 -388 0
-448 -364 -303 -390 0
-448 -364 -310 -382 0
-448 -364 -310 -390 0
-429 -369 0
-516 -444 -487 0
-454 -365 -432 -488 0
-454 -365 -432 -489 0
-454 -365 -435 -489 0
-454 -365 -435 -490 0
-516 -444 -491 0
-454 -366 -418 -345 0
-454 -366 -418 -407 0
-454 -366 -436 -407 0
-516 -445 -492 0
-456 -362 -433 -493 0
-456 -362 -433 -489 0
-456 -362 -433 -494 0
-516 -445 -487 0
-456 -365 -435 -489 0
-456 -365 -435 -490 0
-456 -365 -437 -495 0
-516 -445 -496 0
-456 -367 -433 -488 0
-456 -367 -433 -493 0
-456 -367 -433 -494 0
-456 -367 -435 -490 0
-456 -367 -435 -497 0
-456 -367 -438 -494 0
-456 -367 -438 -490 0
-456 -367 -438 -498 0
-516 -446 -422 0
-423 -349 -220 -407 0
-516 -446 -491 0
-423 -366 -437 -497 0
-423 -366 -436 -407 0
-516 -446 -499 0
-423 -368 -220 -345 0
-423 -368 -436 -495 0
-429 -362 0
-522 -445 -487 0
-456 -365 -435 -503 0
-456 -365 -435 -506 0
-456 -365 -437 -488 0
-456 -365 -437 -507 0
-522 -445 -496 0
-456 -367 -433 -500 0
-456 -367 -433 -504 0
-456 -367 -435 -506 0
-456 -367 -435 -508 0
-456 -367 -438 -504 0
-456 -367 -438 -506 0
-456 -367 -438 -509 0
-522 -445 -510 0
-456 -369 -437 -508 0
-456 -369 -437 -507 0
-456 -369 -418 -350 0
-456 -369 -418 -507 0
-456 -369 -418 -410 0
-522 -447 -502 0
-450 -363 -430 -398 0
-450 -363 -430 -501 0
-450 -363 -434 -501 0
-450 -363 -434 -504 0
-450 -363 -434 -505 0
-522 -447 -496 0
-450 -367 -435 -506 0
-450 -367 -435 -508 0
-450 -367 -438 -504 0
-450 -367 -438 -506 0
-450 -367 -438 -509 0
-450 -367 -432 -508 0
-450 -367 -432 -488 0
-522 -447 -511 0
-450 -370 -434 -500 0
-450 -370 -434 -501 0
-450 -370 -434 -505 0
-450 -370 -438 -503 0
-450 -370 -438 -506 0
-450 -370 -438 -509 0
-450 -370 -441 -505 0
-450 -370 -441 -509 0
-429 -349 0
-250 -231 -220 -347 0
-431 -446 -491 0
-423 -366 -437 -345 0
-423 -366 -437 -346 0
-423 -366 -436 -347 0
-431 -446 -510 0
-423 -369 -437 -346 0
-423 -369 -437 -351 0
-423 -369 -432 -350 0
-423 -369 -432 -346 0
-423 -369 -432 -352 0
-431 -446 -499 0
-423 -368 -436 -351 0
-431 -414 -499 0
-232 -368 -436 -351 0
-232 -368 -418 -351 0
-232 -368 -418 -345 0
-271 -319 -245 -278 0
-262 -231 -219 -283 0
-262 -231 -219 -288 0
-294 -319 -245 -278 0
-294 -359 -245 -278 0
-294 -359 -252 -278 0
-294 -359 -252 -290 0
-294 -359 -252 -309 0
-250 -349 0
-431 -446 -344 0
-423 -366 -253 -345 0
-423 -366 -253 -346 0
-423 -366 -254 -347 0
-431 -446 -348 0
-423 -369 -249 -350 0
-423 -369 -253 -346 0
-423 -369 -253 -351 0
-423 -369 -255 -350 0
-423 -369 -255 -346 0
-423 -369 -255 -352 0
-431 -446 -353 0
-423 -368 -254 -351 0
-431 -458 -348 0
-429 -369 -253 -346 0
-429 -369 -253 -351 0
-429 -369 -255 -350 0
-429 -369 -255 -346 0
-429 -369 -255 -352 0
-429 -369 -256 -351 0
-429 -369 -256 -347 0
-431 -458 -357 0
-429 -362 -255 -346 0
-429 -362 -255 -352 0
-429 -362 -255 -345 0
-429 -362 -257 -356 0
-429 -362 -257 -352 0
-429 -362 -257 -358 0
-431 -414 -353 0
-232 -368 -254 -351 0
-232 -368 -256 -351 0
-232 -368 -256 -345 0
-261 -414 -353 0
-232 -368 -254 -213 0
-232 -368 -256 -218 0
-232 -368 -256 -213 0
-232 -368 -256 -222 0
-261 -414 -371 0
-232 -349 -256 -213 0
-232 -349 -256 -222 0
-232 -349 -256 -233 0
-232 -349 -249 -222 0
-232 -349 -249 -236 0
-271 -324 -301 -278 0
-262 -251 -230 -283 0
-262 -251 -230 -288 0
-262 -251 -244 -288 0
-289 -361 -378 0
-250 -355 -299 -281 0
-250 -355 -299 -282 0
-250 -355 -299 -283 0
-250 -355 -302 -282 0
-250 -355 -302 -285 0
-250 -355 -230 -283 0
-250 -359 -302 -282 0
-250 -359 -302 -285 0
-250 -359 -302 -288 0
-250 -251 -230 -283 0
-250 -251 -230 -288 0
-271 -272 -244 -318 0
-323 -397 -375 0
-333 -389 -295 -325 0
-333 -389 -295 -329 0
-333 -389 -296 -329 0
-333 -389 -296 -343 0
-442 -462 -376 0
-429 -384 -297 -365 0
-429 -384 -297 -366 0
-429 -384 -298 -362 0
-429 -384 -298 -365 0
-429 -384 -298 -367 0
-429 -384 -299 -349 0
-429 -384 -299 -366 0
-429 -384 -299 -368 0
-442 -462 -377 0
-429 -385 -298 -365 0
-429 -385 -298 -367 0
-429 -385 -298 -369 0
-429 -385 -300 -363 0
-429 -385 -300 -367 0
-429 -385 -300 -370 0
-442 -462 -378 0
-429 -355 -299 -366 0
-429 -355 -299 -369 0
-429 -355 -299 -368 0
-429 -355 -230 -368 0
-442 -361 -378 0
-250 -355 -299 -366 0
-250 -355 -299 -369 0
-250 -355 -299 -368 0
-250 -355 -302 -369 0
-250 -355 -302 -362 0
-250 -355 -230 -368 0
-250 -251 -230 -368 0
-250 -251 -230 -349 0
-271 -272 -245 -318 0
-294 -272 -245 -318 0
-294 -359 -332 -321 0
-294 -359 -332 -322 0
-294 -359 -332 -318 0
-294 -359 -245 -318 0
-333 -389 0
-476 -460 -394 0
-448 -380 -335 -398 0
-448 -380 -335 -400 0
-448 -380 -335 -401 0
-448 -380 -337 -402 0
-448 -380 -337 -401 0
-448 -380 -337 -403 0
-476 -460 -396 0
-448 -381 -338 -404 0
-448 -381 -337 -399 0
-448 -381 -337 -401 0
-448 -381 -337 -403 0
-448 -381 -339 -404 0
-448 -381 -339 -403 0
-476 -461 -396 0
-449 -381 -336 -399 0
-449 -381 -337 -399 0
-449 -381 -337 -401 0
-449 -381 -337 -403 0
-449 -381 -339 -404 0
-449 -381 -339 -403 0
-476 -461 -405 0
-449 -382 -339 -402 0
-449 -382 -339 -403 0
-448 -389 0
-476 -461 -528 0
-449 -381 -466 -399 0
-449 -381 -466 -401 0
-449 -381 -466 -403 0
-449 -381 -467 -404 0
-449 -381 -467 -403 0
-476 -461 -529 0
-449 -382 -467 -402 0
-449 -382 -467 -403 0
-448 -380 0
-512 -464 -530 0
-450 -385 -469 -523 0
-450 -385 -469 -524 0
-450 -385 -469 -493 0
-450 -385 -430 -493 0
-450 -385 -430 -356 0
-512 -464 -531 0
-450 -387 -471 -525 0
-450 -387 -471 -523 0
-450 -387 -472 -520 0
-450 -387 -472 -525 0
-450 -387 -472 -526 0
-450 -387 -469 -500 0
-450 -387 -469 -523 0
-450 -387 -469 -493 0
-512 -464 -532 0
-450 -388 -466 -518 0
-450 -388 -466 -521 0
-450 -388 -472 -524 0
-450 -388 -472 -525 0
-450 -388 -472 -526 0
-450 -388 -473 -521 0
-450 -388 -473 -526 0
-512 -465 -528 0
-451 -381 -474 -399 0
-451 -381 -474 -519 0
-451 -381 -467 -519 0
-451 -381 -467 -521 0
-512 -465 -532 0
-451 -388 -470 -500 0
-451 -388 -470 -524 0
-451 -388 -472 -524 0
-451 -388 -472 -525 0
-451 -388 -472 -526 0
-451 -388 -473 -521 0
-451 -388 -473 -526 0
-512 -465 -533 0
-451 -390 -467 -518 0
-451 -390 -467 -519 0
-451 -390 -473 -520 0
-451 -390 -473 -526 0
-448 -381 0
-513 -461 -481 0
-513 -461 -529 0
-449 -382 -467 -534 0
-513 -465 -535 0
-451 -380 -470 -501 0
-451 -380 -470 -536 0
-451 -380 -470 -537 0
-513 -465 -532 0
-451 -388 -470 -501 0
-451 -388 -470 -518 0
-451 -388 -470 -536 0
-451 -388 -472 -536 0
-451 -388 -472 -538 0
-451 -388 -472 -539 0
-451 -388 -473 -534 0
-451 -388 -473 -539 0
-513 -465 -533 0
-451 -390 -467 -540 0
-451 -390 -473 -537 0
-451 -390 -473 -539 0
-513 -475 -529 0
-452 -382 -474 -402 0
-513 -475 -533 0
-452 -390 -466 -518 0
-452 -390 -466 -537 0
-452 -390 -473 -537 0
-452 -390 -473 -539 0
-56 -61 0
-57 -62 0
-58 -63 0
-59 -64 0
-60 -65 0
-456 -508 0
-106 -101 609 0
-107 -102 609 0
-108 -103 609 0
-109 -104 609 0
-110 -105 609 0
-514 -561 -609 0
-453 -503 -550 -523 0
-161 -141 610 0
-162 -142 610 0
-163 -143 610 0
-164 -144 610 0
-165 -145 610 0
-453 -503 -550 -610 0
-453 -503 -554 -610 0
-161 -151 611 0
-162 -152 611 0
-163 -153 611 0
-164 -154 611 0
-165 -155 611 0
-453 -503 -554 -611 0
-161 -201 612 0
-162 -202 612 0
-163 -203 612 0
-164 -204 612 0
-165 -205 612 0
-453 -503 -554 -612 0
-106 -151 613 0
-107 -152 613 0
-108 -153 613 0
-109 -154 613 0
-110 -155 613 0
-514 -561 -613 0
-161 -101 614 0
-162 -102 614 0
-163 -103 614 0
-164 -104 614 0
-165 -105 614 0
-453 -506 -554 -614 0
-453 -506 -554 -610 0
-453 -506 -554 -612 0
-514 -562 -541 0
-454 -488 -432 -346 0
-454 -488 -419 -346 0
-454 -488 -419 -584 0
-454 -488 -419 -408 0
-106 -171 615 0
-107 -172 615 0
-108 -173 615 0
-109 -174 615 0
-110 -175 615 0
-514 -562 -615 0
-454 -507 -419 -346 0
-454 -507 -419 -497 0
-454 -507 -419 -408 0
-454 -507 -557 -408 0
-456 -503 0
-515 -559 -575 0
-450 -500 -469 -400 0
-450 -500 -469 -536 0
-450 -500 -551 -536 0
-101 -141 616 0
-102 -142 616 0
-103 -143 616 0
-104 -144 616 0
-105 -145 616 0
-450 -500 -551 -616 0
-101 -191 617 0
-102 -192 617 0
-103 -193 617 0
-104 -194 617 0
-105 -195 617 0
-450 -500 -551 -617 0
-106 -141 618 0
-107 -142 618 0
-108 -143 618 0
-109 -144 618 0
-110 -145 618 0
-515 -559 -618 0
-450 -504 -551 -524 0
-450 -504 -551 -536 0
-450 -504 -551 -617 0
-101 -151 619 0
-102 -152 619 0
-103 -153 619 0
-104 -154 619 0
-105 -155 619 0
-450 -504 -554 -619 0
-101 -201 620 0
-102 -202 620 0
-103 -203 620 0
-104 -204 620 0
-105 -205 620 0
-450 -504 -554 -620 0
-450 -504 -555 -617 0
-450 -504 -555 -620 0
-515 -561 -613 0
-453 -506 -554 -616 0
-453 -506 -554 -620 0
-106 -161 621 0
-107 -162 621 0
-108 -163 621 0
-109 -164 621 0
-110 -165 621 0
-515 -561 -621 0
-453 -508 -546 -489 0
-453 -508 -546 -585 0
-515 -563 -618 0
-455 -504 -550 -524 0
-455 -504 -551 -524 0
-455 -504 -551 -536 0
-455 -504 -551 -617 0
-455 -504 -555 -617 0
-455 -504 -555 -620 0
-515 -563 -613 0
-455 -506 -553 -614 0
-106 -201 622 0
-107 -202 622 0
-108 -203 622 0
-109 -204 622 0
-110 -205 622 0
-515 -563 -622 0
-455 -509 -555 -616 0
-455 -509 -555 -617 0
-456 -488 0
-429 -362 -255 -345 0
-516 -492 -426 0
-429 -350 -419 -495 0
-429 -350 -419 -407 0
-429 -350 -223 -407 0
-516 -562 -621 0
-454 -508 -553 -489 0
-454 -508 -553 -490 0
-516 -562 -615 0
-454 -507 -419 -345 0
-454 -507 -419 -407 0
-454 -507 -557 -407 0
-516 -564 -426 0
-423 -350 -223 -407 0
-516 -564 -615 0
-423 -507 -546 -497 0
-423 -507 -557 -407 0
-516 -564 -594 0
-423 -410 -223 -345 0
-423 -410 -557 -495 0
-450 -500 0
-448 -385 -335 -399 0
-512 -530 -477 0
-448 -398 -482 -518 0
-448 -398 -482 -519 0
-512 -530 -603 0
-448 -501 -482 -399 0
-448 -501 -482 -519 0
-448 -501 -565 -520 0
-448 -501 -565 -521 0
-448 -501 -566 -519 0
-448 -501 -566 -521 0
-512 -560 -603 0
-451 -501 -470 -399 0
-451 -501 -482 -399 0
-451 -501 -482 -519 0
-451 -501 -566 -519 0
-451 -501 -566 -521 0
-96 -141 623 0
-97 -142 623 0
-98 -143 623 0
-99 -144 623 0
-100 -145 623 0
-512 -560 -623 0
-451 -504 -567 -524 0
-451 -504 -567 -525 0
-451 -504 -567 -526 0
-451 -504 -568 -521 0
-451 -504 -568 -526 0
-96 -191 624 0
-97 -192 624 0
-98 -193 624 0
-99 -194 624 0
-100 -195 624 0
-512 -560 -624 0
-451 -505 -566 -518 0
-451 -505 -566 -519 0
-451 -505 -568 -520 0
-451 -505 -568 -526 0
-450 -503 0
-96 -151 625 0
-97 -152 625 0
-98 -153 625 0
-99 -154 625 0
-100 -155 625 0
-515 -561 -625 0
-453 -506 -567 -616 0
-453 -506 -567 -620 0
-96 -161 626 0
-97 -162 626 0
-98 -163 626 0
-99 -164 626 0
-100 -165 626 0
-515 -561 -626 0
-453 -508 -550 -489 0
-453 -508 -542 -489 0
-453 -508 -542 -585 0
-515 -563 -623 0
-455 -504 -565 -524 0
-455 -504 -565 -536 0
-455 -504 -565 -617 0
-455 -504 -568 -617 0
-455 -504 -568 -620 0
-515 -563 -625 0
-455 -506 -569 -614 0
-96 -201 627 0
-97 -202 627 0
-98 -203 627 0
-99 -204 627 0
-100 -205 627 0
-515 -563 -627 0
-455 -509 -568 -616 0
-455 -509 -568 -617 0
-515 -570 -626 0
-456 -508 -569 -619 0
-456 -508 -542 -489 0
-456 -508 -542 -585 0
-515 -570 -552 0
-456 -488 -433 -352 0
-456 -488 -542 -614 0
-456 -488 -542 -585 0
-456 -488 -424 -352 0
-456 -488 -424 -585 0
-456 -488 -424 -413 0
-450 -504 0
-517 -560 -581 0
-451 -500 -470 -401 0
-451 -500 -470 -537 0
-517 -560 -603 0
-451 -501 -470 -401 0
-451 -501 -470 -520 0
-451 -501 -482 -401 0
-451 -501 -482 -599 0
-451 -501 -566 -599 0
-141 -191 628 0
-142 -192 628 0
-143 -193 628 0
-144 -194 628 0
-145 -195 628 0
-451 -501 -566 -628 0
-517 -560 -624 0
-451 -505 -566 -537 0
-451 -505 -566 -599 0
-141 -201 629 0
-142 -202 629 0
-143 -203 629 0
-144 -204 629 0
-145 -205 629 0
-451 -505 -568 -629 0
-96 -101 630 0
-97 -102 630 0
-98 -103 630 0
-99 -104 630 0
-100 -105 630 0
-517 -563 -630 0
-141 -151 631 0
-142 -152 631 0
-143 -153 631 0
-144 -154 631 0
-145 -155 631 0
-455 -503 -569 -631 0
-455 -503 -569 -610 0
-455 -503 -550 -610 0
-455 -503 -550 -494 0
-517 -563 -625 0
-455 -506 -569 -616 0
-455 -506 -569 -610 0
-517 -563 -627 0
-455 -509 -568 -628 0
-517 -571 -624 0
-457 -505 -565 -520 0
-457 -505 -565 -537 0
-457 -505 -566 -537 0
-457 -505 -566 -599 0
-517 -571 -627 0
-457 -509 -567 -616 0
-457 -509 -567 -631 0
-294 -285 -249 -349 0
-294 -322 -332 -360 0
-294 -385 -332 -360 0
-294 -385 -430 -360 0
-294 -385 -430 -363 0
-294 -385 -430 -364 0
-442 -357 -422 0
-250 -350 -418 -366 0
-250 -350 -418 -369 0
-250 -350 -418 -368 0
-250 -350 -220 -368 0
-250 -236 -220 -368 0
-250 -236 -220 -349 0
-429 -488 0
-516 -562 -487 0
-454 -508 -432 -489 0
-454 -508 -435 -489 0
-454 -508 -435 -490 0
-516 -562 -491 0
-454 -507 -418 -345 0
-454 -507 -418 -407 0
-454 -507 -436 -407 0
-516 -570 -487 0
-456 -508 -435 -489 0
-456 -508 -435 -490 0
-456 -508 -437 -495 0
-516 -570 -496 0
-456 -503 -433 -493 0
-456 -503 -433 -494 0
-456 -503 -435 -490 0
-456 -503 -435 -497 0
-456 -503 -438 -494 0
-456 -503 -438 -490 0
-456 -503 -438 -498 0
-516 -564 -422 0
-423 -350 -220 -407 0
-516 -564 -491 0
-423 -507 -437 -497 0
-423 -507 -436 -407 0
-516 -564 -499 0
-423 -410 -220 -345 0
-423 -410 -436 -495 0
-429 -350 0
-250 -236 -220 -347 0
-431 -564 -491 0
-423 -507 -437 -345 0
-423 -507 -437 -346 0
-423 -507 -436 -347 0
-431 -564 -510 0
-423 -488 -437 -346 0
-423 -488 -437 -351 0
-423 -488 -432 -346 0
-423 -488 -432 -352 0
-431 -564 -499 0
-423 -410 -436 -351 0
-431 -416 -499 0
-232 -410 -436 -351 0
-232 -410 -418 -351 0
-232 -410 -418 -345 0
-56 -91 0
-57 -92 0
-58 -93 0
-59 -94 0
-60 -95 0
-294 -290 -252 -355 0
-294 -325 -336 -389 0
-294 -363 -430 -384 0
-294 -363 -430 -385 0
-294 -363 -430 -355 0
-294 -363 -252 -355 0
-468 -394 -481 0
-333 -399 -474 -381 0
-333 -399 -474 -382 0
-448 -399 0
-476 -572 -528 0
-449 -518 -466 -401 0
-449 -518 -466 -403 0
-449 -518 -467 -404 0
-449 -518 -467 -403 0
-476 -572 -529 0
-449 -519 -467 -402 0
-449 -519 -467 -403 0
-448 -518 0
-513 -572 -481 0
-513 -572 -529 0
-449 -519 -467 -534 0
-513 -573 -532 0
-451 -520 -470 -501 0
-451 -520 -470 -536 0
-451 -520 -472 -536 0
-451 -520 -472 -538 0
-451 -520 -472 -539 0
-451 -520 -473 -534 0
-451 -520 -473 -539 0
-513 -573 -533 0
-451 -521 -467 -540 0
-451 -521 -473 -537 0
-451 -521 -473 -539 0
-513 -574 -529 0
-452 -519 -474 -402 0
-513 -574 -533 0
-452 -521 -466 -537 0
-452 -521 -473 -537 0
-452 -521 -473 -539 0
-450 -500 0
-522 -575 -626 0
-456 -523 -569 -503 0
-456 -523 -569 -506 0
-456 -523 -542 -488 0
-456 -523 -542 -507 0
-522 -575 -630 0
-456 -524 -569 -506 0
-456 -524 -569 -508 0
-456 -524 -567 -504 0
-456 -524 -567 -506 0
-456 -524 -567 -509 0
-522 -575 -552 0
-456 -493 -433 -350 0
-456 -493 -542 -508 0
-456 -493 -542 -507 0
-456 -493 -424 -350 0
-456 -493 -424 -507 0
-456 -493 -424 -410 0
-429 -363 -257 -350 0
-522 -502 -552 0
-429 -493 -542 -508 0
-429 -493 -542 -507 0
-429 -493 -550 -508 0
-429 -493 -550 -503 0
-429 -493 -424 -350 0
-429 -493 -424 -507 0
-429 -493 -424 -410 0
-522 -502 -440 0
-429 -356 -424 -507 0
-429 -356 -424 -488 0
-429 -356 -424 -410 0
-429 -356 -237 -410 0
-450 -524 0
-515 -576 -625 0
-453 -525 -567 -616 0
-453 -525 -567 -620 0
-515 -576 -626 0
-453 -523 -550 -503 0
-453 -523 -550 -489 0
-453 -523 -542 -489 0
-453 -523 -542 -585 0
-515 -577 -623 0
-455 -520 -565 -536 0
-455 -520 -565 -617 0
-455 -520 -568 -617 0
-455 -520 -568 -620 0
-515 -577 -625 0
-455 -525 -569 -614 0
-515 -577 -627 0
-455 -526 -568 -616 0
-455 -526 -568 -617 0
-515 -575 -559 0
-456 -500 -433 -489 0
-456 -500 -433 -352 0
-515 -575 -626 0
-456 -523 -569 -619 0
-456 -523 -542 -489 0
-456 -523 -542 -585 0
-515 -575 -552 0
-456 -493 -433 -503 0
-456 -493 -433 -352 0
-456 -493 -542 -614 0
-456 -493 -542 -585 0
-456 -493 -424 -352 0
-456 -493 -424 -585 0
-456 -493 -424 -413 0
-450 -520 0
-517 -573 -603 0
-451 -518 -470 -401 0
-451 -518 -482 -401 0
-451 -518 -482 -599 0
-451 -518 -566 -599 0
-451 -518 -566 -628 0
-517 -573 -624 0
-451 -521 -566 -537 0
-451 -521 -566 -599 0
-451 -521 -568 -629 0
-517 -577 -630 0
-455 -524 -569 -631 0
-455 -524 -569 -610 0
-455 -524 -550 -504 0
-455 -524 -550 -610 0
-455 -524 -550 -494 0
-517 -577 -625 0
-455 -525 -569 -616 0
-455 -525 -569 -610 0
-517 -577 -627 0
-455 -526 -568 -628 0
-517 -578 -624 0
-457 -521 -565 -537 0
-457 -521 -566 -537 0
-457 -521 -566 -599 0
-517 -578 -627 0
-457 -526 -567 -616 0
-457 -526 -567 -631 0
-451 -518 0
-448 -380 -337 -402 0
-513 -535 -478 0
-448 -399 -483 -540 0
-513 -572 -478 0
-136 -181 632 0
-137 -182 632 0
-138 -183 632 0
-139 -184 632 0
-140 -185 632 0
-513 -572 -632 0
-449 -519 -579 -534 0
-513 -574 -632 0
-452 -519 -483 -402 0
-136 -191 633 0
-137 -192 633 0
-138 -193 633 0
-139 -194 633 0
-140 -195 633 0
-513 -574 -633 0
-452 -521 -580 -537 0
-452 -521 -580 -539 0
-451 -520 0
-517 -581 -560 0
-450 -500 -551 -610 0
-450 -500 -551 -616 0
-450 -500 -551 -494 0
-450 -500 -434 -494 0
-450 -500 -434 -358 0
-136 -101 634 0
-137 -102 634 0
-138 -103 634 0
-139 -104 634 0
-140 -105 634 0
-517 -581 -634 0
-450 -524 -582 -631 0
-450 -524 -582 -610 0
-450 -524 -583 -631 0
-450 -524 -583 -629 0
-450 -524 -551 -504 0
-450 -524 -551 -610 0
-450 -524 -551 -494 0
-517 -577 -634 0
-455 -524 -565 -504 0
-455 -524 -582 -631 0
-455 -524 -582 -610 0
-455 -524 -551 -504 0
-455 -524 -551 -610 0
-455 -524 -551 -494 0
-136 -151 635 0
-137 -152 635 0
-138 -153 635 0
-139 -154 635 0
-140 -155 635 0
-517 -577 -635 0
-455 -525 -582 -616 0
-455 -525 -582 -610 0
-136 -201 636 0
-137 -202 636 0
-138 -203 636 0
-139 -204 636 0
-140 -205 636 0
-517 -577 -636 0
-455 -526 -580 -628 0
-517 -578 -633 0
-457 -521 -579 -537 0
-457 -521 -579 -599 0
-517 -578 -636 0
-457 -526 -583 -616 0
-457 -526 -583 -631 0
-451 -521 0
-527 -574 -606 0
-452 -518 -466 -403 0
-452 -518 -483 -403 0
-452 -518 -483 -600 0
-527 -574 -632 0
-452 -519 -483 -403 0
-452 -519 -483 -534 0
-136 -141 637 0
-137 -142 637 0
-138 -143 637 0
-139 -144 637 0
-140 -145 637 0
-527 -578 -637 0
-457 -520 -565 -505 0
-457 -520 -565 -617 0
-457 -520 -583 -617 0
-191 -151 638 0
-192 -152 638 0
-193 -153 638 0
-194 -154 638 0
-195 -155 638 0
-457 -520 -583 -638 0
-191 -201 639 0
-192 -202 639 0
-193 -203 639 0
-194 -204 639 0
-195 -205 639 0
-457 -520 -583 -639 0
-527 -578 -636 0
-457 -526 -583 -617 0
-457 -526 -583 -628 0
-457 -526 -583 -638 0
-285 -262 -231 -230 0
-285 -250 -349 -299 0
-285 -250 -349 -302 0
-285 -250 -349 -230 0
-285 -250 -231 -230 0
-322 -333 -359 -295 0
-322 -333 -360 -295 0
-322 -333 -360 -296 0
-385 -333 -360 -295 0
-385 -333 -360 -296 0
-377 -468 -443 0
-385 -448 -360 -296 0
-385 -448 -363 -300 0
-385 -448 -363 -303 0
-385 -448 -364 -296 0
-385 -448 -364 -303 0
-385 -448 -364 -310 0
-362 -429 0
-492 -516 -444 0
-488 -454 -365 -432 0
-488 -454 -365 -435 0
-488 -454 -366 -418 0
-488 -454 -366 -436 0
-492 -516 -445 0
-488 -456 -365 -435 0
-488 -456 -365 -437 0
-488 -456 -367 -433 0
-488 -456 -367 -435 0
-488 -456 -367 -438 0
-492 -516 -446 0
-488 -423 -349 -220 0
-488 -423 -366 -437 0
-488 -423 -366 -436 0
-488 -423 -368 -220 0
-488 -423 -368 -436 0
-350 -250 -231 -220 0
-492 -431 -446 0
-350 -423 -366 -437 0
-350 -423 -366 -436 0
-350 -423 -369 -437 0
-350 -423 -369 -432 0
-350 -423 -368 -220 0
-350 -423 -368 -436 0
-492 -431 -414 0
-350 -232 -368 -436 0
-350 -232 -368 -418 0
-285 -262 -231 -219 0
-285 -294 -359 -252 0
-357 -431 -446 0
-350 -423 -366 -253 0
-350 -423 -366 -254 0
-350 -423 -369 -249 0
-350 -423 -369 -253 0
-350 -423 -369 -255 0
-350 -423 -368 -219 0
-350 -423 -368 -254 0
-357 -431 -458 0
-350 -429 -369 -253 0
-350 -429 -369 -255 0
-350 -429 -369 -256 0
-357 -431 -414 0
-350 -232 -368 -254 0
-350 -232 -368 -256 0
-357 -261 -414 0
-236 -232 -368 -254 0
-236 -232 -368 -256 0
-236 -232 -349 -256 0
-236 -232 -349 -249 0
-285 -262 -251 -230 0
-285 -250 -355 -299 0
-285 -250 -355 -302 0
-285 -250 -355 -230 0
-285 -250 -359 -302 0
-285 -250 -251 -230 0
-322 -333 -389 -295 0
-322 -333 -389 -296 0
-377 -442 -462 0
-362 -429 -384 -297 0
-362 -429 -384 -298 0
-362 -429 -384 -299 0
-362 -429 -355 -299 0
-362 -429 -355 -230 0
-362 -250 -355 -299 0
-362 -250 -355 -302 0
-362 -250 -355 -230 0
-362 -250 -251 -230 0
-322 -294 -359 -332 0
-393 -476 -460 0
-398 -448 -380 -335 0
-398 -448 -380 -337 0
-398 -448 -381 -338 0
-398 -448 -381 -337 0
-398 -448 -381 -339 0
-393 -476 -461 0
-398 -449 -381 -336 0
-398 -449 -381 -337 0
-398 -449 -381 -339 0
-398 -449 -382 -339 0
-385 -448 0
-530 -476 -461 0
-398 -449 -381 -466 0
-398 -449 -381 -467 0
-398 -449 -382 -467 0
-530 -512 -464 0
-500 -450 -387 -471 0
-500 -450 -387 -472 0
-500 -450 -387 -469 0
-500 -450 -388 -466 0
-500 -450 -388 -472 0
-500 -450 -388 -473 0
-530 -512 -465 0
-500 -451 -381 -474 0
-500 -451 -381 -467 0
-500 -451 -388 -470 0
-500 -451 -388 -472 0
-500 -451 -388 -473 0
-500 -451 -390 -467 0
-500 -451 -390 -473 0
-530 -513 -461 0
-501 -449 -382 -467 0
-530 -513 -465 0
-501 -451 -380 -470 0
-501 -451 -388 -470 0
-501 -451 -388 -472 0
-501 -451 -388 -473 0
-501 -451 -390 -467 0
-501 -451 -390 -473 0
-530 -513 -475 0
-501 -452 -382 -474 0
-501 -452 -390 -466 0
-501 -452 -390 -473 0
-500 -448 0
-385 -294 -363 -430 0
-385 -333 -399 -474 0
-530 -476 -572 0
-398 -449 -518 -466 0
-398 -449 -518 -467 0
-398 -449 -519 -467 0
-530 -513 -572 0
-501 -449 -519 -467 0
-530 -513 -573 0
-501 -451 -520 -470 0
-501 -451 -520 -472 0
-501 -451 -520 -473 0
-501 -451 -521 -467 0
-501 -451 -521 -473 0
-530 -513 -574 0
-501 -452 -519 -474 0
-501 -452 -521 -466 0
-501 -452 -521 -473 0
-500 -450 0
-559 -515 -576 0
-503 -453 -525 -567 0
-503 -453 -523 -550 0
-503 -453 -523 -542 0
-559 -515 -577 0
-503 -455 -520 -565 0
-503 -455 -520 -568 0
-503 -455 -525 -569 0
-503 -455 -526 -568 0
-559 -515 -575 0
-503 -456 -523 -569 0
-503 -456 -523 -542 0
-503 -456 -493 -433 0
-503 -456 -493 -542 0
-503 -456 -493 -424 0
-559 -517 -573 0
-504 -451 -518 -470 0
-504 -451 -518 -482 0
-504 -451 -518 -566 0
-504 -451 -521 -566 0
-504 -451 -521 -568 0
-559 -517 -577 0
-504 -455 -524 -569 0
-504 -455 -524 -550 0
-504 -455 -525 -569 0
-504 -455 -526 -568 0
-559 -517 -578 0
-504 -457 -521 -565 0
-504 -457 -521 -566 0
-504 -457 -526 -567 0
-500 -451 0
-560 -513 -535 0
-501 -448 -399 -483 0
-560 -513 -572 0
-501 -449 -399 -466 0
-501 -449 -519 -579 0
-560 -513 -574 0
-501 -452 -519 -483 0
-501 -452 -521 -580 0
-560 -517 -581 0
-504 -450 -524 -582 0
-504 -450 -524 -583 0
-504 -450 -524 -551 0
-560 -517 -577 0
-504 -455 -524 -565 0
-504 -455 -524 -582 0
-504 -455 -524 -551 0
-504 -455 -525 -582 0
-504 -455 -526 -580 0
-560 -517 -578 0
-504 -457 -521 -579 0
-504 -457 -526 -583 0
-560 -527 -574 0
-505 -452 -518 -466 0
-505 -452 -518 -483 0
-505 -452 -519 -483 0
-560 -527 -578 0
-505 -457 -520 -565 0
-505 -457 -520 -583 0
-505 -457 -526 -583 0
-61 -106 0
-62 -107 0
-63 -108 0
-64 -109 0
-65 -110 0
-508 -553 0
-561 -609 -626 0
-503 -550 -523 -471 0
-503 -550 -523 -582 0
-503 -550 -610 -582 0
-156 -146 640 0
-157 -147 640 0
-158 -148 640 0
-159 -149 640 0
-160 -150 640 0
-503 -550 -610 -640 0
-156 -196 641 0
-157 -197 641 0
-158 -198 641 0
-159 -199 641 0
-160 -200 641 0
-503 -550 -610 -641 0
-161 -146 642 0
-162 -147 642 0
-163 -148 642 0
-164 -149 642 0
-165 -150 642 0
-561 -609 -642 0
-503 -554 -610 -569 0
-503 -554 -610 -582 0
-503 -554 -610 -641 0
-503 -554 -612 -641 0
-561 -613 -642 0
-506 -554 -614 -569 0
-506 -554 -610 -569 0
-506 -554 -610 -582 0
-506 -554 -610 -641 0
-506 -554 -612 -641 0
-508 -546 0
-562 -541 -487 0
-488 -432 -346 -427 0
-488 -432 -346 -215 0
-562 -541 -586 0
-488 -419 -346 -437 0
-488 -419 -346 -215 0
-488 -419 -584 -548 0
-488 -419 -408 -215 0
-488 -419 -408 -548 0
-562 -615 -586 0
-507 -419 -346 -437 0
-507 -419 -346 -215 0
-507 -419 -497 -437 0
-507 -419 -408 -215 0
-507 -419 -408 -548 0
-161 -176 643 0
-162 -177 643 0
-163 -178 643 0
-164 -179 643 0
-165 -180 643 0
-562 -615 -643 0
-507 -557 -408 -215 0
-507 -557 -408 -427 0
-503 -550 0
-500 -456 -367 -433 0
-500 -456 -387 -470 0
-559 -575 -531 0
-500 -469 -400 -482 0
-500 -469 -536 -482 0
-500 -469 -536 -565 0
-500 -469 -536 -566 0
-559 -575 -634 0
-500 -551 -536 -470 0
-500 -551 -536 -482 0
-500 -551 -536 -566 0
-500 -551 -616 -567 0
-500 -551 -616 -568 0
-500 -551 -617 -566 0
-500 -551 -617 -568 0
-559 -618 -634 0
-504 -551 -524 -470 0
-504 -551 -536 -470 0
-504 -551 -536 -482 0
-504 -551 -536 -566 0
-504 -551 -617 -566 0
-504 -551 -617 -568 0
-101 -146 644 0
-102 -147 644 0
-103 -148 644 0
-104 -149 644 0
-105 -150 644 0
-559 -618 -644 0
-504 -554 -619 -569 0
-504 -554 -620 -568 0
-101 -196 645 0
-102 -197 645 0
-103 -198 645 0
-104 -199 645 0
-105 -200 645 0
-559 -618 -645 0
-504 -555 -617 -565 0
-504 -555 -617 -566 0
-504 -555 -620 -567 0
-503 -553 0
-561 -613 -644 0
-506 -554 -616 -569 0
-506 -554 -616 -582 0
-506 -554 -616 -641 0
-506 -554 -620 -641 0
-101 -166 646 0
-102 -167 646 0
-103 -168 646 0
-104 -169 646 0
-105 -170 646 0
-561 -621 -646 0
-508 -546 -489 -435 0
-508 -546 -489 -420 0
-508 -546 -585 -420 0
-508 -546 -585 -592 0
-503 -554 0
-563 -618 -630 0
-504 -550 -524 -472 0
-504 -550 -524 -583 0
-563 -618 -634 0
-504 -551 -524 -472 0
-504 -551 -524 -567 0
-504 -551 -536 -472 0
-504 -551 -536 -484 0
-504 -551 -536 -607 0
-504 -551 -617 -607 0
-146 -196 647 0
-147 -197 647 0
-148 -198 647 0
-149 -199 647 0
-150 -200 647 0
-504 -551 -617 -647 0
-563 -618 -645 0
-504 -555 -617 -583 0
-504 -555 -617 -607 0
-101 -156 648 0
-102 -157 648 0
-103 -158 648 0
-104 -159 648 0
-105 -160 648 0
-563 -613 -648 0
-506 -553 -614 -544 0
-563 -622 -645 0
-509 -555 -616 -567 0
-509 -555 -616 -583 0
-509 -555 -617 -583 0
-509 -555 -617 -607 0
-488 -432 0
-362 -298 -384 -430 0
-362 -456 -384 -430 0
-362 -456 -493 -430 0
-362 -456 -493 -433 0
-362 -456 -493 -434 0
-362 -255 -345 -418 0
-362 -255 -345 -220 0
-362 -255 -222 -220 0
-350 -255 -222 -220 0
-492 -426 -547 0
-350 -419 -495 -437 0
-350 -419 -495 -436 0
-350 -419 -407 -220 0
-350 -419 -407 -436 0
-492 -426 -411 0
-350 -223 -407 -436 0
-350 -223 -407 -418 0
-488 -546 0
-562 -621 -545 0
-508 -553 -489 -542 0
-508 -553 -489 -544 0
-508 -553 -490 -544 0
-562 -615 -547 0
-507 -419 -345 -437 0
-507 -419 -345 -215 0
-507 -419 -407 -215 0
-507 -419 -407 -548 0
-562 -615 -549 0
-507 -557 -407 -215 0
-507 -557 -407 -427 0
-488 -419 0
-350 -255 -369 -418 0
-350 -255 -222 -214 0
-564 -426 -510 0
-564 -426 -411 0
-350 -223 -407 -425 0
-564 -615 -556 0
-507 -546 -497 -420 0
-564 -615 -549 0
-507 -557 -407 -214 0
-564 -594 -411 0
-410 -223 -345 -418 0
-564 -594 -549 0
-410 -557 -495 -427 0
-61 -96 0
-62 -97 0
-63 -98 0
-64 -99 0
-65 -100 0
-362 -300 -380 -448 0
-522 -447 -502 0
-362 -433 -493 -454 0
-362 -433 -493 -456 0
-362 -433 -493 -423 0
-362 -433 -356 -423 0
-362 -433 -356 -232 0
-362 -257 -356 -423 0
-362 -257 -356 -429 0
-362 -257 -356 -232 0
-362 -257 -263 -232 0
-385 -300 -363 -429 0
-385 -335 -399 -448 0
-385 -335 -399 -449 0
-522 -464 -535 0
-385 -470 -399 -449 0
-385 -470 -518 -449 0
-385 -470 -518 -451 0
-385 -470 -518 -452 0
-500 -470 0
-385 -300 -363 -430 0
-385 -335 -399 -474 0
-385 -450 -363 -430 0
-530 -477 -572 0
-398 -482 -518 -466 0
-398 -482 -518 -467 0
-398 -482 -519 -467 0
-530 -603 -572 0
-501 -482 -519 -467 0
-530 -603 -573 0
-501 -565 -520 -472 0
-501 -565 -520 -473 0
-501 -565 -521 -467 0
-501 -565 -521 -473 0
-530 -603 -574 0
-501 -566 -519 -474 0
-501 -566 -521 -466 0
-501 -566 -521 -473 0
-500 -565 0
-560 -603 -535 0
-501 -470 -399 -483 0
-560 -603 -572 0
-501 -482 -399 -466 0
-501 -482 -519 -579 0
-560 -603 -574 0
-501 -566 -519 -483 0
-501 -566 -521 -580 0
-560 -623 -577 0
-504 -567 -524 -582 0
-504 -567 -524 -551 0
-504 -567 -525 -582 0
-504 -567 -526 -580 0
-560 -623 -578 0
-504 -568 -521 -579 0
-504 -568 -526 -583 0
-560 -624 -574 0
-505 -566 -518 -466 0
-505 -566 -518 -483 0
-505 -566 -519 -483 0
-560 -624 -578 0
-505 -568 -520 -583 0
-505 -568 -526 -583 0
-503 -569 0
-561 -625 -644 0
-506 -567 -616 -582 0
-506 -567 -616 -641 0
-506 -567 -620 -641 0
-561 -626 -609 0
-508 -550 -489 -435 0
-508 -550 -489 -543 0
-508 -550 -489 -420 0
-561 -626 -646 0
-508 -542 -489 -435 0
-508 -542 -489 -553 0
-508 -542 -489 -420 0
-508 -542 -585 -420 0
-508 -542 -585 -592 0
-503 -567 0
-563 -623 -634 0
-504 -565 -524 -472 0
-504 -565 -536 -472 0
-504 -565 -536 -484 0
-504 -565 -536 -607 0
-504 -565 -617 -607 0
-504 -565 -617 -647 0
-563 -623 -645 0
-504 -568 -617 -583 0
-504 -568 -617 -607 0
-563 -625 -648 0
-506 -569 -614 -554 0
-506 -569 -614 -544 0
-563 -627 -645 0
-509 -568 -616 -583 0
-509 -568 -617 -583 0
-509 -568 -617 -607 0
-503 -550 0
-570 -626 -648 0
-508 -569 -619 -554 0
-570 -626 -646 0
-508 -542 -489 -432 0
-508 -542 -489 -419 0
-508 -542 -585 -419 0
-508 -542 -585 -557 0
-570 -552 -496 0
-488 -433 -352 -419 0
-488 -433 -352 -223 0
-570 -552 -646 0
-488 -542 -614 -553 0
-488 -542 -585 -419 0
-488 -542 -585 -557 0
-570 -552 -590 0
-488 -424 -352 -432 0
-488 -424 -352 -223 0
-488 -424 -585 -546 0
-488 -424 -585 -557 0
-488 -424 -413 -223 0
-488 -424 -413 -557 0
-504 -565 0
-500 -450 -370 -434 0
-500 -450 -388 -466 0
-560 -581 -532 0
-500 -470 -401 -483 0
-500 -470 -537 -483 0
-500 -470 -537 -579 0
-560 -603 -532 0
-501 -470 -401 -483 0
-560 -603 -595 0
-501 -482 -401 -466 0
-501 -482 -599 -579 0
-141 -186 649 0
-142 -187 649 0
-143 -188 649 0
-144 -189 649 0
-145 -190 649 0
-560 -603 -649 0
-501 -566 -599 -483 0
-501 -566 -628 -580 0
-560 -624 -649 0
-505 -566 -537 -466 0
-505 -566 -537 -483 0
-505 -566 -599 -483 0
-141 -196 650 0
-142 -197 650 0
-143 -198 650 0
-144 -199 650 0
-145 -200 650 0
-560 -624 -650 0
-505 -568 -629 -583 0
-504 -567 0
-141 -156 651 0
-142 -157 651 0
-143 -158 651 0
-144 -159 651 0
-145 -160 651 0
-563 -630 -651 0
-503 -569 -610 -554 0
-503 -569 -610 -544 0
-563 -630 -618 0
-503 -550 -610 -640 0
-503 -550 -610 -544 0
-503 -550 -494 -438 0
-503 -550 -494 -544 0
-503 -550 -494 -428 0
-563 -625 -651 0
-506 -569 -616 -554 0
-506 -569 -610 -554 0
-506 -569 -610 -544 0
-563 -627 -650 0
-509 -568 -628 -583 0
-509 -568 -628 -607 0
-504 -568 0
-571 -624 -637 0
-505 -565 -520 -473 0
-505 -565 -537 -473 0
-505 -565 -537 -485 0
-505 -565 -537 -608 0
-571 -624 -649 0
-505 -566 -537 -473 0
-505 -566 -537 -485 0
-505 -566 -537 -580 0
-505 -566 -599 -485 0
-141 -146 652 0
-142 -147 652 0
-143 -148 652 0
-144 -149 652 0
-145 -150 652 0
-571 -627 -652 0
-509 -567 -616 -641 0
-509 -567 -616 -555 0
-509 -567 -631 -641 0
-61 -66 0
-62 -67 0
-63 -68 0
-64 -69 0
-65 -70 0
-285 -235 -231 -230 0
-285 -249 -349 -299 0
-285 -249 -349 -230 0
-285 -249 -231 -230 0
-322 -332 -359 -295 0
-322 -332 -360 -295 0
-322 -332 -360 -296 0
-385 -332 -360 -295 0
-385 -332 -360 -296 0
-385 -429 -363 -295 0
-385 -429 -363 -300 0
-385 -429 -363 -303 0
-377 -462 -443 0
-385 -430 -360 -296 0
-385 -430 -363 -300 0
-385 -430 -363 -303 0
-385 -430 -364 -296 0
-385 -430 -364 -303 0
-385 -430 -364 -310 0
-385 -332 -360 -448 0
-385 -332 -360 -449 0
-522 -462 -443 0
-385 -430 -360 -449 0
-385 -430 -363 -450 0
-385 -430 -363 -451 0
-385 -430 -364 -449 0
-385 -430 -364 -451 0
-385 -430 -364 -452 0
-522 -502 -443 0
-500 -430 -360 -449 0
-500 -430 -364 -449 0
-500 -430 -364 -451 0
-500 -430 -364 -452 0
-522 -502 -447 0
-500 -433 -367 -453 0
-500 -433 -367 -455 0
-500 -433 -367 -456 0
-500 -433 -370 -451 0
-500 -433 -370 -455 0
-500 -433 -370 -457 0
-522 -502 -459 0
-500 -434 -364 -448 0
-500 -434 -364 -449 0
-500 -434 -364 -452 0
-500 -434 -370 -450 0
-500 -434 -370 -455 0
-500 -434 -370 -457 0
-500 -434 -373 -452 0
-500 -434 -373 -457 0
-285 -235 -231 -219 0
-285 -302 -359 -252 0
-357 -422 -446 0
-350 -418 -366 -253 0
-350 -418 -366 -254 0
-350 -418 -369 -253 0
-350 -418 -369 -255 0
-350 -418 -368 -219 0
-350 -418 -368 -254 0
-357 -422 -414 0
-350 -220 -368 -254 0
-350 -220 -368 -256 0
-357 -234 -414 0
-236 -220 -368 -254 0
-236 -220 -368 -256 0
-236 -220 -349 -256 0
-488 -437 0
-562 -487 -541 0
-508 -432 -489 -542 0
-508 -432 -489 -543 0
-508 -432 -489 -544 0
-562 -487 -545 0
-508 -435 -489 -542 0
-508 -435 -489 -544 0
-508 -435 -489 -546 0
-508 -435 -490 -544 0
-562 -491 -547 0
-507 -418 -345 -215 0
-507 -418 -407 -215 0
-507 -418 -407 -548 0
-562 -491 -549 0
-507 -436 -407 -215 0
-507 -436 -407 -427 0
-488 -432 0
-570 -487 -545 0
-508 -435 -489 -550 0
-508 -435 -489 -554 0
-508 -435 -490 -554 0
-570 -487 -556 0
-508 -437 -495 -419 0
-508 -437 -495 -557 0
-570 -496 -552 0
-503 -433 -493 -469 0
-503 -433 -493 -551 0
-503 -433 -494 -551 0
-503 -433 -494 -554 0
-503 -433 -494 -555 0
-570 -496 -545 0
-503 -435 -490 -554 0
-503 -435 -497 -546 0
-570 -496 -558 0
-503 -438 -494 -550 0
-503 -438 -494 -551 0
-503 -438 -494 -555 0
-503 -438 -490 -553 0
-503 -438 -498 -555 0
-488 -418 0
-350 -249 -222 -214 0
-564 -422 -411 0
-350 -220 -407 -425 0
-564 -491 -556 0
-507 -437 -497 -419 0
-507 -437 -497 -420 0
-564 -491 -549 0
-507 -436 -407 -214 0
-564 -499 -411 0
-564 -499 -549 0
-410 -436 -495 -427 0
-285 -235 -218 -219 0
-285 -302 -355 -252 0
-362 -302 -355 -252 0
-362 -429 -355 -252 0
-362 -429 -356 -252 0
-362 -429 -356 -257 0
-362 -429 -356 -264 0
-357 -234 -409 0
-236 -220 -347 -254 0
-236 -220 -347 -256 0
-350 -418 0
-564 -491 -417 0
-507 -437 -345 -419 0
-507 -437 -346 -419 0
-507 -437 -346 -420 0
-564 -491 -421 0
-507 -436 -347 -214 0
-564 -510 -417 0
-488 -437 -346 -419 0
-488 -437 -346 -420 0
-488 -437 -351 -425 0
-564 -510 -426 0
-488 -432 -346 -420 0
-488 -432 -346 -427 0
-488 -432 -352 -424 0
-488 -432 -352 -420 0
-488 -432 -352 -428 0
-564 -499 -409 0
-564 -499 -421 0
-410 -436 -351 -427 0
-350 -220 0
-416 -499 -421 0
-410 -436 -351 -214 0
-410 -436 -351 -215 0
-416 -499 -439 0
-410 -418 -351 -215 0
-410 -418 -351 -221 0
-410 -418 -345 -215 0
-410 -418 -345 -223 0
-270 -319 -301 -278 0
-235 -231 -230 -283 0
-235 -231 -230 -288 0
-235 -231 -244 -288 0
-284 -354 -378 0
-249 -349 -299 -281 0
-249 -349 -299 -282 0
-249 -349 -299 -283 0
-249 -349 -230 -283 0
-249 -231 -230 -283 0
-249 -231 -230 -288 0
-270 -269 -244 -318 0
-332 -359 -294 -325 0
-332 -359 -295 -327 0
-332 -359 -295 -325 0
-332 -359 -295 -329 0
-320 -392 -375 0
-332 -360 -295 -325 0
-332 -360 -295 -329 0
-332 -360 -296 -329 0
-332 -360 -296 -343 0
-462 -392 -375 0
-332 -360 -295 -380 0
-332 -360 -295 -381 0
-332 -360 -296 -381 0
-332 -360 -296 -382 0
-429 -362 -298 -386 0
-429 -362 -298 -387 0
-429 -362 -298 -384 0
-429 -362 -300 -380 0
-429 -362 -300 -387 0
-429 -362 -300 -388 0
-462 -442 -379 0
-429 -363 -295 -389 0
-429 -363 -295 -381 0
-429 -363 -300 -387 0
-429 -363 -300 -388 0
-429 -363 -303 -381 0
-429 -363 -303 -388 0
-429 -363 -303 -390 0
-462 -443 -375 0
-430 -360 -296 -381 0
-430 -360 -296 -382 0
-462 -443 -379 0
-430 -363 -300 -387 0
-430 -363 -300 -388 0
-430 -363 -303 -381 0
-430 -363 -303 -388 0
-430 -363 -303 -390 0
-462 -443 -391 0
-430 -364 -296 -389 0
-430 -364 -296 -382 0
-430 -364 -303 -380 0
-430 -364 -303 -388 0
-430 -364 -303 -390 0
-430 -364 -310 -382 0
-430 -364 -310 -390 0
-302 -269 -250 -355 0
-302 -319 -333 -389 0
-462 -392 -476 0
-332 -360 -448 -380 0
-332 -360 -448 -381 0
-332 -360 -449 -381 0
-332 -360 -449 -382 0
-462 -443 -476 0
-430 -360 -449 -381 0
-430 -360 -449 -382 0
-462 -443 -512 0
-430 -363 -450 -387 0
-430 -363 -450 -388 0
-430 -363 -451 -381 0
-430 -363 -451 -388 0
-430 -363 -451 -390 0
-462 -443 -513 0
-430 -364 -449 -389 0
-430 -364 -449 -382 0
-430 -364 -451 -380 0
-430 -364 -451 -388 0
-430 -364 -451 -390 0
-430 -364 -452 -382 0
-430 -364 -452 -390 0
-492 -445 -514 0
-432 -365 -453 -503 0
-432 -365 -453 -506 0
-432 -365 -454 -488 0
-432 -365 -454 -507 0
-492 -445 -515 0
-432 -367 -450 -500 0
-432 -367 -450 -504 0
-432 -367 -453 -506 0
-432 -367 -453 -508 0
-432 -367 -455 -504 0
-432 -367 -455 -506 0
-432 -367 -455 -509 0
-492 -445 -516 0
-432 -369 -454 -508 0
-432 -369 -454 -507 0
-432 -369 -423 -350 0
-432 -369 -423 -507 0
-432 -369 -423 -410 0
-492 -447 -512 0
-433 -363 -448 -398 0
-433 -363 -448 -501 0
-433 -363 -451 -501 0
-433 -363 -451 -504 0
-433 -363 -451 -505 0
-492 -447 -515 0
-433 -367 -453 -506 0
-433 -367 -453 -508 0
-433 -367 -455 -504 0
-433 -367 -455 -506 0
-433 -367 -455 -509 0
-433 -367 -456 -508 0
-433 -367 -456 -488 0
-492 -447 -517 0
-433 -370 -451 -500 0
-433 -370 -451 -501 0
-433 -370 -451 -505 0
-433 -370 -455 -503 0
-433 -370 -455 -506 0
-433 -370 -455 -509 0
-433 -370 -457 -505 0
-433 -370 -457 -509 0
-429 -363 0
-430 -359 -333 -399 0
-502 -443 -476 0
-430 -360 -449 -518 0
-430 -360 -449 -519 0
-502 -443 -513 0
-430 -364 -449 -399 0
-430 -364 -449 -519 0
-430 -364 -451 -520 0
-430 -364 -451 -521 0
-430 -364 -452 -519 0
-430 -364 -452 -521 0
-433 -362 -456 -523 0
-433 -362 -456 -524 0
-433 -362 -456 -493 0
-502 -447 -515 0
-433 -367 -453 -525 0
-433 -367 -453 -523 0
-433 -367 -455 -520 0
-433 -367 -455 -525 0
-433 -367 -455 -526 0
-433 -367 -456 -523 0
-433 -367 -456 -493 0
-502 -447 -517 0
-433 -370 -451 -518 0
-433 -370 -451 -521 0
-433 -370 -455 -524 0
-433 -370 -455 -525 0
-433 -370 -455 -526 0
-433 -370 -457 -521 0
-433 -370 -457 -526 0
-502 -459 -513 0
-434 -364 -448 -399 0
-434 -364 -449 -399 0
-434 -364 -449 -519 0
-434 -364 -452 -519 0
-434 -364 -452 -521 0
-502 -459 -517 0
-434 -370 -450 -524 0
-434 -370 -455 -524 0
-434 -370 -455 -525 0
-434 -370 -455 -526 0
-434 -370 -457 -521 0
-434 -370 -457 -526 0
-502 -459 -527 0
-434 -373 -452 -518 0
-434 -373 -452 -519 0
-434 -373 -457 -520 0
-434 -373 -457 -526 0
-270 -319 -245 -278 0
-235 -231 -219 -283 0
-235 -231 -219 -288 0
-302 -319 -245 -278 0
-302 -359 -245 -278 0
-302 -359 -250 -290 0
-302 -359 -252 -278 0
-302 -359 -252 -290 0
-302 -359 -252 -309 0
-249 -349 0
-422 -446 -344 0
-418 -366 -253 -345 0
-418 -366 -253 -346 0
-418 -366 -254 -347 0
-422 -446 -348 0
-418 -369 -253 -346 0
-418 -369 -253 -351 0
-418 -369 -255 -346 0
-418 -369 -255 -352 0
-422 -446 -353 0
-418 -368 -254 -351 0
-422 -414 -353 0
-220 -368 -254 -351 0
-220 -368 -256 -351 0
-220 -368 -256 -345 0
-234 -414 -353 0
-220 -368 -254 -213 0
-220 -368 -256 -218 0
-220 -368 -256 -213 0
-220 -368 -256 -222 0
-234 -414 -371 0
-220 -349 -256 -213 0
-220 -349 -256 -222 0
-220 -349 -256 -233 0
-66 -111 0
-67 -112 0
-68 -113 0
-69 -114 0
-70 -115 0
-437 -497 0
-432 -488 -454 -523 0
-432 -488 -542 -523 0
-432 -488 -542 -614 0
-432 -488 -542 -610 0
-487 -541 -646 0
-432 -489 -542 -523 0
-432 -489 -542 -610 0
-432 -489 -543 -611 0
-432 -489 -544 -610 0
-432 -489 -544 -611 0
-432 -489 -544 -612 0
-487 -545 -646 0
-435 -489 -542 -523 0
-435 -489 -542 -610 0
-435 -489 -544 -610 0
-435 -489 -544 -611 0
-435 -489 -544 -612 0
-166 -151 653 0
-167 -152 653 0
-168 -153 653 0
-169 -154 653 0
-170 -155 653 0
-487 -545 -653 0
-435 -490 -544 -614 0
-435 -490 -544 -610 0
-435 -490 -544 -612 0
-437 -495 0
-491 -547 -417 0
-418 -345 -215 -412 0
-491 -547 -591 0
-418 -407 -215 -351 0
-491 -549 -591 0
-436 -407 -215 -351 0
-436 -407 -427 -351 0
-429 -369 -255 -350 0
-429 -384 -334 -398 0
-429 -384 -469 -398 0
-429 -384 -469 -500 0
-429 -384 -469 -501 0
-492 -516 -575 0
-429 -493 -469 -398 0
-429 -493 -469 -501 0
-429 -493 -550 -503 0
-429 -493 -550 -504 0
-429 -493 -551 -501 0
-429 -493 -551 -504 0
-429 -493 -551 -505 0
-492 -552 -575 0
-433 -493 -469 -398 0
-433 -493 -469 -501 0
-433 -493 -551 -501 0
-433 -493 -551 -504 0
-433 -493 -551 -505 0
-492 -552 -609 0
-433 -489 -553 -506 0
-433 -489 -553 -508 0
-433 -489 -554 -504 0
-433 -489 -554 -506 0
-433 -489 -554 -509 0
-492 -552 -618 0
-433 -494 -551 -500 0
-433 -494 -551 -501 0
-433 -494 -551 -505 0
-433 -494 -554 -503 0
-433 -494 -554 -506 0
-433 -494 -554 -509 0
-433 -494 -555 -505 0
-433 -494 -555 -509 0
-432 -497 0
-487 -545 -609 0
-435 -489 -550 -523 0
-435 -489 -550 -610 0
-435 -489 -554 -610 0
-435 -489 -554 -611 0
-435 -489 -554 -612 0
-487 -545 -613 0
-435 -490 -554 -614 0
-435 -490 -554 -610 0
-435 -490 -554 -612 0
-487 -556 -615 0
-437 -495 -419 -346 0
-437 -495 -419 -408 0
-437 -495 -557 -408 0
-432 -489 0
-433 -488 -456 -524 0
-496 -552 -575 0
-433 -493 -469 -400 0
-433 -493 -469 -536 0
-433 -493 -551 -536 0
-433 -493 -551 -616 0
-433 -493 -551 -617 0
-496 -552 -618 0
-433 -494 -551 -524 0
-433 -494 -551 -536 0
-433 -494 -551 -617 0
-433 -494 -554 -619 0
-433 -494 -554 -620 0
-433 -494 -555 -617 0
-433 -494 -555 -620 0
-496 -545 -613 0
-435 -490 -554 -616 0
-435 -490 -554 -620 0
-496 -545 -621 0
-435 -497 -546 -585 0
-496 -558 -618 0
-438 -494 -550 -524 0
-438 -494 -551 -524 0
-438 -494 -551 -536 0
-438 -494 -551 -617 0
-438 -494 -555 -617 0
-438 -494 -555 -620 0
-496 -558 -613 0
-438 -490 -553 -614 0
-496 -558 -622 0
-438 -498 -555 -616 0
-438 -498 -555 -617 0
-418 -345 0
-249 -369 -423 -356 0
-249 -222 -214 -347 0
-422 -411 -588 0
-220 -407 -425 -351 0
-418 -495 0
-491 -556 -586 0
-437 -497 -419 -585 0
-437 -497 -420 -585 0
-437 -497 -420 -587 0
-491 -549 -588 0
-436 -407 -214 -351 0
-418 -407 0
-220 -222 -256 -347 0
-499 -411 -439 0
-499 -549 -589 0
-436 -495 -427 -408 0
-302 -285 -250 -349 0
-302 -322 -333 -360 0
-302 -385 -333 -360 0
-302 -385 -448 -360 0
-302 -385 -448 -363 0
-302 -385 -448 -364 0
-458 -357 -431 0
-249 -350 -423 -366 0
-249 -350 -423 -369 0
-249 -350 -423 -368 0
-249 -350 -232 -368 0
-249 -236 -232 -368 0
-249 -236 -232 -349 0
-302 -285 -250 -355 0
-302 -322 -333 -389 0
-302 -362 -250 -355 0
-462 -393 -476 0
-332 -398 -448 -380 0
-332 -398 -448 -381 0
-332 -398 -449 -381 0
-332 -398 -449 -382 0
-462 -530 -476 0
-430 -398 -449 -381 0
-430 -398 -449 -382 0
-462 -530 -512 0
-430 -500 -450 -387 0
-430 -500 -450 -388 0
-430 -500 -451 -381 0
-430 -500 -451 -388 0
-430 -500 -451 -390 0
-462 -530 -513 0
-430 -501 -449 -389 0
-430 -501 -449 -382 0
-430 -501 -451 -380 0
-430 -501 -451 -388 0
-430 -501 -451 -390 0
-430 -501 -452 -382 0
-430 -501 -452 -390 0
-429 -500 0
-430 -385 -333 -399 0
-502 -530 -476 0
-430 -398 -449 -518 0
-430 -398 -449 -519 0
-502 -530 -513 0
-430 -501 -449 -399 0
-430 -501 -449 -519 0
-430 -501 -451 -520 0
-430 -501 -451 -521 0
-430 -501 -452 -519 0
-430 -501 -452 -521 0
-502 -559 -515 0
-433 -503 -453 -525 0
-433 -503 -453 -523 0
-433 -503 -455 -520 0
-433 -503 -455 -525 0
-433 -503 -455 -526 0
-433 -503 -456 -523 0
-433 -503 -456 -493 0
-502 -559 -517 0
-433 -504 -451 -518 0
-433 -504 -451 -521 0
-433 -504 -455 -524 0
-433 -504 -455 -525 0
-433 -504 -455 -526 0
-433 -504 -457 -521 0
-433 -504 -457 -526 0
-502 -560 -513 0
-434 -501 -448 -399 0
-434 -501 -449 -399 0
-434 -501 -449 -519 0
-434 -501 -452 -519 0
-434 -501 -452 -521 0
-502 -560 -517 0
-434 -504 -450 -524 0
-434 -504 -455 -524 0
-434 -504 -455 -525 0
-434 -504 -455 -526 0
-434 -504 -457 -521 0
-434 -504 -457 -526 0
-502 -560 -527 0
-434 -505 -452 -518 0
-434 -505 -452 -519 0
-434 -505 -457 -520 0
-434 -505 -457 -526 0
-432 -508 0
-487 -561 -609 0
-435 -503 -550 -523 0
-435 -503 -550 -610 0
-435 -503 -554 -610 0
-435 -503 -554 -611 0
-435 -503 -554 -612 0
-487 -561 -613 0
-435 -506 -554 -614 0
-435 -506 -554 -610 0
-435 -506 -554 -612 0
-487 -562 -541 0
-437 -488 -419 -346 0
-437 -488 -419 -584 0
-437 -488 -419 -408 0
-487 -562 -615 0
-437 -507 -419 -346 0
-437 -507 -419 -497 0
-437 -507 -419 -408 0
-437 -507 -557 -408 0
-432 -503 0
-496 -559 -575 0
-433 -500 -469 -400 0
-433 -500 -469 -536 0
-433 -500 -551 -536 0
-433 -500 -551 -616 0
-433 -500 -551 -617 0
-496 -559 -618 0
-433 -504 -551 -524 0
-433 -504 -551 -536 0
-433 -504 -551 -617 0
-433 -504 -554 -619 0
-433 -504 -554 -620 0
-433 -504 -555 -617 0
-433 -504 -555 -620 0
-496 -561 -613 0
-435 -506 -554 -616 0
-435 -506 -554 -620 0
-496 -561 -621 0
-435 -508 -546 -489 0
-435 -508 -546 -585 0
-496 -563 -618 0
-438 -504 -550 -524 0
-438 -504 -551 -524 0
-438 -504 -551 -536 0
-438 -504 -551 -617 0
-438 -504 -555 -617 0
-438 -504 -555 -620 0
-496 -563 -613 0
-438 -506 -553 -614 0
-496 -563 -622 0
-438 -509 -555 -616 0
-438 -509 -555 -617 0
-432 -488 0
-510 -562 -621 0
-437 -508 -553 -489 0
-437 -508 -553 -490 0
-510 -562 -615 0
-437 -507 -419 -345 0
-437 -507 -419 -407 0
-437 -507 -557 -407 0
-510 -564 -426 0
-418 -350 -223 -407 0
-510 -564 -615 0
-418 -507 -546 -497 0
-418 -507 -557 -407 0
-510 -564 -594 0
-418 -410 -223 -345 0
-418 -410 -557 -495 0
-433 -500 0
-429 -362 -257 -356 0
-429 -385 -335 -399 0
-429 -385 -470 -399 0
-429 -385 -470 -518 0
-430 -385 -335 -399 0
-502 -530 -477 0
-430 -398 -482 -518 0
-430 -398 -482 -519 0
-502 -530 -603 0
-430 -501 -482 -399 0
-430 -501 -482 -519 0
-430 -501 -565 -520 0
-430 -501 -565 -521 0
-430 -501 -566 -519 0
-430 -501 -566 -521 0
-502 -560 -603 0
-434 -501 -470 -399 0
-434 -501 -482 -399 0
-434 -501 -482 -519 0
-434 -501 -566 -519 0
-434 -501 -566 -521 0
-502 -560 -623 0
-434 -504 -567 -524 0
-434 -504 -567 -525 0
-434 -504 -567 -526 0
-434 -504 -568 -521 0
-434 -504 -568 -526 0
-502 -560 -624 0
-434 -505 -566 -518 0
-434 -505 -566 -519 0
-434 -505 -568 -520 0
-434 -505 -568 -526 0
-433 -503 0
-496 -561 -625 0
-435 -506 -567 -616 0
-435 -506 -567 -620 0
-496 -561 -626 0
-435 -508 -550 -489 0
-435 -508 -542 -489 0
-435 -508 -542 -585 0
-496 -563 -623 0
-438 -504 -565 -524 0
-438 -504 -565 -536 0
-438 -504 -565 -617 0
-438 -504 -568 -617 0
-438 -504 -568 -620 0
-496 -563 -625 0
-438 -506 -569 -614 0
-496 -563 -627 0
-438 -509 -568 -616 0
-438 -509 -568 -617 0
-496 -570 -626 0
-432 -508 -569 -619 0
-432 -508 -542 -489 0
-432 -508 -542 -585 0
-496 -570 -552 0
-432 -488 -542 -614 0
-432 -488 -542 -585 0
-432 -488 -424 -352 0
-432 -488 -424 -585 0
-432 -488 -424 -413 0
-433 -504 0
-511 -560 -581 0
-434 -500 -470 -401 0
-434 -500 -470 -537 0
-511 -560 -603 0
-434 -501 -470 -401 0
-434 -501 -470 -520 0
-434 -501 -482 -401 0
-434 -501 -482 -599 0
-434 -501 -566 -599 0
-434 -501 -566 -628 0
-511 -560 -624 0
-434 -505 -566 -537 0
-434 -505 -566 -599 0
-434 -505 -568 -629 0
-511 -563 -630 0
-438 -503 -569 -631 0
-438 -503 -569 -610 0
-438 -503 -550 -610 0
-438 -503 -550 -494 0
-511 -563 -625 0
-438 -506 -569 -616 0
-438 -506 -569 -610 0
-511 -563 -627 0
-438 -509 -568 -628 0
-511 -571 -624 0
-441 -505 -565 -520 0
-441 -505 -565 -537 0
-441 -505 -566 -537 0
-441 -505 -566 -599 0
-511 -571 -627 0
-441 -509 -567 -616 0
-441 -509 -567 -631 0
-66 -71 0
-67 -72 0
-68 -73 0
-69 -74 0
-70 -75 0
-270 -318 -245 -278 0
-235 -218 -219 -283 0
-302 -318 -245 -278 0
-302 -349 -250 -290 0
-302 -355 -245 -278 0
-302 -355 -250 -290 0
-302 -355 -252 -278 0
-302 -355 -252 -290 0
-302 -355 -252 -309 0
-302 -318 -245 -360 0
-302 -355 -245 -360 0
-302 -355 -250 -363 0
-302 -355 -252 -360 0
-302 -355 -252 -363 0
-302 -355 -252 -364 0
-429 -355 -245 -360 0
-429 -355 -252 -360 0
-429 -355 -252 -363 0
-429 -355 -252 -364 0
-429 -350 -255 -365 0
-429 -350 -255 -367 0
-429 -350 -255 -369 0
-429 -350 -257 -363 0
-429 -350 -257 -367 0
-429 -350 -257 -370 0
-458 -431 -372 0
-429 -356 -252 -360 0
-429 -356 -252 -364 0
-429 -356 -257 -367 0
-429 -356 -257 -370 0
-429 -356 -264 -364 0
-429 -356 -264 -370 0
-429 -356 -264 -373 0
-234 -409 -353 0
-220 -347 -254 -213 0
-220 -347 -256 -213 0
-220 -347 -256 -222 0
-418 -351 0
-491 -417 -547 0
-437 -345 -419 -584 0
-437 -345 -419 -585 0
-491 -417 -586 0
-437 -346 -419 -585 0
-437 -346 -419 -495 0
-437 -346 -420 -585 0
-437 -346 -420 -587 0
-491 -421 -588 0
-418 -345 0
-510 -417 -586 0
-437 -346 -419 -489 0
-437 -346 -420 -489 0
-437 -346 -420 -490 0
-510 -417 -589 0
-437 -351 -425 -407 0
-432 -350 -423 -493 0
-432 -350 -424 -493 0
-432 -350 -424 -489 0
-432 -350 -424 -494 0
-510 -426 -586 0
-432 -346 -420 -489 0
-432 -346 -420 -490 0
-432 -346 -427 -495 0
-510 -426 -590 0
-432 -352 -424 -493 0
-432 -352 -424 -494 0
-432 -352 -420 -490 0
-432 -352 -420 -497 0
-432 -352 -428 -494 0
-432 -352 -428 -490 0
-432 -352 -428 -498 0
-418 -347 0
-499 -421 -589 0
-436 -351 -427 -407 0
-436 -351 -427 -408 0
-249 -349 -232 -263 0
-220 -347 0
-499 -421 -406 0
-436 -351 -214 -407 0
-436 -351 -215 -407 0
-436 -351 -215 -408 0
-499 -439 -406 0
-418 -351 -215 -407 0
-418 -351 -215 -408 0
-499 -439 -411 0
-418 -345 -215 -408 0
-418 -345 -215 -412 0
-418 -345 -223 -408 0
-418 -345 -223 -413 0
-226 -227 -228 -229 0
-318 -244 -272 -274 0
-318 -245 -272 -274 0
-318 -245 -278 -274 0
-318 -245 -278 -279 0
-224 -225 -286 0
-218 -219 -283 -212 0
-218 -219 -283 -217 0
-318 -245 -272 -295 0
-318 -245 -278 -295 0
-318 -245 -278 -296 0
-349 -249 -282 -297 0
-349 -249 -282 -298 0
-349 -249 -282 -299 0
-349 -249 -285 -298 0
-349 -249 -285 -300 0
-349 -250 -272 -295 0
-349 -250 -285 -298 0
-349 -250 -285 -300 0
-349 -250 -290 -295 0
-349 -250 -290 -300 0
-349 -250 -290 -303 0
-355 -245 -278 -295 0
-355 -245 -278 -296 0
-355 -250 -285 -298 0
-355 -250 -285 -300 0
-355 -250 -290 -295 0
-355 -250 -290 -300 0
-355 -250 -290 -303 0
-378 -361 -307 0
-355 -252 -278 -296 0
-355 -252 -290 -300 0
-355 -252 -290 -303 0
-355 -252 -309 -296 0
-355 -252 -309 -303 0
-355 -252 -309 -310 0
-288 -227 -231 -230 0
-318 -245 -359 -295 0
-318 -245 -360 -295 0
-318 -245 -360 -296 0
-355 -245 -360 -295 0
-355 -245 -360 -296 0
-355 -250 -362 -298 0
-355 -250 -362 -300 0
-355 -250 -363 -295 0
-355 -250 -363 -300 0
-355 -250 -363 -303 0
-378 -361 -443 0
-355 -252 -360 -296 0
-355 -252 -363 -300 0
-355 -252 -363 -303 0
-355 -252 -364 -296 0
-355 -252 -364 -303 0
-355 -252 -364 -310 0
-422 -348 -444 0
-345 -253 -365 -432 0
-345 -253 -365 -435 0
-345 -253 -366 -418 0
-345 -253 -366 -436 0
-422 -348 -445 0
-345 -255 -362 -433 0
-345 -255 -365 -435 0
-345 -255 -365 -437 0
-345 -255 -367 -433 0
-345 -255 -367 -435 0
-345 -255 -367 -438 0
-422 -348 -446 0
-345 -256 -366 -437 0
-345 -256 -366 -436 0
-345 -256 -368 -220 0
-345 -256 -368 -436 0
-350 -250 -359 -430 0
-350 -250 -363 -430 0
-350 -250 -363 -433 0
-350 -250 -363 -434 0
-422 -357 -445 0
-350 -255 -365 -435 0
-350 -255 -365 -437 0
-350 -255 -367 -433 0
-350 -255 -367 -435 0
-350 -255 -367 -438 0
-350 -255 -369 -437 0
-350 -255 -369 -418 0
-422 -357 -447 0
-350 -257 -363 -430 0
-350 -257 -363 -434 0
-350 -257 -367 -435 0
-350 -257 -367 -438 0
-350 -257 -367 -432 0
-350 -257 -370 -434 0
-350 -257 -370 -438 0
-350 -257 -370 -441 0
-355 -245 -360 -448 0
-355 -245 -360 -449 0
-431 -361 -443 0
-355 -252 -360 -449 0
-355 -252 -363 -450 0
-355 -252 -363 -451 0
-355 -252 -364 -449 0
-355 -252 -364 -451 0
-355 -252 -364 -452 0
-431 -357 -445 0
-350 -255 -365 -453 0
-350 -255 -365 -454 0
-350 -255 -367 -450 0
-350 -255 -367 -453 0
-350 -255 -367 -455 0
-350 -255 -369 -454 0
-350 -255 -369 -423 0
-431 -357 -447 0
-350 -257 -363 -448 0
-350 -257 -363 -451 0
-350 -257 -367 -453 0
-350 -257 -367 -455 0
-350 -257 -367 -456 0
-350 -257 -370 -451 0
-350 -257 -370 -455 0
-350 -257 -370 -457 0
-350 -249 -369 -454 0
-350 -249 -369 -456 0
-350 -249 -369 -423 0
-431 -372 -443 0
-356 -252 -360 -449 0
-356 -252 -364 -449 0
-356 -252 -364 -451 0
-356 -252 -364 -452 0
-431 -372 -447 0
-356 -257 -362 -456 0
-356 -257 -367 -453 0
-356 -257 -367 -455 0
-356 -257 -367 -456 0
-356 -257 -370 -451 0
-356 -257 -370 -455 0
-356 -257 -370 -457 0
-431 -372 -459 0
-356 -264 -364 -448 0
-356 -264 -364 -449 0
-356 -264 -364 -452 0
-356 -264 -370 -450 0
-356 -264 -370 -455 0
-356 -264 -370 -457 0
-356 -264 -373 -452 0
-356 -264 -373 -457 0
-288 -244 -251 -308 0
-218 -219 0
-409 -353 -210 0
-347 -254 -213 -214 0
-347 -254 -213 -215 0
-409 -353 -216 0
-347 -256 -213 -215 0
-347 -256 -213 -221 0
-347 -256 -222 -215 0
-347 -256 -222 -223 0
-71 -116 0
-72 -117 0
-73 -118 0
-74 -119 0
-75 -120 0
-351 -427 0
-345 -418 -507 -546 0
-345 -418 -507 -542 0
-417 -547 -615 0
-345 -419 -507 -542 0
-345 -419 -584 -543 0
-345 -419 -585 -542 0
-345 -419 -585 -543 0
-345 -419 -585 -544 0
-417 -586 -615 0
-346 -419 -507 -542 0
-346 -419 -585 -542 0
-346 -419 -585 -543 0
-346 -419 -585 -544 0
-171 -156 654 0
-172 -157 654 0
-173 -158 654 0
-174 -159 654 0
-175 -160 654 0
-417 -586 -654 0
-346 -420 -585 -542 0
-346 -420 -585 -544 0
-346 -420 -585 -546 0
-346 -420 -587 -544 0
-351 -425 0
-421 -588 -406 0
-349 -299 -384 -430 0
-349 -423 -384 -430 0
-349 -423 -488 -432 0
-349 -423 -488 -433 0
-349 -423 -493 -430 0
-349 -423 -493 -433 0
-349 -423 -493 -434 0
-349 -256 -222 -220 0
-350 -423 -384 -430 0
-350 -423 -493 -430 0
-350 -423 -493 -433 0
-350 -423 -493 -434 0
-422 -564 -541 0
-350 -419 -497 -435 0
-350 -419 -497 -437 0
-350 -419 -489 -433 0
-350 -419 -489 -435 0
-350 -419 -489 -438 0
-422 -564 -552 0
-350 -424 -493 -430 0
-350 -424 -493 -434 0
-350 -424 -489 -435 0
-350 -424 -489 -438 0
-350 -424 -489 -432 0
-350 -424 -494 -434 0
-350 -424 -494 -438 0
-350 -424 -494 -441 0
-345 -427 0
-417 -586 -541 0
-346 -419 -488 -542 0
-346 -419 -489 -542 0
-346 -419 -489 -543 0
-346 -419 -489 -544 0
-417 -586 -545 0
-346 -420 -489 -542 0
-346 -420 -489 -544 0
-346 -420 -489 -546 0
-346 -420 -490 -544 0
-417 -589 -549 0
-351 -425 -407 -215 0
-345 -419 0
-350 -423 -384 -469 0
-350 -423 -493 -469 0
-350 -423 -493 -550 0
-350 -423 -493 -551 0
-426 -564 -552 0
-350 -424 -493 -469 0
-350 -424 -493 -551 0
-350 -424 -489 -553 0
-350 -424 -489 -554 0
-350 -424 -494 -551 0
-350 -424 -494 -554 0
-350 -424 -494 -555 0
-426 -586 -545 0
-346 -420 -489 -550 0
-346 -420 -489 -554 0
-346 -420 -490 -554 0
-426 -586 -556 0
-346 -427 -495 -557 0
-426 -590 -552 0
-352 -424 -493 -469 0
-352 -424 -493 -551 0
-352 -424 -494 -551 0
-352 -424 -494 -554 0
-352 -424 -494 -555 0
-426 -590 -545 0
-352 -420 -490 -554 0
-352 -420 -497 -546 0
-426 -590 -558 0
-352 -428 -494 -550 0
-352 -428 -494 -551 0
-352 -428 -494 -555 0
-352 -428 -490 -553 0
-352 -428 -498 -555 0
-347 -214 0
-347 -425 0
-421 -589 -591 0
-351 -427 -407 -557 0
-351 -427 -408 -557 0
-351 -427 -408 -592 0
-288 -235 -231 -230 0
-288 -249 -231 -230 0
-318 -332 -359 -295 0
-318 -332 -360 -295 0
-318 -332 -360 -296 0
-355 -332 -360 -295 0
-355 -332 -360 -296 0
-355 -429 -362 -298 0
-355 -429 -362 -300 0
-355 -429 -363 -295 0
-355 -429 -363 -300 0
-355 -429 -363 -303 0
-378 -462 -443 0
-355 -430 -360 -296 0
-355 -430 -363 -300 0
-355 -430 -363 -303 0
-355 -430 -364 -296 0
-355 -430 -364 -303 0
-355 -430 -364 -310 0
-355 -332 -360 -448 0
-355 -332 -360 -449 0
-431 -462 -443 0
-355 -430 -360 -449 0
-355 -430 -363 -450 0
-355 -430 -363 -451 0
-355 -430 -364 -449 0
-355 -430 -364 -451 0
-355 -430 -364 -452 0
-431 -492 -445 0
-350 -432 -365 -453 0
-350 -432 -365 -454 0
-350 -432 -367 -450 0
-350 -432 -367 -453 0
-350 -432 -367 -455 0
-350 -432 -369 -454 0
-350 -432 -369 -423 0
-431 -492 -447 0
-350 -433 -363 -448 0
-350 -433 -363 -451 0
-350 -433 -367 -453 0
-350 -433 -367 -455 0
-350 -433 -367 -456 0
-350 -433 -370 -451 0
-350 -433 -370 -455 0
-350 -433 -370 -457 0
-431 -502 -443 0
-356 -430 -360 -449 0
-356 -430 -364 -449 0
-356 -430 -364 -451 0
-356 -430 -364 -452 0
-431 -502 -447 0
-356 -433 -362 -456 0
-356 -433 -367 -453 0
-356 -433 -367 -455 0
-356 -433 -367 -456 0
-356 -433 -370 -451 0
-356 -433 -370 -455 0
-356 -433 -370 -457 0
-431 -502 -459 0
-356 -434 -364 -448 0
-356 -434 -364 -449 0
-356 -434 -364 -452 0
-356 -434 -370 -450 0
-356 -434 -370 -455 0
-356 -434 -370 -457 0
-356 -434 -373 -452 0
-356 -434 -373 -457 0
-288 -235 -231 -219 0
-288 -302 -359 -252 0
-371 -234 -414 0
-218 -220 -368 -254 0
-218 -220 -368 -256 0
-345 -437 0
-417 -487 -541 0
-346 -432 -488 -542 0
-346 -432 -489 -542 0
-346 -432 -489 -543 0
-346 -432 -489 -544 0
-417 -487 -545 0
-346 -435 -489 -542 0
-346 -435 -489 -544 0
-346 -435 -489 -546 0
-346 -435 -490 -544 0
-417 -491 -547 0
-351 -418 -407 -215 0
-351 -418 -407 -548 0
-417 -491 -549 0
-351 -436 -407 -215 0
-351 -436 -407 -427 0
-345 -432 0
-350 -429 -384 -469 0
-350 -429 -493 -469 0
-350 -429 -493 -550 0
-350 -429 -493 -551 0
-426 -492 -552 0
-350 -433 -493 -469 0
-350 -433 -493 -551 0
-350 -433 -489 -553 0
-350 -433 -489 -554 0
-350 -433 -494 -551 0
-350 -433 -494 -554 0
-350 -433 -494 -555 0
-426 -487 -545 0
-346 -435 -489 -550 0
-346 -435 -489 -554 0
-346 -435 -490 -554 0
-426 -487 -556 0
-346 -437 -495 -419 0
-346 -437 -495 -557 0
-426 -496 -552 0
-352 -433 -493 -469 0
-352 -433 -493 -551 0
-352 -433 -494 -551 0
-352 -433 -494 -554 0
-352 -433 -494 -555 0
-426 -496 -545 0
-352 -435 -490 -554 0
-352 -435 -497 -546 0
-426 -496 -558 0
-352 -438 -494 -550 0
-352 -438 -494 -551 0
-352 -438 -494 -555 0
-352 -438 -490 -553 0
-352 -438 -498 -555 0
-345 -418 0
-439 -491 -556 0
-351 -437 -497 -419 0
-351 -437 -497 -420 0
-439 -491 -549 0
-351 -436 -407 -214 0
-439 -499 -411 0
-439 -499 -549 0
-347 -436 -495 -427 0
-349 -302 -385 -448 0
-349 -249 -236 -232 0
-355 -332 -398 -448 0
-355 -332 -398 -449 0
-431 -462 -530 0
-355 -430 -398 -449 0
-355 -430 -500 -450 0
-355 -430 -500 -451 0
-355 -430 -501 -449 0
-355 -430 -501 -451 0
-355 -430 -501 -452 0
-431 -502 -530 0
-356 -430 -398 -449 0
-356 -430 -501 -449 0
-356 -430 -501 -451 0
-356 -430 -501 -452 0
-431 -502 -559 0
-356 -433 -503 -453 0
-356 -433 -503 -455 0
-356 -433 -503 -456 0
-356 -433 -504 -451 0
-356 -433 -504 -455 0
-356 -433 -504 -457 0
-431 -502 -560 0
-356 -434 -501 -448 0
-356 -434 -501 -449 0
-356 -434 -501 -452 0
-356 -434 -504 -450 0
-356 -434 -504 -455 0
-356 -434 -504 -457 0
-356 -434 -505 -452 0
-356 -434 -505 -457 0
-350 -432 0
-426 -487 -561 0
-346 -435 -503 -550 0
-346 -435 -503 -554 0
-346 -435 -506 -554 0
-426 -487 -562 0
-346 -437 -488 -419 0
-346 -437 -507 -419 0
-346 -437 -507 -557 0
-426 -496 -559 0
-352 -433 -500 -469 0
-352 -433 -500 -551 0
-352 -433 -504 -551 0
-352 -433 -504 -554 0
-352 -433 -504 -555 0
-426 -496 -561 0
-352 -435 -506 -554 0
-352 -435 -508 -546 0
-426 -496 -563 0
-352 -438 -504 -550 0
-352 -438 -504 -551 0
-352 -438 -504 -555 0
-352 -438 -506 -553 0
-352 -438 -509 -555 0
-426 -510 -562 0
-345 -437 -508 -553 0
-345 -437 -507 -419 0
-345 -437 -507 -557 0
-426 -510 -564 0
-345 -418 -507 -546 0
-345 -418 -507 -557 0
-345 -418 -410 -223 0
-345 -418 -410 -557 0
-350 -433 0
-356 -429 -385 -470 0
-440 -502 -530 0
-356 -430 -398 -482 0
-356 -430 -501 -482 0
-356 -430 -501 -565 0
-356 -430 -501 -566 0
-440 -502 -560 0
-356 -434 -501 -470 0
-356 -434 -501 -482 0
-356 -434 -501 -566 0
-356 -434 -504 -567 0
-356 -434 -504 -568 0
-356 -434 -505 -566 0
-356 -434 -505 -568 0
-440 -496 -561 0
-352 -435 -506 -567 0
-352 -435 -508 -550 0
-352 -435 -508 -542 0
-440 -496 -563 0
-352 -438 -504 -565 0
-352 -438 -504 -568 0
-352 -438 -506 -569 0
-352 -438 -509 -568 0
-440 -496 -570 0
-352 -432 -508 -569 0
-352 -432 -508 -542 0
-352 -432 -488 -542 0
-352 -432 -488 -424 0
-440 -511 -560 0
-358 -434 -500 -470 0
-358 -434 -501 -470 0
-358 -434 -501 -482 0
-358 -434 -501 -566 0
-358 -434 -505 -566 0
-358 -434 -505 -568 0
-440 -511 -563 0
-358 -438 -503 -569 0
-358 -438 -503 -550 0
-358 -438 -506 -569 0
-358 -438 -509 -568 0
-440 -511 -571 0
-358 -441 -505 -565 0
-358 -441 -505 -566 0
-358 -441 -509 -567 0
-71 -76 0
-72 -77 0
-73 -78 0
-74 -79 0
-75 -80 0
-288 -230 -251 -308 0
-288 -230 -251 -252 0
-349 -230 -251 -252 0
-349 -220 -222 -253 0
-349 -220 -222 -255 0
-349 -220 -222 -256 0
-349 -220 -236 -255 0
-349 -220 -236 -257 0
-349 -232 -251 -252 0
-349 -232 -236 -255 0
-349 -232 -236 -257 0
-349 -232 -263 -252 0
-349 -232 -263 -257 0
-349 -232 -263 -264 0
-347 -221 0
-421 -406 -588 0
-351 -214 -407 -548 0
-351 -214 -407 -557 0
-421 -406 -591 0
-351 -215 -407 -557 0
-351 -215 -407 -425 0
-351 -215 -408 -557 0
-351 -215 -408 -592 0
-347 -214 0
-439 -406 -591 0
-351 -215 -407 -419 0
-351 -215 -408 -419 0
-351 -215 -408 -420 0
-439 -406 -593 0
-345 -220 -410 -419 0
-345 -220 -410 -424 0
-439 -411 -591 0
-345 -215 -408 -419 0
-345 -215 -408 -420 0
-345 -215 -412 -425 0
-439 -411 -594 0
-345 -223 -410 -424 0
-345 -223 -408 -420 0
-345 -223 -408 -427 0
-345 -223 -413 -424 0
-345 -223 -413 -420 0
-345 -223 -413 -428 0
-229 -243 -276 -341 0
-229 -243 -276 -278 0
-219 -218 -217 -281 0
-219 -218 -217 -282 0
-219 -218 -217 -283 0
-219 -218 -235 -282 0
-219 -231 -235 -282 0
-219 -231 -262 -290 0
-230 -243 -276 -278 0
-230 -231 -235 -282 0
-230 -231 -262 -290 0
-230 -251 -276 -278 0
-230 -251 -262 -290 0
-230 -251 -308 -278 0
-230 -251 -308 -290 0
-230 -251 -308 -309 0
-229 -243 -245 -278 0
-230 -243 -245 -278 0
-230 -231 -249 -282 0
-230 -231 -250 -290 0
-230 -251 -245 -278 0
-230 -251 -250 -290 0
-230 -251 -252 -278 0
-230 -251 -252 -290 0
-230 -251 -252 -309 0
-409 -216 -344 0
-214 -213 -253 -345 0
-214 -213 -253 -346 0
-214 -213 -254 -347 0
-409 -216 -348 0
-214 -222 -253 -346 0
-214 -222 -253 -351 0
-214 -222 -255 -346 0
-214 -222 -255 -352 0
-409 -216 -353 0
-214 -233 -254 -351 0
-220 -231 -250 -356 0
-409 -234 -348 0
-220 -222 -253 -346 0
-220 -222 -253 -351 0
-220 -222 -255 -346 0
-220 -222 -255 -352 0
-220 -222 -256 -351 0
-220 -222 -256 -347 0
-220 -236 -250 -356 0
-220 -236 -255 -346 0
-220 -236 -255 -352 0
-220 -236 -255 -345 0
-220 -236 -257 -356 0
-220 -236 -257 -352 0
-220 -236 -257 -358 0
-230 -243 -245 -360 0
-230 -251 -245 -360 0
-230 -251 -250 -363 0
-230 -251 -252 -360 0
-230 -251 -252 -363 0
-230 -251 -252 -364 0
-414 -234 -348 0
-220 -222 -253 -365 0
-220 -222 -253 -366 0
-220 -222 -255 -365 0
-220 -222 -255 -367 0
-220 -222 -256 -366 0
-220 -222 -256 -368 0
-220 -236 -250 -363 0
-220 -236 -255 -365 0
-220 -236 -255 -367 0
-220 -236 -255 -369 0
-220 -236 -257 -363 0
-220 -236 -257 -367 0
-220 -236 -257 -370 0
-220 -218 -256 -366 0
-220 -218 -256 -369 0
-220 -218 -256 -368 0
-232 -251 -245 -360 0
-232 -251 -252 -360 0
-232 -251 -252 -363 0
-232 -251 -252 -364 0
-232 -236 -255 -365 0
-232 -236 -255 -367 0
-232 -236 -255 -369 0
-232 -236 -257 -363 0
-232 -236 -257 -367 0
-232 -236 -257 -370 0
-232 -236 -249 -369 0
-414 -261 -372 0
-232 -263 -252 -360 0
-232 -263 -252 -364 0
-232 -263 -257 -367 0
-232 -263 -257 -370 0
-232 -263 -264 -364 0
-232 -263 -264 -370 0
-232 -263 -264 -373 0
-76 -121 0
-77 -122 0
-78 -123 0
-79 -124 0
-80 -125 0
-221 -412 0
-214 -347 -436 -495 0
-406 -588 -549 0
-214 -407 -548 -584 0
-214 -407 -557 -584 0
-214 -407 -557 -585 0
-406 -591 -549 0
-215 -407 -557 -584 0
-215 -407 -557 -585 0
-406 -591 -643 0
-215 -408 -557 -585 0
-215 -408 -557 -495 0
-215 -408 -592 -585 0
-215 -408 -592 -587 0
-219 -368 -418 -345 0
-219 -368 -423 -356 0
-220 -368 -423 -356 0
-409 -499 -547 0
-220 -407 -427 -346 0
-220 -407 -427 -351 0
-220 -407 -419 -346 0
-220 -407 -419 -352 0
-220 -410 -423 -356 0
-220 -410 -419 -346 0
-220 -410 -419 -352 0
-220 -410 -419 -345 0
-220 -410 -424 -356 0
-220 -410 -424 -352 0
-220 -410 -424 -358 0
-214 -412 0
-406 -591 -547 0
-215 -407 -419 -584 0
-215 -407 -419 -585 0
-406 -591 -586 0
-215 -408 -419 -585 0
-215 -408 -419 -495 0
-215 -408 -420 -585 0
-215 -408 -420 -587 0
-214 -407 0
-220 -368 -423 -493 0
-220 -410 -423 -493 0
-220 -410 -419 -497 0
-220 -410 -419 -489 0
-220 -410 -424 -493 0
-220 -410 -424 -489 0
-220 -410 -424 -494 0
-411 -591 -586 0
-215 -408 -419 -489 0
-215 -408 -420 -489 0
-215 -408 -420 -490 0
-411 -591 -589 0
-223 -410 -423 -493 0
-223 -410 -424 -493 0
-223 -410 -424 -489 0
-223 -410 -424 -494 0
-411 -594 -586 0
-223 -408 -420 -489 0
-223 -408 -420 -490 0
-223 -408 -427 -495 0
-411 -594 -590 0
-223 -413 -424 -493 0
-223 -413 -424 -494 0
-223 -413 -420 -490 0
-223 -413 -420 -497 0
-223 -413 -428 -494 0
-223 -413 -428 -490 0
-223 -413 -428 -498 0
-229 -318 -245 -278 0
-230 -318 -245 -278 0
-230 -349 -249 -282 0
-230 -349 -250 -290 0
-230 -355 -245 -278 0
-230 -355 -250 -290 0
-230 -355 -252 -278 0
-230 -355 -252 -290 0
-230 -355 -252 -309 0
-230 -318 -245 -360 0
-230 -355 -245 -360 0
-230 -355 -250 -363 0
-230 -355 -252 -360 0
-230 -355 -252 -363 0
-230 -355 -252 -364 0
-414 -422 -348 0
-220 -345 -253 -365 0
-220 -345 -253 -366 0
-220 -345 -255 -365 0
-220 -345 -255 -367 0
-220 -345 -256 -366 0
-220 -345 -256 -368 0
-220 -350 -250 -363 0
-220 -350 -255 -365 0
-220 -350 -255 -367 0
-220 -350 -255 -369 0
-220 -350 -257 -363 0
-220 -350 -257 -367 0
-220 -350 -257 -370 0
-232 -355 -245 -360 0
-232 -355 -252 -360 0
-232 -355 -252 -363 0
-232 -355 -252 -364 0
-232 -350 -255 -365 0
-232 -350 -255 -367 0
-232 -350 -255 -369 0
-232 -350 -257 -363 0
-232 -350 -257 -367 0
-232 -350 -257 -370 0
-232 -350 -249 -369 0
-414 -431 -372 0
-232 -356 -252 -360 0
-232 -356 -252 -364 0
-232 -356 -257 -367 0
-232 -356 -257 -370 0
-232 -356 -264 -364 0
-232 -356 -264 -370 0
-232 -356 -264 -373 0
-214 -351 0
-406 -417 -547 0
-215 -345 -419 -584 0
-215 -345 -419 -585 0
-406 -417 -586 0
-215 -346 -419 -585 0
-215 -346 -419 -495 0
-215 -346 -420 -585 0
-215 -346 -420 -587 0
-406 -421 -588 0
-214 -345 0
-220 -349 -423 -493 0
-220 -350 -423 -493 0
-220 -350 -419 -497 0
-220 -350 -419 -489 0
-220 -350 -424 -493 0
-220 -350 -424 -489 0
-220 -350 -424 -494 0
-411 -417 -586 0
-215 -346 -419 -489 0
-215 -346 -420 -489 0
-215 -346 -420 -490 0
-411 -417 -589 0
-215 -351 -425 -407 0
-223 -350 -423 -493 0
-223 -350 -424 -493 0
-223 -350 -424 -489 0
-223 -350 -424 -494 0
-411 -426 -586 0
-223 -346 -420 -489 0
-223 -346 -420 -490 0
-223 -346 -427 -495 0
-411 -426 -590 0
-223 -352 -424 -493 0
-223 -352 -424 -494 0
-223 -352 -420 -490 0
-223 -352 -420 -497 0
-223 -352 -428 -494 0
-223 -352 -428 -490 0
-223 -352 -428 -498 0
-214 -347 0
-415 -421 -589 0
-221 -351 -427 -407 0
-221 -351 -427 -408 0
-230 -318 -332 -360 0
-230 -355 -332 -360 0
-230 -355 -429 -363 0
-230 -355 -430 -360 0
-230 -355 -430 -363 0
-230 -355 -430 -364 0
-232 -355 -332 -360 0
-232 -355 -430 -360 0
-232 -355 -430 -363 0
-232 -355 -430 -364 0
-232 -350 -432 -365 0
-232 -350 -432 -367 0
-232 -350 -432 -369 0
-232 -350 -433 -363 0
-232 -350 -433 -367 0
-232 -350 -433 -370 0
-414 -431 -502 0
-232 -356 -430 -360 0
-232 -356 -430 -364 0
-232 -356 -433 -367 0
-232 -356 -433 -370 0
-232 -356 -434 -364 0
-232 -356 -434 -370 0
-232 -356 -434 -373 0
-220 -345 0
-411 -417 -487 0
-215 -346 -432 -489 0
-215 -346 -435 -489 0
-215 -346 -435 -490 0
-411 -417 -491 0
-215 -351 -418 -407 0
-215 -351 -436 -407 0
-223 -350 -429 -493 0
-223 -350 -433 -493 0
-223 -350 -433 -489 0
-223 -350 -433 -494 0
-411 -426 -487 0
-223 -346 -435 -489 0
-223 -346 -435 -490 0
-223 -346 -437 -495 0
-411 -426 -496 0
-223 -352 -433 -493 0
-223 -352 -433 -494 0
-223 -352 -435 -490 0
-223 -352 -435 -497 0
-223 -352 -438 -494 0
-223 -352 -438 -490 0
-223 -352 -438 -498 0
-411 -439 -491 0
-214 -351 -437 -497 0
-214 -351 -436 -407 0
-411 -439 -499 0
-214 -347 -436 -495 0
-232 -355 -332 -398 0
-232 -355 -430 -398 0
-232 -355 -430 -500 0
-232 -355 -430 -501 0
-416 -431 -502 0
-232 -356 -430 -398 0
-232 -356 -430 -501 0
-232 -356 -433 -503 0
-232 -356 -433 -504 0
-232 -356 -434 -501 0
-232 -356 -434 -504 0
-232 -356 -434 -505 0
-416 -426 -487 0
-223 -346 -435 -503 0
-223 -346 -435 -506 0
-223 -346 -437 -488 0
-223 -346 -437 -507 0
-416 -426 -496 0
-223 -352 -433 -500 0
-223 -352 -433 -504 0
-223 -352 -435 -506 0
-223 -352 -435 -508 0
-223 -352 -438 -504 0
-223 -352 -438 -506 0
-223 -352 -438 -509 0
-416 -426 -510 0
-223 -345 -437 -508 0
-223 -345 -437 -507 0
-223 -345 -418 -507 0
-223 -345 -418 -410 0
-416 -440 -502 0
-237 -356 -430 -398 0
-237 -356 -430 -501 0
-237 -356 -434 -501 0
-237 -356 -434 -504 0
-237 -356 -434 -505 0
-416 -440 -496 0
-237 -352 -435 -506 0
-237 -352 -435 -508 0
-237 -352 -438 -504 0
-237 -352 -438 -506 0
-237 -352 -438 -509 0
-237 -352 -432 -508 0
-237 -352 -432 -488 0
-416 -440 -511 0
-237 -358 -434 -500 0
-237 -358 -434 -501 0
-237 -358 -434 -505 0
-237 -358 -438 -503 0
-237 -358 -438 -506 0
-237 -358 -438 -509 0
-237 -358 -441 -505 0
-237 -358 -441 -509 0
-278 -245 -318 -313 0
-278 -301 -324 -274 0
-278 -245 -318 -299 0
-360 -332 -321 -297 0
-360 -332 -321 -298 0
-360 -332 -321 -299 0
-360 -332 -322 -298 0
-360 -332 -322 -300 0
-360 -332 -318 -299 0
-360 -333 -324 -295 0
-360 -333 -322 -298 0
-360 -333 -322 -300 0
-360 -333 -325 -295 0
-360 -333 -325 -300 0
-360 -333 -325 -303 0
-360 -245 -318 -299 0
-389 -333 -322 -298 0
-389 -333 -322 -300 0
-389 -333 -325 -295 0
-389 -333 -325 -300 0
-389 -333 -325 -303 0
-375 -397 -328 0
-389 -336 -325 -300 0
-389 -336 -325 -303 0
-389 -336 -329 -296 0
-389 -336 -329 -303 0
-389 -336 -329 -310 0
-278 -245 -355 -299 0
-360 -332 -384 -297 0
-360 -332 -384 -298 0
-360 -332 -384 -299 0
-360 -332 -385 -298 0
-360 -332 -385 -300 0
-360 -332 -355 -299 0
-360 -333 -385 -298 0
-360 -333 -385 -300 0
-360 -333 -380 -295 0
-360 -333 -380 -300 0
-360 -333 -380 -303 0
-360 -245 -355 -299 0
-360 -332 -384 -454 0
-360 -332 -384 -456 0
-360 -332 -384 -423 0
-360 -332 -385 -456 0
-360 -332 -385 -450 0
-360 -332 -355 -423 0
-360 -245 -355 -423 0
-476 -393 -463 0
-398 -334 -386 -453 0
-398 -334 -386 -454 0
-398 -334 -387 -450 0
-398 -334 -387 -453 0
-398 -334 -387 -455 0
-398 -334 -384 -454 0
-398 -334 -384 -423 0
-476 -393 -464 0
-398 -335 -380 -448 0
-398 -335 -380 -451 0
-398 -335 -387 -453 0
-398 -335 -387 -455 0
-398 -335 -387 -456 0
-398 -335 -388 -451 0
-398 -335 -388 -455 0
-398 -335 -388 -457 0
-398 -332 -384 -454 0
-398 -332 -384 -456 0
-398 -332 -384 -423 0
-398 -332 -355 -423 0
-476 -394 -460 0
-399 -336 -381 -449 0
-399 -336 -381 -451 0
-399 -336 -381 -452 0
-476 -394 -464 0
-399 -335 -385 -456 0
-399 -335 -387 -453 0
-399 -335 -387 -455 0
-399 -335 -387 -456 0
-399 -335 -388 -451 0
-399 -335 -388 -455 0
-399 -335 -388 -457 0
-476 -394 -465 0
-399 -337 -381 -448 0
-399 -337 -381 -449 0
-399 -337 -381 -452 0
-399 -337 -388 -450 0
-399 -337 -388 -455 0
-399 -337 -388 -457 0
-399 -337 -390 -452 0
-399 -337 -390 -457 0
-389 -336 0
-399 -333 -385 -469 0
-399 -333 -385 -470 0
-481 -394 -464 0
-399 -335 -385 -469 0
-399 -335 -387 -471 0
-399 -335 -387 -472 0
-399 -335 -387 -469 0
-399 -335 -388 -466 0
-399 -335 -388 -472 0
-399 -335 -388 -473 0
-481 -394 -465 0
-399 -337 -381 -474 0
-399 -337 -381 -467 0
-399 -337 -388 -470 0
-399 -337 -388 -472 0
-399 -337 -388 -473 0
-399 -337 -390 -467 0
-399 -337 -390 -473 0
-481 -396 -461 0
-402 -338 -382 -467 0
-481 -396 -465 0
-402 -337 -380 -470 0
-402 -337 -388 -470 0
-402 -337 -388 -472 0
-402 -337 -388 -473 0
-402 -337 -390 -467 0
-402 -337 -390 -473 0
-481 -396 -475 0
-402 -339 -382 -474 0
-402 -339 -390 -466 0
-402 -339 -390 -473 0
-81 -86 0
-82 -87 0
-83 -88 0
-84 -89 0
-85 -90 0
-278 -252 -355 -299 0
-360 -430 -384 -297 0
-360 -430 -384 -298 0
-360 -430 -384 -299 0
-360 -430 -385 -298 0
-360 -430 -385 -300 0
-360 -430 -355 -299 0
-360 -448 -385 -298 0
-360 -448 -385 -300 0
-360 -448 -380 -300 0
-360 -448 -380 -303 0
-360 -252 -355 -299 0
-360 -430 -384 -454 0
-360 -430 -384 -456 0
-360 -430 -384 -423 0
-360 -430 -385 -456 0
-360 -430 -385 -450 0
-360 -430 -355 -423 0
-360 -252 -355 -423 0
-476 -530 -463 0
-398 -469 -386 -453 0
-398 -469 -386 -454 0
-398 -469 -387 -450 0
-398 -469 -387 -453 0
-398 -469 -387 -455 0
-398 -469 -384 -454 0
-398 -469 -384 -423 0
-476 -530 -464 0
-398 -470 -380 -451 0
-398 -470 -387 -453 0
-398 -470 -387 -455 0
-398 -470 -387 -456 0
-398 -470 -388 -451 0
-398 -470 -388 -455 0
-398 -470 -388 -457 0
-398 -430 -384 -454 0
-398 -430 -384 -456 0
-398 -430 -384 -423 0
-398 -430 -355 -423 0
-476 -535 -464 0
-399 -470 -385 -456 0
-399 -470 -387 -453 0
-399 -470 -387 -455 0
-399 -470 -387 -456 0
-399 -470 -388 -451 0
-399 -470 -388 -455 0
-399 -470 -388 -457 0
-476 -535 -465 0
-399 -466 -381 -449 0
-399 -466 -381 -452 0
-399 -466 -388 -450 0
-399 -466 -388 -455 0
-399 -466 -388 -457 0
-399 -466 -390 -452 0
-399 -466 -390 -457 0
-360 -430 -493 -454 0
-360 -430 -493 -456 0
-360 -430 -493 -423 0
-360 -430 -500 -456 0
-360 -430 -500 -450 0
-360 -430 -356 -423 0
-360 -252 -356 -423 0
-476 -530 -575 0
-398 -469 -523 -453 0
-398 -469 -523 -454 0
-398 -469 -524 -450 0
-398 -469 -524 -453 0
-398 -469 -524 -455 0
-398 -469 -493 -454 0
-398 -469 -493 -423 0
-476 -530 -581 0
-398 -470 -524 -453 0
-398 -470 -524 -455 0
-398 -470 -524 -456 0
-398 -470 -520 -451 0
-398 -470 -520 -455 0
-398 -470 -520 -457 0
-398 -430 -493 -454 0
-398 -430 -493 -456 0
-398 -430 -493 -423 0
-398 -430 -356 -423 0
-399 -470 0
-477 -530 -575 0
-398 -469 -523 -569 0
-398 -469 -523 -542 0
-398 -469 -524 -569 0
-398 -469 -524 -567 0
-398 -469 -493 -542 0
-398 -469 -493 -424 0
-398 -430 -493 -542 0
-398 -430 -493 -550 0
-398 -430 -493 -424 0
-398 -430 -356 -424 0
-477 -531 -576 0
-400 -471 -525 -567 0
-400 -471 -523 -550 0
-400 -471 -523 -542 0
-477 -531 -577 0
-400 -472 -520 -565 0
-400 -472 -520 -568 0
-400 -472 -525 -569 0
-400 -472 -526 -568 0
-477 -531 -575 0
-400 -469 -523 -569 0
-400 -469 -523 -542 0
-400 -469 -493 -542 0
-400 -469 -493 -424 0
-477 -532 -573 0
-401 -466 -518 -482 0
-401 -466 -518 -566 0
-401 -466 -521 -566 0
-401 -466 -521 -568 0
-477 -532 -577 0
-401 -472 -524 -569 0
-401 -472 -524 -550 0
-401 -472 -525 -569 0
-401 -472 -526 -568 0
-477 -532 -578 0
-401 -473 -521 -565 0
-401 -473 -521 -566 0
-401 -473 -526 -567 0
-399 -466 0
-478 -528 -572 0
-402 -474 -519 -579 0
-478 -528 -574 0
-402 -467 -519 -483 0
-402 -467 -521 -580 0
-478 -532 -581 0
-401 -470 -500 -551 0
-401 -470 -524 -582 0
-401 -470 -524 -583 0
-401 -470 -524 -551 0
-478 -532 -577 0
-401 -472 -524 -565 0
-401 -472 -524 -582 0
-401 -472 -524 -551 0
-401 -472 -525 -582 0
-401 -472 -526 -580 0
-478 -532 -578 0
-401 -473 -521 -579 0
-401 -473 -526 -583 0
-478 -533 -574 0
-403 -467 -518 -483 0
-403 -467 -519 -483 0
-478 -533 -578 0
-403 -473 -520 -565 0
-403 -473 -520 -583 0
-403 -473 -526 -583 0
-402 -474 0
-479 -529 -602 0
-404 -467 -534 -483 0
-404 -467 -534 -485 0
-402 -466 0
-399 -448 -501 -551 0
-399 -448 -501 -565 0
-478 -535 -603 0
-399 -470 -501 -551 0
-399 -470 -536 -582 0
-399 -470 -536 -583 0
-399 -470 -536 -551 0
-399 -470 -537 -583 0
-399 -470 -537 -580 0
-478 -532 -603 0
-401 -470 -501 -551 0
-401 -470 -536 -582 0
-401 -470 -536 -583 0
-401 -470 -536 -551 0
-478 -532 -604 0
-401 -472 -536 -565 0
-401 -472 -536 -582 0
-401 -472 -536 -551 0
-401 -472 -538 -582 0
-401 -472 -539 -580 0
-478 -532 -605 0
-401 -473 -534 -579 0
-401 -473 -539 -583 0
-478 -533 -602 0
-403 -467 -540 -483 0
-478 -533 -605 0
-403 -473 -537 -565 0
-403 -473 -537 -583 0
-403 -473 -539 -583 0
-402 -467 0
-480 -529 -598 0
-480 -533 -606 0
-403 -466 -518 -566 0
-403 -466 -537 -566 0
-403 -466 -537 -607 0
-403 -466 -537 -608 0
-480 -533 -605 0
-403 -473 -537 -566 0
-403 -473 -537 -579 0
-403 -473 -537 -607 0
-403 -473 -539 -607 0
-81 -126 0
-82 -127 0
-83 -128 0
-84 -129 0
-85 -130 0
-402 -474 0
-389 -449 -501 -469 0
-389 -449 -501 -470 0
-389 -449 -518 -470 0
-389 -449 -518 -466 0
-399 -449 -501 -469 0
-399 -449 -501 -470 0
-481 -572 -603 0
-399 -482 -501 -469 0
-399 -482 -536 -471 0
-399 -482 -536 -472 0
-399 -482 -536 -469 0
-399 -482 -537 -466 0
-399 -482 -537 -472 0
-399 -482 -537 -473 0
-481 -572 -606 0
-399 -483 -537 -470 0
-399 -483 -537 -472 0
-399 -483 -537 -473 0
-399 -483 -534 -467 0
-399 -483 -534 -473 0
-402 -483 0
-399 -449 -381 -466 0
-399 -449 -501 -551 0
-399 -449 -501 -565 0
-478 -572 -528 0
-478 -572 -603 0
-399 -482 -501 -551 0
-399 -482 -536 -582 0
-399 -482 -536 -583 0
-399 -482 -536 -551 0
-399 -482 -537 -583 0
-399 -482 -537 -580 0
-478 -595 -603 0
-401 -482 -501 -551 0
-401 -482 -518 -466 0
-401 -482 -536 -582 0
-401 -482 -536 -583 0
-401 -482 -536 -551 0
-478 -595 -604 0
-401 -484 -536 -565 0
-401 -484 -536 -582 0
-401 -484 -536 -551 0
-401 -484 -538 -582 0
-401 -484 -539 -580 0
-478 -595 -605 0
-401 -485 -534 -579 0
-401 -485 -539 -583 0
-478 -596 -602 0
-478 -596 -605 0
-403 -485 -537 -565 0
-403 -485 -537 -583 0
-403 -485 -539 -583 0
-402 -486 0
-480 -596 -606 0
-403 -483 -518 -467 0
-403 -483 -518 -566 0
-403 -483 -537 -566 0
-403 -483 -537 -607 0
-403 -483 -537 -608 0
-480 -596 -605 0
-403 -485 -537 -566 0
-403 -485 -537 -579 0
-403 -485 -537 -607 0
-403 -485 -539 -607 0
-404 -486 0
-480 -598 -529 0
-402 -474 -519 -566 0
-402 -474 -519 -579 0
-480 -598 -632 0
-402 -483 -519 -467 0
-402 -483 -519 -566 0
-402 -483 -599 -566 0
-402 -483 -599 -607 0
-402 -483 -599 -608 0
-402 -483 -600 -608 0
-480 -596 -632 0
-403 -483 -519 -467 0
-403 -483 -519 -566 0
-403 -483 -540 -467 0
-403 -483 -599 -566 0
-403 -483 -599 -607 0
-403 -483 -599 -608 0
-181 -196 655 0
-182 -197 655 0
-183 -198 655 0
-184 -199 655 0
-185 -200 655 0
-480 -596 -655 0
-403 -485 -599 -566 0
-403 -485 -599 -579 0
-403 -485 -599 -607 0
-403 -485 -601 -607 0
-308 -251 -230 -283 0
-252 -355 -299 -281 0
-252 -355 -299 -282 0
-252 -355 -299 -283 0
-252 -355 -302 -282 0
-252 -355 -230 -283 0
-252 -359 -302 -282 0
-252 -359 -294 -290 0
-252 -251 -230 -283 0
-336 -389 -296 -329 0
-336 -389 -296 -343 0
-443 -462 -376 0
-430 -384 -297 -365 0
-430 -384 -297 -366 0
-430 -384 -298 -365 0
-430 -384 -298 -367 0
-430 -384 -299 -366 0
-430 -384 -299 -368 0
-430 -385 -294 -363 0
-430 -385 -298 -365 0
-430 -385 -298 -367 0
-430 -385 -298 -369 0
-430 -385 -300 -363 0
-430 -385 -300 -367 0
-430 -385 -300 -370 0
-430 -355 -299 -366 0
-430 -355 -299 -369 0
-430 -355 -299 -368 0
-430 -355 -230 -368 0
-448 -385 -298 -365 0
-448 -385 -298 -367 0
-448 -385 -298 -369 0
-448 -385 -300 -363 0
-448 -385 -300 -367 0
-448 -385 -300 -370 0
-448 -385 -302 -369 0
-443 -468 -379 0
-448 -380 -300 -367 0
-448 -380 -300 -370 0
-448 -380 -303 -364 0
-448 -380 -303 -370 0
-448 -380 -303 -373 0
-252 -355 -299 -366 0
-252 -355 -299 -369 0
-252 -355 -299 -368 0
-252 -355 -302 -369 0
-252 -355 -230 -368 0
-252 -251 -230 -368 0
-295 -359 -332 -321 0
-295 -359 -333 -325 0
-481 -461 -396 0
-474 -381 -337 -399 0
-474 -381 -337 -401 0
-474 -381 -337 -403 0
-474 -381 -339 -404 0
-474 -381 -339 -403 0
-481 -461 -405 0
-474 -382 -339 -402 0
-474 -382 -339 -403 0
-443 -462 -516 0
-430 -384 -454 -365 0
-430 -384 -454 -366 0
-430 -384 -456 -365 0
-430 -384 -456 -367 0
-430 -384 -423 -366 0
-430 -384 -423 -368 0
-430 -385 -456 -365 0
-430 -385 -456 -367 0
-430 -385 -456 -369 0
-430 -385 -450 -363 0
-430 -385 -450 -367 0
-430 -385 -450 -370 0
-430 -355 -423 -366 0
-430 -355 -423 -369 0
-430 -355 -423 -368 0
-430 -355 -232 -368 0
-252 -355 -423 -366 0
-252 -355 -423 -369 0
-252 -355 -423 -368 0
-252 -355 -429 -369 0
-252 -355 -232 -368 0
-252 -251 -232 -368 0
-530 -463 -514 0
-469 -386 -453 -503 0
-469 -386 -453 -506 0
-469 -386 -454 -488 0
-469 -386 -454 -507 0
-530 -463 -515 0
-469 -387 -450 -500 0
-469 -387 -450 -504 0
-469 -387 -453 -506 0
-469 -387 -453 -508 0
-469 -387 -455 -504 0
-469 -387 -455 -506 0
-469 -387 -455 -509 0
-530 -463 -516 0
-469 -384 -454 -508 0
-469 -384 -454 -507 0
-469 -384 -423 -507 0
-469 -384 -423 -410 0
-530 -464 -512 0
-470 -380 -451 -501 0
-470 -380 -451 -504 0
-470 -380 -451 -505 0
-530 -464 -515 0
-470 -387 -453 -506 0
-470 -387 -453 -508 0
-470 -387 -455 -504 0
-470 -387 -455 -506 0
-470 -387 -455 -509 0
-470 -387 -456 -508 0
-470 -387 -456 -488 0
-530 -464 -517 0
-470 -388 -451 -500 0
-470 -388 -451 -501 0
-470 -388 -451 -505 0
-470 -388 -455 -503 0
-470 -388 -455 -506 0
-470 -388 -455 -509 0
-470 -388 -457 -505 0
-470 -388 -457 -509 0
-530 -462 -516 0
-430 -384 -454 -508 0
-430 -384 -454 -507 0
-430 -384 -456 -508 0
-430 -384 -456 -503 0
-430 -384 -423 -507 0
-430 -384 -423 -410 0
-430 -355 -423 -507 0
-430 -355 -423 -488 0
-430 -355 -423 -410 0
-430 -355 -232 -410 0
-448 -380 0
-470 -385 -456 -523 0
-470 -385 -456 -524 0
-470 -385 -456 -493 0
-470 -385 -429 -493 0
-535 -464 -515 0
-470 -387 -453 -525 0
-470 -387 -453 -523 0
-470 -387 -455 -520 0
-470 -387 -455 -525 0
-470 -387 -455 -526 0
-470 -387 -456 -523 0
-470 -387 -456 -493 0
-535 -464 -517 0
-470 -388 -451 -518 0
-470 -388 -451 -521 0
-470 -388 -455 -524 0
-470 -388 -455 -525 0
-470 -388 -455 -526 0
-470 -388 -457 -521 0
-470 -388 -457 -526 0
-535 -465 -513 0
-466 -381 -449 -519 0
-466 -381 -452 -519 0
-466 -381 -452 -521 0
-535 -465 -517 0
-466 -388 -450 -524 0
-466 -388 -455 -524 0
-466 -388 -455 -525 0
-466 -388 -455 -526 0
-466 -388 -457 -521 0
-466 -388 -457 -526 0
-535 -465 -527 0
-466 -390 -452 -518 0
-466 -390 -452 -519 0
-466 -390 -457 -520 0
-466 -390 -457 -526 0
-295 -360 -332 -321 0
-295 -360 -333 -325 0
-295 -389 -333 -325 0
-295 -360 -332 -384 0
-295 -360 -333 -380 0
-448 -360 -332 -384 0
-448 -398 -334 -386 0
-448 -398 -334 -387 0
-448 -398 -334 -384 0
-448 -398 -335 -380 0
-448 -398 -335 -387 0
-448 -398 -335 -388 0
-448 -398 -332 -384 0
-460 -476 -394 0
-448 -399 -335 -387 0
-448 -399 -335 -388 0
-448 -399 -337 -381 0
-448 -399 -337 -388 0
-448 -399 -337 -390 0
-474 -402 0
-528 -478 -572 0
-466 -399 -482 -536 0
-466 -399 -482 -537 0
-528 -478 -595 0
-466 -401 -482 -518 0
-466 -401 -482 -536 0
-466 -401 -484 -536 0
-466 -401 -484 -538 0
-466 -401 -484 -539 0
-466 -401 -485 -534 0
-466 -401 -485 -539 0
-528 -478 -596 0
-466 -403 -486 -540 0
-466 -403 -485 -537 0
-466 -403 -485 -539 0
-528 -480 -597 0
-528 -480 -596 0
-467 -403 -483 -518 0
-467 -403 -483 -537 0
-467 -403 -485 -537 0
-467 -403 -485 -539 0
-474 -404 0
-529 -480 -598 0
-467 -402 -483 -519 0
-467 -402 -483 -599 0
-467 -402 -483 -600 0
-529 -480 -596 0
-467 -403 -483 -519 0
-467 -403 -483 -540 0
-467 -403 -483 -599 0
-467 -403 -485 -599 0
-467 -403 -485 -601 0
-86 -91 0
-87 -92 0
-88 -93 0
-89 -94 0
-90 -95 0
-443 -502 -516 0
-430 -493 -454 -365 0
-430 -493 -454 -366 0
-430 -493 -456 -365 0
-430 -493 -456 -367 0
-430 -493 -423 -366 0
-430 -493 -423 -368 0
-430 -500 -456 -365 0
-430 -500 -456 -367 0
-430 -500 -456 -369 0
-430 -500 -450 -367 0
-430 -500 -450 -370 0
-430 -356 -423 -366 0
-430 -356 -423 -369 0
-430 -356 -423 -368 0
-430 -356 -232 -368 0
-252 -356 -423 -366 0
-252 -356 -423 -369 0
-252 -356 -423 -368 0
-252 -356 -429 -369 0
-252 -356 -232 -368 0
-252 -263 -232 -368 0
-295 -363 -429 -384 0
-336 -399 -449 -381 0
-336 -399 -449 -382 0
-530 -575 -514 0
-469 -523 -453 -503 0
-469 -523 -453 -506 0
-469 -523 -454 -488 0
-469 -523 -454 -507 0
-530 -575 -515 0
-469 -524 -450 -504 0
-469 -524 -453 -506 0
-469 -524 -453 -508 0
-469 -524 -455 -504 0
-469 -524 -455 -506 0
-469 -524 -455 -509 0
-530 -575 -516 0
-469 -493 -454 -508 0
-469 -493 -454 -507 0
-469 -493 -423 -507 0
-469 -493 -423 -410 0
-530 -581 -515 0
-470 -524 -453 -506 0
-470 -524 -453 -508 0
-470 -524 -455 -504 0
-470 -524 -455 -506 0
-470 -524 -455 -509 0
-470 -524 -456 -508 0
-470 -524 -456 -488 0
-530 -581 -517 0
-470 -520 -451 -501 0
-470 -520 -451 -505 0
-470 -520 -455 -503 0
-470 -520 -455 -506 0
-470 -520 -455 -509 0
-470 -520 -457 -505 0
-470 -520 -457 -509 0
-530 -502 -516 0
-430 -493 -454 -508 0
-430 -493 -454 -507 0
-430 -493 -456 -508 0
-430 -493 -456 -503 0
-430 -493 -423 -507 0
-430 -493 -423 -410 0
-430 -356 -423 -507 0
-430 -356 -423 -488 0
-430 -356 -423 -410 0
-430 -356 -232 -410 0
-448 -363 -433 -488 0
-530 -575 -626 0
-469 -523 -569 -503 0
-469 -523 -569 -506 0
-469 -523 -542 -488 0
-469 -523 -542 -507 0
-530 -575 -630 0
-469 -524 -569 -506 0
-469 -524 -569 -508 0
-469 -524 -567 -504 0
-469 -524 -567 -506 0
-469 -524 -567 -509 0
-530 -575 -552 0
-469 -493 -542 -508 0
-469 -493 -542 -507 0
-469 -493 -424 -507 0
-469 -493 -424 -410 0
-530 -502 -552 0
-430 -493 -542 -508 0
-430 -493 -542 -507 0
-430 -493 -550 -508 0
-430 -493 -550 -503 0
-430 -493 -424 -507 0
-430 -493 -424 -410 0
-430 -356 -424 -507 0
-430 -356 -424 -488 0
-430 -356 -424 -410 0
-430 -356 -237 -410 0
-470 -524 0
-531 -576 -625 0
-471 -525 -567 -616 0
-471 -525 -567 -620 0
-531 -576 -626 0
-471 -523 -550 -489 0
-471 -523 -542 -489 0
-471 -523 -542 -585 0
-531 -577 -623 0
-472 -520 -565 -536 0
-472 -520 -565 -617 0
-472 -520 -568 -617 0
-472 -520 -568 -620 0
-531 -577 -625 0
-472 -525 -569 -614 0
-531 -577 -627 0
-472 -526 -568 -616 0
-472 -526 -568 -617 0
-469 -500 -433 -489 0
-531 -575 -626 0
-469 -523 -569 -619 0
-469 -523 -542 -489 0
-469 -523 -542 -585 0
-531 -575 -552 0
-469 -493 -542 -614 0
-469 -493 -542 -585 0
-469 -493 -424 -585 0
-469 -493 -424 -413 0
-470 -520 0
-532 -573 -603 0
-466 -518 -482 -599 0
-466 -518 -566 -599 0
-466 -518 -566 -628 0
-532 -573 -624 0
-466 -521 -566 -537 0
-466 -521 -566 -599 0
-466 -521 -568 -629 0
-532 -577 -630 0
-472 -524 -569 -631 0
-472 -524 -569 -610 0
-472 -524 -550 -610 0
-472 -524 -550 -494 0
-532 -577 -625 0
-472 -525 -569 -616 0
-472 -525 -569 -610 0
-532 -577 -627 0
-472 -526 -568 -628 0
-532 -578 -624 0
-473 -521 -565 -537 0
-473 -521 -566 -537 0
-473 -521 -566 -599 0
-532 -578 -627 0
-473 -526 -567 -616 0
-473 -526 -567 -631 0
-466 -518 0
-528 -572 -632 0
-474 -519 -579 -534 0
-528 -574 -632 0
-528 -574 -633 0
-467 -521 -580 -537 0
-467 -521 -580 -539 0
-466 -520 0
-470 -500 -551 -610 0
-470 -500 -551 -616 0
-470 -500 -551 -494 0
-470 -500 -434 -494 0
-532 -581 -634 0
-470 -524 -582 -631 0
-470 -524 -582 -610 0
-470 -524 -583 -631 0
-470 -524 -583 -629 0
-470 -524 -551 -610 0
-470 -524 -551 -494 0
-532 -577 -634 0
-472 -524 -582 -631 0
-472 -524 -582 -610 0
-472 -524 -551 -610 0
-472 -524 -551 -494 0
-532 -577 -635 0
-472 -525 -582 -616 0
-472 -525 -582 -610 0
-532 -577 -636 0
-472 -526 -580 -628 0
-532 -578 -633 0
-473 -521 -579 -537 0
-473 -521 -579 -599 0
-532 -578 -636 0
-473 -526 -583 -616 0
-473 -526 -583 -631 0
-466 -521 0
-533 -574 -606 0
-467 -518 -483 -600 0
-533 -574 -632 0
-467 -519 -483 -534 0
-533 -578 -637 0
-473 -520 -565 -617 0
-473 -520 -583 -617 0
-473 -520 -583 -638 0
-473 -520 -583 -639 0
-533 -578 -636 0
-473 -526 -583 -617 0
-473 -526 -583 -628 0
-473 -526 -583 -638 0
-86 -131 0
-87 -132 0
-88 -133 0
-89 -134 0
-90 -135 0
-336 -381 -449 -399 0
-474 -540 0
-529 -602 -596 0
-467 -534 -483 -519 0
-467 -534 -483 -599 0
-467 -534 -485 -599 0
-467 -534 -485 -601 0
-466 -518 0
-448 -364 -434 -493 0
-448 -501 -551 -523 0
-448 -501 -551 -524 0
-448 -501 -551 -493 0
-448 -501 -565 -524 0
-448 -501 -565 -520 0
-448 -501 -434 -493 0
-470 -501 -551 -523 0
-470 -501 -551 -524 0
-470 -501 -551 -493 0
-470 -501 -434 -493 0
-535 -603 -634 0
-470 -536 -582 -525 0
-470 -536 -582 -523 0
-470 -536 -583 -520 0
-470 -536 -583 -525 0
-470 -536 -583 -526 0
-470 -536 -551 -523 0
-470 -536 -551 -493 0
-535 -603 -637 0
-470 -537 -583 -524 0
-470 -537 -583 -525 0
-470 -537 -583 -526 0
-470 -537 -580 -521 0
-470 -537 -580 -526 0
-466 -537 0
-470 -501 -451 -520 0
-470 -501 -551 -610 0
-470 -501 -551 -616 0
-470 -501 -551 -494 0
-470 -501 -434 -494 0
-532 -603 -573 0
-532 -603 -634 0
-470 -536 -582 -631 0
-470 -536 -582 -610 0
-470 -536 -583 -631 0
-470 -536 -583 -629 0
-470 -536 -551 -610 0
-470 -536 -551 -494 0
-532 -604 -634 0
-472 -536 -565 -520 0
-472 -536 -582 -631 0
-472 -536 -582 -610 0
-472 -536 -551 -610 0
-472 -536 -551 -494 0
-532 -604 -635 0
-472 -538 -582 -616 0
-472 -538 -582 -610 0
-532 -604 -636 0
-472 -539 -580 -628 0
-532 -605 -633 0
-473 -534 -579 -599 0
-532 -605 -636 0
-473 -539 -583 -616 0
-473 -539 -583 -631 0
-466 -534 0
-533 -602 -632 0
-533 -605 -637 0
-473 -537 -565 -521 0
-473 -537 -565 -617 0
-473 -537 -583 -617 0
-473 -537 -583 -638 0
-473 -537 -583 -639 0
-533 -605 -636 0
-473 -539 -583 -617 0
-473 -539 -583 -628 0
-473 -539 -583 -638 0
-467 -540 0
-467 -534 0
-533 -606 -574 0
-466 -518 -566 -617 0
-466 -518 -566 -628 0
-533 -606 -649 0
-466 -537 -566 -521 0
-466 -537 -566 -617 0
-466 -537 -607 -617 0
-466 -537 -607 -638 0
-466 -537 -607 -639 0
-466 -537 -608 -639 0
-533 -605 -649 0
-473 -537 -566 -521 0
-473 -537 -566 -617 0
-473 -537 -579 -521 0
-473 -537 -607 -617 0
-473 -537 -607 -638 0
-473 -537 -607 -639 0
-186 -201 656 0
-187 -202 656 0
-188 -203 656 0
-189 -204 656 0
-190 -205 656 0
-533 -605 -656 0
-473 -539 -607 -617 0
-473 -539 -607 -628 0
-473 -539 -607 -638 0
-290 -250 -349 -299 0
-325 -333 -360 -296 0
-380 -333 -360 -296 0
-380 -448 -360 -296 0
-380 -448 -364 -296 0
-380 -448 -364 -303 0
-380 -448 -364 -310 0
-502 -516 -444 0
-493 -454 -365 -432 0
-493 -454 -365 -435 0
-493 -454 -366 -418 0
-493 -454 -366 -436 0
-502 -516 -445 0
-493 -456 -362 -433 0
-493 -456 -365 -435 0
-493 -456 -365 -437 0
-493 -456 -367 -433 0
-493 -456 -367 -435 0
-493 -456 -367 -438 0
-502 -516 -446 0
-493 -423 -366 -437 0
-493 -423 -366 -436 0
-493 -423 -368 -436 0
-502 -522 -445 0
-500 -456 -365 -435 0
-500 -456 -365 -437 0
-500 -456 -367 -433 0
-500 -456 -367 -435 0
-500 -456 -367 -438 0
-500 -456 -369 -437 0
-500 -456 -369 -418 0
-502 -522 -447 0
-500 -450 -367 -435 0
-500 -450 -367 -438 0
-500 -450 -367 -432 0
-500 -450 -370 -434 0
-500 -450 -370 -438 0
-500 -450 -370 -441 0
-502 -431 -446 0
-356 -423 -366 -437 0
-356 -423 -366 -436 0
-356 -423 -369 -437 0
-356 -423 -369 -432 0
-356 -423 -368 -436 0
-356 -232 -368 -436 0
-356 -232 -368 -418 0
-372 -431 -446 0
-356 -423 -366 -253 0
-356 -423 -366 -254 0
-356 -423 -369 -253 0
-356 -423 -369 -255 0
-356 -423 -368 -254 0
-356 -429 -369 -253 0
-356 -429 -369 -255 0
-356 -429 -369 -256 0
-356 -429 -362 -255 0
-356 -429 -362 -257 0
-356 -232 -368 -254 0
-356 -232 -368 -256 0
-263 -232 -368 -254 0
-263 -232 -368 -256 0
-263 -232 -349 -256 0
-290 -250 -355 -299 0
-325 -333 -389 -296 0
-363 -429 -384 -297 0
-363 -429 -384 -298 0
-363 -429 -384 -299 0
-363 -429 -385 -298 0
-363 -429 -385 -300 0
-363 -429 -355 -299 0
-363 -250 -355 -299 0
-399 -448 -381 -338 0
-399 -448 -381 -337 0
-399 -448 -381 -339 0
-394 -476 -461 0
-399 -449 -381 -337 0
-399 -449 -381 -339 0
-399 -449 -382 -339 0
-535 -476 -461 0
-399 -449 -381 -466 0
-399 -449 -381 -467 0
-399 -449 -382 -467 0
-535 -513 -461 0
-518 -449 -382 -467 0
-535 -513 -465 0
-518 -451 -388 -470 0
-518 -451 -388 -472 0
-518 -451 -388 -473 0
-518 -451 -390 -467 0
-518 -451 -390 -473 0
-535 -513 -475 0
-518 -452 -382 -474 0
-518 -452 -390 -466 0
-518 -452 -390 -473 0
-500 -456 0
-575 -514 -561 0
-523 -453 -503 -550 0
-523 -453 -503 -554 0
-523 -453 -506 -554 0
-575 -514 -562 0
-523 -454 -488 -419 0
-523 -454 -507 -419 0
-523 -454 -507 -557 0
-575 -515 -559 0
-524 -450 -504 -551 0
-524 -450 -504 -554 0
-524 -450 -504 -555 0
-575 -515 -561 0
-524 -453 -506 -554 0
-524 -453 -508 -546 0
-575 -515 -563 0
-524 -455 -504 -550 0
-524 -455 -504 -551 0
-524 -455 -504 -555 0
-524 -455 -506 -553 0
-524 -455 -509 -555 0
-493 -429 -350 -419 0
-575 -516 -562 0
-493 -454 -508 -553 0
-493 -454 -507 -419 0
-493 -454 -507 -557 0
-575 -516 -564 0
-493 -423 -507 -546 0
-493 -423 -507 -557 0
-493 -423 -410 -557 0
-500 -450 0
-581 -515 -561 0
-524 -453 -506 -567 0
-524 -453 -508 -550 0
-524 -453 -508 -542 0
-581 -515 -563 0
-524 -455 -504 -565 0
-524 -455 -504 -568 0
-524 -455 -506 -569 0
-524 -455 -509 -568 0
-581 -515 -570 0
-524 -456 -508 -569 0
-524 -456 -508 -542 0
-524 -456 -488 -542 0
-524 -456 -488 -424 0
-581 -517 -560 0
-520 -451 -501 -482 0
-520 -451 -501 -566 0
-520 -451 -505 -566 0
-520 -451 -505 -568 0
-581 -517 -563 0
-520 -455 -503 -569 0
-520 -455 -503 -550 0
-520 -455 -506 -569 0
-520 -455 -509 -568 0
-581 -517 -571 0
-520 -457 -505 -565 0
-520 -457 -505 -566 0
-520 -457 -509 -567 0
-363 -250 -350 -418 0
-502 -516 -562 0
-493 -454 -508 -432 0
-493 -454 -508 -435 0
-493 -454 -507 -418 0
-493 -454 -507 -436 0
-502 -516 -570 0
-493 -456 -508 -435 0
-493 -456 -508 -437 0
-493 -456 -503 -433 0
-493 -456 -503 -435 0
-493 -456 -503 -438 0
-502 -516 -564 0
-493 -423 -507 -437 0
-493 -423 -507 -436 0
-493 -423 -410 -436 0
-502 -431 -564 0
-356 -423 -507 -437 0
-356 -423 -507 -436 0
-356 -423 -488 -437 0
-356 -423 -488 -432 0
-356 -423 -410 -436 0
-356 -232 -410 -436 0
-356 -232 -410 -418 0
-290 -252 -355 -299 0
-325 -336 -389 -296 0
-363 -430 -384 -297 0
-363 -430 -384 -298 0
-363 -430 -384 -299 0
-363 -430 -385 -298 0
-363 -430 -385 -300 0
-363 -430 -355 -299 0
-363 -448 -385 -298 0
-363 -448 -385 -300 0
-363 -252 -355 -299 0
-394 -481 -461 0
-399 -474 -381 -337 0
-399 -474 -381 -339 0
-399 -474 -382 -339 0
-363 -430 -384 -454 0
-363 -430 -384 -456 0
-363 -430 -384 -423 0
-363 -430 -385 -456 0
-363 -430 -385 -450 0
-363 -430 -355 -423 0
-363 -252 -355 -423 0
-512 -530 -463 0
-500 -469 -386 -453 0
-500 -469 -386 -454 0
-500 -469 -387 -450 0
-500 -469 -387 -453 0
-500 -469 -387 -455 0
-500 -469 -384 -454 0
-500 -469 -384 -423 0
-512 -530 -464 0
-500 -470 -387 -453 0
-500 -470 -387 -455 0
-500 -470 -387 -456 0
-500 -470 -388 -451 0
-500 -470 -388 -455 0
-500 -470 -388 -457 0
-500 -430 -384 -454 0
-500 -430 -384 -456 0
-500 -430 -384 -423 0
-500 -430 -355 -423 0
-380 -448 -398 -334 0
-380 -448 -398 -335 0
-399 -474 0
-572 -528 -478 0
-518 -466 -401 -482 0
-518 -466 -401 -484 0
-518 -466 -401 -485 0
-518 -466 -403 -486 0
-518 -466 -403 -485 0
-572 -528 -480 0
-518 -467 -403 -483 0
-518 -467 -403 -485 0
-572 -529 -480 0
-519 -467 -402 -483 0
-519 -467 -403 -483 0
-519 -467 -403 -485 0
-518 -474 0
-572 -529 -602 0
-519 -467 -534 -483 0
-519 -467 -534 -485 0
-518 -466 0
-573 -532 -603 0
-520 -470 -501 -551 0
-520 -470 -536 -582 0
-520 -470 -536 -583 0
-520 -470 -536 -551 0
-573 -532 -604 0
-520 -472 -536 -565 0
-520 -472 -536 -582 0
-520 -472 -536 -551 0
-520 -472 -538 -582 0
-520 -472 -539 -580 0
-573 -532 -605 0
-520 -473 -534 -579 0
-520 -473 -539 -583 0
-573 -533 -602 0
-521 -467 -540 -483 0
-573 -533 -605 0
-521 -473 -537 -565 0
-521 -473 -537 -583 0
-521 -473 -539 -583 0
-518 -467 0
-574 -529 -598 0
-574 -533 -606 0
-521 -466 -537 -566 0
-521 -466 -537 -607 0
-521 -466 -537 -608 0
-574 -533 -605 0
-521 -473 -537 -566 0
-521 -473 -537 -579 0
-521 -473 -537 -607 0
-521 -473 -539 -607 0
-91 -96 0
-92 -97 0
-93 -98 0
-94 -99 0
-95 -100 0
-363 -433 -488 -454 0
-363 -433 -488 -456 0
-363 -433 -488 -423 0
-363 -433 -350 -423 0
-363 -257 -350 -423 0
-380 -335 -398 -449 0
-380 -470 -398 -449 0
-380 -470 -501 -449 0
-380 -470 -501 -451 0
-380 -470 -501 -452 0
-500 -550 0
-575 -626 -561 0
-523 -569 -503 -554 0
-523 -569 -506 -554 0
-575 -626 -562 0
-523 -542 -488 -419 0
-523 -542 -507 -419 0
-523 -542 -507 -557 0
-575 -630 -561 0
-524 -569 -506 -554 0
-524 -569 -508 -546 0
-575 -630 -563 0
-524 -567 -504 -551 0
-524 -567 -504 -555 0
-524 -567 -506 -553 0
-524 -567 -509 -555 0
-493 -433 -350 -419 0
-575 -552 -562 0
-493 -542 -508 -553 0
-493 -542 -507 -419 0
-493 -542 -507 -557 0
-575 -552 -564 0
-493 -424 -507 -546 0
-493 -424 -507 -557 0
-493 -424 -410 -557 0
-363 -257 -350 -418 0
-502 -552 -562 0
-493 -542 -508 -432 0
-493 -542 -508 -435 0
-493 -542 -507 -418 0
-493 -542 -507 -436 0
-502 -552 -570 0
-493 -550 -508 -435 0
-493 -550 -508 -437 0
-493 -550 -503 -435 0
-493 -550 -503 -438 0
-502 -552 -564 0
-493 -424 -507 -437 0
-493 -424 -507 -436 0
-493 -424 -410 -436 0
-502 -440 -564 0
-356 -424 -507 -437 0
-356 -424 -507 -436 0
-356 -424 -488 -437 0
-356 -424 -488 -432 0
-356 -424 -410 -436 0
-356 -237 -410 -436 0
-356 -237 -410 -418 0
-524 -569 0
-576 -625 -644 0
-525 -567 -616 -582 0
-525 -567 -616 -641 0
-525 -567 -620 -641 0
-576 -626 -609 0
-523 -550 -489 -543 0
-523 -550 -489 -420 0
-576 -626 -646 0
-523 -542 -489 -553 0
-523 -542 -489 -420 0
-523 -542 -585 -420 0
-523 -542 -585 -592 0
-524 -567 0
-577 -623 -634 0
-520 -565 -536 -484 0
-520 -565 -536 -607 0
-520 -565 -617 -607 0
-520 -565 -617 -647 0
-577 -623 -645 0
-520 -568 -617 -583 0
-520 -568 -617 -607 0
-577 -625 -648 0
-525 -569 -614 -554 0
-525 -569 -614 -544 0
-577 -627 -645 0
-526 -568 -616 -583 0
-526 -568 -617 -583 0
-526 -568 -617 -607 0
-524 -550 0
-500 -433 -489 -546 0
-500 -433 -489 -419 0
-500 -433 -352 -419 0
-575 -626 -648 0
-523 -569 -619 -554 0
-575 -626 -646 0
-523 -542 -489 -419 0
-523 -542 -585 -419 0
-523 -542 -585 -557 0
-493 -433 -352 -419 0
-575 -552 -646 0
-493 -542 -614 -553 0
-493 -542 -585 -419 0
-493 -542 -585 -557 0
-575 -552 -590 0
-493 -424 -585 -546 0
-493 -424 -585 -557 0
-493 -424 -413 -557 0
-520 -565 0
-518 -470 -401 -483 0
-573 -603 -595 0
-518 -482 -599 -579 0
-573 -603 -649 0
-518 -566 -599 -483 0
-518 -566 -628 -580 0
-573 -624 -649 0
-521 -566 -537 -483 0
-521 -566 -599 -483 0
-573 -624 -650 0
-521 -568 -629 -583 0
-520 -567 0
-577 -630 -651 0
-524 -569 -610 -554 0
-524 -569 -610 -544 0
-577 -630 -618 0
-524 -550 -610 -640 0
-524 -550 -610 -544 0
-524 -550 -494 -544 0
-524 -550 -494 -428 0
-577 -625 -651 0
-525 -569 -616 -554 0
-525 -569 -610 -554 0
-525 -569 -610 -544 0
-577 -627 -650 0
-526 -568 -628 -583 0
-526 -568 -628 -607 0
-520 -568 0
-578 -624 -637 0
-521 -565 -537 -485 0
-521 -565 -537 -608 0
-578 -624 -649 0
-521 -566 -537 -485 0
-521 -566 -537 -580 0
-521 -566 -599 -485 0
-578 -627 -652 0
-526 -567 -616 -641 0
-526 -567 -616 -555 0
-526 -567 -631 -641 0
-91 -136 0
-92 -137 0
-93 -138 0
-94 -139 0
-95 -140 0
-380 -337 -402 -474 0
-380 -451 -501 -469 0
-380 -451 -501 -470 0
-535 -478 -598 0
-399 -483 -540 -467 0
-518 -483 0
-572 -632 -602 0
-519 -579 -534 -485 0
-518 -579 0
-574 -632 -598 0
-574 -633 -605 0
-521 -580 -537 -566 0
-521 -580 -537 -607 0
-521 -580 -539 -607 0
-520 -565 0
-581 -560 -618 0
-500 -551 -610 -569 0
-500 -551 -610 -542 0
-500 -551 -616 -569 0
-500 -551 -616 -567 0
-500 -551 -494 -542 0
-500 -551 -494 -424 0
-500 -434 -494 -542 0
-500 -434 -494 -550 0
-500 -434 -494 -424 0
-500 -434 -358 -424 0
-581 -634 -651 0
-524 -582 -631 -567 0
-524 -582 -610 -550 0
-524 -582 -610 -542 0
-581 -634 -652 0
-524 -583 -631 -569 0
-524 -583 -629 -568 0
-581 -634 -618 0
-524 -551 -610 -569 0
-524 -551 -610 -542 0
-524 -551 -494 -542 0
-524 -551 -494 -424 0
-520 -583 0
-577 -634 -623 0
-524 -565 -504 -554 0
-577 -634 -651 0
-524 -582 -610 -554 0
-524 -582 -610 -544 0
-577 -634 -618 0
-524 -551 -504 -567 0
-524 -551 -610 -640 0
-524 -551 -610 -544 0
-524 -551 -494 -544 0
-524 -551 -494 -428 0
-577 -635 -651 0
-525 -582 -616 -567 0
-525 -582 -616 -554 0
-525 -582 -610 -554 0
-525 -582 -610 -544 0
-577 -636 -650 0
-526 -580 -628 -607 0
-520 -580 0
-578 -633 -649 0
-521 -579 -537 -485 0
-521 -579 -599 -485 0
-578 -636 -652 0
-526 -583 -616 -568 0
-526 -583 -616 -641 0
-526 -583 -616 -555 0
-526 -583 -631 -641 0
-521 -579 0
-518 -466 -403 -486 0
-574 -606 -596 0
-574 -632 -596 0
-521 -580 0
-578 -637 -624 0
-520 -565 -505 -555 0
-520 -565 -617 -641 0
-520 -565 -617 -647 0
-520 -565 -617 -555 0
-191 -146 657 0
-192 -147 657 0
-193 -148 657 0
-194 -149 657 0
-195 -150 657 0
-578 -637 -657 0
-520 -583 -617 -568 0
-520 -583 -617 -641 0
-520 -583 -617 -555 0
-520 -583 -638 -641 0
-578 -636 -657 0
-526 -583 -617 -568 0
-526 -583 -617 -641 0
-526 -583 -617 -555 0
-526 -583 -628 -568 0
-526 -583 -638 -641 0
-300 -385 -448 -364 0
-447 -492 -516 0
-433 -488 -454 -365 0
-433 -488 -454 -366 0
-433 -488 -456 -365 0
-433 -488 -456 -367 0
-433 -488 -423 -366 0
-433 -488 -423 -368 0
-433 -350 -423 -366 0
-433 -350 -423 -369 0
-433 -350 -423 -368 0
-433 -350 -232 -368 0
-257 -350 -423 -366 0
-257 -350 -423 -369 0
-257 -350 -423 -368 0
-257 -350 -429 -369 0
-257 -350 -232 -368 0
-257 -236 -232 -368 0
-300 -362 -429 -384 0
-335 -398 -448 -381 0
-335 -398 -449 -381 0
-335 -398 -449 -382 0
-470 -398 -449 -381 0
-470 -398 -449 -382 0
-470 -500 -451 -381 0
-470 -500 -451 -388 0
-470 -500 -451 -390 0
-464 -530 -513 0
-470 -501 -449 -382 0
-470 -501 -451 -388 0
-470 -501 -451 -390 0
-470 -501 -452 -382 0
-470 -501 -452 -390 0
-470 -398 -449 -518 0
-470 -398 -449 -519 0
-581 -530 -513 0
-470 -501 -449 -519 0
-470 -501 -451 -520 0
-470 -501 -451 -521 0
-470 -501 -452 -519 0
-470 -501 -452 -521 0
-581 -560 -513 0
-565 -501 -449 -519 0
-565 -501 -452 -519 0
-565 -501 -452 -521 0
-581 -560 -517 0
-565 -504 -455 -524 0
-565 -504 -455 -525 0
-565 -504 -455 -526 0
-565 -504 -457 -521 0
-565 -504 -457 -526 0
-581 -560 -527 0
-565 -505 -452 -518 0
-565 -505 -452 -519 0
-565 -505 -457 -520 0
-565 -505 -457 -526 0
-550 -508 0
-626 -561 -609 0
-569 -503 -554 -610 0
-569 -503 -554 -611 0
-569 -503 -554 -612 0
-626 -561 -613 0
-569 -506 -554 -614 0
-569 -506 -554 -610 0
-569 -506 -554 -612 0
-626 -562 -541 0
-542 -488 -419 -584 0
-542 -488 -419 -408 0
-626 -562 -615 0
-542 -507 -419 -497 0
-542 -507 -419 -408 0
-542 -507 -557 -408 0
-550 -503 0
-630 -561 -613 0
-569 -506 -554 -616 0
-569 -506 -554 -620 0
-630 -561 -621 0
-569 -508 -546 -489 0
-569 -508 -546 -585 0
-630 -563 -618 0
-567 -504 -551 -536 0
-567 -504 -551 -617 0
-567 -504 -555 -617 0
-567 -504 -555 -620 0
-630 -563 -613 0
-567 -506 -553 -614 0
-630 -563 -622 0
-567 -509 -555 -616 0
-567 -509 -555 -617 0
-550 -488 0
-433 -350 -419 -495 0
-433 -350 -419 -407 0
-433 -350 -223 -407 0
-552 -562 -621 0
-542 -508 -553 -489 0
-542 -508 -553 -490 0
-552 -562 -615 0
-542 -507 -419 -407 0
-542 -507 -557 -407 0
-424 -350 -223 -407 0
-552 -564 -615 0
-424 -507 -546 -497 0
-424 -507 -557 -407 0
-552 -564 -594 0
-424 -410 -557 -495 0
-300 -385 -430 -364 0
-450 -385 -430 -364 0
-450 -500 -430 -364 0
-450 -500 -434 -364 0
-450 -500 -434 -370 0
-450 -500 -434 -373 0
-257 -350 -418 -366 0
-257 -350 -418 -369 0
-257 -350 -418 -368 0
-257 -350 -220 -368 0
-257 -236 -220 -368 0
-433 -488 0
-552 -562 -487 0
-542 -508 -432 -489 0
-542 -508 -435 -489 0
-542 -508 -435 -490 0
-552 -562 -491 0
-542 -507 -418 -407 0
-542 -507 -436 -407 0
-552 -570 -487 0
-550 -508 -435 -489 0
-550 -508 -435 -490 0
-550 -508 -437 -495 0
-552 -570 -496 0
-550 -503 -435 -490 0
-550 -503 -435 -497 0
-550 -503 -438 -494 0
-550 -503 -438 -490 0
-550 -503 -438 -498 0
-424 -350 -220 -407 0
-552 -564 -491 0
-424 -507 -437 -497 0
-424 -507 -436 -407 0
-552 -564 -499 0
-424 -410 -436 -495 0
-257 -236 -220 -347 0
-440 -564 -491 0
-424 -507 -437 -345 0
-424 -507 -437 -346 0
-424 -507 -436 -347 0
-440 -564 -510 0
-424 -488 -437 -346 0
-424 -488 -437 -351 0
-424 -488 -432 -346 0
-424 -488 -432 -352 0
-440 -564 -499 0
-424 -410 -436 -351 0
-440 -416 -499 0
-237 -410 -436 -351 0
-237 -410 -418 -351 0
-237 -410 -418 -345 0
-300 -380 -448 -364 0
-447 -502 -516 0
-433 -493 -454 -365 0
-433 -493 -454 -366 0
-433 -493 -456 -365 0
-433 -493 -456 -367 0
-433 -493 -423 -366 0
-433 -493 -423 -368 0
-433 -500 -456 -365 0
-433 -500 -456 -367 0
-433 -500 -456 -369 0
-433 -356 -423 -366 0
-433 -356 -423 -369 0
-433 -356 -423 -368 0
-433 -356 -232 -368 0
-257 -356 -423 -366 0
-257 -356 -423 -369 0
-257 -356 -423 -368 0
-257 -356 -429 -369 0
-257 -356 -232 -368 0
-257 -263 -232 -368 0
-300 -363 -429 -384 0
-335 -399 -448 -381 0
-335 -399 -449 -381 0
-335 -399 -449 -382 0
-470 -399 -449 -381 0
-470 -399 -449 -382 0
-464 -535 -513 0
-470 -518 -449 -382 0
-470 -518 -451 -388 0
-470 -518 -451 -390 0
-470 -518 -452 -382 0
-470 -518 -452 -390 0
-559 -575 -514 0
-550 -523 -453 -503 0
-550 -523 -453 -506 0
-550 -523 -454 -488 0
-550 -523 -454 -507 0
-559 -575 -515 0
-550 -524 -453 -506 0
-550 -524 -453 -508 0
-550 -524 -455 -504 0
-550 -524 -455 -506 0
-550 -524 -455 -509 0
-559 -575 -516 0
-550 -493 -454 -508 0
-550 -493 -454 -507 0
-550 -493 -423 -507 0
-550 -493 -423 -410 0
-559 -502 -516 0
-433 -493 -454 -508 0
-433 -493 -454 -507 0
-433 -493 -456 -508 0
-433 -493 -456 -503 0
-433 -493 -423 -507 0
-433 -493 -423 -410 0
-433 -356 -423 -507 0
-433 -356 -423 -488 0
-433 -356 -423 -410 0
-433 -356 -232 -410 0
-300 -363 -430 -384 0
-335 -399 -474 -381 0
-335 -399 -474 -382 0
-450 -363 -430 -384 0
-450 -500 -469 -386 0
-450 -500 -469 -387 0
-450 -500 -469 -384 0
-450 -500 -430 -384 0
-477 -572 -528 0
-482 -518 -466 -401 0
-482 -518 -466 -403 0
-482 -518 -467 -404 0
-482 -518 -467 -403 0
-477 -572 -529 0
-482 -519 -467 -402 0
-482 -519 -467 -403 0
-470 -518 0
-603 -572 -529 0
-482 -519 -467 -534 0
-603 -573 -532 0
-565 -520 -472 -536 0
-565 -520 -472 -538 0
-565 -520 -472 -539 0
-565 -520 -473 -534 0
-565 -520 -473 -539 0
-603 -573 -533 0
-565 -521 -467 -540 0
-565 -521 -473 -537 0
-565 -521 -473 -539 0
-603 -574 -529 0
-603 -574 -533 0
-566 -521 -466 -537 0
-566 -521 -473 -537 0
-566 -521 -473 -539 0
-565 -518 0
-470 -399 -483 -540 0
-603 -572 -632 0
-482 -519 -579 -534 0
-603 -574 -632 0
-603 -574 -633 0
-566 -521 -580 -537 0
-566 -521 -580 -539 0
-565 -520 0
-623 -577 -634 0
-567 -524 -582 -631 0
-567 -524 -582 -610 0
-567 -524 -551 -610 0
-567 -524 -551 -494 0
-623 -577 -635 0
-567 -525 -582 -616 0
-567 -525 -582 -610 0
-623 -577 -636 0
-567 -526 -580 -628 0
-623 -578 -633 0
-568 -521 -579 -537 0
-568 -521 -579 -599 0
-623 -578 -636 0
-568 -526 -583 -616 0
-568 -526 -583 -631 0
-565 -521 0
-624 -574 -606 0
-566 -518 -483 -600 0
-624 -574 -632 0
-566 -519 -483 -534 0
-624 -578 -637 0
-568 -520 -583 -617 0
-568 -520 -583 -638 0
-568 -520 -583 -639 0
-624 -578 -636 0
-568 -526 -583 -617 0
-568 -526 -583 -628 0
-568 -526 -583 -638 0
-96 -101 0
-97 -102 0
-98 -103 0
-99 -104 0
-100 -105 0
-569 -619 0
-625 -644 -651 0
-567 -616 -582 -538 0
-567 -616 -582 -638 0
-567 -616 -641 -638 0
-151 -201 658 0
-152 -202 658 0
-153 -203 658 0
-154 -204 658 0
-155 -205 658 0
-567 -616 -641 -658 0
-156 -201 659 0
-157 -202 659 0
-158 -203 659 0
-159 -204 659 0
-160 -205 659 0
-625 -644 -659 0
-567 -620 -641 -631 0
-567 -620 -641 -638 0
-569 -614 0
-550 -503 -435 -497 0
-626 -609 -545 0
-550 -489 -543 -584 0
-550 -489 -420 -584 0
-550 -489 -420 -408 0
-626 -646 -545 0
-542 -489 -420 -584 0
-542 -489 -420 -408 0
-626 -646 -654 0
-542 -585 -420 -497 0
-542 -585 -420 -408 0
-542 -585 -592 -408 0
-567 -616 0
-565 -524 -472 -537 0
-623 -634 -604 0
-565 -536 -484 -599 0
-565 -536 -607 -599 0
-565 -536 -607 -628 0
-623 -634 -657 0
-565 -617 -607 -537 0
-565 -617 -607 -599 0
-565 -617 -647 -629 0
-623 -645 -657 0
-568 -617 -583 -537 0
-568 -617 -607 -537 0
-568 -617 -607 -599 0
-146 -201 660 0
-147 -202 660 0
-148 -203 660 0
-149 -204 660 0
-150 -205 660 0
-623 -645 -660 0
-567 -619 0
-625 -648 -642 0
-569 -614 -554 -490 0
-569 -614 -544 -490 0
-569 -614 -544 -587 0
-567 -620 0
-627 -645 -652 0
-568 -616 -583 -539 0
-568 -616 -583 -639 0
-627 -645 -657 0
-568 -617 -583 -539 0
-568 -617 -583 -629 0
-568 -617 -607 -539 0
-568 -617 -607 -601 0
-450 -367 -432 -488 0
-450 -387 -469 -501 0
-450 -524 -469 -501 0
-450 -524 -551 -501 0
-450 -524 -551 -504 0
-450 -524 -551 -505 0
-559 -496 -541 0
-433 -489 -546 -508 0
-433 -489 -546 -507 0
-433 -489 -419 -507 0
-433 -489 -419 -410 0
-433 -352 -419 -507 0
-433 -352 -419 -488 0
-433 -352 -419 -410 0
-433 -352 -223 -410 0
-550 -614 0
-626 -648 -613 0
-569 -619 -554 -610 0
-569 -619 -554 -612 0
-626 -646 -541 0
-542 -489 -419 -584 0
-542 -489 -419 -408 0
-626 -646 -615 0
-542 -585 -419 -497 0
-542 -585 -419 -408 0
-542 -585 -557 -408 0
-550 -489 0
-433 -352 -419 -495 0
-433 -352 -419 -407 0
-433 -352 -223 -407 0
-552 -646 -621 0
-542 -614 -553 -490 0
-552 -646 -615 0
-542 -585 -419 -407 0
-542 -585 -557 -407 0
-424 -352 -223 -407 0
-552 -590 -615 0
-424 -585 -546 -497 0
-424 -585 -557 -407 0
-552 -590 -594 0
-424 -413 -557 -495 0
-96 -141 0
-97 -142 0
-98 -143 0
-99 -144 0
-100 -145 0
-450 -370 -434 -493 0
-450 -388 -466 -518 0
-450 -504 -551 -523 0
-450 -504 -551 -524 0
-450 -504 -551 -493 0
-450 -504 -434 -493 0
-470 -401 -483 -518 0
-470 -401 -483 -519 0
-581 -532 -606 0
-470 -537 -483 -519 0
-470 -537 -579 -519 0
-470 -537 -579 -521 0
-565 -537 0
-470 -401 -483 -540 0
-603 -595 -632 0
-482 -599 -579 -534 0
-603 -649 -632 0
-603 -649 -633 0
-566 -628 -580 -539 0
-565 -628 0
-624 -649 -606 0
-566 -537 -483 -600 0
-624 -649 -632 0
-566 -599 -483 -534 0
-624 -650 -636 0
-568 -629 -583 -617 0
-568 -629 -583 -638 0
-567 -616 0
-146 -151 661 0
-147 -152 661 0
-148 -153 661 0
-149 -154 661 0
-150 -155 661 0
-630 -651 -661 0
-630 -651 -642 0
-569 -610 -554 -489 0
-569 -610 -544 -489 0
-569 -610 -544 -585 0
-550 -504 -438 -489 0
-630 -618 -642 0
-550 -610 -640 -619 0
-550 -610 -544 -489 0
-550 -610 -544 -585 0
-630 -618 -558 0
-550 -494 -544 -614 0
-550 -494 -544 -585 0
-550 -494 -428 -585 0
-550 -494 -428 -413 0
-567 -631 0
-625 -651 -644 0
-569 -616 -554 -611 0
-569 -616 -554 -490 0
-625 -651 -642 0
-569 -610 -554 -619 0
-569 -610 -554 -490 0
-569 -610 -544 -490 0
-569 -610 -544 -587 0
-567 -629 0
-627 -650 -657 0
-568 -628 -583 -539 0
-568 -628 -607 -539 0
-568 -628 -607 -601 0
-568 -628 0
-565 -520 -473 -534 0
-624 -637 -605 0
-565 -537 -485 -600 0
-565 -537 -608 -600 0
-624 -649 -605 0
-566 -537 -485 -600 0
-624 -649 -655 0
-566 -599 -485 -534 0
-568 -629 0
-627 -652 -645 0
-567 -616 -641 -658 0
-567 -616 -641 -612 0
-567 -616 -555 -612 0
-567 -616 -555 -498 0
-196 -151 662 0
-197 -152 662 0
-198 -153 662 0
-199 -154 662 0
-200 -155 662 0
-627 -652 -662 0
-567 -631 -641 -620 0
-567 -631 -641 -612 0
-367 -433 -488 -454 0
-367 -433 -488 -456 0
-367 -433 -488 -423 0
-367 -433 -350 -423 0
-367 -257 -350 -423 0
-387 -335 -398 -449 0
-387 -470 -398 -449 0
-387 -470 -500 -451 0
-387 -470 -501 -449 0
-387 -470 -501 -451 0
-387 -470 -501 -452 0
-524 -470 -398 -449 0
-524 -470 -501 -449 0
-524 -470 -501 -451 0
-524 -470 -501 -452 0
-515 -581 -560 0
-524 -565 -501 -449 0
-524 -565 -501 -452 0
-524 -565 -504 -455 0
-524 -565 -504 -457 0
-524 -565 -505 -452 0
-524 -565 -505 -457 0
-503 -550 0
-609 -626 -561 0
-614 -569 -506 -554 0
-609 -626 -562 0
-614 -542 -488 -419 0
-614 -542 -507 -419 0
-614 -542 -507 -557 0
-489 -433 -350 -419 0
-609 -552 -562 0
-489 -542 -508 -553 0
-489 -542 -507 -419 0
-489 -542 -507 -557 0
-609 -552 -564 0
-489 -424 -507 -546 0
-489 -424 -507 -557 0
-489 -424 -410 -557 0
-367 -450 -500 -434 0
-367 -257 -350 -418 0
-496 -552 -562 0
-489 -542 -508 -432 0
-489 -542 -508 -435 0
-489 -542 -507 -418 0
-489 -542 -507 -436 0
-496 -552 -570 0
-489 -550 -508 -435 0
-489 -550 -508 -437 0
-496 -552 -564 0
-489 -424 -507 -437 0
-489 -424 -507 -436 0
-489 -424 -410 -436 0
-496 -440 -564 0
-352 -424 -507 -437 0
-352 -424 -507 -436 0
-352 -424 -488 -437 0
-352 -424 -488 -432 0
-352 -424 -410 -436 0
-352 -237 -410 -436 0
-352 -237 -410 -418 0
-367 -433 -493 -454 0
-367 -433 -493 -456 0
-367 -433 -493 -423 0
-367 -433 -500 -456 0
-367 -433 -356 -423 0
-367 -257 -356 -423 0
-387 -335 -399 -449 0
-387 -470 -399 -449 0
-387 -470 -518 -449 0
-387 -470 -518 -451 0
-387 -470 -518 -452 0
-515 -559 -575 0
-503 -550 -523 -453 0
-503 -550 -523 -454 0
-503 -550 -493 -454 0
-503 -550 -493 -423 0
-503 -433 -493 -454 0
-503 -433 -493 -456 0
-503 -433 -493 -423 0
-503 -433 -356 -423 0
-387 -335 -399 -474 0
-387 -450 -500 -469 0
-531 -477 -572 0
-400 -482 -518 -466 0
-400 -482 -518 -467 0
-400 -482 -519 -467 0
-531 -603 -572 0
-536 -482 -519 -467 0
-531 -603 -573 0
-536 -565 -520 -472 0
-536 -565 -520 -473 0
-536 -565 -521 -467 0
-536 -565 -521 -473 0
-531 -603 -574 0
-536 -566 -519 -474 0
-536 -566 -521 -466 0
-536 -566 -521 -473 0
-524 -565 0
-536 -470 -399 -483 0
-634 -603 -572 0
-536 -482 -519 -579 0
-634 -603 -574 0
-536 -566 -519 -483 0
-536 -566 -521 -580 0
-634 -623 -577 0
-616 -567 -525 -582 0
-616 -567 -526 -580 0
-634 -623 -578 0
-616 -568 -521 -579 0
-616 -568 -526 -583 0
-634 -624 -574 0
-617 -566 -518 -483 0
-617 -566 -519 -483 0
-634 -624 -578 0
-617 -568 -520 -583 0
-617 -568 -526 -583 0
-616 -565 0
-524 -450 -504 -551 0
-524 -470 -401 -483 0
-524 -470 -537 -483 0
-524 -470 -537 -579 0
-536 -470 -401 -483 0
-634 -603 -595 0
-536 -482 -599 -579 0
-634 -603 -649 0
-536 -566 -599 -483 0
-536 -566 -628 -580 0
-634 -624 -649 0
-617 -566 -537 -483 0
-617 -566 -599 -483 0
-634 -624 -650 0
-617 -568 -629 -583 0
-616 -567 0
-644 -625 -651 0
-619 -569 -610 -554 0
-619 -569 -610 -544 0
-644 -627 -650 0
-620 -568 -628 -583 0
-620 -568 -628 -607 0
-616 -568 0
-645 -624 -637 0
-617 -565 -537 -485 0
-617 -565 -537 -608 0
-645 -624 -649 0
-617 -566 -537 -485 0
-617 -566 -537 -580 0
-617 -566 -599 -485 0
-645 -627 -652 0
-620 -567 -631 -641 0
-101 -156 0
-102 -157 0
-103 -158 0
-104 -159 0
-105 -160 0
-619 -640 0
-616 -569 -506 -554 0
-616 -569 -525 -583 0
-644 -651 -635 0
-616 -582 -538 -484 0
-616 -582 -538 -607 0
-616 -582 -638 -607 0
-616 -582 -638 -647 0
-644 -651 -662 0
-616 -641 -638 -583 0
-616 -641 -638 -607 0
-644 -659 -662 0
-620 -641 -631 -583 0
-620 -641 -638 -583 0
-620 -641 -638 -607 0
-614 -553 0
-503 -453 -523 -551 0
-503 -569 -523 -551 0
-503 -569 -610 -551 0
-503 -569 -610 -554 0
-503 -569 -610 -555 0
-503 -435 -497 -546 0
-503 -435 -497 -419 0
-503 -435 -346 -419 0
-489 -435 -346 -419 0
-161 -166 663 0
-162 -167 663 0
-163 -168 663 0
-164 -169 663 0
-165 -170 663 0
-609 -545 -663 0
-489 -543 -584 -419 0
-489 -543 -584 -557 0
-609 -545 -586 0
-489 -420 -584 -546 0
-489 -420 -584 -557 0
-489 -420 -408 -557 0
-614 -543 0
-489 -435 -508 -546 0
-489 -435 -346 -427 0
-646 -545 -621 0
-646 -545 -586 0
-489 -420 -584 -548 0
-489 -420 -408 -548 0
-646 -654 -586 0
-585 -420 -497 -546 0
-585 -420 -408 -548 0
-646 -654 -643 0
-585 -592 -408 -427 0
-101 -146 0
-102 -147 0
-103 -148 0
-104 -149 0
-105 -150 0
-503 -455 -520 -565 0
-630 -563 -618 0
-503 -554 -610 -569 0
-503 -554 -610 -542 0
-503 -554 -494 -542 0
-503 -554 -494 -424 0
-503 -438 -494 -542 0
-503 -438 -494 -550 0
-503 -438 -494 -424 0
-503 -438 -358 -424 0
-524 -455 -504 -550 0
-524 -472 -401 -482 0
-524 -472 -537 -482 0
-524 -472 -537 -565 0
-524 -472 -537 -566 0
-630 -577 -637 0
-524 -583 -537 -482 0
-524 -583 -537 -566 0
-524 -583 -628 -566 0
-524 -583 -628 -568 0
-616 -583 0
-524 -455 -504 -551 0
-524 -472 -401 -483 0
-524 -472 -537 -483 0
-524 -472 -537 -579 0
-524 -567 -504 -551 0
-536 -472 -401 -483 0
-634 -604 -595 0
-536 -484 -599 -579 0
-634 -604 -649 0
-536 -607 -599 -483 0
-536 -607 -628 -580 0
-634 -657 -649 0
-617 -607 -537 -483 0
-617 -607 -599 -483 0
-634 -657 -650 0
-616 -647 0
-645 -657 -637 0
-617 -583 -537 -485 0
-617 -583 -537 -608 0
-645 -657 -649 0
-617 -607 -537 -485 0
-617 -607 -537 -580 0
-617 -607 -599 -485 0
-619 -640 0
-648 -642 -613 0
-614 -554 -490 -543 0
-614 -554 -490 -420 0
-648 -642 -653 0
-614 -544 -490 -553 0
-614 -544 -490 -420 0
-614 -544 -587 -420 0
-614 -544 -587 -592 0
-620 -647 0
-616 -567 -509 -555 0
-616 -567 -526 -580 0
-645 -652 -636 0
-616 -583 -539 -485 0
-616 -583 -539 -608 0
-616 -583 -639 -608 0
-645 -657 -636 0
-617 -583 -539 -485 0
-617 -583 -539 -608 0
-645 -657 -656 0
-617 -607 -539 -485 0
-617 -607 -539 -580 0
-617 -607 -601 -485 0
-101 -106 0
-102 -107 0
-103 -108 0
-104 -109 0
-105 -110 0
-367 -432 -488 -454 0
-367 -432 -488 -423 0
-367 -432 -350 -423 0
-367 -255 -350 -423 0
-387 -334 -398 -449 0
-387 -469 -398 -449 0
-387 -469 -500 -451 0
-387 -469 -501 -449 0
-387 -469 -501 -451 0
-387 -469 -501 -452 0
-524 -469 -398 -449 0
-524 -469 -501 -449 0
-524 -469 -501 -451 0
-524 -469 -501 -452 0
-524 -550 -504 -451 0
-524 -550 -504 -455 0
-524 -550 -504 -457 0
-515 -575 -560 0
-524 -551 -501 -449 0
-524 -551 -501 -452 0
-524 -551 -504 -455 0
-524 -551 -504 -457 0
-524 -551 -505 -452 0
-524 -551 -505 -457 0
-524 -469 -398 -482 0
-524 -469 -501 -482 0
-524 -469 -501 -565 0
-524 -469 -501 -566 0
-630 -575 -560 0
-524 -551 -501 -482 0
-524 -551 -501 -566 0
-524 -551 -504 -567 0
-524 -551 -504 -568 0
-524 -551 -505 -566 0
-524 -551 -505 -568 0
-630 -618 -560 0
-616 -551 -501 -482 0
-616 -551 -501 -566 0
-616 -551 -505 -566 0
-616 -551 -505 -568 0
-630 -618 -563 0
-616 -554 -506 -569 0
-616 -554 -509 -568 0
-630 -618 -571 0
-616 -555 -505 -565 0
-616 -555 -505 -566 0
-616 -555 -509 -567 0
-367 -456 -500 -434 0
-367 -255 -350 -418 0
-496 -541 -562 0
-489 -546 -508 -435 0
-489 -546 -507 -418 0
-489 -546 -507 -436 0
-496 -541 -564 0
-489 -419 -507 -437 0
-489 -419 -507 -436 0
-489 -419 -410 -436 0
-496 -426 -564 0
-352 -419 -507 -437 0
-352 -419 -507 -436 0
-352 -419 -488 -437 0
-352 -419 -410 -436 0
-352 -223 -410 -436 0
-352 -223 -410 -418 0
-614 -553 0
-648 -613 -642 0
-619 -554 -610 -582 0
-619 -554 -610 -641 0
-619 -554 -612 -641 0
-614 -546 0
-489 -432 -346 -427 0
-646 -541 -586 0
-489 -419 -584 -548 0
-489 -419 -408 -548 0
-646 -615 -586 0
-585 -419 -408 -548 0
-646 -615 -643 0
-585 -557 -408 -427 0
-367 -456 -493 -434 0
-367 -255 -345 -418 0
-503 -456 -493 -434 0
-503 -550 -493 -434 0
-503 -550 -494 -434 0
-503 -550 -494 -438 0
-503 -550 -494 -441 0
-496 -426 -547 0
-352 -419 -495 -437 0
-352 -419 -495 -436 0
-352 -419 -407 -436 0
-352 -223 -407 -436 0
-352 -223 -407 -418 0
-489 -546 0
-646 -621 -545 0
-614 -553 -490 -544 0
-646 -615 -547 0
-585 -419 -407 -548 0
-646 -615 -549 0
-585 -557 -407 -427 0
-489 -419 0
-352 -223 -407 -425 0
-590 -615 -556 0
-585 -546 -497 -420 0
-590 -615 -549 0
-590 -594 -549 0
-413 -557 -495 -427 0
-298 -385 -448 -364 0
-445 -492 -516 0
-432 -488 -454 -365 0
-432 -488 -454 -366 0
-432 -488 -423 -366 0
-432 -488 -423 -368 0
-432 -350 -423 -366 0
-432 -350 -423 -369 0
-432 -350 -423 -368 0
-432 -350 -232 -368 0
-255 -350 -423 -366 0
-255 -350 -423 -369 0
-255 -350 -423 -368 0
-255 -350 -429 -369 0
-255 -350 -232 -368 0
-255 -236 -232 -368 0
-298 -362 -429 -384 0
-334 -398 -448 -381 0
-334 -398 -449 -381 0
-334 -398 -449 -382 0
-469 -398 -449 -381 0
-469 -398 -449 -382 0
-469 -500 -450 -388 0
-469 -500 -451 -381 0
-469 -500 -451 -388 0
-469 -500 -451 -390 0
-463 -530 -513 0
-469 -501 -449 -382 0
-469 -501 -451 -388 0
-469 -501 -451 -390 0
-469 -501 -452 -382 0
-469 -501 -452 -390 0
-469 -398 -449 -518 0
-469 -398 -449 -519 0
-575 -530 -513 0
-469 -501 -449 -519 0
-469 -501 -451 -520 0
-469 -501 -451 -521 0
-469 -501 -452 -519 0
-469 -501 -452 -521 0
-550 -503 -453 -525 0
-550 -503 -453 -523 0
-550 -503 -455 -520 0
-550 -503 -455 -525 0
-550 -503 -455 -526 0
-575 -559 -517 0
-550 -504 -451 -518 0
-550 -504 -451 -521 0
-550 -504 -455 -525 0
-550 -504 -455 -526 0
-550 -504 -457 -521 0
-550 -504 -457 -526 0
-575 -560 -513 0
-551 -501 -449 -519 0
-551 -501 -452 -519 0
-551 -501 -452 -521 0
-575 -560 -517 0
-551 -504 -455 -525 0
-551 -504 -455 -526 0
-551 -504 -457 -521 0
-551 -504 -457 -526 0
-575 -560 -527 0
-551 -505 -452 -518 0
-551 -505 -452 -519 0
-551 -505 -457 -520 0
-551 -505 -457 -526 0
-456 -362 -433 -493 0
-456 -385 -470 -518 0
-469 -398 -482 -518 0
-469 -398 -482 -519 0
-575 -530 -603 0
-469 -501 -482 -519 0
-469 -501 -565 -520 0
-469 -501 -565 -521 0
-469 -501 -566 -519 0
-469 -501 -566 -521 0
-575 -560 -603 0
-551 -501 -482 -519 0
-551 -501 -566 -519 0
-551 -501 -566 -521 0
-575 -560 -623 0
-551 -504 -567 -525 0
-551 -504 -567 -526 0
-551 -504 -568 -521 0
-551 -504 -568 -526 0
-575 -560 -624 0
-551 -505 -566 -518 0
-551 -505 -566 -519 0
-551 -505 -568 -520 0
-551 -505 -568 -526 0
-609 -561 -625 0
-553 -506 -567 -616 0
-553 -506 -567 -620 0
-609 -561 -626 0
-553 -508 -542 -489 0
-553 -508 -542 -585 0
-609 -563 -623 0
-554 -504 -565 -536 0
-554 -504 -565 -617 0
-554 -504 -568 -617 0
-554 -504 -568 -620 0
-609 -563 -625 0
-554 -506 -569 -614 0
-609 -563 -627 0
-554 -509 -568 -616 0
-554 -509 -568 -617 0
-550 -504 0
-551 -500 -470 -537 0
-618 -560 -603 0
-551 -501 -482 -599 0
-551 -501 -566 -599 0
-551 -501 -566 -628 0
-618 -560 -624 0
-551 -505 -566 -537 0
-551 -505 -566 -599 0
-551 -505 -568 -629 0
-554 -503 -569 -631 0
-554 -503 -569 -610 0
-618 -563 -625 0
-554 -506 -569 -610 0
-618 -563 -627 0
-554 -509 -568 -628 0
-618 -571 -624 0
-555 -505 -565 -537 0
-555 -505 -566 -537 0
-555 -505 -566 -599 0
-618 -571 -627 0
-555 -509 -567 -631 0
-298 -385 -430 -364 0
-456 -385 -430 -364 0
-456 -500 -430 -364 0
-456 -500 -433 -370 0
-456 -500 -434 -364 0
-456 -500 -434 -370 0
-456 -500 -434 -373 0
-255 -350 -418 -366 0
-255 -350 -418 -369 0
-255 -350 -418 -368 0
-255 -350 -220 -368 0
-255 -236 -220 -368 0
-432 -488 0
-541 -562 -487 0
-546 -508 -435 -490 0
-541 -562 -491 0
-546 -507 -418 -407 0
-546 -507 -436 -407 0
-419 -350 -220 -407 0
-541 -564 -491 0
-419 -507 -437 -497 0
-419 -507 -436 -407 0
-541 -564 -499 0
-419 -410 -436 -495 0
-255 -236 -220 -347 0
-426 -564 -491 0
-419 -507 -437 -345 0
-419 -507 -437 -346 0
-419 -507 -436 -347 0
-426 -564 -510 0
-419 -488 -437 -346 0
-419 -488 -437 -351 0
-426 -564 -499 0
-419 -410 -436 -351 0
-426 -416 -499 0
-223 -410 -436 -351 0
-223 -410 -418 -351 0
-223 -410 -418 -345 0
-106 -161 0
-107 -162 0
-108 -163 0
-109 -164 0
-110 -165 0
-550 -508 -435 -489 0
-550 -523 -471 -536 0
-550 -523 -582 -536 0
-550 -523 -582 -616 0
-550 -523 -582 -617 0
-609 -626 -651 0
-550 -610 -582 -536 0
-550 -610 -582 -617 0
-550 -610 -640 -619 0
-550 -610 -640 -620 0
-550 -610 -641 -617 0
-550 -610 -641 -620 0
-609 -642 -651 0
-554 -610 -582 -536 0
-554 -610 -582 -617 0
-554 -610 -641 -617 0
-554 -610 -641 -620 0
-156 -151 664 0
-157 -152 664 0
-158 -153 664 0
-159 -154 664 0
-160 -155 664 0
-609 -642 -664 0
-609 -642 -659 0
-554 -612 -641 -616 0
-554 -612 -641 -617 0
-553 -611 0
-554 -614 -569 -631 0
-613 -642 -651 0
-554 -610 -582 -538 0
-554 -610 -582 -638 0
-554 -610 -641 -638 0
-554 -610 -641 -658 0
-613 -642 -659 0
-554 -612 -641 -631 0
-554 -612 -641 -638 0
-546 -497 0
-432 -508 -542 -494 0
-432 -346 -427 -495 0
-432 -346 -427 -407 0
-432 -346 -215 -407 0
-419 -346 -215 -407 0
-166 -171 665 0
-167 -172 665 0
-168 -173 665 0
-169 -174 665 0
-170 -175 665 0
-541 -586 -665 0
-419 -584 -548 -407 0
-541 -586 -591 0
-419 -408 -548 -495 0
-546 -584 0
-419 -346 -437 -495 0
-419 -346 -215 -412 0
-615 -586 -556 0
-615 -586 -591 0
-615 -643 -591 0
-557 -408 -427 -495 0
-456 -367 -433 -488 0
-456 -387 -470 -501 0
-456 -524 -470 -501 0
-456 -524 -565 -501 0
-456 -524 -565 -504 0
-456 -524 -565 -505 0
-570 -496 -552 0
-432 -489 -542 -508 0
-432 -489 -542 -507 0
-432 -489 -424 -507 0
-432 -489 -424 -410 0
-432 -352 -424 -507 0
-432 -352 -424 -488 0
-432 -352 -424 -410 0
-432 -352 -237 -410 0
-456 -367 -433 -493 0
-456 -387 -470 -518 0
-456 -503 -433 -493 0
-469 -400 -482 -518 0
-469 -400 -482 -519 0
-575 -531 -603 0
-469 -536 -482 -519 0
-469 -536 -565 -520 0
-469 -536 -565 -521 0
-469 -536 -566 -519 0
-469 -536 -566 -521 0
-575 -634 -603 0
-551 -536 -482 -519 0
-551 -536 -566 -519 0
-551 -536 -566 -521 0
-575 -634 -623 0
-551 -616 -567 -525 0
-551 -616 -567 -526 0
-551 -616 -568 -521 0
-551 -616 -568 -526 0
-575 -634 -624 0
-551 -617 -566 -518 0
-551 -617 -566 -519 0
-551 -617 -568 -520 0
-551 -617 -568 -526 0
-550 -616 0
-551 -524 -470 -537 0
-618 -634 -603 0
-551 -536 -482 -599 0
-551 -536 -566 -599 0
-551 -536 -566 -628 0
-618 -634 -624 0
-551 -617 -566 -537 0
-551 -617 -566 -599 0
-551 -617 -568 -629 0
-618 -644 -625 0
-554 -619 -569 -610 0
-618 -644 -627 0
-554 -620 -568 -628 0
-618 -645 -624 0
-555 -617 -565 -537 0
-555 -617 -566 -537 0
-555 -617 -566 -599 0
-618 -645 -627 0
-555 -620 -567 -631 0
-553 -619 0
-613 -644 -651 0
-554 -616 -582 -538 0
-554 -616 -582 -638 0
-554 -616 -641 -638 0
-554 -616 -641 -658 0
-613 -644 -659 0
-554 -620 -641 -631 0
-554 -620 -641 -638 0
-553 -614 0
-621 -646 -545 0
-546 -489 -420 -584 0
-546 -489 -420 -408 0
-621 -646 -654 0
-546 -585 -420 -497 0
-546 -585 -420 -408 0
-546 -585 -592 -408 0
-554 -616 0
-550 -503 -438 -494 0
-550 -524 -472 -537 0
-550 -524 -583 -537 0
-550 -524 -583 -628 0
-551 -524 -472 -537 0
-618 -634 -604 0
-551 -536 -484 -599 0
-551 -536 -607 -599 0
-551 -536 -607 -628 0
-618 -634 -657 0
-551 -617 -607 -537 0
-551 -617 -607 -599 0
-551 -617 -647 -629 0
-618 -645 -657 0
-555 -617 -583 -537 0
-555 -617 -607 -537 0
-555 -617 -607 -599 0
-618 -645 -660 0
-554 -619 0
-613 -648 -642 0
-553 -614 -544 -490 0
-553 -614 -544 -587 0
-554 -620 0
-622 -645 -652 0
-555 -616 -583 -539 0
-555 -616 -583 -639 0
-622 -645 -657 0
-555 -617 -583 -539 0
-555 -617 -583 -629 0
-555 -617 -607 -539 0
-555 -617 -607 -601 0
-106 -111 0
-107 -112 0
-108 -113 0
-109 -114 0
-110 -115 0
-298 -384 -430 -364 0
-456 -384 -430 -364 0
-456 -488 -433 -370 0
-456 -493 -430 -364 0
-456 -493 -433 -370 0
-456 -493 -434 -364 0
-456 -493 -434 -370 0
-456 -493 -434 -373 0
-255 -345 -418 -366 0
-255 -345 -418 -368 0
-255 -345 -220 -368 0
-255 -222 -220 -368 0
-456 -384 -430 -501 0
-456 -493 -430 -501 0
-456 -493 -433 -504 0
-456 -493 -434 -501 0
-456 -493 -434 -504 0
-456 -493 -434 -505 0
-550 -493 -430 -501 0
-550 -493 -434 -501 0
-550 -493 -434 -504 0
-550 -493 -434 -505 0
-550 -489 -435 -506 0
-550 -489 -435 -508 0
-550 -489 -438 -504 0
-550 -489 -438 -506 0
-550 -489 -438 -509 0
-570 -552 -511 0
-550 -494 -434 -501 0
-550 -494 -434 -505 0
-550 -494 -438 -506 0
-550 -494 -438 -509 0
-550 -494 -441 -505 0
-550 -494 -441 -509 0
-255 -222 -220 -347 0
-426 -547 -491 0
-419 -495 -437 -346 0
-419 -495 -436 -347 0
-426 -547 -499 0
-419 -407 -436 -351 0
-426 -411 -499 0
-223 -407 -436 -351 0
-223 -407 -418 -351 0
-546 -497 0
-553 -489 -542 -610 0
-553 -489 -544 -610 0
-553 -489 -544 -611 0
-553 -489 -544 -612 0
-621 -545 -653 0
-553 -490 -544 -610 0
-553 -490 -544 -612 0
-546 -495 0
-419 -345 -215 -412 0
-615 -547 -591 0
-615 -549 -591 0
-255 -222 -214 -347 0
-432 -488 -424 -358 0
-426 -411 -588 0
-223 -407 -425 -351 0
-419 -495 0
-615 -556 -586 0
-546 -497 -420 -587 0
-615 -549 -588 0
-419 -407 0
-594 -549 -589 0
-557 -495 -427 -408 0
-282 -249 -349 -299 0
-321 -332 -360 -296 0
-384 -332 -360 -296 0
-384 -429 -363 -303 0
-384 -430 -360 -296 0
-384 -430 -363 -303 0
-384 -430 -364 -296 0
-384 -430 -364 -303 0
-384 -430 -364 -310 0
-384 -332 -360 -449 0
-384 -430 -360 -449 0
-384 -430 -363 -451 0
-384 -430 -364 -449 0
-384 -430 -364 -451 0
-384 -430 -364 -452 0
-488 -432 -365 -453 0
-488 -432 -365 -454 0
-488 -432 -367 -453 0
-488 -432 -367 -455 0
-488 -433 -363 -451 0
-488 -433 -367 -453 0
-488 -433 -367 -455 0
-488 -433 -370 -451 0
-488 -433 -370 -455 0
-488 -433 -370 -457 0
-493 -430 -360 -449 0
-493 -430 -364 -449 0
-493 -430 -364 -451 0
-493 -430 -364 -452 0
-493 -433 -367 -453 0
-493 -433 -367 -455 0
-493 -433 -370 -451 0
-493 -433 -370 -455 0
-493 -433 -370 -457 0
-516 -502 -459 0
-493 -434 -364 -449 0
-493 -434 -364 -452 0
-493 -434 -370 -455 0
-493 -434 -370 -457 0
-493 -434 -373 -452 0
-493 -434 -373 -457 0
-348 -422 -446 0
-345 -418 -366 -253 0
-345 -418 -366 -254 0
-345 -418 -368 -254 0
-345 -220 -368 -254 0
-345 -220 -368 -256 0
-222 -220 -368 -254 0
-222 -220 -368 -256 0
-222 -220 -349 -256 0
-369 -249 -350 -423 0
-384 -332 -398 -449 0
-384 -430 -398 -449 0
-384 -430 -500 -451 0
-384 -430 -501 -449 0
-384 -430 -501 -451 0
-384 -430 -501 -452 0
-493 -430 -398 -449 0
-493 -430 -501 -449 0
-493 -430 -501 -451 0
-493 -430 -501 -452 0
-493 -433 -503 -453 0
-493 -433 -503 -455 0
-493 -433 -504 -451 0
-493 -433 -504 -455 0
-493 -433 -504 -457 0
-516 -502 -560 0
-493 -434 -501 -449 0
-493 -434 -501 -452 0
-493 -434 -504 -455 0
-493 -434 -504 -457 0
-493 -434 -505 -452 0
-493 -434 -505 -457 0
-541 -487 -561 0
-497 -435 -503 -554 0
-497 -435 -506 -554 0
-541 -487 -562 0
-497 -437 -507 -419 0
-497 -437 -507 -557 0
-489 -433 -500 -551 0
-489 -433 -504 -551 0
-489 -433 -504 -554 0
-489 -433 -504 -555 0
-541 -496 -561 0
-489 -435 -506 -554 0
-489 -435 -508 -546 0
-541 -496 -563 0
-489 -438 -504 -551 0
-489 -438 -504 -555 0
-489 -438 -506 -553 0
-489 -438 -509 -555 0
-493 -430 -398 -482 0
-493 -430 -501 -482 0
-493 -430 -501 -565 0
-493 -430 -501 -566 0
-552 -502 -560 0
-493 -434 -501 -482 0
-493 -434 -501 -566 0
-493 -434 -504 -567 0
-493 -434 -504 -568 0
-493 -434 -505 -566 0
-493 -434 -505 -568 0
-552 -496 -561 0
-489 -435 -506 -567 0
-489 -435 -508 -542 0
-552 -496 -563 0
-489 -438 -504 -565 0
-489 -438 -504 -568 0
-489 -438 -506 -569 0
-489 -438 -509 -568 0
-489 -432 -508 -569 0
-489 -432 -508 -542 0
-552 -511 -560 0
-494 -434 -501 -482 0
-494 -434 -501 -566 0
-494 -434 -505 -566 0
-494 -434 -505 -568 0
-552 -511 -563 0
-494 -438 -503 -569 0
-494 -438 -506 -569 0
-494 -438 -509 -568 0
-552 -511 -571 0
-494 -441 -505 -565 0
-494 -441 -505 -566 0
-494 -441 -509 -567 0
-369 -429 -356 -264 0
-222 -220 -347 -254 0
-222 -220 -347 -256 0
-345 -418 0
-547 -491 -417 0
-495 -437 -346 -420 0
-547 -491 -421 0
-547 -499 -421 0
-407 -436 -351 -427 0
-411 -499 -421 0
-407 -436 -351 -214 0
-407 -436 -351 -215 0
-411 -499 -439 0
-407 -418 -351 -215 0
-407 -418 -351 -221 0
-111 -166 0
-112 -167 0
-113 -168 0
-114 -169 0
-115 -170 0
-488 -454 -523 -551 0
-488 -542 -523 -551 0
-488 -542 -614 -553 0
-488 -542 -614 -554 0
-488 -542 -610 -551 0
-488 -542 -610 -554 0
-488 -542 -610 -555 0
-488 -437 -346 -419 0
-489 -542 -523 -551 0
-489 -542 -610 -551 0
-489 -542 -610 -554 0
-489 -542 -610 -555 0
-161 -156 666 0
-162 -157 666 0
-163 -158 666 0
-164 -159 666 0
-165 -160 666 0
-541 -646 -666 0
-489 -543 -611 -554 0
-541 -646 -642 0
-489 -544 -610 -551 0
-489 -544 -610 -555 0
-489 -544 -611 -553 0
-489 -544 -612 -555 0
-497 -543 0
-489 -542 -523 -582 0
-489 -542 -610 -582 0
-489 -542 -610 -640 0
-489 -542 -610 -641 0
-545 -646 -642 0
-489 -544 -610 -582 0
-489 -544 -610 -641 0
-489 -544 -612 -641 0
-545 -653 -642 0
-490 -544 -610 -582 0
-490 -544 -610 -641 0
-490 -544 -612 -641 0
-495 -427 0
-345 -215 -412 -425 0
-171 -176 667 0
-172 -177 667 0
-173 -178 667 0
-174 -179 667 0
-175 -180 667 0
-547 -591 -667 0
-495 -548 0
-407 -215 -351 -425 0
-549 -591 -589 0
-369 -432 -350 -423 0
-369 -255 -350 -423 0
-384 -334 -398 -449 0
-384 -469 -398 -449 0
-384 -469 -500 -451 0
-384 -469 -501 -449 0
-384 -469 -501 -451 0
-384 -469 -501 -452 0
-493 -469 -398 -449 0
-493 -469 -501 -449 0
-493 -469 -501 -451 0
-493 -469 -501 -452 0
-493 -550 -503 -453 0
-493 -550 -503 -455 0
-493 -550 -504 -451 0
-493 -550 -504 -455 0
-493 -550 -504 -457 0
-516 -575 -560 0
-493 -551 -501 -449 0
-493 -551 -501 -452 0
-493 -551 -504 -455 0
-493 -551 -504 -457 0
-493 -551 -505 -452 0
-493 -551 -505 -457 0
-493 -469 -398 -482 0
-493 -469 -501 -482 0
-493 -469 -501 -565 0
-493 -469 -501 -566 0
-552 -575 -560 0
-493 -551 -501 -482 0
-493 -551 -501 -566 0
-493 -551 -504 -567 0
-493 -551 -504 -568 0
-493 -551 -505 -566 0
-493 -551 -505 -568 0
-552 -609 -561 0
-489 -553 -506 -567 0
-489 -553 -508 -542 0
-552 -609 -563 0
-489 -554 -504 -565 0
-489 -554 -504 -568 0
-489 -554 -506 -569 0
-489 -554 -509 -568 0
-552 -618 -560 0
-494 -551 -501 -482 0
-494 -551 -501 -566 0
-494 -551 -505 -566 0
-494 -551 -505 -568 0
-552 -618 -563 0
-494 -554 -503 -569 0
-494 -554 -506 -569 0
-494 -554 -509 -568 0
-552 -618 -571 0
-494 -555 -505 -565 0
-494 -555 -505 -566 0
-494 -555 -509 -567 0
-369 -456 -500 -434 0
-369 -255 -350 -418 0
-510 -426 -564 0
-345 -419 -507 -437 0
-345 -419 -507 -436 0
-345 -419 -410 -436 0
-345 -223 -410 -436 0
-345 -223 -410 -418 0
-497 -553 0
-489 -550 -523 -582 0
-489 -550 -610 -582 0
-489 -550 -610 -640 0
-489 -550 -610 -641 0
-545 -609 -642 0
-489 -554 -610 -582 0
-489 -554 -610 -641 0
-489 -554 -612 -641 0
-545 -613 -642 0
-490 -554 -610 -582 0
-490 -554 -610 -641 0
-490 -554 -612 -641 0
-497 -546 0
-556 -615 -586 0
-495 -419 -408 -548 0
-556 -615 -643 0
-495 -557 -408 -427 0
-488 -456 -524 -565 0
-488 -432 -352 -424 0
-493 -469 -400 -482 0
-493 -469 -536 -482 0
-493 -469 -536 -565 0
-493 -469 -536 -566 0
-552 -575 -634 0
-493 -551 -536 -482 0
-493 -551 -536 -566 0
-493 -551 -616 -567 0
-493 -551 -616 -568 0
-493 -551 -617 -566 0
-493 -551 -617 -568 0
-552 -618 -634 0
-494 -551 -536 -482 0
-494 -551 -536 -566 0
-494 -551 -617 -566 0
-494 -551 -617 -568 0
-552 -618 -644 0
-494 -554 -619 -569 0
-494 -554 -620 -568 0
-552 -618 -645 0
-494 -555 -617 -565 0
-494 -555 -617 -566 0
-494 -555 -620 -567 0
-489 -553 0
-545 -613 -644 0
-490 -554 -616 -582 0
-490 -554 -616 -641 0
-490 -554 -620 -641 0
-545 -621 -646 0
-497 -546 -585 -420 0
-497 -546 -585 -592 0
-489 -554 0
-494 -550 -524 -583 0
-558 -618 -634 0
-494 -551 -536 -484 0
-494 -551 -536 -607 0
-494 -551 -617 -607 0
-494 -551 -617 -647 0
-558 -618 -645 0
-494 -555 -617 -583 0
-494 -555 -617 -607 0
-558 -613 -648 0
-490 -553 -614 -544 0
-558 -622 -645 0
-498 -555 -616 -583 0
-498 -555 -617 -583 0
-498 -555 -617 -607 0
-111 -116 0
-112 -117 0
-113 -118 0
-114 -119 0
-115 -120 0
-369 -423 -356 -264 0
-222 -214 -347 -254 0
-369 -423 -356 -434 0
-488 -423 -356 -434 0
-488 -419 -346 -435 0
-488 -419 -346 -437 0
-488 -419 -352 -435 0
-488 -419 -352 -438 0
-488 -424 -356 -434 0
-488 -424 -352 -435 0
-488 -424 -352 -438 0
-488 -424 -358 -434 0
-488 -424 -358 -438 0
-488 -424 -358 -441 0
-411 -588 -421 0
-407 -425 -351 -215 0
-495 -427 0
-497 -419 -585 -543 0
-497 -419 -585 -544 0
-556 -586 -654 0
-497 -420 -585 -544 0
-497 -420 -587 -544 0
-495 -425 0
-407 -425 0
-549 -589 -591 0
-495 -427 -408 -592 0
-217 -218 -219 -283 0
-299 -355 -252 -309 0
-299 -355 -252 -364 0
-418 -345 -253 -365 0
-418 -345 -253 -366 0
-418 -345 -255 -365 0
-418 -350 -255 -365 0
-418 -350 -257 -370 0
-423 -355 -252 -364 0
-423 -350 -255 -365 0
-423 -350 -257 -370 0
-423 -356 -252 -364 0
-423 -356 -257 -370 0
-423 -356 -264 -364 0
-423 -356 -264 -370 0
-423 -356 -264 -373 0
-216 -409 -353 0
-214 -347 -254 -213 0
-299 -355 -430 -364 0
-423 -355 -430 -364 0
-423 -350 -432 -365 0
-423 -350 -433 -370 0
-423 -356 -430 -364 0
-423 -356 -433 -370 0
-423 -356 -434 -364 0
-423 -356 -434 -370 0
-423 -356 -434 -373 0
-256 -218 -220 -368 0
-547 -417 -487 0
-427 -346 -435 -490 0
-547 -417 -491 0
-427 -351 -436 -407 0
-419 -350 -433 -494 0
-547 -426 -487 0
-419 -346 -435 -490 0
-419 -346 -437 -495 0
-419 -352 -433 -494 0
-419 -352 -435 -490 0
-419 -352 -435 -497 0
-419 -352 -438 -494 0
-419 -352 -438 -490 0
-419 -352 -438 -498 0
-423 -355 -430 -501 0
-423 -356 -430 -501 0
-423 -356 -433 -504 0
-423 -356 -434 -501 0
-423 -356 -434 -504 0
-423 -356 -434 -505 0
-564 -426 -487 0
-419 -346 -435 -506 0
-419 -346 -437 -507 0
-419 -352 -433 -504 0
-419 -352 -435 -506 0
-419 -352 -435 -508 0
-419 -352 -438 -504 0
-419 -352 -438 -506 0
-419 -352 -438 -509 0
-419 -345 -437 -508 0
-419 -345 -437 -507 0
-424 -356 -430 -501 0
-424 -356 -434 -501 0
-424 -356 -434 -504 0
-424 -356 -434 -505 0
-424 -352 -435 -506 0
-424 -352 -435 -508 0
-424 -352 -438 -504 0
-424 -352 -438 -506 0
-424 -352 -438 -509 0
-424 -352 -432 -508 0
-564 -440 -511 0
-424 -358 -434 -501 0
-424 -358 -434 -505 0
-424 -358 -438 -506 0
-424 -358 -438 -509 0
-424 -358 -441 -505 0
-424 -358 -441 -509 0
-214 -347 0
-588 -421 -406 0
-425 -351 -215 -408 0
-116 -171 0
-117 -172 0
-118 -173 0
-119 -174 0
-120 -175 0
-418 -507 -546 -497 0
-418 -507 -542 -494 0
-418 -351 -215 -407 0
-419 -507 -542 -494 0
-547 -615 -663 0
-419 -584 -543 -490 0
-419 -585 -542 -494 0
-419 -585 -543 -490 0
-419 -585 -543 -497 0
-419 -585 -544 -494 0
-419 -585 -544 -490 0
-419 -585 -544 -498 0
-427 -584 0
-419 -507 -542 -610 0
-419 -585 -542 -610 0
-419 -585 -543 -611 0
-419 -585 -544 -610 0
-419 -585 -544 -611 0
-419 -585 -544 -612 0
-420 -585 -542 -610 0
-420 -585 -544 -610 0
-420 -585 -544 -611 0
-420 -585 -544 -612 0
-586 -654 -653 0
-420 -587 -544 -610 0
-420 -587 -544 -612 0
-425 -412 0
-299 -384 -430 -364 0
-423 -384 -430 -364 0
-423 -488 -432 -365 0
-423 -488 -433 -370 0
-423 -493 -430 -364 0
-423 -493 -433 -370 0
-423 -493 -434 -364 0
-423 -493 -434 -370 0
-423 -493 -434 -373 0
-256 -345 -220 -368 0
-256 -222 -220 -368 0
-423 -384 -430 -501 0
-423 -493 -430 -501 0
-423 -493 -433 -504 0
-423 -493 -434 -501 0
-423 -493 -434 -504 0
-423 -493 -434 -505 0
-564 -541 -487 0
-419 -497 -435 -506 0
-419 -497 -437 -507 0
-419 -489 -433 -504 0
-419 -489 -435 -506 0
-419 -489 -435 -508 0
-419 -489 -438 -504 0
-419 -489 -438 -506 0
-419 -489 -438 -509 0
-424 -493 -430 -501 0
-424 -493 -434 -501 0
-424 -493 -434 -504 0
-424 -493 -434 -505 0
-424 -489 -435 -506 0
-424 -489 -435 -508 0
-424 -489 -438 -504 0
-424 -489 -438 -506 0
-424 -489 -438 -509 0
-424 -489 -432 -508 0
-564 -552 -511 0
-424 -494 -434 -501 0
-424 -494 -434 -505 0
-424 -494 -438 -506 0
-424 -494 -438 -509 0
-424 -494 -441 -505 0
-424 -494 -441 -509 0
-256 -222 -220 -347 0
-439 -411 -499 0
-214 -407 -436 -351 0
-427 -497 0
-419 -488 -542 -610 0
-419 -489 -542 -610 0
-419 -489 -543 -611 0
-419 -489 -544 -610 0
-419 -489 -544 -611 0
-419 -489 -544 -612 0
-420 -489 -542 -610 0
-420 -489 -544 -610 0
-420 -489 -544 -611 0
-420 -489 -544 -612 0
-586 -545 -653 0
-420 -490 -544 -610 0
-420 -490 -544 -612 0
-427 -495 0
-589 -549 -591 0
-423 -384 -469 -501 0
-423 -493 -469 -501 0
-423 -493 -550 -504 0
-423 -493 -551 -501 0
-423 -493 -551 -504 0
-423 -493 -551 -505 0
-424 -493 -469 -501 0
-424 -493 -551 -501 0
-424 -493 -551 -504 0
-424 -493 -551 -505 0
-424 -489 -553 -506 0
-424 -489 -553 -508 0
-424 -489 -554 -504 0
-424 -489 -554 -506 0
-424 -489 -554 -509 0
-564 -552 -618 0
-424 -494 -551 -501 0
-424 -494 -551 -505 0
-424 -494 -554 -506 0
-424 -494 -554 -509 0
-424 -494 -555 -505 0
-424 -494 -555 -509 0
-418 -345 -223 -410 0
-419 -497 0
-420 -489 -550 -610 0
-420 -489 -554 -610 0
-420 -489 -554 -611 0
-420 -489 -554 -612 0
-586 -545 -613 0
-420 -490 -554 -610 0
-420 -490 -554 -612 0
-586 -556 -615 0
-427 -495 -557 -408 0
-424 -493 -469 -536 0
-424 -493 -551 -536 0
-424 -493 -551 -616 0
-424 -493 -551 -617 0
-590 -552 -618 0
-424 -494 -551 -536 0
-424 -494 -551 -617 0
-424 -494 -554 -619 0
-424 -494 -554 -620 0
-424 -494 -555 -617 0
-424 -494 -555 -620 0
-590 -545 -613 0
-420 -490 -554 -616 0
-420 -490 -554 -620 0
-590 -545 -621 0
-420 -497 -546 -585 0
-590 -558 -618 0
-428 -494 -551 -536 0
-428 -494 -551 -617 0
-428 -494 -555 -617 0
-428 -494 -555 -620 0
-590 -558 -613 0
-428 -490 -553 -614 0
-590 -558 -622 0
-428 -498 -555 -616 0
-428 -498 -555 -617 0
-116 -121 0
-117 -122 0
-118 -123 0
-119 -124 0
-120 -125 0
-418 -407 -215 -346 0
-418 -407 -215 -351 0
-418 -407 -223 -346 0
-418 -410 -223 -346 0
-418 -410 -237 -358 0
-425 -412 0
-427 -407 -557 -584 0
-589 -591 -643 0
-427 -408 -592 -587 0
-347 -214 -213 -253 0
-347 -214 -213 -254 0
-347 -214 -222 -253 0
-347 -220 -222 -253 0
-368 -220 -222 -253 0
-368 -232 -263 -264 0
-368 -220 -345 -253 0
-368 -232 -356 -264 0
-588 -406 -417 0
-412 -215 -346 -420 0
-588 -406 -421 0
-588 -411 -417 0
-407 -215 -346 -420 0
-407 -215 -351 -425 0
-407 -223 -346 -420 0
-407 -223 -346 -427 0
-407 -223 -352 -420 0
-407 -223 -352 -428 0
-368 -232 -356 -434 0
-499 -411 -417 0
-407 -215 -346 -435 0
-407 -215 -351 -436 0
-407 -223 -346 -435 0
-407 -223 -346 -437 0
-407 -223 -352 -435 0
-407 -223 -352 -438 0
-407 -214 -351 -437 0
-407 -214 -351 -436 0
-410 -232 -356 -434 0
-410 -223 -346 -435 0
-410 -223 -346 -437 0
-410 -223 -352 -435 0
-410 -223 -352 -438 0
-410 -223 -345 -437 0
-410 -237 -356 -434 0
-410 -237 -352 -435 0
-410 -237 -352 -438 0
-410 -237 -358 -434 0
-410 -237 -358 -438 0
-410 -237 -358 -441 0
-121 -176 0
-122 -177 0
-123 -178 0
-124 -179 0
-125 -180 0
-347 -436 -495 -427 0
-588 -549 -665 0
-407 -548 -584 -420 0
-407 -557 -584 -420 0
-407 -557 -584 -427 0
-407 -557 -585 -420 0
-407 -557 -585 -428 0
-412 -548 0
-407 -557 -584 -543 0
-407 -557 -585 -543 0
-407 -557 -585 -544 0
-408 -557 -585 -543 0
-408 -557 -585 -544 0
-591 -643 -654 0
-408 -592 -585 -544 0
-408 -592 -587 -544 0
-368 -418 -345 -253 0
-368 -423 -356 -264 0
-368 -423 -356 -434 0
-499 -547 -417 0
-407 -427 -346 -435 0
-407 -427 -351 -436 0
-407 -419 -346 -435 0
-407 -419 -346 -437 0
-407 -419 -352 -435 0
-407 -419 -352 -438 0
-410 -423 -356 -434 0
-410 -419 -346 -435 0
-410 -419 -346 -437 0
-410 -419 -352 -435 0
-410 -419 -352 -438 0
-410 -419 -345 -437 0
-410 -424 -356 -434 0
-410 -424 -352 -435 0
-410 -424 -352 -438 0
-410 -424 -358 -434 0
-410 -424 -358 -438 0
-410 -424 -358 -441 0
-412 -427 0
-407 -419 -584 -543 0
-407 -419 -585 -543 0
-407 -419 -585 -544 0
-408 -419 -585 -543 0
-408 -419 -585 -544 0
-591 -586 -654 0
-408 -420 -585 -544 0
-408 -420 -587 -544 0
-412 -425 0
-368 -423 -493 -434 0
-410 -423 -493 -434 0
-410 -419 -497 -435 0
-410 -419 -497 -437 0
-410 -419 -489 -435 0
-410 -419 -489 -438 0
-410 -424 -493 -434 0
-410 -424 -489 -435 0
-410 -424 -489 -438 0
-410 -424 -494 -434 0
-410 -424 -494 -438 0
-410 -424 -494 -441 0
-407 -427 0
-408 -419 -489 -543 0
-408 -419 -489 -544 0
-591 -586 -545 0
-408 -420 -489 -544 0
-408 -420 -490 -544 0
-591 -589 -549 0
-410 -423 -493 -551 0
-410 -424 -493 -551 0
-410 -424 -489 -553 0
-410 -424 -489 -554 0
-410 -424 -494 -551 0
-410 -424 -494 -554 0
-410 -424 -494 -555 0
-594 -586 -545 0
-408 -420 -489 -554 0
-408 -420 -490 -554 0
-594 -586 -556 0
-408 -427 -495 -557 0
-413 -424 -493 -551 0
-413 -424 -494 -551 0
-413 -424 -494 -554 0
-413 -424 -494 -555 0
-594 -590 -545 0
-413 -420 -490 -554 0
-413 -420 -497 -546 0
-594 -590 -558 0
-413 -428 -494 -551 0
-413 -428 -494 -555 0
-413 -428 -490 -553 0
-413 -428 -498 -555 0
-296 -389 -336 -329 0
-449 -398 -334 -386 0
-449 -398 -335 -388 0
-449 -399 -336 -381 0
-449 -399 -335 -388 0
-449 -399 -337 -381 0
-449 -399 -337 -388 0
-449 -399 -337 -390 0
-474 -399 -335 -388 0
-474 -399 -337 -381 0
-474 -399 -337 -388 0
-474 -399 -337 -390 0
-461 -481 -396 0
-474 -402 -337 -388 0
-474 -402 -337 -390 0
-474 -402 -339 -382 0
-474 -402 -339 -390 0
-449 -398 -469 -386 0
-449 -398 -470 -388 0
-449 -399 -470 -388 0
-449 -399 -466 -381 0
-449 -399 -466 -388 0
-449 -399 -466 -390 0
-449 -398 -469 -523 0
-449 -398 -470 -520 0
-482 -398 -469 -523 0
-482 -400 -471 -525 0
-482 -400 -471 -523 0
-482 -400 -472 -520 0
-482 -400 -472 -525 0
-482 -400 -472 -526 0
-482 -400 -469 -523 0
-572 -477 -532 0
-482 -401 -466 -518 0
-482 -401 -466 -521 0
-482 -401 -472 -525 0
-482 -401 -472 -526 0
-482 -401 -473 -521 0
-482 -401 -473 -526 0
-572 -478 -528 0
-483 -402 -467 -519 0
-483 -402 -467 -521 0
-572 -478 -532 0
-483 -401 -472 -525 0
-483 -401 -472 -526 0
-483 -401 -473 -521 0
-483 -401 -473 -526 0
-572 -478 -533 0
-483 -403 -467 -518 0
-483 -403 -467 -519 0
-483 -403 -473 -520 0
-483 -403 -473 -526 0
-474 -402 0
-483 -399 -470 -537 0
-598 -478 -532 0
-483 -401 -472 -538 0
-483 -401 -472 -539 0
-483 -401 -473 -534 0
-483 -401 -473 -539 0
-598 -478 -533 0
-483 -403 -467 -540 0
-483 -403 -473 -537 0
-483 -403 -473 -539 0
-598 -480 -529 0
-598 -480 -533 0
-486 -403 -466 -537 0
-486 -403 -473 -537 0
-486 -403 -473 -539 0
-126 -131 0
-127 -132 0
-128 -133 0
-129 -134 0
-130 -135 0
-449 -501 -469 -386 0
-449 -501 -470 -388 0
-449 -518 -470 -388 0
-449 -518 -466 -388 0
-449 -518 -466 -390 0
-449 -501 -469 -523 0
-449 -501 -470 -520 0
-482 -501 -469 -523 0
-482 -536 -471 -525 0
-482 -536 -471 -523 0
-482 -536 -472 -520 0
-482 -536 -472 -525 0
-482 -536 -472 -526 0
-482 -536 -469 -523 0
-572 -603 -532 0
-482 -537 -466 -521 0
-482 -537 -472 -525 0
-482 -537 -472 -526 0
-482 -537 -473 -521 0
-482 -537 -473 -526 0
-572 -606 -532 0
-483 -537 -472 -525 0
-483 -537 -472 -526 0
-483 -537 -473 -521 0
-483 -537 -473 -526 0
-572 -606 -533 0
-483 -534 -467 -519 0
-483 -534 -473 -520 0
-483 -534 -473 -526 0
-449 -501 -551 -523 0
-449 -501 -565 -520 0
-482 -501 -551 -523 0
-482 -536 -582 -525 0
-482 -536 -582 -523 0
-482 -536 -583 -520 0
-482 -536 -583 -525 0
-482 -536 -583 -526 0
-482 -536 -551 -523 0
-572 -603 -637 0
-482 -537 -583 -525 0
-482 -537 -583 -526 0
-482 -537 -580 -521 0
-482 -537 -580 -526 0
-483 -537 0
-482 -501 -551 -610 0
-482 -536 -582 -631 0
-482 -536 -582 -610 0
-482 -536 -583 -631 0
-482 -536 -583 -629 0
-482 -536 -551 -610 0
-484 -536 -582 -631 0
-484 -536 -582 -610 0
-484 -536 -551 -610 0
-595 -604 -635 0
-484 -538 -582 -610 0
-595 -604 -636 0
-484 -539 -580 -628 0
-595 -605 -633 0
-485 -534 -579 -599 0
-595 -605 -636 0
-485 -539 -583 -631 0
-483 -534 0
-596 -602 -632 0
-596 -605 -637 0
-485 -537 -583 -638 0
-485 -537 -583 -639 0
-596 -605 -636 0
-485 -539 -583 -628 0
-485 -539 -583 -638 0
-486 -540 0
-486 -534 0
-483 -518 -566 -628 0
-596 -606 -649 0
-483 -537 -607 -638 0
-483 -537 -607 -639 0
-483 -537 -608 -639 0
-596 -605 -649 0
-485 -537 -607 -638 0
-485 -537 -607 -639 0
-596 -605 -656 0
-485 -539 -607 -628 0
-485 -539 -607 -638 0
-126 -181 0
-127 -182 0
-128 -183 0
-129 -184 0
-130 -185 0
-486 -540 0
-474 -519 -566 -537 0
-474 -519 -579 -537 0
-474 -519 -579 -534 0
-483 -519 -566 -537 0
-598 -632 -649 0
-483 -599 -607 -538 0
-483 -599 -607 -539 0
-483 -599 -608 -534 0
-483 -599 -608 -539 0
-186 -191 668 0
-187 -192 668 0
-188 -193 668 0
-189 -194 668 0
-190 -195 668 0
-598 -632 -668 0
-483 -600 -608 -537 0
-483 -600 -608 -539 0
-486 -600 0
-483 -519 -467 -534 0
-483 -519 -566 -628 0
-596 -632 -602 0
-596 -632 -649 0
-483 -599 -607 -638 0
-483 -599 -607 -639 0
-483 -599 -608 -639 0
-596 -655 -649 0
-485 -599 -579 -534 0
-485 -599 -607 -638 0
-485 -599 -607 -639 0
-596 -655 -656 0
-485 -601 -607 -628 0
-485 -601 -607 -638 0
-364 -430 -384 -297 0
-364 -448 -380 -303 0
-402 -474 -382 -339 0
-364 -430 -384 -454 0
-501 -469 -386 -453 0
-501 -469 -386 -454 0
-501 -469 -387 -453 0
-501 -469 -387 -455 0
-501 -469 -384 -454 0
-501 -470 -380 -451 0
-501 -470 -387 -453 0
-501 -470 -387 -455 0
-501 -470 -388 -451 0
-501 -470 -388 -455 0
-501 -470 -388 -457 0
-501 -430 -384 -454 0
-518 -470 -387 -453 0
-518 -470 -387 -455 0
-518 -470 -388 -451 0
-518 -470 -388 -455 0
-518 -470 -388 -457 0
-513 -535 -465 0
-518 -466 -388 -455 0
-518 -466 -388 -457 0
-518 -466 -390 -452 0
-518 -466 -390 -457 0
-381 -448 -399 -337 0
-598 -529 -480 0
-540 -467 -403 -483 0
-540 -467 -403 -485 0
-364 -430 -493 -454 0
-501 -469 -523 -453 0
-501 -469 -523 -454 0
-501 -469 -524 -453 0
-501 -469 -524 -455 0
-501 -469 -493 -454 0
-501 -470 -524 -453 0
-501 -470 -524 -455 0
-501 -470 -520 -451 0
-501 -470 -520 -455 0
-501 -470 -520 -457 0
-501 -430 -493 -454 0
-501 -469 -523 -569 0
-501 -469 -523 -542 0
-501 -469 -524 -569 0
-501 -469 -524 -567 0
-501 -469 -493 -542 0
-501 -430 -493 -542 0
-603 -531 -576 0
-536 -471 -525 -567 0
-536 -471 -523 -542 0
-603 -531 -577 0
-536 -472 -520 -565 0
-536 -472 -520 -568 0
-536 -472 -525 -569 0
-536 -472 -526 -568 0
-536 -469 -523 -569 0
-536 -469 -523 -542 0
-536 -469 -493 -542 0
-603 -532 -573 0
-537 -466 -521 -566 0
-537 -466 -521 -568 0
-603 -532 -577 0
-537 -472 -524 -569 0
-537 -472 -525 -569 0
-537 -472 -526 -568 0
-603 -532 -578 0
-537 -473 -521 -565 0
-537 -473 -521 -566 0
-537 -473 -526 -567 0
-518 -466 0
-537 -470 -524 -582 0
-537 -470 -524 -583 0
-606 -532 -577 0
-537 -472 -524 -582 0
-537 -472 -525 -582 0
-537 -472 -526 -580 0
-606 -532 -578 0
-537 -473 -521 -579 0
-537 -473 -526 -583 0
-606 -533 -574 0
-606 -533 -578 0
-534 -473 -520 -583 0
-534 -473 -526 -583 0
-381 -449 -399 -337 0
-381 -474 -399 -337 0
-381 -449 -399 -466 0
-518 -482 -400 -471 0
-518 -482 -400 -472 0
-518 -482 -401 -466 0
-518 -482 -401 -472 0
-518 -482 -401 -473 0
-528 -572 -478 0
-518 -483 -401 -472 0
-518 -483 -401 -473 0
-518 -483 -403 -467 0
-518 -483 -403 -473 0
-540 -486 0
-602 -596 -632 0
-534 -483 -599 -607 0
-534 -483 -599 -608 0
-602 -596 -655 0
-534 -485 -599 -579 0
-534 -485 -599 -607 0
-534 -485 -601 -607 0
-131 -136 0
-132 -137 0
-133 -138 0
-134 -139 0
-135 -140 0
-364 -434 -493 -454 0
-501 -551 -523 -453 0
-501 -551 -523 -454 0
-501 -551 -524 -453 0
-501 -551 -524 -455 0
-501 -551 -493 -454 0
-501 -565 -524 -453 0
-501 -565 -524 -455 0
-501 -565 -520 -455 0
-501 -565 -520 -457 0
-501 -434 -493 -454 0
-402 -483 -519 -467 0
-501 -551 -523 -569 0
-501 -551 -523 -542 0
-501 -551 -524 -569 0
-501 -551 -524 -567 0
-501 -551 -493 -542 0
-501 -434 -493 -542 0
-603 -634 -576 0
-536 -582 -525 -567 0
-536 -582 -523 -542 0
-603 -634 -577 0
-536 -583 -520 -568 0
-536 -583 -525 -569 0
-536 -583 -526 -568 0
-536 -551 -523 -569 0
-536 -551 -523 -542 0
-536 -551 -493 -542 0
-603 -637 -577 0
-537 -583 -524 -569 0
-537 -583 -525 -569 0
-537 -583 -526 -568 0
-603 -637 -578 0
-537 -580 -521 -566 0
-537 -580 -526 -567 0
-501 -551 -610 -569 0
-501 -551 -610 -542 0
-501 -551 -616 -569 0
-501 -551 -616 -567 0
-501 -551 -494 -542 0
-501 -434 -494 -542 0
-603 -634 -651 0
-536 -582 -631 -567 0
-536 -582 -610 -542 0
-603 -634 -652 0
-536 -583 -631 -569 0
-536 -583 -629 -568 0
-536 -551 -610 -569 0
-536 -551 -610 -542 0
-536 -551 -494 -542 0
-537 -583 0
-604 -634 -651 0
-536 -582 -610 -544 0
-536 -551 -610 -640 0
-536 -551 -610 -544 0
-536 -551 -494 -544 0
-604 -635 -651 0
-538 -582 -610 -544 0
-604 -636 -650 0
-539 -580 -628 -607 0
-537 -580 0
-605 -633 -649 0
-605 -636 -652 0
-539 -583 -616 -641 0
-539 -583 -631 -641 0
-534 -579 0
-534 -580 0
-537 -565 -617 -641 0
-537 -565 -617 -647 0
-605 -637 -657 0
-537 -583 -617 -641 0
-537 -583 -638 -641 0
-605 -636 -657 0
-539 -583 -617 -641 0
-539 -583 -638 -641 0
-131 -186 0
-132 -187 0
-133 -188 0
-134 -189 0
-135 -190 0
-402 -467 -519 -483 0
-534 -579 0
-518 -566 -617 -582 0
-518 -566 -617 -583 0
-518 -566 -628 -583 0
-518 -566 -628 -580 0
-537 -566 -617 -582 0
-537 -566 -617 -583 0
-606 -649 -657 0
-537 -607 -617 -582 0
-537 -607 -638 -582 0
-537 -607 -639 -580 0
-191 -196 669 0
-192 -197 669 0
-193 -198 669 0
-194 -199 669 0
-195 -200 669 0
-606 -649 -669 0
-537 -608 -639 -583 0
-534 -608 0
-537 -566 -521 -580 0
-537 -566 -617 -641 0
-537 -566 -617 -647 0
-605 -649 -633 0
-605 -649 -657 0
-537 -607 -617 -641 0
-537 -607 -638 -641 0
-605 -656 -657 0
-539 -607 -617 -641 0
-539 -607 -628 -580 0
-539 -607 -638 -641 0
-434 -493 -454 -365 0
-434 -493 -454 -366 0
-434 -493 -456 -365 0
-434 -493 -423 -366 0
-434 -500 -456 -365 0
-434 -500 -450 -370 0
-434 -356 -423 -366 0
-264 -356 -423 -366 0
-337 -399 -449 -382 0
-466 -399 -449 -382 0
-466 -518 -449 -382 0
-466 -518 -452 -382 0
-466 -518 -452 -390 0
-560 -575 -514 0
-551 -523 -453 -506 0
-551 -523 -454 -507 0
-551 -524 -450 -504 0
-551 -524 -453 -506 0
-551 -524 -453 -508 0
-551 -524 -455 -504 0
-551 -524 -455 -506 0
-551 -524 -455 -509 0
-551 -493 -454 -508 0
-551 -493 -454 -507 0
-551 -493 -423 -507 0
-565 -524 -453 -506 0
-565 -524 -453 -508 0
-565 -524 -455 -504 0
-565 -524 -455 -506 0
-565 -524 -455 -509 0
-565 -524 -456 -508 0
-560 -581 -517 0
-565 -520 -455 -506 0
-565 -520 -455 -509 0
-565 -520 -457 -505 0
-565 -520 -457 -509 0
-434 -493 -454 -508 0
-434 -493 -454 -507 0
-434 -493 -456 -508 0
-434 -493 -423 -507 0
-434 -356 -423 -507 0
-337 -399 -474 -382 0
-451 -500 -469 -386 0
-451 -500 -470 -388 0
-483 -518 -467 -404 0
-483 -518 -467 -403 0
-478 -572 -529 0
-483 -519 -467 -403 0
-606 -572 -529 0
-483 -519 -467 -534 0
-606 -574 -529 0
-606 -574 -533 0
-579 -521 -473 -537 0
-579 -521 -473 -539 0
-560 -575 -626 0
-551 -523 -569 -506 0
-551 -523 -542 -507 0
-551 -524 -569 -506 0
-551 -524 -569 -508 0
-551 -524 -567 -504 0
-551 -524 -567 -506 0
-551 -524 -567 -509 0
-551 -493 -542 -508 0
-551 -493 -542 -507 0
-551 -493 -424 -507 0
-434 -493 -542 -508 0
-434 -493 -542 -507 0
-434 -493 -550 -508 0
-434 -493 -424 -507 0
-434 -356 -424 -507 0
-634 -576 -625 0
-582 -525 -567 -616 0
-582 -525 -567 -620 0
-634 -576 -626 0
-582 -523 -542 -585 0
-634 -577 -623 0
-583 -520 -568 -617 0
-583 -520 -568 -620 0
-634 -577 -625 0
-583 -525 -569 -614 0
-634 -577 -627 0
-583 -526 -568 -616 0
-583 -526 -568 -617 0
-634 -575 -626 0
-551 -523 -569 -619 0
-551 -523 -542 -585 0
-551 -493 -542 -614 0
-551 -493 -542 -585 0
-551 -493 -424 -585 0
-565 -520 0
-583 -524 -569 -631 0
-583 -524 -569 -610 0
-583 -524 -550 -610 0
-637 -577 -625 0
-583 -525 -569 -610 0
-637 -577 -627 0
-583 -526 -568 -628 0
-637 -578 -624 0
-580 -521 -566 -599 0
-637 -578 -627 0
-580 -526 -567 -631 0
-337 -402 -474 -382 0
-451 -501 -469 -386 0
-451 -501 -470 -388 0
-451 -518 -470 -388 0
-478 -598 -529 0
-483 -540 -467 -403 0
-451 -501 -469 -523 0
-451 -501 -470 -520 0
-565 -501 -469 -523 0
-565 -536 -471 -525 0
-565 -536 -471 -523 0
-565 -536 -472 -520 0
-565 -536 -472 -525 0
-565 -536 -472 -526 0
-565 -536 -469 -523 0
-573 -603 -532 0
-565 -537 -472 -525 0
-565 -537 -472 -526 0
-565 -537 -473 -521 0
-565 -537 -473 -526 0
-466 -518 -482 -401 0
-483 -540 0
-632 -602 -596 0
-579 -534 -485 -599 0
-579 -534 -485 -601 0
-579 -540 0
-579 -534 0
-633 -605 -649 0
-580 -537 -607 -638 0
-580 -537 -607 -639 0
-633 -605 -656 0
-580 -539 -607 -628 0
-580 -539 -607 -638 0
-136 -141 0
-137 -142 0
-138 -143 0
-139 -144 0
-140 -145 0
-560 -618 -626 0
-551 -610 -569 -506 0
-551 -610 -542 -507 0
-551 -616 -569 -506 0
-551 -616 -569 -508 0
-551 -616 -567 -506 0
-551 -616 -567 -509 0
-551 -494 -542 -508 0
-551 -494 -542 -507 0
-551 -494 -424 -507 0
-434 -494 -542 -508 0
-434 -494 -542 -507 0
-434 -494 -550 -508 0
-434 -494 -424 -507 0
-434 -358 -424 -507 0
-451 -504 -550 -523 0
-466 -401 -482 -519 0
-466 -537 -482 -519 0
-466 -537 -566 -519 0
-466 -537 -566 -521 0
-634 -651 -625 0
-582 -631 -567 -620 0
-634 -651 -626 0
-582 -610 -542 -585 0
-634 -652 -625 0
-583 -631 -569 -614 0
-634 -652 -627 0
-583 -629 -568 -617 0
-634 -618 -626 0
-551 -610 -569 -619 0
-551 -610 -542 -585 0
-551 -494 -542 -614 0
-551 -494 -542 -585 0
-551 -494 -424 -585 0
-565 -504 -554 -614 0
-634 -651 -661 0
-634 -651 -642 0
-582 -610 -544 -585 0
-634 -618 -642 0
-551 -610 -640 -619 0
-551 -610 -544 -585 0
-551 -494 -544 -614 0
-551 -494 -544 -585 0
-551 -494 -428 -585 0
-583 -631 0
-582 -616 -554 -611 0
-635 -651 -642 0
-582 -610 -544 -587 0
-583 -629 0
-636 -650 -657 0
-580 -628 -607 -601 0
-580 -628 0
-579 -537 -485 -600 0
-633 -649 -655 0
-580 -629 0
-583 -616 -641 -658 0
-583 -616 -641 -612 0
-583 -616 -555 -612 0
-636 -652 -662 0
-583 -631 -641 -612 0
-136 -191 0
-137 -192 0
-138 -193 0
-139 -194 0
-140 -195 0
-466 -403 -486 -540 0
-466 -521 -566 -537 0
-186 -181 670 0
-187 -182 670 0
-188 -183 670 0
-189 -184 670 0
-190 -185 670 0
-606 -596 -670 0
-579 -600 0
-580 -628 0
-565 -505 -555 -610 0
-565 -617 -641 -631 0
-565 -617 -641 -610 0
-565 -617 -647 -631 0
-565 -617 -647 -629 0
-565 -617 -555 -610 0
-583 -617 -641 -631 0
-583 -617 -641 -610 0
-583 -617 -555 -610 0
-637 -657 -662 0
-583 -638 -641 -610 0
-196 -201 671 0
-197 -202 671 0
-198 -203 671 0
-199 -204 671 0
-200 -205 671 0
-637 -657 -671 0
-580 -639 0
-583 -617 -568 -629 0
-583 -617 -641 -658 0
-583 -617 -641 -612 0
-583 -617 -555 -612 0
-636 -657 -650 0
-636 -657 -662 0
-583 -638 -641 -612 0
-370 -433 -488 -454 0
-388 -470 -501 -452 0
-520 -470 -501 -452 0
-520 -565 -501 -452 0
-520 -565 -505 -452 0
-520 -565 -505 -457 0
-618 -626 -561 0
-610 -569 -503 -554 0
-610 -569 -506 -554 0
-618 -626 -562 0
-610 -542 -507 -557 0
-618 -630 -561 0
-616 -569 -506 -554 0
-616 -569 -508 -546 0
-618 -630 -563 0
-616 -567 -506 -553 0
-616 -567 -509 -555 0
-618 -552 -562 0
-494 -542 -508 -553 0
-494 -542 -507 -557 0
-494 -424 -507 -546 0
-494 -424 -507 -557 0
-494 -424 -410 -557 0
-511 -552 -562 0
-494 -542 -508 -435 0
-494 -542 -507 -436 0
-494 -550 -508 -435 0
-494 -550 -508 -437 0
-494 -550 -503 -435 0
-494 -550 -503 -438 0
-494 -424 -507 -437 0
-494 -424 -507 -436 0
-494 -424 -410 -436 0
-358 -424 -507 -437 0
-358 -424 -507 -436 0
-358 -424 -488 -437 0
-358 -424 -410 -436 0
-358 -237 -410 -436 0
-370 -433 -493 -454 0
-388 -470 -518 -452 0
-504 -550 -523 -453 0
-504 -550 -523 -454 0
-504 -550 -524 -453 0
-504 -550 -524 -455 0
-504 -550 -493 -454 0
-504 -433 -493 -454 0
-401 -482 -518 -467 0
-401 -482 -519 -467 0
-537 -482 -519 -467 0
-537 -565 -521 -467 0
-537 -565 -521 -473 0
-532 -603 -574 0
-537 -566 -521 -473 0
-537 -482 -519 -579 0
-637 -603 -574 0
-537 -566 -521 -580 0
-637 -624 -574 0
-637 -624 -578 0
-628 -568 -526 -583 0
-616 -569 0
-651 -625 -644 0
-631 -567 -620 -641 0
-610 -550 -489 -543 0
-651 -626 -646 0
-610 -542 -585 -592 0
-616 -567 0
-652 -625 -648 0
-631 -569 -614 -544 0
-652 -627 -645 0
-629 -568 -617 -607 0
-504 -433 -489 -546 0
-618 -626 -648 0
-610 -569 -619 -554 0
-618 -626 -646 0
-610 -542 -585 -557 0
-618 -552 -646 0
-494 -542 -614 -553 0
-494 -542 -585 -557 0
-494 -424 -585 -546 0
-494 -424 -585 -557 0
-494 -424 -413 -557 0
-370 -434 -493 -454 0
-388 -466 -518 -452 0
-504 -551 -523 -453 0
-504 -551 -523 -454 0
-504 -551 -524 -453 0
-504 -551 -524 -455 0
-504 -551 -493 -454 0
-504 -565 -524 -453 0
-504 -565 -524 -455 0
-504 -434 -493 -454 0
-401 -483 -518 -467 0
-401 -483 -519 -467 0
-537 -483 -519 -467 0
-532 -606 -574 0
-537 -579 -521 -473 0
-504 -551 -523 -569 0
-504 -551 -523 -542 0
-504 -551 -524 -569 0
-504 -551 -524 -567 0
-504 -551 -493 -542 0
-504 -434 -493 -542 0
-623 -634 -576 0
-616 -582 -525 -567 0
-616 -582 -523 -542 0
-623 -634 -577 0
-616 -583 -525 -569 0
-616 -583 -526 -568 0
-616 -551 -523 -569 0
-616 -551 -523 -542 0
-616 -551 -493 -542 0
-401 -483 -540 -467 0
-520 -565 -536 -471 0
-520 -565 -536 -472 0
-595 -632 -602 0
-599 -579 -534 -485 0
-537 -579 0
-649 -633 -605 0
-628 -580 -539 -607 0
-628 -579 0
-628 -580 0
-650 -636 -657 0
-629 -583 -617 -641 0
-629 -583 -638 -641 0
-141 -146 0
-142 -147 0
-143 -148 0
-144 -149 0
-145 -150 0
-504 -554 -614 -569 0
-504 -554 -614 -542 0
-504 -554 -489 -542 0
-504 -438 -489 -542 0
-520 -472 -536 -566 0
-520 -583 -536 -566 0
-520 -583 -617 -566 0
-520 -583 -617 -568 0
-616 -640 0
-610 -554 -489 -543 0
-651 -642 -646 0
-610 -544 -585 -592 0
-504 -438 -489 -546 0
-618 -642 -648 0
-618 -642 -646 0
-610 -544 -585 -557 0
-618 -558 -646 0
-494 -544 -614 -553 0
-494 -544 -585 -557 0
-494 -428 -585 -546 0
-494 -428 -585 -557 0
-494 -428 -413 -557 0
-631 -640 0
-616 -554 -611 -543 0
-616 -554 -490 -543 0
-610 -554 -490 -543 0
-651 -642 -653 0
-610 -544 -587 -592 0
-629 -647 0
-628 -583 -539 -608 0
-650 -657 -656 0
-141 -196 0
-142 -197 0
-143 -198 0
-144 -199 0
-145 -200 0
-520 -473 -534 -579 0
-520 -568 -617 -582 0
-520 -568 -617 -583 0
-537 -485 -600 -579 0
-637 -605 -668 0
-628 -608 0
-629 -647 0
-652 -645 -659 0
-616 -641 -612 -544 0
-616 -555 -612 -640 0
-616 -555 -612 -544 0
-616 -555 -498 -544 0
-652 -662 -659 0
-631 -641 -612 -544 0
-455 -524 -565 -505 0
-563 -609 -626 0
-554 -614 -569 -506 0
-554 -614 -542 -507 0
-554 -489 -542 -508 0
-554 -489 -542 -507 0
-554 -489 -424 -507 0
-438 -489 -542 -508 0
-438 -489 -542 -507 0
-438 -489 -550 -508 0
-438 -489 -424 -507 0
-438 -352 -424 -507 0
-455 -503 -550 -523 0
-472 -400 -482 -519 0
-472 -536 -482 -519 0
-472 -536 -565 -521 0
-472 -536 -566 -519 0
-472 -536 -566 -521 0
-583 -536 -482 -519 0
-583 -536 -566 -519 0
-583 -536 -566 -521 0
-583 -616 -568 -521 0
-583 -616 -568 -526 0
-577 -634 -624 0
-583 -617 -566 -519 0
-583 -617 -568 -526 0
-583 -536 -482 -599 0
-583 -536 -566 -599 0
-583 -536 -566 -628 0
-652 -634 -624 0
-583 -617 -566 -599 0
-583 -617 -568 -629 0
-652 -645 -624 0
-647 -617 -566 -599 0
-652 -645 -627 0
-640 -619 0
-640 -614 0
-554 -489 -543 -584 0
-554 -489 -420 -584 0
-544 -489 -420 -584 0
-642 -646 -654 0
-455 -524 -551 -505 0
-567 -524 -551 -505 0
-567 -616 -551 -505 0
-567 -616 -555 -505 0
-567 -616 -555 -509 0
-438 -489 -546 -508 0
-438 -489 -546 -507 0
-438 -489 -419 -507 0
-438 -352 -419 -507 0
-554 -614 0
-642 -648 -613 0
-544 -489 -419 -584 0
-642 -646 -615 0
-438 -352 -419 -495 0
-558 -646 -621 0
-544 -614 -553 -490 0
-558 -646 -615 0
-558 -590 -615 0
-428 -585 -546 -497 0
-428 -413 -557 -495 0
-455 -520 -565 -505 0
-563 -618 -626 0
-554 -610 -569 -506 0
-554 -610 -542 -507 0
-554 -616 -569 -506 0
-554 -616 -569 -508 0
-554 -494 -542 -508 0
-554 -494 -542 -507 0
-554 -494 -424 -507 0
-438 -494 -542 -508 0
-438 -494 -542 -507 0
-438 -494 -550 -508 0
-438 -494 -424 -507 0
-438 -358 -424 -507 0
-455 -504 -550 -523 0
-472 -401 -482 -519 0
-472 -537 -482 -519 0
-472 -537 -565 -521 0
-472 -537 -566 -519 0
-472 -537 -566 -521 0
-583 -537 -482 -519 0
-583 -537 -566 -519 0
-583 -537 -566 -521 0
-577 -637 -624 0
-583 -628 -566 -519 0
-583 -628 -568 -526 0
-644 -651 -625 0
-644 -651 -626 0
-640 -610 -542 -585 0
-644 -618 -626 0
-554 -610 -569 -619 0
-554 -610 -542 -585 0
-554 -494 -542 -614 0
-554 -494 -542 -585 0
-554 -494 -424 -585 0
-455 -504 -551 -523 0
-472 -401 -483 -519 0
-472 -537 -483 -519 0
-472 -537 -579 -519 0
-472 -537 -579 -521 0
-567 -504 -551 -523 0
-567 -616 -582 -525 0
-567 -616 -582 -523 0
-567 -616 -551 -523 0
-472 -401 -483 -540 0
-604 -595 -632 0
-484 -599 -579 -534 0
-604 -649 -632 0
-604 -649 -633 0
-607 -628 -580 -539 0
-583 -628 0
-607 -537 -483 -600 0
-657 -649 -632 0
-657 -650 -636 0
-647 -628 0
-583 -537 -485 -600 0
-583 -537 -608 -600 0
-607 -537 -485 -600 0
-657 -649 -655 0
-647 -629 0
-146 -151 0
-147 -152 0
-148 -153 0
-149 -154 0
-150 -155 0
-567 -506 -553 -614 0
-567 -525 -582 -617 0
-567 -631 -582 -617 0
-567 -631 -641 -617 0
-567 -631 -641 -620 0
-644 -613 -666 0
-554 -611 -543 -585 0
-554 -490 -543 -614 0
-554 -490 -543 -585 0
-554 -490 -420 -585 0
-640 -611 0
-554 -490 -543 -584 0
-554 -490 -420 -584 0
-544 -490 -420 -584 0
-642 -653 -654 0
-146 -201 0
-147 -202 0
-148 -203 0
-149 -204 0
-150 -205 0
-567 -509 -555 -610 0
-567 -526 -580 -628 0
-567 -620 -641 -631 0
-567 -620 -641 -610 0
-567 -620 -555 -610 0
-583 -539 -485 -599 0
-583 -539 -608 -599 0
-583 -539 -608 -628 0
-652 -636 -669 0
-583 -639 -608 -599 0
-647 -639 0
-583 -539 -485 -600 0
-583 -539 -608 -600 0
-607 -539 -485 -600 0
-657 -656 -655 0
-506 -554 -614 -569 0
-506 -554 -614 -542 0
-506 -554 -489 -542 0
-506 -438 -489 -542 0
-525 -472 -536 -566 0
-525 -583 -536 -566 0
-525 -583 -616 -568 0
-525 -583 -617 -566 0
-525 -583 -617 -568 0
-631 -583 -536 -566 0
-631 -583 -617 -566 0
-631 -583 -617 -568 0
-625 -652 -645 0
-631 -647 -617 -566 0
-619 -640 0
-611 -554 -489 -543 0
-664 -642 -646 0
-611 -544 -585 -592 0
-506 -567 -616 -555 0
-506 -438 -489 -546 0
-613 -642 -648 0
-613 -642 -646 0
-611 -544 -585 -557 0
-613 -558 -646 0
-490 -544 -614 -553 0
-490 -544 -585 -557 0
-490 -428 -585 -546 0
-490 -428 -585 -557 0
-490 -428 -413 -557 0
-506 -554 -610 -569 0
-506 -554 -610 -542 0
-506 -554 -616 -569 0
-506 -554 -494 -542 0
-506 -438 -494 -542 0
-525 -472 -537 -566 0
-525 -583 -537 -566 0
-525 -583 -628 -566 0
-525 -583 -628 -568 0
-625 -644 -651 0
-619 -640 -610 -542 0
-619 -554 -610 -569 0
-619 -554 -610 -542 0
-619 -554 -494 -542 0
-525 -472 -537 -579 0
-525 -567 -616 -582 0
-538 -484 -599 -579 0
-635 -604 -649 0
-538 -607 -628 -580 0
-635 -657 -649 0
-635 -657 -650 0
-631 -647 0
-638 -583 -537 -608 0
-662 -657 -649 0
-658 -647 0
-631 -567 -620 -641 0
-631 -583 -539 -608 0
-631 -583 -639 -608 0
-638 -583 -539 -608 0
-662 -657 -656 0
-151 -156 0
-152 -157 0
-153 -158 0
-154 -159 0
-155 -160 0
-506 -553 -614 -542 0
-506 -553 -489 -542 0
-506 -435 -489 -542 0
-525 -471 -536 -566 0
-525 -582 -536 -566 0
-525 -582 -616 -568 0
-525 -582 -617 -566 0
-525 -582 -617 -568 0
-631 -582 -536 -566 0
-631 -582 -617 -566 0
-631 -582 -617 -568 0
-631 -640 -620 -568 0
-625 -651 -645 0
-631 -641 -617 -566 0
-631 -582 -536 -607 0
-631 -582 -617 -607 0
-631 -582 -617 -647 0
-661 -651 -645 0
-631 -641 -617 -607 0
-661 -659 -645 0
-658 -641 -617 -607 0
-506 -569 -616 -555 0
-506 -435 -489 -546 0
-613 -666 -646 0
-611 -543 -585 -557 0
-613 -545 -646 0
-490 -543 -585 -557 0
-490 -420 -585 -546 0
-490 -420 -585 -557 0
-490 -420 -413 -557 0
-506 -569 -610 -555 0
-506 -435 -497 -546 0
-619 -569 -610 -555 0
-619 -640 -610 -555 0
-619 -640 -612 -555 0
-613 -545 -663 0
-490 -543 -584 -557 0
-490 -420 -584 -546 0
-490 -420 -584 -557 0
-490 -420 -408 -557 0
-611 -543 0
-490 -420 -584 -548 0
-490 -420 -408 -548 0
-587 -420 -408 -548 0
-653 -654 -643 0
-453 -524 -565 -505 0
-561 -609 -626 0
-553 -614 -542 -507 0
-553 -489 -542 -508 0
-553 -489 -542 -507 0
-553 -489 -424 -507 0
-435 -489 -542 -508 0
-435 -489 -542 -507 0
-435 -489 -550 -508 0
-435 -489 -424 -507 0
-435 -352 -424 -507 0
-453 -503 -550 -523 0
-471 -400 -482 -519 0
-471 -536 -482 -519 0
-471 -536 -565 -521 0
-471 -536 -566 -519 0
-471 -536 -566 -521 0
-582 -536 -482 -519 0
-582 -536 -566 -519 0
-582 -536 -566 -521 0
-582 -616 -567 -526 0
-582 -616 -568 -521 0
-582 -616 -568 -526 0
-576 -634 -624 0
-582 -617 -566 -519 0
-582 -617 -568 -526 0
-582 -536 -482 -599 0
-582 -536 -566 -599 0
-582 -536 -566 -628 0
-651 -634 -624 0
-582 -617 -566 -599 0
-582 -617 -568 -629 0
-651 -644 -627 0
-640 -620 -568 -628 0
-651 -645 -624 0
-641 -617 -566 -599 0
-651 -645 -627 0
-569 -503 -554 -610 0
-569 -524 -583 -628 0
-582 -536 -484 -599 0
-582 -536 -607 -599 0
-582 -536 -607 -628 0
-651 -634 -657 0
-582 -617 -607 -599 0
-582 -617 -647 -629 0
-651 -645 -657 0
-641 -617 -607 -599 0
-651 -645 -660 0
-640 -620 0
-641 -616 -583 -639 0
-659 -645 -657 0
-641 -617 -607 -601 0
-453 -524 -551 -505 0
-569 -524 -551 -505 0
-569 -616 -551 -505 0
-569 -616 -554 -509 0
-569 -616 -555 -505 0
-569 -616 -555 -509 0
-435 -489 -546 -508 0
-435 -489 -546 -507 0
-435 -489 -419 -507 0
-435 -352 -419 -507 0
-553 -614 0
-543 -489 -419 -584 0
-666 -646 -615 0
-435 -352 -419 -495 0
-545 -646 -621 0
-545 -646 -615 0
-545 -590 -615 0
-420 -585 -546 -497 0
-420 -413 -557 -495 0
-569 -506 -554 -614 0
-569 -525 -583 -617 0
-569 -631 -583 -617 0
-569 -631 -647 -617 0
-569 -631 -647 -620 0
-648 -613 -642 0
-553 -611 -544 -585 0
-553 -490 -544 -614 0
-553 -490 -544 -585 0
-553 -490 -428 -585 0
-569 -506 -554 -610 0
-569 -525 -583 -628 0
-569 -619 -554 -610 0
-582 -538 -484 -599 0
-582 -538 -607 -599 0
-582 -538 -607 -628 0
-651 -635 -657 0
-582 -638 -607 -599 0
-582 -638 -647 -629 0
-651 -662 -657 0
-641 -638 -607 -599 0
-651 -662 -660 0
-640 -658 0
-641 -631 -583 -639 0
-659 -662 -657 0
-641 -638 -607 -601 0
-156 -161 0
-157 -162 0
-158 -163 0
-159 -164 0
-160 -165 0
-453 -523 -551 -505 0
-569 -523 -551 -505 0
-569 -614 -554 -509 0
-569 -610 -551 -505 0
-569 -610 -554 -509 0
-569 -610 -555 -505 0
-569 -610 -555 -509 0
-435 -497 -546 -507 0
-435 -497 -419 -507 0
-435 -346 -419 -507 0
-569 -523 -551 -617 0
-569 -610 -551 -617 0
-569 -610 -554 -620 0
-569 -610 -555 -617 0
-569 -610 -555 -620 0
-640 -610 -551 -617 0
-640 -610 -555 -617 0
-640 -610 -555 -620 0
-648 -642 -622 0
-640 -612 -555 -617 0
-435 -346 -419 -495 0
-545 -663 -615 0
-545 -586 -615 0
-420 -408 -557 -495 0
-435 -346 -427 -495 0
-553 -614 -544 -498 0
-545 -586 -665 0
-420 -408 -548 -495 0
-543 -584 0
-365 -432 -488 -454 0
-386 -469 -501 -452 0
-523 -469 -501 -452 0
-523 -550 -504 -457 0
-523 -551 -501 -452 0
-523 -551 -504 -457 0
-523 -551 -505 -452 0
-523 -551 -505 -457 0
-523 -469 -501 -566 0
-523 -551 -501 -566 0
-523 -551 -504 -568 0
-523 -551 -505 -566 0
-523 -551 -505 -568 0
-614 -554 -504 -568 0
-614 -554 -509 -568 0
-610 -551 -501 -566 0
-610 -551 -505 -566 0
-610 -551 -505 -568 0
-610 -554 -509 -568 0
-626 -618 -571 0
-610 -555 -505 -566 0
-487 -541 -562 0
-497 -546 -507 -436 0
-497 -419 -507 -437 0
-497 -419 -507 -436 0
-497 -419 -410 -436 0
-346 -419 -507 -437 0
-346 -419 -507 -436 0
-346 -419 -488 -437 0
-346 -419 -410 -436 0
-346 -223 -410 -436 0
-508 -432 -489 -542 0
-523 -469 -536 -566 0
-523 -551 -536 -566 0
-523 -551 -616 -568 0
-523 -551 -617 -566 0
-523 -551 -617 -568 0
-610 -551 -536 -566 0
-610 -551 -617 -566 0
-610 -551 -617 -568 0
-610 -554 -620 -568 0
-626 -618 -645 0
-610 -555 -617 -566 0
-611 -554 -616 -641 0
-611 -554 -620 -641 0
-610 -551 -536 -607 0
-610 -551 -617 -607 0
-610 -551 -617 -647 0
-642 -618 -645 0
-610 -555 -617 -607 0
-642 -622 -645 0
-612 -555 -617 -607 0
-508 -550 -494 -441 0
-346 -419 -495 -437 0
-346 -419 -495 -436 0
-346 -419 -407 -436 0
-346 -223 -407 -436 0
-497 -546 0
-584 -419 -407 -548 0
-663 -615 -549 0
-346 -223 -407 -425 0
-586 -615 -556 0
-586 -615 -549 0
-586 -594 -549 0
-408 -557 -495 -427 0
-508 -553 -489 -542 0
-508 -435 -489 -542 0
-523 -471 -536 -566 0
-523 -582 -536 -566 0
-523 -582 -616 -568 0
-523 -582 -617 -566 0
-523 -582 -617 -568 0
-610 -582 -536 -566 0
-610 -582 -617 -566 0
-610 -582 -617 -568 0
-610 -640 -620 -568 0
-626 -651 -645 0
-610 -641 -617 -566 0
-610 -582 -536 -607 0
-610 -582 -617 -607 0
-610 -582 -617 -647 0
-642 -651 -645 0
-610 -641 -617 -607 0
-642 -659 -645 0
-612 -641 -617 -607 0
-508 -569 -616 -555 0
-508 -435 -489 -546 0
-621 -545 -646 0
-497 -543 -585 -557 0
-497 -420 -585 -546 0
-497 -420 -585 -557 0
-497 -420 -413 -557 0
-614 -569 -631 -647 0
-614 -553 -490 -544 0
-610 -582 -538 -607 0
-610 -582 -638 -607 0
-610 -582 -638 -647 0
-642 -651 -662 0
-610 -641 -638 -607 0
-642 -659 -662 0
-612 -641 -638 -607 0
-161 -166 0
-162 -167 0
-163 -168 0
-164 -169 0
-165 -170 0
-508 -542 -494 -441 0
-346 -427 -495 -436 0
-346 -427 -407 -436 0
-346 -215 -407 -436 0
-508 -542 -494 -555 0
-614 -542 -494 -555 0
-614 -544 -494 -555 0
-614 -544 -498 -555 0
-346 -215 -407 -425 0
-586 -665 -549 0
-586 -591 -549 0
-346 -215 -412 -425 0
-586 -591 -667 0
-584 -548 0
-454 -493 -434 -373 0
-253 -345 -418 -366 0
-454 -493 -434 -505 0
-546 -489 -438 -509 0
-542 -493 -434 -505 0
-542 -489 -438 -509 0
-542 -494 -434 -505 0
-542 -494 -438 -509 0
-542 -494 -441 -505 0
-542 -494 -441 -509 0
-417 -547 -491 0
-427 -407 -436 -351 0
-215 -407 -436 -351 0
-215 -407 -418 -351 0
-454 -493 -551 -505 0
-542 -493 -551 -505 0
-542 -489 -554 -509 0
-542 -494 -551 -505 0
-542 -494 -554 -509 0
-542 -494 -555 -505 0
-542 -494 -555 -509 0
-437 -345 -419 -507 0
-543 -489 -554 -612 0
-543 -490 -554 -612 0
-542 -493 -551 -617 0
-542 -494 -551 -617 0
-542 -494 -554 -620 0
-542 -494 -555 -617 0
-542 -494 -555 -620 0
-543 -490 -554 -620 0
-544 -494 -551 -617 0
-544 -494 -555 -617 0
-544 -494 -555 -620 0
-646 -558 -622 0
-544 -498 -555 -617 0
-215 -407 -425 -351 0
-427 -495 0
-591 -549 -589 0
-454 -523 -551 -505 0
-542 -523 -551 -505 0
-542 -614 -554 -509 0
-542 -610 -551 -505 0
-542 -610 -554 -509 0
-542 -610 -555 -505 0
-542 -610 -555 -509 0
-437 -497 -419 -507 0
-437 -346 -419 -507 0
-542 -523 -551 -617 0
-542 -610 -551 -617 0
-542 -610 -554 -620 0
-542 -610 -555 -617 0
-542 -610 -555 -620 0
-543 -611 -554 -620 0
-544 -610 -551 -617 0
-544 -610 -555 -617 0
-544 -610 -555 -620 0
-646 -642 -622 0
-544 -612 -555 -617 0
-437 -346 -419 -495 0
-556 -586 -615 0
-427 -408 -557 -495 0
-542 -523 -582 -617 0
-542 -610 -582 -617 0
-542 -610 -640 -620 0
-542 -610 -641 -617 0
-542 -610 -641 -620 0
-544 -610 -582 -617 0
-544 -610 -641 -617 0
-544 -610 -641 -620 0
-646 -642 -659 0
-544 -612 -641 -617 0
-546 -497 -420 -585 0
-544 -610 -582 -638 0
-544 -610 -641 -638 0
-544 -610 -641 -658 0
-653 -642 -659 0
-544 -612 -641 -638 0
-166 -171 0
-167 -172 0
-168 -173 0
-169 -174 0
-170 -175 0
-546 -585 -428 -498 0
-213 -214 -347 -254 0
-507 -424 -358 -441 0
-406 -588 -421 0
-507 -424 -494 -441 0
-351 -214 -407 -436 0
-507 -424 -494 -555 0
-585 -424 -494 -555 0
-585 -428 -494 -555 0
-585 -428 -498 -555 0
-412 -425 0
-507 -542 -494 -441 0
-351 -427 -407 -436 0
-351 -215 -407 -436 0
-507 -542 -494 -555 0
-585 -542 -494 -555 0
-585 -544 -494 -555 0
-585 -544 -498 -555 0
-351 -215 -407 -425 0
-589 -591 -549 0
-507 -542 -610 -555 0
-585 -542 -610 -555 0
-585 -544 -610 -555 0
-585 -544 -612 -555 0
-495 -427 -408 -557 0
-585 -542 -610 -641 0
-585 -544 -610 -641 0
-585 -544 -612 -641 0
-587 -544 -610 -641 0
-587 -544 -612 -641 0
-171 -176 0
-172 -177 0
-173 -178 0
-174 -179 0
-175 -180 0
-557 -413 -428 -498 0
-557 -585 -428 -498 0
-557 -585 -544 -498 0
-557 -585 -544 -612 0
-592 -585 -544 -612 0
-592 -587 -544 -612 0
-382 -474 -402 -339 0
-519 -482 -401 -473 0
-519 -483 -402 -467 0
-519 -483 -401 -473 0
-519 -483 -403 -467 0
-519 -483 -403 -473 0
-540 -483 -401 -473 0
-540 -483 -403 -467 0
-540 -483 -403 -473 0
-529 -598 -480 0
-540 -486 -403 -473 0
-519 -482 -537 -473 0
-519 -483 -537 -473 0
-519 -483 -534 -467 0
-519 -483 -534 -473 0
-519 -482 -537 -580 0
-599 -484 -539 -580 0
-632 -595 -605 0
-599 -485 -534 -579 0
-632 -596 -602 0
-632 -596 -605 0
-540 -486 0
-600 -483 -537 -608 0
-670 -596 -605 0
-181 -186 0
-182 -187 0
-183 -188 0
-184 -189 0
-185 -190 0
-519 -566 -537 -473 0
-519 -579 -537 -473 0
-519 -579 -534 -473 0
-519 -566 -537 -580 0
-599 -607 -539 -580 0
-632 -649 -605 0
-632 -668 -605 0
-519 -566 -628 -580 0
-599 -607 -639 -580 0
-632 -649 -669 0
-600 -608 0
-452 -518 -466 -390 0
-566 -536 -472 -526 0
-566 -537 -466 -521 0
-566 -537 -472 -526 0
-566 -537 -473 -521 0
-566 -537 -473 -526 0
-579 -537 -472 -526 0
-579 -537 -473 -521 0
-579 -537 -473 -526 0
-574 -606 -533 0
-579 -534 -473 -526 0
-467 -518 -483 -403 0
-566 -536 -583 -526 0
-566 -537 -583 -526 0
-566 -537 -580 -521 0
-566 -537 -580 -526 0
-566 -536 -583 -629 0
-649 -604 -636 0
-607 -539 -580 -628 0
-649 -605 -633 0
-649 -605 -636 0
-579 -534 0
-608 -537 -583 -639 0
-668 -605 -636 0
-467 -519 -483 -403 0
-467 -540 -483 -403 0
-467 -519 -483 -534 0
-579 -599 -484 -539 0
-579 -599 -485 -534 0
-579 -599 -485 -539 0
-602 -632 -596 0
-579 -600 -485 -539 0
-186 -191 0
-187 -192 0
-188 -193 0
-189 -194 0
-190 -195 0
-566 -617 -583 -526 0
-566 -628 -583 -526 0
-566 -628 -580 -526 0
-566 -617 -583 -629 0
-649 -657 -636 0
-649 -669 -636 0
-566 -617 -647 -629 0
-649 -657 -671 0
-608 -639 0
-505 -565 -520 -457 0
-617 -583 -520 -568 0
-617 -583 -526 -568 0
-628 -583 -526 -568 0
-624 -637 -578 0
-521 -565 -537 -473 0
-617 -583 -629 -568 0
-657 -636 -650 0
-628 -580 0
-521 -566 -537 -473 0
-521 -579 -537 -473 0
-521 -566 -537 -580 0
-628 -607 -539 -580 0
-633 -649 -605 0
-534 -579 -599 -485 0
-191 -196 0
-192 -197 0
-193 -198 0
-194 -199 0
-195 -200 0
-555 -616 -567 -509 0
-641 -631 -567 -620 0
-645 -652 -627 0
-568 -616 -583 -526 0
-647 -629 0
-568 -617 -583 -526 0
-568 -628 -583 -526 0
-568 -617 -583 -629 0
-650 -657 -636 0
-580 -628 -607 -539 0
-196 -201 0
-197 -202 0
-198 -203 0
-199 -204 0
-200 -205 0
56 0
32 0
52 53 0
-1 -86 672 0
-2 -87 672 0
-3 -88 672 0
-4 -89 672 0
-5 -90 672 0
-6 -131 673 0
-7 -132 673 0
-8 -133 673 0
-9 -134 673 0
-10 -135 673 0
-21 -186 674 0
-22 -187 674 0
-23 -188 674 0
-24 -189 674 0
-25 -190 674 0
-672 -673 -674 -405 -461 0
-11 -81 675 0
-12 -82 675 0
-13 -83 675 0
-14 -84 675 0
-15 -85 675 0
-21 -136 676 0
-22 -137 676 0
-23 -138 676 0
-24 -139 676 0
-25 -140 676 0
-675 -672 -673 -676 -394 0
-675 -672 -673 -674 -405 0
-275 -675 -672 -673 -676 0
-275 -675 -672 -673 -674 0
-46 -71 677 0
-47 -72 677 0
-48 -73 677 0
-49 -74 677 0
-50 -75 677 0
-21 -116 678 0
-22 -117 678 0
-23 -118 678 0
-24 -119 678 0
-25 -120 678 0
-26 -121 679 0
-27 -122 679 0
-28 -123 679 0
-29 -124 679 0
-30 -125 679 0
-361 -677 -678 -679 -414 0
-81 -196 680 0
-82 -197 680 0
-83 -198 680 0
-84 -199 680 0
-85 -200 680 0
-181 -146 681 0
-182 -147 681 0
-183 -148 681 0
-184 -149 681 0
-185 -150 681 0
-186 -151 682 0
-187 -152 682 0
-188 -153 682 0
-189 -154 682 0
-190 -155 682 0
-533 -680 -595 -681 -682 0
-126 -201 683 0
-127 -202 683 0
-128 -203 683 0
-129 -204 683 0
-130 -205 683 0
-533 -680 -683 -681 -682 0
-533 -605 -595 -681 -682 0
-533 -605 -683 -681 -682 0
-26 -141 684 0
-27 -142 684 0
-28 -143 684 0
-29 -144 684 0
-30 -145 684 0
-31 -196 685 0
-32 -197 685 0
-33 -198 685 0
-34 -199 685 0
-35 -200 685 0
-56 -201 686 0
-57 -202 686 0
-58 -203 686 0
-59 -204 686 0
-60 -205 686 0
-464 -684 -685 -686 -577 0
-71 -136 687 0
-72 -137 687 0
-73 -138 687 0
-74 -139 687 0
-75 -140 687 0
-36 -191 688 0
-37 -192 688 0
-38 -193 688 0
-39 -194 688 0
-40 -195 688 0
-502 -687 -688 -685 -686 0
-687 -688 -685 -686 -577 0
-76 -91 689 0
-77 -92 689 0
-78 -93 689 0
-79 -94 689 0
-80 -95 689 0
-689 -687 -688 -685 -686 0
-116 -91 690 0
-117 -92 690 0
-118 -93 690 0
-119 -94 690 0
-120 -95 690 0
-690 -687 -688 -685 -686 0
-11 -61 691 0
-12 -62 691 0
-13 -63 691 0
-14 -64 691 0
-15 -65 691 0
-41 -96 692 0
-42 -97 692 0
-43 -98 692 0
-44 -99 692 0
-45 -100 692 0
-76 -141 693 0
-77 -142 693 0
-78 -143 693 0
-79 -144 693 0
-80 -145 693 0
-691 -692 -693 -687 -502 0
-66 -131 694 0
-67 -132 694 0
-68 -133 694 0
-69 -134 694 0
-70 -135 694 0
-691 -692 -693 -687 -694 0
-66 -191 695 0
-67 -192 695 0
-68 -193 695 0
-69 -194 695 0
-70 -195 695 0
-691 -692 -693 -687 -695 0
-284 -691 -692 -693 -687 0
-36 -101 696 0
-37 -102 696 0
-38 -103 696 0
-39 -104 696 0
-40 -105 696 0
-284 -691 -692 -696 -445 0
-86 -71 697 0
-87 -72 697 0
-88 -73 697 0
-89 -74 697 0
-90 -75 697 0
-56 -121 698 0
-57 -122 698 0
-58 -123 698 0
-59 -124 698 0
-60 -125 698 0
-462 -697 -689 -698 -446 0
-141 -36 699 0
-142 -37 699 0
-143 -38 699 0
-144 -39 699 0
-145 -40 699 0
-136 -41 700 0
-137 -42 700 0
-138 -43 700 0
-139 -44 700 0
-140 -45 700 0
-447 -699 -700 -689 -698 0
-446 -698 -689 -700 -699 0
-31 -146 701 0
-32 -147 701 0
-33 -148 701 0
-34 -149 701 0
-35 -150 701 0
-698 -689 -700 -699 -701 0
-698 -689 -700 -699 -685 0
-1 -66 702 0
-2 -67 702 0
-3 -68 702 0
-4 -69 702 0
-5 -70 702 0
-6 -111 703 0
-7 -112 703 0
-8 -113 703 0
-9 -114 703 0
-10 -115 703 0
-21 -166 704 0
-22 -167 704 0
-23 -168 704 0
-24 -169 704 0
-25 -170 704 0
-26 -171 705 0
-27 -172 705 0
-28 -173 705 0
-29 -174 705 0
-30 -175 705 0
-702 -703 -704 -705 -446 0
-31 -176 706 0
-32 -177 706 0
-33 -178 706 0
-34 -179 706 0
-35 -180 706 0
-702 -703 -704 -705 -706 0
-16 -106 707 0
-17 -107 707 0
-18 -108 707 0
-19 -109 707 0
-20 -110 707 0
-259 -702 -703 -707 -357 0
-259 -702 -703 -704 -705 0
-36 -81 708 0
-37 -82 708 0
-38 -83 708 0
-39 -84 708 0
-40 -85 708 0
-16 -126 709 0
-17 -127 709 0
-18 -128 709 0
-19 -129 709 0
-20 -130 709 0
-6 -181 710 0
-7 -182 710 0
-8 -183 710 0
-9 -184 710 0
-10 -185 710 0
-392 -708 -709 -710 -674 0
-708 -709 -710 -674 -396 0
-46 -191 711 0
-47 -192 711 0
-48 -193 711 0
-49 -194 711 0
-50 -195 711 0
-708 -709 -710 -674 -711 0
-41 -106 712 0
-42 -107 712 0
-43 -108 712 0
-44 -109 712 0
-45 -110 712 0
-76 -101 713 0
-77 -102 713 0
-78 -103 713 0
-79 -104 713 0
-80 -105 713 0
-121 -146 714 0
-122 -147 714 0
-123 -148 714 0
-124 -149 714 0
-125 -150 714 0
-116 -141 715 0
-117 -142 715 0
-118 -143 715 0
-119 -144 715 0
-120 -145 715 0
-111 -136 716 0
-112 -137 716 0
-113 -138 716 0
-114 -139 716 0
-115 -140 716 0
-712 -713 -714 -715 -716 0
-46 -141 717 0
-47 -142 717 0
-48 -143 717 0
-49 -144 717 0
-50 -145 717 0
-81 -146 718 0
-82 -147 718 0
-83 -148 718 0
-84 -149 718 0
-85 -150 718 0
-126 -151 719 0
-127 -152 719 0
-128 -153 719 0
-129 -154 719 0
-130 -155 719 0
-131 -156 720 0
-132 -157 720 0
-133 -158 720 0
-134 -159 720 0
-135 -160 720 0
-717 -718 -719 -720 -634 0
-136 -161 721 0
-137 -162 721 0
-138 -163 721 0
-139 -164 721 0
-140 -165 721 0
-717 -718 -719 -720 -721 0
-86 -201 722 0
-87 -202 722 0
-88 -203 722 0
-89 -204 722 0
-90 -205 722 0
-465 -717 -718 -722 -578 0
-465 -717 -718 -719 -720 0
-426 -713 -714 -715 -716 0
-713 -714 -715 -716 -575 0
-96 -171 723 0
-97 -172 723 0
-98 -173 723 0
-99 -174 723 0
-100 -175 723 0
-575 -716 -715 -723 -562 0
-201 -66 724 0
-202 -67 724 0
-203 -68 724 0
-204 -69 724 0
-205 -70 724 0
-196 -71 725 0
-197 -72 725 0
-198 -73 725 0
-199 -74 725 0
-200 -75 725 0
-563 -724 -725 -715 -723 0
-562 -723 -715 -725 -724 0
-1 -91 726 0
-2 -92 726 0
-3 -93 726 0
-4 -94 726 0
-5 -95 726 0
-36 -126 727 0
-37 -127 727 0
-38 -128 727 0
-39 -129 727 0
-40 -130 727 0
-271 -726 -308 -278 -727 -364 0
-271 -726 -308 -309 -727 -360 0
-262 -726 -274 -278 -727 -364 0
-262 -726 -274 -309 -727 -360 0
-16 -96 728 0
-17 -97 728 0
-18 -98 728 0
-19 -99 728 0
-20 -100 728 0
-51 -196 729 0
-52 -197 729 0
-53 -198 729 0
-54 -199 729 0
-55 -200 729 0
-728 -684 -729 -527 -560 0
-61 -186 730 0
-62 -187 730 0
-63 -188 730 0
-64 -189 730 0
-65 -190 730 0
-728 -684 -729 -527 -730 0
-51 -76 731 0
-52 -77 731 0
-53 -78 731 0
-54 -79 731 0
-55 -80 731 0
-317 -378 -731 -698 -706 0
-46 -41 732 0
-47 -42 732 0
-48 -43 732 0
-49 -44 732 0
-50 -45 732 0
-317 -732 -731 -698 -706 0
-684 -729 -527 -560 -603 0
-684 -729 -527 -730 -603 0
-447 -684 -729 -527 -560 0
-447 -684 -729 -527 -730 0
-21 -76 733 0
-22 -77 733 0
-23 -78 733 0
-24 -79 733 0
-25 -80 733 0
-6 -121 734 0
-7 -122 734 0
-8 -123 734 0
-9 -124 734 0
-10 -125 734 0
-16 -176 735 0
-17 -177 735 0
-18 -178 735 0
-19 -179 735 0
-20 -180 735 0
-361 -378 -733 -734 -735 0
-361 -732 -733 -734 -735 0
-26 -161 736 0
-27 -162 736 0
-28 -163 736 0
-29 -164 736 0
-30 -165 736 0
-31 -156 737 0
-32 -157 737 0
-33 -158 737 0
-34 -159 737 0
-35 -160 737 0
-704 -736 -737 -496 -558 0
-66 -151 738 0
-67 -152 738 0
-68 -153 738 0
-69 -154 738 0
-70 -155 738 0
-704 -736 -737 -738 -558 0
-31 -126 739 0
-32 -127 739 0
-33 -128 739 0
-34 -129 739 0
-35 -130 739 0
-56 -181 740 0
-57 -182 740 0
-58 -183 740 0
-59 -184 740 0
-60 -185 740 0
-375 -739 -740 -475 -711 0
-375 -739 -740 -475 -533 0
-739 -740 -475 -711 -478 0
-739 -740 -475 -533 -478 0
-31 -186 741 0
-32 -187 741 0
-33 -188 741 0
-34 -189 741 0
-35 -190 741 0
-372 -687 -695 -741 -740 0
-36 -131 742 0
-37 -132 742 0
-38 -133 742 0
-39 -134 742 0
-40 -135 742 0
-742 -739 -740 -475 -533 0
-41 -86 743 0
-42 -87 743 0
-43 -88 743 0
-44 -89 743 0
-45 -90 743 0
-743 -742 -739 -740 -475 0
-743 -742 -741 -740 -461 0
-181 -96 744 0
-182 -97 744 0
-183 -98 744 0
-184 -99 744 0
-185 -100 744 0
-475 -711 -478 -595 -744 0
-475 -711 -478 -595 -655 0
-475 -533 -478 -595 -744 0
-475 -533 -478 -595 -655 0
-740 -475 -711 -478 -595 0
-740 -475 -533 -478 -595 0
-560 -575 -531 -718 -595 0
-106 -131 745 0
-107 -132 745 0
-108 -133 745 0
-109 -134 745 0
-110 -135 745 0
-560 -745 -531 -718 -595 0
-71 -146 746 0
-72 -147 746 0
-73 -148 746 0
-74 -149 746 0
-75 -150 746 0
-496 -746 -715 -716 -575 0
-496 -746 -715 -716 -745 0
-746 -715 -716 -575 -531 0
-746 -715 -716 -745 -531 0
-689 -743 -742 -739 -740 0
-689 -743 -742 -741 -740 0
-689 -687 -742 -739 -740 0
-689 -687 -742 -741 -740 0
-689 -687 -695 -741 -740 0
-718 -531 -575 -721 -651 0
-718 -531 -575 -716 -715 0
-718 -531 -745 -721 -651 0
-718 -531 -745 -716 -715 0
-96 -121 747 0
-97 -122 747 0
-98 -123 747 0
-99 -124 747 0
-100 -125 747 0
-531 -575 -716 -715 -747 0
-146 -171 748 0
-147 -172 748 0
-148 -173 748 0
-149 -174 748 0
-150 -175 748 0
-531 -575 -716 -715 -748 0
-531 -745 -716 -715 -747 0
-531 -745 -716 -715 -748 0
-575 -560 -695 -741 -740 0
-575 -531 -718 -595 -744 0
-575 -716 -695 -741 -740 0
-716 -575 -531 -718 -595 0
-716 -745 -531 -718 -595 0
-446 -698 -689 -743 -742 0
-446 -698 -689 -687 -742 0
-446 -698 -689 -687 -695 0
-698 -689 -743 -742 -739 0
-698 -689 -743 -742 -741 0
-698 -689 -687 -742 -739 0
-698 -689 -687 -742 -741 0
-698 -689 -687 -695 -741 0
-595 -718 -531 -575 -721 0
-595 -718 -531 -745 -721 0
-560 -527 -729 -532 -577 0
-560 -527 -729 -722 -577 0
-116 -136 749 0
-117 -137 749 0
-118 -138 749 0
-119 -139 749 0
-120 -140 749 0
-71 -131 750 0
-72 -132 750 0
-73 -133 750 0
-74 -134 750 0
-75 -135 750 0
-31 -181 751 0
-32 -182 751 0
-33 -183 751 0
-34 -184 751 0
-35 -185 751 0
-429 -493 -749 -750 -727 -751 0
-531 -745 -560 -527 -729 0
-531 -745 -730 -527 -729 0
-745 -560 -527 -729 -532 0
-745 -560 -527 -729 -722 0
-745 -730 -527 -729 -532 0
-745 -730 -527 -729 -722 0
-577 -531 -745 -560 -527 0
-577 -531 -745 -560 -624 0
-577 -531 -745 -730 -527 0
-577 -531 -745 -730 -624 0
-176 -56 752 0
-177 -57 752 0
-178 -58 752 0
-179 -59 752 0
-180 -60 752 0
-121 -91 753 0
-122 -92 753 0
-123 -93 753 0
-124 -94 753 0
-125 -95 753 0
-76 -86 754 0
-77 -87 754 0
-78 -88 754 0
-79 -89 754 0
-80 -90 754 0
-71 -81 755 0
-72 -82 755 0
-73 -83 755 0
-74 -84 755 0
-75 -85 755 0
-752 -753 -754 -755 -727 -751 0
-66 -126 756 0
-67 -127 756 0
-68 -128 756 0
-69 -129 756 0
-70 -130 756 0
-752 -753 -754 -755 -756 -751 0
-752 -753 -754 -750 -727 -751 0
-752 -753 -754 -750 -756 -751 0
-752 -753 -749 -750 -727 -751 0
-752 -753 -749 -750 -756 -751 0
-171 -91 757 0
-172 -92 757 0
-173 -93 757 0
-174 -94 757 0
-175 -95 757 0
-752 -757 -749 -750 -727 -751 0
-752 -757 -749 -750 -756 -751 0
-6 -136 758 0
-7 -137 758 0
-8 -138 758 0
-9 -139 758 0
-10 -140 758 0
-21 -141 759 0
-22 -142 759 0
-23 -143 759 0
-24 -144 759 0
-25 -145 759 0
-26 -196 760 0
-27 -197 760 0
-28 -198 760 0
-29 -199 760 0
-30 -200 760 0
-726 -758 -759 -760 -373 -452 0
-726 -758 -759 -760 -390 -452 0
-46 -146 761 0
-47 -147 761 0
-48 -148 761 0
-49 -149 761 0
-50 -150 761 0
-726 -758 -759 -761 -387 -450 0
-21 -191 762 0
-22 -192 762 0
-23 -193 762 0
-24 -194 762 0
-25 -195 762 0
-726 -758 -762 -760 -370 -450 0
-726 -758 -762 -760 -388 -450 0
-16 -166 763 0
-17 -167 763 0
-18 -168 763 0
-19 -169 763 0
-20 -170 763 0
-36 -161 764 0
-37 -162 764 0
-38 -163 764 0
-39 -164 764 0
-40 -165 764 0
-703 -763 -764 -426 -590 0
-71 -156 765 0
-72 -157 765 0
-73 -158 765 0
-74 -159 765 0
-75 -160 765 0
-703 -763 -764 -765 -590 0
-126 -156 766 0
-127 -157 766 0
-128 -158 766 0
-129 -159 766 0
-130 -160 766 0
-131 -161 767 0
-132 -162 767 0
-133 -163 767 0
-134 -164 767 0
-135 -165 767 0
-758 -759 -761 -400 -766 -767 0
-126 -106 768 0
-127 -107 768 0
-128 -108 768 0
-129 -109 768 0
-130 -110 768 0
-758 -759 -761 -400 -768 -767 0
-6 -171 769 0
-7 -172 769 0
-8 -173 769 0
-9 -174 769 0
-10 -175 769 0
-769 -763 -764 -426 -590 0
-769 -763 -764 -765 -590 0
-678 -769 -763 -764 -426 0
-678 -769 -763 -764 -765 0
-678 -703 -763 -764 -426 0
-678 -703 -763 -764 -765 0
-378 -678 -769 -763 -764 0
-378 -678 -703 -763 -764 0
-61 -181 770 0
-62 -182 770 0
-63 -183 770 0
-64 -184 770 0
-65 -185 770 0
-770 -452 -390 -466 -401 -485 0
-530 -575 -716 -715 -747 0
-530 -694 -716 -715 -747 0
-466 -388 -761 -400 -766 -767 0
-466 -388 -761 -400 -768 -767 0
-450 -388 -761 -400 -768 -770 0
-400 -768 -770 -452 -390 -466 0
-768 -770 -452 -390 -466 -401 0
-116 -51 771 0
-117 -52 771 0
-118 -53 771 0
-119 -54 771 0
-120 -55 771 0
-111 -86 772 0
-112 -87 772 0
-113 -88 772 0
-114 -89 772 0
-115 -90 772 0
-698 -771 -772 -694 -560 0
-698 -771 -772 -575 -560 0
-466 -390 -452 -770 -768 -767 0
-388 -761 -400 -768 -770 -452 0
-761 -400 -768 -770 -452 -390 0
-51 -201 773 0
-52 -202 773 0
-53 -203 773 0
-54 -204 773 0
-55 -205 773 0
-452 -770 -768 -400 -761 -773 0
-11 -171 774 0
-12 -172 774 0
-13 -173 774 0
-14 -174 774 0
-15 -175 774 0
-240 -733 -679 -280 -774 0
-240 -733 -378 -280 -774 0
-1 -56 775 0
-2 -57 775 0
-3 -58 775 0
-4 -59 775 0
-5 -60 775 0
-6 -61 776 0
-7 -62 776 0
-8 -63 776 0
-9 -64 776 0
-10 -65 776 0
-21 -106 777 0
-22 -107 777 0
-23 -108 777 0
-24 -109 777 0
-25 -110 777 0
-46 -161 778 0
-47 -162 778 0
-48 -163 778 0
-49 -164 778 0
-50 -165 778 0
-305 -775 -776 -777 -778 0
-305 -289 -776 -777 -778 0
-733 -679 -280 -774 -210 0
-733 -378 -280 -774 -210 0
-414 -679 -280 -774 -210 0
-414 -378 -280 -774 -210 0
-731 -679 -280 -774 -210 0
-731 -378 -280 -774 -210 0
-91 -11 779 0
-92 -12 779 0
-93 -13 779 0
-94 -14 779 0
-95 -15 779 0
-289 -779 -743 -731 -679 0
-289 -779 -743 -731 -378 0
-16 -186 780 0
-17 -187 780 0
-18 -188 780 0
-19 -189 780 0
-20 -190 780 0
-378 -731 -743 -742 -780 0
-675 -743 -731 -679 -280 0
-675 -743 -731 -378 -280 0
-743 -731 -679 -280 -774 0
-743 -731 -378 -280 -774 0
-530 -694 -687 -689 -747 0
-530 -694 -687 -715 -747 0
-779 -743 -731 -679 -280 0
-779 -743 -731 -378 -280 0
-280 -378 -731 -743 -742 0
-280 -679 -731 -743 -742 0
-679 -731 -743 -742 -780 0
-61 -176 781 0
-62 -177 781 0
-63 -178 781 0
-64 -179 781 0
-65 -180 781 0
-694 -687 -689 -747 -781 0
-694 -687 -715 -747 -781 0
-21 -96 782 0
-22 -97 782 0
-23 -98 782 0
-24 -99 782 0
-25 -100 782 0
-46 -101 783 0
-47 -102 783 0
-48 -103 783 0
-49 -104 783 0
-50 -105 783 0
-86 -151 784 0
-87 -152 784 0
-88 -153 784 0
-89 -154 784 0
-90 -155 784 0
-782 -783 -718 -784 -576 0
-379 -782 -783 -718 -784 0
-166 -201 785 0
-167 -202 785 0
-168 -203 785 0
-169 -204 785 0
-170 -205 785 0
-161 -196 786 0
-162 -197 786 0
-163 -198 786 0
-164 -199 786 0
-165 -200 786 0
-106 -191 787 0
-107 -192 787 0
-108 -193 787 0
-109 -194 787 0
-110 -195 787 0
-496 -558 -785 -786 -787 0
-496 -558 -785 -786 -651 0
-738 -558 -785 -786 -651 0
-111 -196 788 0
-112 -197 788 0
-113 -198 788 0
-114 -199 788 0
-115 -200 788 0
-747 -715 -788 -787 -560 0
-176 -101 789 0
-177 -102 789 0
-178 -103 789 0
-179 -104 789 0
-180 -105 789 0
-594 -789 -748 -715 -788 0
-594 -789 -748 -785 -788 0
-594 -789 -748 -785 -786 0
-651 -786 -785 -748 -789 0
-151 -176 790 0
-152 -177 790 0
-153 -178 790 0
-154 -179 790 0
-155 -180 790 0
-651 -786 -785 -748 -790 0
-444 -516 -690 -687 -688 0
-171 -56 791 0
-172 -57 791 0
-173 -58 791 0
-174 -59 791 0
-175 -60 791 0
-444 -791 -690 -687 -688 0
-789 -747 -715 -788 -787 0
-789 -748 -715 -788 -787 0
-789 -748 -785 -788 -787 0
-789 -748 -785 -786 -787 0
-51 -146 792 0
-52 -147 792 0
-53 -148 792 0
-54 -149 792 0
-55 -150 792 0
-782 -783 -792 -517 -578 0
-782 -783 -792 -686 -578 0
-379 -782 -783 -792 -517 0
-56 -151 793 0
-57 -152 793 0
-58 -153 793 0
-59 -154 793 0
-60 -155 793 0
-379 -782 -783 -792 -793 0
-379 -782 -783 -792 -686 0
-743 -742 -741 -527 -578 0
-700 -742 -741 -527 -578 0
-689 -743 -742 -741 -527 0
-689 -700 -742 -741 -527 0
-531 -603 -730 -527 -578 0
-531 -745 -730 -527 -578 0
-634 -603 -730 -527 -578 0
-634 -745 -730 -527 -578 0
-603 -531 -792 -517 -578 0
-603 -531 -792 -686 -578 0
-517 -792 -531 -603 -730 0
-517 -792 -531 -745 -730 0
-792 -531 -603 -730 -527 0
-792 -531 -745 -730 -527 0
-793 -792 -531 -603 -730 0
-793 -792 -531 -745 -730 0
-730 -745 -531 -792 -686 0
-730 -603 -531 -792 -686 0
-16 -136 794 0
-17 -137 794 0
-18 -138 794 0
-19 -139 794 0
-20 -140 794 0
-672 -779 -794 -684 -464 0
-672 -779 -794 -684 -792 0
-672 -673 -794 -684 -464 0
-672 -673 -794 -684 -792 0
-673 -794 -684 -464 -531 0
-673 -794 -684 -792 -531 0
-691 -692 -713 -746 -738 0
-691 -692 -713 -746 -724 0
-691 -692 -699 -746 -738 0
-691 -692 -699 -746 -724 0
-691 -692 -699 -685 -724 0
-779 -794 -684 -464 -531 0
-779 -794 -684 -792 -531 0
-284 -691 -692 -713 -746 0
-284 -691 -692 -699 -746 0
-284 -691 -692 -699 -685 0
-794 -684 -464 -531 -720 0
-794 -684 -792 -531 -720 0
-684 -464 -531 -720 -635 0
-684 -792 -531 -720 -635 0
-443 -742 -794 -684 -464 0
-443 -742 -794 -684 -792 0
-742 -794 -684 -464 -531 0
-742 -794 -684 -792 -531 0
-81 -106 795 0
-82 -107 795 0
-83 -108 795 0
-84 -109 795 0
-85 -110 795 0
-86 -161 796 0
-87 -162 796 0
-88 -163 796 0
-89 -164 796 0
-90 -165 796 0
-91 -166 797 0
-92 -167 797 0
-93 -168 797 0
-94 -169 797 0
-95 -170 797 0
-464 -783 -795 -796 -797 0
-517 -464 -531 -720 -635 0
-517 -792 -531 -720 -635 0
-101 -126 798 0
-102 -127 798 0
-103 -128 798 0
-104 -129 798 0
-105 -130 798 0
-797 -796 -795 -798 -744 0
-797 -796 -720 -798 -744 0
-101 -186 799 0
-102 -187 799 0
-103 -188 799 0
-104 -189 799 0
-105 -190 799 0
-797 -796 -720 -799 -744 0
-26 -101 800 0
-27 -102 800 0
-28 -103 800 0
-29 -104 800 0
-30 -105 800 0
-691 -707 -800 -701 -517 0
-691 -707 -800 -464 -517 0
-779 -794 -684 -701 -515 0
-779 -794 -684 -464 -515 0
-677 -678 -769 -763 -348 0
-677 -678 -705 -763 -348 0
-51 -151 801 0
-52 -152 801 0
-53 -153 801 0
-54 -154 801 0
-55 -155 801 0
-761 -801 -471 -767 -551 -616 0
-136 -166 802 0
-137 -167 802 0
-138 -168 802 0
-139 -169 802 0
-140 -170 802 0
-141 -171 803 0
-142 -172 803 0
-143 -173 803 0
-144 -174 803 0
-145 -175 803 0
-761 -801 -471 -767 -802 -803 0
-81 -151 804 0
-82 -152 804 0
-83 -153 804 0
-84 -154 804 0
-85 -155 804 0
-761 -804 -471 -767 -551 -616 0
-761 -804 -471 -767 -802 -803 0
-361 -677 -678 -769 -763 0
-361 -677 -678 -705 -763 0
-708 -677 -678 -769 -763 0
-708 -677 -678 -705 -763 0
-307 -361 -677 -678 -769 0
-307 -361 -677 -678 -705 0
-307 -708 -677 -678 -769 0
-307 -708 -677 -678 -705 0
-96 -176 805 0
-97 -177 805 0
-98 -178 805 0
-99 -179 805 0
-100 -180 805 0
-500 -469 -767 -802 -803 -805 0
-191 -111 806 0
-192 -112 806 0
-193 -113 806 0
-194 -114 806 0
-195 -115 806 0
-196 -166 807 0
-197 -167 807 0
-198 -168 807 0
-199 -169 807 0
-200 -170 807 0
-500 -551 -806 -807 -803 -805 0
-500 -434 -806 -807 -803 -805 0
-805 -803 -802 -806 -441 -509 0
-805 -803 -802 -806 -555 -509 0
-1 -116 808 0
-2 -117 808 0
-3 -118 808 0
-4 -119 808 0
-5 -120 808 0
-11 -111 809 0
-12 -112 809 0
-13 -113 809 0
-14 -114 809 0
-15 -115 809 0
-808 -809 -712 -713 -746 0
-808 -809 -763 -344 -421 0
-809 -712 -713 -746 -715 0
-290 -758 -329 -296 -751 -452 0
-290 -758 -329 -310 -751 -449 0
-325 -758 -309 -296 -751 -452 0
-325 -758 -309 -310 -751 -449 0
-51 -156 810 0
-52 -157 810 0
-53 -158 810 0
-54 -159 810 0
-55 -160 810 0
-800 -810 -796 -797 -552 0
-800 -810 -796 -797 -723 0
-800 -463 -796 -797 -552 0
-800 -463 -796 -797 -723 0
-348 -712 -713 -746 -715 0
-234 -809 -763 -344 -421 0
-234 -809 -763 -344 -706 0
-712 -713 -746 -715 -552 0
-463 -796 -797 -552 -590 0
-463 -796 -797 -723 -590 0
-810 -796 -797 -552 -590 0
-810 -796 -797 -723 -590 0
-515 -810 -796 -797 -552 0
-515 -810 -796 -797 -723 0
-515 -463 -796 -797 -552 0
-515 -463 -796 -797 -723 0
-775 -779 -700 -742 -443 0
-775 -779 -700 -742 -739 0
-775 -779 -700 -742 -741 0
-314 -775 -779 -700 -742 0
-314 -775 -779 -728 -377 0
-81 -156 811 0
-82 -157 811 0
-83 -158 811 0
-84 -159 811 0
-85 -160 811 0
-782 -783 -811 -796 -797 0
-783 -811 -796 -797 -552 0
-464 -783 -811 -796 -797 0
-76 -161 812 0
-77 -162 812 0
-78 -163 812 0
-79 -164 812 0
-80 -165 812 0
-121 -156 813 0
-122 -157 813 0
-123 -158 813 0
-124 -159 813 0
-125 -160 813 0
-417 -812 -813 -790 -748 0
-812 -813 -790 -748 -646 0
-166 -141 814 0
-167 -142 814 0
-168 -143 814 0
-169 -144 814 0
-170 -145 814 0
-812 -813 -790 -748 -814 0
-812 -813 -790 -748 -785 0
-552 -797 -796 -745 -560 0
-1 -176 815 0
-2 -177 815 0
-3 -178 815 0
-4 -179 815 0
-5 -180 815 0
-41 -166 816 0
-42 -167 816 0
-43 -168 816 0
-44 -169 816 0
-45 -170 816 0
-734 -815 -774 -816 -411 0
-286 -734 -815 -774 -816 0
-733 -734 -815 -774 -816 0
-447 -800 -810 -793 -563 0
-392 -708 -743 -731 -378 0
-11 -131 817 0
-12 -132 817 0
-13 -133 817 0
-14 -134 817 0
-15 -135 817 0
-378 -731 -743 -817 -794 0
-731 -743 -817 -794 -379 0
-731 -743 -817 -794 -684 0
-26 -191 818 0
-27 -192 818 0
-28 -193 818 0
-29 -194 818 0
-30 -195 818 0
-731 -743 -817 -794 -818 0
-795 -778 -810 -793 -563 0
-530 -795 -778 -810 -793 0
-126 -61 819 0
-127 -62 819 0
-128 -63 819 0
-129 -64 819 0
-130 -65 819 0
-819 -795 -778 -810 -793 0
-702 -809 -763 -344 -706 0
-702 -809 -763 -736 -737 0
-702 -703 -763 -344 -706 0
-702 -703 -763 -736 -737 0
-702 -703 -777 -736 -737 0
-6 -91 820 0
-7 -92 820 0
-8 -93 820 0
-9 -94 820 0
-10 -95 820 0
-307 -820 -782 -783 -811 0
-307 -379 -782 -783 -811 0
-317 -677 -771 -376 -763 0
-317 -677 -462 -376 -763 0
-706 -344 -417 -411 -594 0
-706 -344 -417 -812 -594 0
-344 -417 -411 -594 -781 0
-344 -417 -812 -594 -781 0
-210 -344 -417 -411 -594 0
-210 -344 -417 -812 -594 0
-677 -771 -376 -763 -344 0
-677 -462 -376 -763 -344 0
-462 -376 -763 -344 -706 0
-462 -431 -689 -747 -781 0
-462 -697 -689 -747 -781 0
-431 -771 -376 -763 -344 0
-431 -462 -376 -763 -344 0
-26 -181 821 0
-27 -182 821 0
-28 -183 821 0
-29 -184 821 0
-30 -185 821 0
-462 -697 -742 -709 -821 0
-462 -697 -742 -794 -379 0
-462 -697 -742 -741 -821 0
-417 -411 -594 -781 -723 0
-417 -812 -594 -781 -723 0
-689 -687 -695 -730 -603 0
-411 -594 -781 -723 -715 0
-411 -594 -781 -723 -646 0
-812 -594 -781 -723 -646 0
-697 -771 -376 -763 -344 0
-697 -462 -376 -763 -344 0
-379 -794 -742 -697 -771 0
-376 -462 -697 -742 -709 0
-376 -462 -697 -742 -794 0
-376 -462 -697 -742 -741 0
-376 -771 -697 -742 -709 0
-376 -771 -697 -742 -794 0
-376 -771 -697 -742 -741 0
-771 -697 -742 -709 -821 0
-771 -697 -742 -741 -821 0
-715 -687 -695 -730 -603 0
-715 -788 -695 -730 -603 0
-747 -689 -687 -695 -730 0
-747 -715 -687 -695 -730 0
-747 -715 -788 -695 -730 0
-594 -781 -723 -715 -788 0
-742 -697 -771 -376 -763 0
-742 -697 -462 -376 -763 0
-511 -687 -689 -747 -781 0
-723 -715 -687 -695 -730 0
-723 -715 -788 -695 -730 0
-615 -781 -747 -715 -788 0
-781 -747 -689 -687 -695 0
-781 -747 -715 -687 -695 0
-781 -747 -715 -788 -695 0
-781 -723 -715 -687 -695 0
-781 -723 -715 -788 -695 0
-51 -166 822 0
-52 -167 822 0
-53 -168 822 0
-54 -169 822 0
-55 -170 822 0
-736 -822 -791 -564 -594 0
-736 -822 -791 -781 -594 0
-445 -736 -822 -791 -564 0
-445 -736 -822 -791 -781 0
-46 -111 823 0
-47 -112 823 0
-48 -113 823 0
-49 -114 823 0
-50 -115 823 0
-823 -822 -791 -564 -594 0
-823 -822 -791 -781 -594 0
-361 -677 -678 -734 -735 0
-361 -677 -678 -705 -735 0
-560 -745 -798 -744 -574 0
-795 -823 -822 -791 -564 0
-795 -823 -822 -791 -781 0
-795 -796 -822 -791 -564 0
-795 -796 -822 -791 -781 0
-796 -822 -791 -564 -594 0
-796 -822 -791 -781 -594 0
-151 -116 824 0
-152 -117 824 0
-153 -118 824 0
-154 -119 824 0
-155 -120 824 0
-626 -646 -558 -824 -813 0
-626 -814 -558 -824 -813 0
-564 -791 -822 -796 -745 0
-594 -781 -723 -646 -558 0
-594 -781 -723 -814 -558 0
-594 -564 -723 -646 -558 0
-594 -564 -723 -814 -558 0
-745 -796 -822 -791 -781 0
-560 -745 -796 -822 -791 0
-746 -713 -594 -781 -491 0
-746 -713 -594 -564 -491 0
-577 -635 -720 -798 -744 0
-635 -720 -798 -744 -574 0
-796 -795 -798 -744 -574 0
-796 -745 -798 -744 -574 0
-796 -811 -798 -744 -574 0
-796 -720 -798 -744 -574 0
-1 -126 825 0
-2 -127 825 0
-3 -128 825 0
-4 -129 825 0
-5 -130 825 0
-675 -825 -673 -676 -394 0
-675 -825 -673 -674 -405 0
-275 -675 -825 -673 -676 0
-275 -675 -825 -673 -674 0
-1 -61 826 0
-2 -62 826 0
-3 -63 826 0
-4 -64 826 0
-5 -65 826 0
-826 -262 -251 -244 -318 -270 0
-826 -270 -318 -244 -251 -262 0
-270 -826 -262 -251 -754 -356 0
-270 -826 -262 -251 -244 -318 0
-270 -826 -262 -263 -754 -355 0
-46 -116 827 0
-47 -117 827 0
-48 -118 827 0
-49 -119 827 0
-50 -120 827 0
-262 -826 -270 -321 -827 -355 0
-51 -121 828 0
-52 -122 828 0
-53 -123 828 0
-54 -124 828 0
-55 -125 828 0
-262 -826 -270 -321 -827 -828 0
-262 -826 -270 -318 -244 -251 0
-262 -826 -270 -318 -827 -384 0
-262 -826 -270 -318 -827 -828 0
-318 -270 -826 -262 -251 -754 0
-318 -270 -826 -262 -251 -244 0
-318 -270 -826 -262 -263 -754 0
-244 -318 -270 -826 -262 -251 0
-244 -318 -270 -826 -262 -263 0
-459 -818 -729 -532 -604 0
-459 -818 -729 -722 -604 0
-741 -818 -729 -532 -604 0
-741 -818 -729 -722 -604 0
-244 -318 -270 -826 -262 -251 0
-244 -251 -262 -826 -270 -321 0
-244 -251 -262 -826 -270 -318 0
-251 -262 -826 -270 -321 -827 0
-251 -262 -826 -270 -318 -827 0
-251 -244 -318 -270 -826 -262 0
-262 -251 -244 -318 -270 -826 0
-513 -459 -818 -729 -532 0
-513 -459 -818 -729 -722 0
-513 -741 -818 -729 -532 0
-513 -741 -818 -729 -722 0
-826 -262 -251 -244 -318 -270 0
-270 -826 -262 -251 -244 -318 0
-694 -459 -818 -729 -532 0
-694 -459 -818 -729 -722 0
-694 -741 -818 -729 -532 0
-694 -741 -818 -729 -722 0
-718 -798 -720 -721 -618 0
-718 -798 -720 -721 -814 0
-532 -718 -798 -720 -721 0
-798 -720 -721 -814 -748 0
-720 -721 -814 -748 -789 0
-618 -788 -785 -748 -789 0
-789 -748 -814 -788 -622 0
-377 -707 -696 -746 -724 0
-377 -447 -696 -746 -724 0
-11 -96 829 0
-12 -97 829 0
-13 -98 829 0
-14 -99 829 0
-15 -100 829 0
-16 -141 830 0
-17 -142 830 0
-18 -143 830 0
-19 -144 830 0
-20 -145 830 0
-244 -355 -754 -263 -829 -830 0
-11 -136 831 0
-12 -137 831 0
-13 -138 831 0
-14 -139 831 0
-15 -140 831 0
-244 -355 -754 -263 -831 -830 0
-357 -707 -800 -792 -686 0
-357 -447 -800 -792 -686 0
-558 -814 -721 -720 -798 0
-558 -814 -721 -720 -719 0
-558 -618 -721 -720 -798 0
-558 -618 -721 -720 -719 0
-26 -176 832 0
-27 -177 832 0
-28 -178 832 0
-29 -179 832 0
-30 -180 832 0
-830 -829 -263 -754 -828 -832 0
-830 -831 -263 -754 -828 -832 0
-728 -699 -725 -695 -730 0
-447 -699 -725 -695 -730 0
-699 -725 -695 -730 -603 0
-692 -699 -725 -695 -730 0
-575 -716 -695 -730 -603 0
-292 -305 -743 -708 -709 0
-292 -305 -743 -708 -392 0
-775 -305 -743 -708 -392 0
-305 -743 -708 -709 -821 0
-809 -712 -713 -747 -564 0
-809 -712 -713 -747 -690 0
-809 -712 -713 -440 -564 0
-809 -712 -713 -440 -690 0
-280 -809 -712 -713 -747 0
-280 -809 -712 -713 -440 0
-280 -348 -712 -713 -747 0
-280 -348 -712 -713 -440 0
-361 -743 -675 -709 -821 0
-348 -712 -713 -747 -564 0
-348 -712 -713 -747 -690 0
-348 -712 -713 -440 -564 0
-348 -712 -713 -440 -690 0
-36 -146 833 0
-37 -147 833 0
-38 -148 833 0
-39 -149 833 0
-40 -150 833 0
-71 -201 834 0
-72 -202 834 0
-73 -203 834 0
-74 -204 834 0
-75 -205 834 0
-833 -834 -441 -806 -551 -616 0
-106 -186 835 0
-107 -187 835 0
-108 -188 835 0
-109 -189 835 0
-110 -190 835 0
-101 -181 836 0
-102 -182 836 0
-103 -183 836 0
-104 -184 836 0
-105 -185 836 0
-833 -834 -441 -806 -835 -836 0
-31 -201 837 0
-32 -202 837 0
-33 -203 837 0
-34 -204 837 0
-35 -205 837 0
-833 -837 -441 -806 -551 -616 0
-833 -837 -441 -806 -835 -836 0
-146 -176 838 0
-147 -177 838 0
-148 -178 838 0
-149 -179 838 0
-150 -180 838 0
-525 -471 -767 -802 -803 -838 0
-678 -677 -708 -709 -821 0
-709 -708 -677 -678 -705 0
-838 -803 -802 -806 -835 -836 0
-838 -803 -802 -767 -835 -836 0
-156 -186 839 0
-157 -187 839 0
-158 -188 839 0
-159 -189 839 0
-160 -190 839 0
-838 -803 -802 -767 -839 -836 0
-838 -803 -807 -806 -835 -836 0
-825 -673 -674 -711 -478 0
-825 -673 -674 -711 -680 0
-825 -710 -674 -711 -478 0
-825 -710 -674 -711 -680 0
-673 -674 -711 -478 -595 0
-673 -674 -711 -680 -595 0
-710 -674 -711 -478 -595 0
-710 -674 -711 -680 -595 0
-376 -763 -764 -426 -590 0
-376 -763 -764 -765 -590 0
-705 -763 -764 -426 -590 0
-705 -763 -764 -765 -590 0
-446 -705 -763 -764 -426 0
-446 -705 -763 -764 -765 0
-446 -376 -763 -764 -426 0
-446 -376 -763 -764 -765 0
-81 -41 840 0
-82 -42 840 0
-83 -43 840 0
-84 -44 840 0
-85 -45 840 0
-46 -76 841 0
-47 -77 841 0
-48 -78 841 0
-49 -79 841 0
-50 -80 841 0
-21 -121 842 0
-22 -122 842 0
-23 -123 842 0
-24 -124 842 0
-25 -125 842 0
-6 -176 843 0
-7 -177 843 0
-8 -178 843 0
-9 -179 843 0
-10 -180 843 0
-306 -308 -840 -841 -842 -843 0
-771 -705 -763 -764 -426 0
-771 -705 -763 -764 -765 0
-771 -376 -763 -764 -426 0
-771 -376 -763 -764 -765 0
-575 -716 -695 -571 -686 0
-575 -716 -695 -571 -627 0
-715 -716 -695 -571 -627 0
-747 -715 -716 -695 -571 0
-747 -715 -716 -745 -798 0
-747 -715 -788 -695 -560 0
-798 -745 -796 -576 -625 0
-560 -745 -796 -576 -793 0
-560 -745 -796 -576 -625 0
-238 -312 -678 -679 -735 0
-238 -312 -678 -679 -414 0
-702 -312 -678 -679 -414 0
-820 -782 -783 -463 -530 0
-820 -782 -783 -463 -772 0
-820 -782 -783 -795 -530 0
-820 -782 -783 -795 -772 0
-307 -820 -782 -783 -463 0
-307 -820 -782 -783 -795 0
-307 -379 -782 -783 -463 0
-307 -379 -782 -783 -795 0
-379 -782 -783 -463 -530 0
-379 -782 -783 -463 -772 0
-379 -782 -783 -795 -530 0
-379 -782 -783 -795 -772 0
-378 -731 -743 -742 -794 0
-731 -743 -742 -794 -379 0
-679 -731 -743 -742 -794 0
-742 -743 -731 -679 -735 0
-776 -777 -778 -822 -516 0
-776 -777 -778 -822 -791 0
-289 -776 -777 -800 -447 0
-289 -776 -777 -778 -822 0
-116 -201 844 0
-117 -202 844 0
-118 -203 844 0
-119 -204 844 0
-120 -205 844 0
-696 -746 -844 -788 -787 0
-496 -746 -844 -788 -787 0
-746 -844 -788 -787 -634 0
-713 -746 -844 -788 -787 0
-634 -787 -788 -814 -626 0
-702 -809 -763 -764 -426 0
-234 -809 -763 -764 -426 0
-462 -697 -742 -739 -476 0
-462 -697 -742 -739 -740 0
-820 -794 -688 -741 -740 0
-779 -794 -688 -741 -740 0
-794 -688 -741 -740 -572 0
-379 -794 -688 -741 -740 0
-357 -707 -736 -737 -496 0
-823 -704 -736 -737 -496 0
-462 -823 -704 -736 -737 0
-530 -694 -741 -740 -572 0
-81 -66 845 0
-82 -67 845 0
-83 -68 845 0
-84 -69 845 0
-85 -70 845 0
-845 -823 -704 -736 -737 0
-672 -820 -676 -391 -461 0
-672 -820 -676 -818 -729 0
-820 -676 -818 -729 -532 0
-1 -111 846 0
-2 -112 846 0
-3 -113 846 0
-4 -114 846 0
-5 -115 846 0
-11 -106 847 0
-12 -107 847 0
-13 -108 847 0
-14 -109 847 0
-15 -110 847 0
-313 -846 -847 -236 -220 -368 0
-262 -269 -270 -318 -827 -828 0
-262 -269 -270 -318 -841 -828 0
-283 -313 -846 -847 -236 -220 0
-318 -313 -846 -847 -236 -220 0
-269 -270 -318 -841 -840 -252 0
-841 -318 -313 -846 -847 -236 0
-841 -318 -270 -846 -847 -236 0
-841 -318 -270 -269 -262 -236 0
-394 -676 -818 -729 -532 0
-272 -252 -840 -841 -318 -313 0
-272 -252 -840 -841 -318 -270 0
-262 -269 -270 -318 -841 -840 0
-840 -841 -318 -313 -846 -847 0
-840 -841 -318 -270 -846 -847 0
-252 -272 -262 -236 -220 -368 0
-252 -359 -332 -318 -313 -283 0
-252 -359 -332 -318 -229 -283 0
-252 -840 -841 -318 -313 -283 0
-16 -101 848 0
-17 -102 848 0
-18 -103 848 0
-19 -104 848 0
-20 -105 848 0
-26 -156 849 0
-27 -157 849 0
-28 -158 849 0
-29 -159 849 0
-30 -160 849 0
-368 -220 -236 -847 -848 -849 0
-368 -220 -236 -829 -848 -849 0
-330 -675 -709 -821 -674 0
-316 -330 -675 -709 -821 0
-312 -286 -679 -706 -344 0
-312 -286 -679 -446 -344 0
-312 -733 -679 -706 -344 0
-312 -733 -679 -446 -344 0
-703 -763 -344 -446 -499 0
-703 -763 -344 -706 -499 0
-675 -709 -821 -674 -396 0
-246 -286 -312 -808 -774 0
-246 -733 -312 -808 -774 0
-392 -708 -709 -821 -674 0
-708 -709 -821 -674 -396 0
-392 -708 -743 -689 -698 0
-357 -692 -689 -698 -706 0
-357 -692 -689 -698 -446 0
-708 -743 -689 -698 -706 0
-708 -743 -689 -698 -446 0
-743 -689 -698 -706 -344 0
-743 -689 -698 -446 -344 0
-575 -716 -715 -747 -789 0
-575 -716 -715 -748 -789 0
-692 -689 -698 -706 -344 0
-692 -689 -698 -446 -344 0
-446 -698 -689 -687 -688 0
-687 -689 -698 -706 -344 0
-687 -689 -698 -446 -344 0
-706 -698 -689 -687 -688 0
-672 -673 -674 -711 -465 0
-21 -101 850 0
-22 -102 850 0
-23 -103 850 0
-24 -104 850 0
-25 -105 850 0
-262 -285 -298 -850 -761 -801 0
-262 -285 -300 -850 -761 -801 0
-201 -171 851 0
-202 -172 851 0
-203 -173 851 0
-204 -174 851 0
-205 -175 851 0
-506 -569 -610 -807 -851 -838 0
-11 -126 852 0
-12 -127 852 0
-13 -128 852 0
-14 -129 852 0
-15 -130 852 0
-16 -181 853 0
-17 -182 853 0
-18 -183 853 0
-19 -184 853 0
-20 -185 853 0
-299 -355 -245 -840 -852 -853 0
-299 -355 -252 -840 -852 -853 0
-26 -146 854 0
-27 -147 854 0
-28 -148 854 0
-29 -149 854 0
-30 -150 854 0
-850 -854 -837 -457 -521 -566 0
-850 -854 -773 -457 -521 -566 0
-348 -712 -713 -765 -738 0
-348 -712 -713 -765 -487 0
-191 -161 855 0
-192 -162 855 0
-193 -163 855 0
-194 -164 855 0
-195 -165 855 0
-457 -509 -567 -525 -582 -855 0
-509 -567 -525 -582 -855 -807 0
-525 -582 -855 -807 -494 -554 0
-567 -525 -582 -855 -807 -494 0
-554 -494 -807 -855 -582 -538 0
-494 -807 -855 -582 -538 -607 0
-494 -550 -523 -582 -538 -607 0
-494 -550 -523 -582 -638 -607 0
-494 -554 -509 -457 -521 -566 0
-835 -767 -582 -525 -567 -509 0
-835 -855 -582 -525 -567 -509 0
-820 -794 -699 -701 -515 0
-820 -794 -699 -701 -793 0
-779 -692 -699 -701 -515 0
-779 -692 -699 -701 -793 0
-779 -794 -699 -701 -515 0
-779 -794 -699 -701 -793 0
-794 -699 -701 -515 -576 0
-794 -699 -701 -793 -576 0
-323 -820 -794 -699 -701 0
-348 -712 -713 -813 -824 0
-348 -712 -713 -746 -824 0
-348 -712 -713 -746 -724 0
-692 -699 -701 -515 -576 0
-692 -699 -701 -793 -576 0
-465 -717 -477 -798 -720 0
-465 -532 -477 -798 -720 0
-502 -687 -699 -701 -515 0
-502 -687 -699 -701 -793 0
-687 -699 -701 -515 -576 0
-687 -699 -701 -793 -576 0
-477 -717 -792 -515 -576 0
-477 -717 -792 -793 -576 0
-477 -532 -792 -515 -576 0
-477 -532 -792 -793 -576 0
-795 -796 -576 -515 -563 0
-795 -796 -576 -793 -563 0
-443 -742 -794 -818 -729 0
-742 -794 -818 -729 -532 0
-742 -794 -818 -729 -722 0
-377 -777 -823 -845 -443 0
-377 -777 -823 -845 -739 0
-377 -463 -823 -845 -443 0
-377 -463 -823 -845 -739 0
-443 -845 -823 -777 -800 0
-443 -845 -823 -463 -800 0
-800 -777 -823 -845 -739 0
-800 -463 -823 -845 -739 0
-777 -823 -845 -443 -391 0
-777 -823 -845 -739 -391 0
-463 -823 -845 -443 -391 0
-463 -823 -845 -739 -391 0
-71 -151 856 0
-72 -152 856 0
-73 -153 856 0
-74 -154 856 0
-75 -155 856 0
-410 -805 -585 -420 -856 -438 0
-410 -805 -585 -428 -856 -435 0
-438 -856 -420 -413 -805 -507 0
-435 -856 -428 -413 -805 -507 0
-744 -595 -718 -722 -578 0
-632 -595 -718 -722 -578 0
-775 -820 -794 -684 -464 0
-323 -820 -794 -684 -464 0
-618 -721 -720 -799 -744 0
-618 -721 -720 -799 -624 0
-275 -708 -739 -391 -676 0
-275 -708 -739 -391 -674 0
-275 -708 -739 -391 -465 0
-275 -708 -739 -391 -475 0
-16 -161 857 0
-17 -162 857 0
-18 -163 857 0
-19 -164 857 0
-20 -165 857 0
-857 -253 -366 -752 -410 -223 0
-857 -297 -366 -752 -410 -223 0
-676 -394 -477 -819 -745 0
-676 -717 -477 -819 -745 0
-298 -857 -253 -366 -752 -410 0
-391 -676 -394 -477 -819 0
-391 -676 -717 -477 -819 0
-391 -465 -394 -477 -819 0
-391 -465 -717 -477 -819 0
-297 -366 -752 -410 -223 -345 0
-739 -391 -676 -394 -477 0
-739 -391 -676 -717 -477 0
-739 -391 -465 -394 -477 0
-739 -391 -465 -717 -477 0
-366 -752 -410 -223 -345 -253 0
-366 -253 -345 -223 -410 -752 0
-708 -739 -391 -676 -394 0
-708 -739 -391 -676 -717 0
-708 -739 -391 -674 -405 0
-708 -739 -391 -465 -394 0
-708 -739 -391 -465 -717 0
-708 -739 -391 -475 -405 0
-255 -857 -297 -366 -752 -410 0
-253 -366 -752 -410 -223 -345 0
-394 -477 -819 -745 -772 0
-394 -477 -819 -745 -634 0
-717 -477 -819 -745 -634 0
-465 -394 -477 -819 -745 0
-465 -717 -477 -819 -745 0
-752 -366 -253 -345 -223 -410 0
-410 -752 -366 -253 -345 -223 0
-502 -772 -795 -819 -603 0
-502 -772 -745 -819 -477 0
-431 -771 -772 -795 -819 0
-431 -771 -772 -745 -819 0
-431 -502 -772 -795 -819 0
-431 -502 -772 -745 -819 0
-697 -708 -739 -391 -465 0
-697 -708 -739 -391 -475 0
-345 -253 -366 -752 -410 -223 0
-223 -345 -253 -366 -752 -410 0
-375 -739 -742 -697 -771 0
-101 -41 858 0
-102 -42 858 0
-103 -43 858 0
-104 -44 858 0
-105 -45 858 0
-257 -858 -223 -410 -752 -366 0
-237 -410 -752 -366 -253 -345 0
-858 -237 -410 -752 -366 -253 0
-858 -223 -410 -752 -366 -253 0
-255 -858 -237 -410 -752 -366 0
-223 -410 -752 -366 -253 -345 0
-516 -502 -697 -708 -739 0
-516 -502 -697 -742 -739 0
-516 -771 -697 -708 -739 0
-516 -771 -697 -742 -739 0
-345 -223 -410 -752 -366 -253 0
-771 -697 -708 -739 -391 0
-410 -223 -345 -253 -366 -752 0
-253 -345 -223 -410 -752 -366 0
-366 -253 -345 -223 -410 -752 0
-672 -673 -676 -818 -475 0
-672 -673 -676 -717 -718 0
-672 -673 -674 -818 -465 0
-846 -847 -858 -237 -753 -749 0
-121 -141 859 0
-122 -142 859 0
-123 -143 859 0
-124 -144 859 0
-125 -145 859 0
-846 -847 -858 -237 -859 -749 0
-673 -676 -818 -475 -529 0
-673 -676 -717 -718 -784 0
-676 -717 -718 -784 -720 0
-701 -511 -788 -787 -634 0
-701 -511 -788 -787 -799 0
-701 -724 -788 -787 -634 0
-701 -724 -788 -787 -799 0
-394 -676 -818 -475 -740 0
-394 -676 -818 -475 -529 0
-717 -718 -784 -720 -634 0
-465 -717 -718 -784 -720 0
-752 -366 -253 -345 -223 -408 0
-362 -255 -858 -237 -753 -752 0
-563 -511 -788 -787 -634 0
-563 -511 -788 -787 -799 0
-563 -724 -788 -787 -634 0
-563 -724 -788 -787 -799 0
-511 -788 -787 -634 -604 0
-511 -788 -787 -799 -604 0
-724 -788 -787 -634 -604 0
-724 -788 -787 -799 -604 0
-345 -255 -858 -237 -753 -749 0
-345 -255 -858 -237 -859 -749 0
-753 -752 -366 -253 -345 -223 0
-237 -753 -752 -366 -253 -345 0
-858 -237 -753 -752 -366 -253 0
-255 -858 -237 -753 -752 -366 0
-345 -253 -366 -752 -753 -749 0
-775 -779 -692 -357 -445 0
-775 -779 -692 -696 -445 0
-775 -779 -692 -699 -459 0
-775 -779 -692 -699 -685 0
-775 -779 -794 -699 -685 0
-775 -779 -794 -818 -685 0
-775 -820 -794 -699 -685 0
-775 -820 -794 -818 -685 0
-702 -312 -678 -705 -706 0
-702 -312 -678 -376 -445 0
-702 -312 -678 -679 -706 0
-316 -775 -779 -794 -818 0
-312 -678 -376 -707 -357 0
-312 -678 -376 -707 -764 0
-312 -678 -376 -707 -696 0
-312 -678 -376 -445 -357 0
-312 -678 -376 -445 -764 0
-312 -678 -376 -445 -696 0
-820 -794 -699 -685 -686 0
-820 -794 -818 -685 -686 0
-305 -775 -820 -794 -818 0
-779 -692 -699 -685 -686 0
-779 -794 -699 -685 -686 0
-779 -794 -818 -685 -686 0
-707 -696 -746 -715 -552 0
-794 -699 -685 -686 -577 0
-794 -818 -685 -686 -577 0
-678 -376 -707 -764 -417 0
-678 -376 -707 -696 -746 0
-678 -376 -445 -764 -417 0
-678 -376 -445 -696 -746 0
-376 -707 -696 -746 -715 0
-376 -707 -696 -746 -824 0
-376 -707 -696 -746 -724 0
-376 -445 -696 -746 -715 0
-376 -445 -696 -746 -824 0
-376 -445 -696 -746 -724 0
-445 -696 -746 -715 -552 0
-317 -246 -305 -775 -820 0
-317 -732 -305 -775 -820 0
-246 -305 -775 -820 -794 0
-246 -305 -775 -820 -328 0
-732 -305 -775 -820 -328 0
-692 -699 -685 -686 -577 0
-305 -246 -317 -312 -702 0
-305 -246 -317 -312 -208 0
-305 -732 -317 -312 -702 0
-305 -732 -317 -312 -208 0
-775 -305 -246 -317 -312 0
-775 -305 -732 -317 -312 0
-845 -823 -678 -705 -706 0
-845 -823 -678 -679 -706 0
-845 -823 -822 -705 -706 0
-811 -796 -797 -552 -590 0
-811 -796 -797 -723 -590 0
