c nonrepetitive tri hex:2 colours 6 base<=6 lazy<=16
p cnf 271 8489
1 2 3 4 5 6 0
-1 -2 0
-1 -3 0
-1 -4 0
-1 -5 0
-1 -6 0
-2 -3 0
-2 -4 0
-2 -5 0
-2 -6 0
-3 -4 0
-3 -5 0
-3 -6 0
-4 -5 0
-4 -6 0
-5 -6 0
7 8 9 10 11 12 0
-7 -8 0
-7 -9 0
-7 -10 0
-7 -11 0
-7 -12 0
-8 -9 0
-8 -10 0
-8 -11 0
-8 -12 0
-9 -10 0
-9 -11 0
-9 -12 0
-10 -11 0
-10 -12 0
-11 -12 0
13 14 15 16 17 18 0
-13 -14 0
-13 -15 0
-13 -16 0
-13 -17 0
-13 -18 0
-14 -15 0
-14 -16 0
-14 -17 0
-14 -18 0
-15 -16 0
-15 -17 0
-15 -18 0
-16 -17 0
-16 -18 0
-17 -18 0
19 20 21 22 23 24 0
-19 -20 0
-19 -21 0
-19 -22 0
-19 -23 0
-19 -24 0
-20 -21 0
-20 -22 0
-20 -23 0
-20 -24 0
-21 -22 0
-21 -23 0
-21 -24 0
-22 -23 0
-22 -24 0
-23 -24 0
25 26 27 28 29 30 0
-25 -26 0
-25 -27 0
-25 -28 0
-25 -29 0
-25 -30 0
-26 -27 0
-26 -28 0
-26 -29 0
-26 -30 0
-27 -28 0
-27 -29 0
-27 -30 0
-28 -29 0
-28 -30 0
-29 -30 0
31 32 33 34 35 36 0
-31 -32 0
-31 -33 0
-31 -34 0
-31 -35 0
-31 -36 0
-32 -33 0
-32 -34 0
-32 -35 0
-32 -36 0
-33 -34 0
-33 -35 0
-33 -36 0
-34 -35 0
-34 -36 0
-35 -36 0
37 38 39 40 41 42 0
-37 -38 0
-37 -39 0
-37 -40 0
-37 -41 0
-37 -42 0
-38 -39 0
-38 -40 0
-38 -41 0
-38 -42 0
-39 -40 0
-39 -41 0
-39 -42 0
-40 -41 0
-40 -42 0
-41 -42 0
43 44 45 46 47 48 0
-43 -44 0
-43 -45 0
-43 -46 0
-43 -47 0
-43 -48 0
-44 -45 0
-44 -46 0
-44 -47 0
-44 -48 0
-45 -46 0
-45 -47 0
-45 -48 0
-46 -47 0
-46 -48 0
-47 -48 0
49 50 51 52 53 54 0
-49 -50 0
-49 -51 0
-49 -52 0
-49 -53 0
-49 -54 0
-50 -51 0
-50 -52 0
-50 -53 0
-50 -54 0
-51 -52 0
-51 -53 0
-51 -54 0
-52 -53 0
-52 -54 0
-53 -54 0
55 56 57 58 59 60 0
-55 -56 0
-55 -57 0
-55 -58 0
-55 -59 0
-55 -60 0
-56 -57 0
-56 -58 0
-56 -59 0
-56 -60 0
-57 -58 0
-57 -59 0
-57 -60 0
-58 -59 0
-58 -60 0
-59 -60 0
61 62 63 64 65 66 0
-61 -62 0
-61 -63 0
-61 -64 0
-61 -65 0
-61 -66 0
-62 -63 0
-62 -64 0
-62 -65 0
-62 -66 0
-63 -64 0
-63 -65 0
-63 -66 0
-64 -65 0
-64 -66 0
-65 -66 0
67 68 69 70 71 72 0
-67 -68 0
-67 -69 0
-67 -70 0
-67 -71 0
-67 -72 0
-68 -69 0
-68 -70 0
-68 -71 0
-68 -72 0
-69 -70 0
-69 -71 0
-69 -72 0
-70 -71 0
-70 -72 0
-71 -72 0
73 74 75 76 77 78 0
-73 -74 0
-73 -75 0
-73 -76 0
-73 -77 0
-73 -78 0
-74 -75 0
-74 -76 0
-74 -77 0
-74 -78 0
-75 -76 0
-75 -77 0
-75 -78 0
-76 -77 0
-76 -78 0
-77 -78 0
79 80 81 82 83 84 0
-79 -80 0
-79 -81 0
-79 -82 0
-79 -83 0
-79 -84 0
-80 -81 0
-80 -82 0
-80 -83 0
-80 -84 0
-81 -82 0
-81 -83 0
-81 -84 0
-82 -83 0
-82 -84 0
-83 -84 0
85 86 87 88 89 90 0
-85 -86 0
-85 -87 0
-85 -88 0
-85 -89 0
-85 -90 0
-86 -87 0
-86 -88 0
-86 -89 0
-86 -90 0
-87 -88 0
-87 -89 0
-87 -90 0
-88 -89 0
-88 -90 0
-89 -90 0
91 92 93 94 95 96 0
-91 -92 0
-91 -93 0
-91 -94 0
-91 -95 0
-91 -96 0
-92 -93 0
-92 -94 0
-92 -95 0
-92 -96 0
-93 -94 0
-93 -95 0
-93 -96 0
-94 -95 0
-94 -96 0
-95 -96 0
97 98 99 100 101 102 0
-97 -98 0
-97 -99 0
-97 -100 0
-97 -101 0
-97 -102 0
-98 -99 0
-98 -100 0
-98 -101 0
-98 -102 0
-99 -100 0
-99 -101 0
-99 -102 0
-100 -101 0
-100 -102 0
-101 -102 0
103 104 105 106 107 108 0
-103 -104 0
-103 -105 0
-103 -106 0
-103 -107 0
-103 -108 0
-104 -105 0
-104 -106 0
-104 -107 0
-104 -108 0
-105 -106 0
-105 -107 0
-105 -108 0
-106 -107 0
-106 -108 0
-107 -108 0
109 110 111 112 113 114 0
-109 -110 0
-109 -111 0
-109 -112 0
-109 -113 0
-109 -114 0
-110 -111 0
-110 -112 0
-110 -113 0
-110 -114 0
-111 -112 0
-111 -113 0
-111 -114 0
-112 -113 0
-112 -114 0
-113 -114 0
-1 -25 0
-2 -26 0
-3 -27 0
-4 -28 0
-5 -29 0
-6 -30 0
-1 -7 115 0
-2 -8 115 0
-3 -9 115 0
-4 -10 115 0
-5 -11 115 0
-6 -12 115 0
-25 -31 116 0
-26 -32 116 0
-27 -33 116 0
-28 -34 116 0
-29 -35 116 0
-30 -36 116 0
-115 -116 0
-1 -31 117 0
-2 -32 117 0
-3 -33 117 0
-4 -34 117 0
-5 -35 117 0
-6 -36 117 0
-25 -13 118 0
-26 -14 118 0
-27 -15 118 0
-28 -16 118 0
-29 -17 118 0
-30 -18 118 0
-7 -37 119 0
-8 -38 119 0
-9 -39 119 0
-10 -40 119 0
-11 -41 119 0
-12 -42 119 0
-117 -118 -119 0
-25 -61 120 0
-26 -62 120 0
-27 -63 120 0
-28 -64 120 0
-29 -65 120 0
-30 -66 120 0
-117 -120 -119 0
-7 -55 121 0
-8 -56 121 0
-9 -57 121 0
-10 -58 121 0
-11 -59 121 0
-12 -60 121 0
-117 -120 -121 0
-7 -91 122 0
-8 -92 122 0
-9 -93 122 0
-10 -94 122 0
-11 -95 122 0
-12 -96 122 0
-117 -120 -122 0
-7 -67 123 0
-8 -68 123 0
-9 -69 123 0
-10 -70 123 0
-11 -71 123 0
-12 -72 123 0
-117 -120 -123 0
-7 -85 124 0
-8 -86 124 0
-9 -87 124 0
-10 -88 124 0
-11 -89 124 0
-12 -90 124 0
-117 -120 -124 0
-25 -37 125 0
-26 -38 125 0
-27 -39 125 0
-28 -40 125 0
-29 -41 125 0
-30 -42 125 0
-7 -13 126 0
-8 -14 126 0
-9 -15 126 0
-10 -16 126 0
-11 -17 126 0
-12 -18 126 0
-117 -125 -126 0
-117 -125 -123 0
-7 -61 127 0
-8 -62 127 0
-9 -63 127 0
-10 -64 127 0
-11 -65 127 0
-12 -66 127 0
-117 -125 -127 0
-25 -55 128 0
-26 -56 128 0
-27 -57 128 0
-28 -58 128 0
-29 -59 128 0
-30 -60 128 0
-7 -49 129 0
-8 -50 129 0
-9 -51 129 0
-10 -52 129 0
-11 -53 129 0
-12 -54 129 0
-117 -128 -129 0
-117 -128 -124 0
-117 -128 -127 0
-7 -79 130 0
-8 -80 130 0
-9 -81 130 0
-10 -82 130 0
-11 -83 130 0
-12 -84 130 0
-117 -128 -130 0
-115 -118 0
-1 -13 131 0
-2 -14 131 0
-3 -15 131 0
-4 -16 131 0
-5 -17 131 0
-6 -18 131 0
-7 -31 132 0
-8 -32 132 0
-9 -33 132 0
-10 -34 132 0
-11 -35 132 0
-12 -36 132 0
-131 -125 -132 0
-131 -125 -123 0
-131 -125 -127 0
-131 -116 -127 0
-131 -116 -119 0
-131 -116 -121 0
-1 -19 133 0
-2 -20 133 0
-3 -21 133 0
-4 -22 133 0
-5 -23 133 0
-6 -24 133 0
-25 -49 134 0
-26 -50 134 0
-27 -51 134 0
-28 -52 134 0
-29 -53 134 0
-30 -54 134 0
-133 -134 0
-1 -49 135 0
-2 -50 135 0
-3 -51 135 0
-4 -52 135 0
-5 -53 135 0
-6 -54 135 0
-25 -43 136 0
-26 -44 136 0
-27 -45 136 0
-28 -46 136 0
-29 -47 136 0
-30 -48 136 0
-19 -73 137 0
-20 -74 137 0
-21 -75 137 0
-22 -76 137 0
-23 -77 137 0
-24 -78 137 0
-135 -136 -137 0
-25 -79 138 0
-26 -80 138 0
-27 -81 138 0
-28 -82 138 0
-29 -83 138 0
-30 -84 138 0
-19 -55 139 0
-20 -56 139 0
-21 -57 139 0
-22 -58 139 0
-23 -59 139 0
-24 -60 139 0
-135 -138 -139 0
-135 -138 -137 0
-19 -103 140 0
-20 -104 140 0
-21 -105 140 0
-22 -106 140 0
-23 -107 140 0
-24 -108 140 0
-135 -138 -140 0
-19 -85 141 0
-20 -86 141 0
-21 -87 141 0
-22 -88 141 0
-23 -89 141 0
-24 -90 141 0
-135 -138 -141 0
-19 -97 142 0
-20 -98 142 0
-21 -99 142 0
-22 -100 142 0
-23 -101 142 0
-24 -102 142 0
-135 -138 -142 0
-19 -31 143 0
-20 -32 143 0
-21 -33 143 0
-22 -34 143 0
-23 -35 143 0
-24 -36 143 0
-135 -128 -143 0
-135 -128 -141 0
-19 -61 144 0
-20 -62 144 0
-21 -63 144 0
-22 -64 144 0
-23 -65 144 0
-24 -66 144 0
-135 -128 -144 0
-19 -79 145 0
-20 -80 145 0
-21 -81 145 0
-22 -82 145 0
-23 -83 145 0
-24 -84 145 0
-135 -128 -145 0
-25 -73 146 0
-26 -74 146 0
-27 -75 146 0
-28 -76 146 0
-29 -77 146 0
-30 -78 146 0
-19 -43 147 0
-20 -44 147 0
-21 -45 147 0
-22 -46 147 0
-23 -47 147 0
-24 -48 147 0
-135 -146 -147 0
-135 -146 -142 0
-135 -146 -145 0
-133 -136 0
-1 -43 148 0
-2 -44 148 0
-3 -45 148 0
-4 -46 148 0
-5 -47 148 0
-6 -48 148 0
-19 -49 149 0
-20 -50 149 0
-21 -51 149 0
-22 -52 149 0
-23 -53 149 0
-24 -54 149 0
-148 -146 -149 0
-148 -146 -142 0
-148 -146 -145 0
-148 -134 -145 0
-148 -134 -139 0
-148 -134 -137 0
-1 -55 150 0
-2 -56 150 0
-3 -57 150 0
-4 -58 150 0
-5 -59 150 0
-6 -60 150 0
-150 -116 0
-25 -7 151 0
-26 -8 151 0
-27 -9 151 0
-28 -10 151 0
-29 -11 151 0
-30 -12 151 0
-55 -13 152 0
-56 -14 152 0
-57 -15 152 0
-58 -16 152 0
-59 -17 152 0
-60 -18 152 0
-117 -151 -152 0
-117 -118 -121 0
-55 -37 153 0
-56 -38 153 0
-57 -39 153 0
-58 -40 153 0
-59 -41 153 0
-60 -42 153 0
-117 -118 -153 0
-117 -120 -153 0
-55 -91 154 0
-56 -92 154 0
-57 -93 154 0
-58 -94 154 0
-59 -95 154 0
-60 -96 154 0
-117 -120 -154 0
-55 -67 155 0
-56 -68 155 0
-57 -69 155 0
-58 -70 155 0
-59 -71 155 0
-60 -72 155 0
-117 -120 -155 0
-55 -85 156 0
-56 -86 156 0
-57 -87 156 0
-58 -88 156 0
-59 -89 156 0
-60 -90 156 0
-117 -120 -156 0
-117 -125 -152 0
-117 -125 -155 0
-55 -61 157 0
-56 -62 157 0
-57 -63 157 0
-58 -64 157 0
-59 -65 157 0
-60 -66 157 0
-117 -125 -157 0
-150 -134 0
-25 -19 158 0
-26 -20 158 0
-27 -21 158 0
-28 -22 158 0
-29 -23 158 0
-30 -24 158 0
-55 -43 159 0
-56 -44 159 0
-57 -45 159 0
-58 -46 159 0
-59 -47 159 0
-60 -48 159 0
-135 -158 -159 0
-135 -136 -139 0
-55 -73 160 0
-56 -74 160 0
-57 -75 160 0
-58 -76 160 0
-59 -77 160 0
-60 -78 160 0
-135 -136 -160 0
-135 -138 -160 0
-55 -103 161 0
-56 -104 161 0
-57 -105 161 0
-58 -106 161 0
-59 -107 161 0
-60 -108 161 0
-135 -138 -161 0
-135 -138 -156 0
-55 -97 162 0
-56 -98 162 0
-57 -99 162 0
-58 -100 162 0
-59 -101 162 0
-60 -102 162 0
-135 -138 -162 0
-135 -146 -159 0
-135 -146 -162 0
-55 -79 163 0
-56 -80 163 0
-57 -81 163 0
-58 -82 163 0
-59 -83 163 0
-60 -84 163 0
-135 -146 -163 0
-25 -85 164 0
-26 -86 164 0
-27 -87 164 0
-28 -88 164 0
-29 -89 164 0
-30 -90 164 0
-150 -164 0
-1 -85 165 0
-2 -86 165 0
-3 -87 165 0
-4 -88 165 0
-5 -89 165 0
-6 -90 165 0
-55 -31 166 0
-56 -32 166 0
-57 -33 166 0
-58 -34 166 0
-59 -35 166 0
-60 -36 166 0
-165 -120 -166 0
-165 -120 -153 0
-165 -120 -154 0
-165 -120 -155 0
-55 -49 167 0
-56 -50 167 0
-57 -51 167 0
-58 -52 167 0
-59 -53 167 0
-60 -54 167 0
-165 -138 -167 0
-165 -138 -160 0
-165 -138 -161 0
-165 -138 -162 0
-25 -109 168 0
-26 -110 168 0
-27 -111 168 0
-28 -112 168 0
-29 -113 168 0
-30 -114 168 0
-165 -168 -154 0
-165 -168 -161 0
-25 -91 169 0
-26 -92 169 0
-27 -93 169 0
-28 -94 169 0
-29 -95 169 0
-30 -96 169 0
-165 -169 -157 0
-165 -169 -155 0
-55 -109 170 0
-56 -110 170 0
-57 -111 170 0
-58 -112 170 0
-59 -113 170 0
-60 -114 170 0
-165 -169 -170 0
-25 -103 171 0
-26 -104 171 0
-27 -105 171 0
-28 -106 171 0
-29 -107 171 0
-30 -108 171 0
-165 -171 -163 0
-165 -171 -162 0
-165 -171 -170 0
-150 -120 0
-1 -61 172 0
-2 -62 172 0
-3 -63 172 0
-4 -64 172 0
-5 -65 172 0
-6 -66 172 0
-172 -116 -121 0
-172 -116 -152 0
-172 -116 -153 0
-172 -125 -152 0
-172 -125 -166 0
-172 -125 -155 0
-172 -169 -155 0
-172 -169 -156 0
-172 -169 -170 0
-25 -67 173 0
-26 -68 173 0
-27 -69 173 0
-28 -70 173 0
-29 -71 173 0
-30 -72 173 0
-172 -173 -153 0
-172 -173 -154 0
-172 -164 -163 0
-172 -164 -170 0
-172 -164 -154 0
-172 -164 -161 0
-150 -138 0
-1 -79 174 0
-2 -80 174 0
-3 -81 174 0
-4 -82 174 0
-5 -83 174 0
-6 -84 174 0
-174 -134 -139 0
-174 -134 -159 0
-174 -134 -160 0
-174 -146 -159 0
-174 -146 -167 0
-174 -146 -162 0
-174 -171 -156 0
-174 -171 -162 0
-174 -171 -170 0
-174 -164 -157 0
-174 -164 -170 0
-174 -164 -154 0
-174 -164 -161 0
-25 -97 175 0
-26 -98 175 0
-27 -99 175 0
-28 -100 175 0
-29 -101 175 0
-30 -102 175 0
-174 -175 -160 0
-174 -175 -161 0
-117 -151 0
-31 -37 176 0
-32 -38 176 0
-33 -39 176 0
-34 -40 176 0
-35 -41 176 0
-36 -42 176 0
-115 -118 -176 0
-117 -118 0
-31 -67 177 0
-32 -68 177 0
-33 -69 177 0
-34 -70 177 0
-35 -71 177 0
-36 -72 177 0
-131 -125 -177 0
-31 -61 178 0
-32 -62 178 0
-33 -63 178 0
-34 -64 178 0
-35 -65 178 0
-36 -66 178 0
-131 -125 -178 0
-117 -120 0
-31 -13 179 0
-32 -14 179 0
-33 -15 179 0
-34 -16 179 0
-35 -17 179 0
-36 -18 179 0
-172 -125 -179 0
-172 -125 -177 0
-31 -49 180 0
-32 -50 180 0
-33 -51 180 0
-34 -52 180 0
-35 -53 180 0
-36 -54 180 0
-172 -128 -180 0
-31 -85 181 0
-32 -86 181 0
-33 -87 181 0
-34 -88 181 0
-35 -89 181 0
-36 -90 181 0
-172 -128 -181 0
-31 -79 182 0
-32 -80 182 0
-33 -81 182 0
-34 -82 182 0
-35 -83 182 0
-36 -84 182 0
-172 -128 -182 0
-172 -169 -177 0
-172 -169 -181 0
-31 -109 183 0
-32 -110 183 0
-33 -111 183 0
-34 -112 183 0
-35 -113 183 0
-36 -114 183 0
-172 -169 -183 0
-172 -173 -176 0
-31 -91 184 0
-32 -92 184 0
-33 -93 184 0
-34 -94 184 0
-35 -95 184 0
-36 -96 184 0
-172 -173 -184 0
-172 -164 -166 0
-172 -164 -182 0
-172 -164 -183 0
-172 -164 -184 0
-31 -103 185 0
-32 -104 185 0
-33 -105 185 0
-34 -106 185 0
-35 -107 185 0
-36 -108 185 0
-172 -164 -185 0
-117 -125 0
-1 -37 186 0
-2 -38 186 0
-3 -39 186 0
-4 -40 186 0
-5 -41 186 0
-6 -42 186 0
-186 -118 -132 0
-186 -173 -178 0
-186 -173 -184 0
-186 -120 -166 0
-186 -120 -184 0
-186 -120 -177 0
-186 -120 -181 0
-117 -128 0
-150 -134 -143 0
-31 -43 187 0
-32 -44 187 0
-33 -45 187 0
-34 -46 187 0
-35 -47 187 0
-36 -48 187 0
-150 -134 -187 0
-150 -134 -182 0
-31 -73 188 0
-32 -74 188 0
-33 -75 188 0
-34 -76 188 0
-35 -77 188 0
-36 -78 188 0
-150 -134 -188 0
-150 -164 -178 0
-150 -164 -182 0
-150 -164 -183 0
-150 -164 -184 0
-150 -164 -185 0
-150 -120 -176 0
-150 -120 -184 0
-150 -120 -177 0
-150 -120 -181 0
-150 -138 -180 0
-150 -138 -188 0
-150 -138 -185 0
-150 -138 -181 0
-31 -97 189 0
-32 -98 189 0
-33 -99 189 0
-34 -100 189 0
-35 -101 189 0
-36 -102 189 0
-150 -138 -189 0
-135 -158 0
-49 -73 190 0
-50 -74 190 0
-51 -75 190 0
-52 -76 190 0
-53 -77 190 0
-54 -78 190 0
-133 -136 -190 0
-135 -136 0
-49 -97 191 0
-50 -98 191 0
-51 -99 191 0
-52 -100 191 0
-53 -101 191 0
-54 -102 191 0
-148 -146 -191 0
-49 -79 192 0
-50 -80 192 0
-51 -81 192 0
-52 -82 192 0
-53 -83 192 0
-54 -84 192 0
-148 -146 -192 0
-135 -138 0
-174 -128 -180 0
-49 -85 193 0
-50 -86 193 0
-51 -87 193 0
-52 -88 193 0
-53 -89 193 0
-54 -90 193 0
-174 -128 -193 0
-49 -61 194 0
-50 -62 194 0
-51 -63 194 0
-52 -64 194 0
-53 -65 194 0
-54 -66 194 0
-174 -128 -194 0
-49 -43 195 0
-50 -44 195 0
-51 -45 195 0
-52 -46 195 0
-53 -47 195 0
-54 -48 195 0
-174 -146 -195 0
-174 -146 -191 0
-174 -171 -193 0
-174 -171 -191 0
-49 -109 196 0
-50 -110 196 0
-51 -111 196 0
-52 -112 196 0
-53 -113 196 0
-54 -114 196 0
-174 -171 -196 0
-174 -164 -167 0
-174 -164 -194 0
-174 -164 -196 0
-49 -91 197 0
-50 -92 197 0
-51 -93 197 0
-52 -94 197 0
-53 -95 197 0
-54 -96 197 0
-174 -164 -197 0
-49 -103 198 0
-50 -104 198 0
-51 -105 198 0
-52 -106 198 0
-53 -107 198 0
-54 -108 198 0
-174 -164 -198 0
-174 -175 -190 0
-174 -175 -198 0
-135 -128 0
-150 -116 -129 0
-49 -13 199 0
-50 -14 199 0
-51 -15 199 0
-52 -16 199 0
-53 -17 199 0
-54 -18 199 0
-150 -116 -199 0
-150 -116 -194 0
-49 -37 200 0
-50 -38 200 0
-51 -39 200 0
-52 -40 200 0
-53 -41 200 0
-54 -42 200 0
-150 -116 -200 0
-150 -164 -194 0
-150 -164 -192 0
-150 -164 -196 0
-150 -164 -197 0
-150 -164 -198 0
-150 -120 -180 0
-150 -120 -200 0
-150 -120 -197 0
-49 -67 201 0
-50 -68 201 0
-51 -69 201 0
-52 -70 201 0
-53 -71 201 0
-54 -72 201 0
-150 -120 -201 0
-150 -120 -193 0
-150 -138 -190 0
-150 -138 -198 0
-150 -138 -193 0
-150 -138 -191 0
-135 -146 0
-1 -73 202 0
-2 -74 202 0
-3 -75 202 0
-4 -76 202 0
-5 -77 202 0
-6 -78 202 0
-202 -136 -149 0
-202 -175 -192 0
-202 -175 -198 0
-202 -138 -167 0
-202 -138 -198 0
-202 -138 -193 0
-202 -138 -191 0
-1 -7 0
-2 -8 0
-3 -9 0
-4 -10 0
-5 -11 0
-6 -12 0
-117 -126 0
-131 -119 -177 0
-131 -119 -178 0
-117 -151 0
-1 -25 203 0
-2 -26 203 0
-3 -27 203 0
-4 -28 203 0
-5 -29 203 0
-6 -30 203 0
-7 -19 204 0
-8 -20 204 0
-9 -21 204 0
-10 -22 204 0
-11 -23 204 0
-12 -24 204 0
-203 -204 -180 0
-203 -204 -187 0
-203 -121 -180 0
-203 -121 -181 0
-203 -121 -178 0
-203 -121 -182 0
-203 -129 -143 0
-203 -129 -187 0
-203 -129 -182 0
-203 -129 -166 0
-203 -129 -188 0
-117 -127 0
-172 -119 -179 0
-172 -119 -177 0
-172 -121 -116 0
-172 -121 -180 0
-172 -121 -181 0
-172 -121 -182 0
-172 -122 -177 0
-172 -122 -181 0
-172 -122 -183 0
-172 -123 -176 0
-172 -123 -184 0
-172 -124 -166 0
-172 -124 -182 0
-172 -124 -183 0
-172 -124 -184 0
-172 -124 -185 0
-117 -119 0
-186 -123 -178 0
-186 -123 -184 0
-186 -127 -166 0
-186 -127 -184 0
-186 -127 -177 0
-186 -127 -181 0
-117 -121 0
-150 -151 -143 0
-150 -151 -180 0
-150 -129 -143 0
-150 -129 -116 0
-150 -129 -187 0
-150 -129 -182 0
-150 -129 -188 0
-150 -124 -178 0
-150 -124 -182 0
-150 -124 -183 0
-150 -124 -184 0
-150 -124 -185 0
-150 -127 -176 0
-150 -127 -184 0
-150 -127 -177 0
-150 -127 -181 0
-150 -130 -180 0
-150 -130 -188 0
-150 -130 -185 0
-150 -130 -181 0
-150 -130 -189 0
-131 -119 0
-186 -132 -118 0
-13 -61 205 0
-14 -62 205 0
-15 -63 205 0
-16 -64 205 0
-17 -65 205 0
-18 -66 205 0
-186 -132 -205 0
-186 -132 -152 0
-186 -123 -205 0
-13 -91 206 0
-14 -92 206 0
-15 -93 206 0
-16 -94 206 0
-17 -95 206 0
-18 -96 206 0
-186 -123 -206 0
-186 -127 -179 0
-186 -127 -152 0
-186 -127 -206 0
-13 -67 207 0
-14 -68 207 0
-15 -69 207 0
-16 -70 207 0
-17 -71 207 0
-18 -72 207 0
-186 -127 -207 0
-13 -85 208 0
-14 -86 208 0
-15 -87 208 0
-16 -88 208 0
-17 -89 208 0
-18 -90 208 0
-186 -127 -208 0
-131 -132 0
-13 -19 209 0
-14 -20 209 0
-15 -21 209 0
-16 -22 209 0
-17 -23 209 0
-18 -24 209 0
-117 -151 -209 0
-117 -151 -152 0
-117 -151 -199 0
-13 -37 210 0
-14 -38 210 0
-15 -39 210 0
-16 -40 210 0
-17 -41 210 0
-18 -42 210 0
-117 -127 -210 0
-117 -127 -152 0
-117 -127 -206 0
-117 -127 -207 0
-117 -127 -208 0
-117 -119 -207 0
-117 -119 -205 0
-117 -121 -118 0
-117 -121 -199 0
-117 -121 -208 0
-117 -121 -205 0
-13 -79 211 0
-14 -80 211 0
-15 -81 211 0
-16 -82 211 0
-17 -83 211 0
-18 -84 211 0
-117 -121 -211 0
-203 -204 0
-133 -129 -136 0
-133 -129 -138 0
-133 -129 -128 0
-133 -129 -146 0
-7 -43 212 0
-8 -44 212 0
-9 -45 212 0
-10 -46 212 0
-11 -47 212 0
-12 -48 212 0
-133 -212 -146 0
-133 -212 -134 0
-203 -121 0
-150 -132 -118 0
-150 -132 -120 0
-150 -132 -125 0
-150 -129 -158 0
-150 -129 -136 0
-150 -129 -138 0
-150 -129 -146 0
-150 -124 -120 0
-150 -124 -138 0
-150 -124 -168 0
-150 -124 -169 0
-150 -124 -171 0
-150 -127 -116 0
-150 -127 -125 0
-150 -127 -169 0
-150 -127 -173 0
-150 -127 -164 0
-150 -130 -134 0
-150 -130 -146 0
-150 -130 -171 0
-150 -130 -164 0
-150 -130 -175 0
-203 -132 0
-117 -126 -125 0
-117 -127 -125 0
-117 -127 -128 0
-117 -127 -169 0
-117 -127 -173 0
-117 -127 -164 0
-117 -119 -118 0
-117 -119 -173 0
-117 -119 -120 0
-117 -121 -134 0
-117 -121 -164 0
-117 -121 -120 0
-117 -121 -138 0
-203 -129 0
-135 -204 -136 0
-135 -212 -158 0
-135 -212 -146 0
-135 -130 -128 0
-135 -130 -146 0
-135 -130 -171 0
-135 -130 -164 0
-135 -130 -175 0
-135 -121 -116 0
-135 -121 -164 0
-135 -121 -120 0
-135 -121 -138 0
-7 -73 213 0
-8 -74 213 0
-9 -75 213 0
-10 -76 213 0
-11 -77 213 0
-12 -78 213 0
-135 -213 -136 0
-135 -213 -175 0
-135 -213 -138 0
-1 -19 0
-2 -20 0
-3 -21 0
-4 -22 0
-5 -23 0
-6 -24 0
-135 -158 0
-203 -204 -180 0
-203 -204 -199 0
-203 -139 -180 0
-203 -139 -193 0
-203 -139 -194 0
-203 -139 -192 0
-203 -143 -129 0
-203 -143 -199 0
-203 -143 -194 0
-203 -143 -200 0
-203 -143 -167 0
-135 -147 0
-148 -137 -191 0
-148 -137 -192 0
-135 -145 0
-174 -139 -134 0
-174 -139 -180 0
-174 -139 -193 0
-174 -139 -194 0
-174 -137 -195 0
-174 -137 -191 0
-174 -140 -193 0
-174 -140 -191 0
-174 -140 -196 0
-174 -141 -167 0
-174 -141 -194 0
-174 -141 -196 0
-174 -141 -197 0
-174 -141 -198 0
-174 -142 -190 0
-174 -142 -198 0
-135 -139 0
-150 -158 -129 0
-150 -158 -180 0
-150 -143 -129 0
-150 -143 -199 0
-150 -143 -134 0
-150 -143 -194 0
-150 -143 -200 0
-150 -141 -194 0
-150 -141 -192 0
-150 -141 -196 0
-150 -141 -197 0
-150 -141 -198 0
-150 -144 -180 0
-150 -144 -200 0
-150 -144 -197 0
-150 -144 -201 0
-150 -144 -193 0
-150 -145 -190 0
-150 -145 -198 0
-150 -145 -193 0
-150 -145 -191 0
-135 -137 0
-202 -142 -192 0
-202 -142 -198 0
-202 -145 -167 0
-202 -145 -198 0
-202 -145 -193 0
-202 -145 -191 0
-203 -204 0
-115 -143 -118 0
-115 -143 -120 0
-115 -143 -125 0
-115 -143 -128 0
-115 -209 -125 0
-115 -209 -116 0
-203 -139 0
-150 -143 -151 0
-150 -143 -118 0
-150 -143 -120 0
-150 -143 -125 0
-150 -149 -136 0
-150 -149 -138 0
-150 -149 -146 0
-150 -141 -120 0
-150 -141 -138 0
-150 -141 -168 0
-150 -141 -169 0
-150 -141 -171 0
-150 -144 -116 0
-150 -144 -125 0
-150 -144 -169 0
-150 -144 -173 0
-150 -144 -164 0
-150 -145 -134 0
-150 -145 -146 0
-150 -145 -171 0
-150 -145 -164 0
-150 -145 -175 0
-203 -143 0
-117 -204 -118 0
-117 -209 -151 0
-117 -209 -125 0
-117 -144 -125 0
-117 -144 -128 0
-117 -144 -169 0
-117 -144 -173 0
-117 -144 -164 0
-19 -37 214 0
-20 -38 214 0
-21 -39 214 0
-22 -40 214 0
-23 -41 214 0
-24 -42 214 0
-117 -214 -118 0
-117 -214 -173 0
-117 -214 -120 0
-117 -139 -134 0
-117 -139 -164 0
-117 -139 -120 0
-117 -139 -138 0
-203 -149 0
-135 -147 -146 0
-135 -145 -128 0
-135 -145 -146 0
-135 -145 -171 0
-135 -145 -164 0
-135 -145 -175 0
-135 -139 -116 0
-135 -139 -164 0
-135 -139 -120 0
-135 -139 -138 0
-135 -137 -136 0
-135 -137 -175 0
-135 -137 -138 0
-148 -137 0
-202 -149 -136 0
-43 -79 215 0
-44 -80 215 0
-45 -81 215 0
-46 -82 215 0
-47 -83 215 0
-48 -84 215 0
-202 -149 -215 0
-202 -149 -159 0
-202 -142 -215 0
-43 -103 216 0
-44 -104 216 0
-45 -105 216 0
-46 -106 216 0
-47 -107 216 0
-48 -108 216 0
-202 -142 -216 0
-202 -145 -195 0
-202 -145 -159 0
-202 -145 -216 0
-43 -85 217 0
-44 -86 217 0
-45 -87 217 0
-46 -88 217 0
-47 -89 217 0
-48 -90 217 0
-202 -145 -217 0
-43 -97 218 0
-44 -98 218 0
-45 -99 218 0
-46 -100 218 0
-47 -101 218 0
-48 -102 218 0
-202 -145 -218 0
-148 -149 0
-135 -158 -212 0
-135 -158 -159 0
-135 -158 -187 0
-135 -145 -159 0
-43 -73 219 0
-44 -74 219 0
-45 -75 219 0
-46 -76 219 0
-47 -77 219 0
-48 -78 219 0
-135 -145 -219 0
-135 -145 -216 0
-135 -145 -217 0
-135 -145 -218 0
-135 -139 -136 0
-135 -139 -187 0
-135 -139 -217 0
-43 -61 220 0
-44 -62 220 0
-45 -63 220 0
-46 -64 220 0
-47 -65 220 0
-48 -66 220 0
-135 -139 -220 0
-135 -139 -215 0
-135 -137 -218 0
-135 -137 -215 0
-151 -133 0
-204 -135 -136 0
-204 -135 -138 0
-204 -135 -128 0
-204 -135 -146 0
-204 -148 -146 0
-204 -148 -134 0
-151 -150 0
-121 -117 -118 0
-121 -117 -120 0
-121 -117 -125 0
-121 -135 -158 0
-121 -135 -136 0
-121 -135 -138 0
-121 -135 -146 0
-121 -165 -120 0
-121 -165 -138 0
-121 -165 -168 0
-121 -165 -169 0
-121 -165 -171 0
-121 -172 -116 0
-121 -172 -125 0
-121 -172 -169 0
-121 -172 -173 0
-121 -172 -164 0
-121 -174 -134 0
-121 -174 -146 0
-121 -174 -171 0
-121 -174 -164 0
-121 -174 -175 0
-151 -117 0
-132 -131 -125 0
-132 -172 -125 0
-132 -172 -128 0
-132 -172 -169 0
-132 -172 -173 0
-132 -172 -164 0
-132 -186 -118 0
-132 -186 -173 0
-132 -186 -120 0
-132 -150 -134 0
-132 -150 -164 0
-132 -150 -120 0
-132 -150 -138 0
-151 -135 0
-129 -133 -136 0
-129 -148 -158 0
-129 -148 -146 0
-129 -174 -128 0
-129 -174 -146 0
-129 -174 -171 0
-129 -174 -164 0
-129 -174 -175 0
-129 -150 -116 0
-129 -150 -164 0
-129 -150 -120 0
-129 -150 -138 0
-129 -202 -136 0
-129 -202 -175 0
-129 -202 -138 0
-204 -135 0
-129 -203 -139 0
-129 -203 -143 0
-129 -148 -137 0
-129 -174 -139 0
-129 -174 -137 0
-129 -174 -140 0
-129 -174 -141 0
-129 -174 -142 0
-129 -150 -158 0
-129 -150 -143 0
-129 -150 -141 0
-129 -150 -144 0
-129 -150 -145 0
-129 -202 -147 0
-129 -202 -142 0
-129 -202 -145 0
-204 -203 0
-151 -150 -143 0
-151 -150 -149 0
-151 -150 -141 0
-151 -150 -144 0
-151 -150 -145 0
-151 -117 -209 0
-151 -117 -144 0
-151 -117 -214 0
-151 -117 -139 0
-151 -135 -147 0
-151 -135 -145 0
-151 -135 -139 0
-151 -135 -137 0
-204 -148 0
-212 -202 -149 0
-212 -202 -142 0
-212 -202 -145 0
-212 -135 -158 0
-212 -135 -145 0
-212 -135 -139 0
-212 -135 -137 0
-7 -31 0
-8 -32 0
-9 -33 0
-10 -34 0
-11 -35 0
-12 -36 0
-126 -176 0
-119 -177 -205 0
-119 -177 -206 0
-119 -178 -152 0
-119 -178 -206 0
-119 -178 -207 0
-119 -178 -208 0
-115 -143 -134 0
-115 -143 -136 0
-151 -143 0
-204 -180 -136 0
-204 -180 -138 0
-204 -180 -128 0
-204 -180 -146 0
-204 -187 -146 0
-204 -187 -134 0
-151 -166 0
-121 -180 -158 0
-121 -180 -136 0
-121 -180 -138 0
-121 -180 -146 0
-121 -181 -120 0
-121 -181 -138 0
-121 -181 -168 0
-121 -181 -169 0
-121 -181 -171 0
-121 -178 -125 0
-121 -178 -169 0
-121 -178 -173 0
-121 -178 -164 0
-121 -182 -134 0
-121 -182 -146 0
-121 -182 -171 0
-121 -182 -164 0
-121 -182 -175 0
-151 -180 0
-129 -143 -136 0
-129 -187 -158 0
-129 -187 -146 0
-129 -182 -128 0
-129 -182 -146 0
-129 -182 -171 0
-129 -182 -164 0
-129 -182 -175 0
-129 -166 -164 0
-129 -166 -120 0
-129 -166 -138 0
-129 -188 -136 0
-129 -188 -175 0
-129 -188 -138 0
-127 -176 0
-61 -91 221 0
-62 -92 221 0
-63 -93 221 0
-64 -94 221 0
-65 -95 221 0
-66 -96 221 0
-119 -177 -221 0
-127 -166 0
-121 -116 -144 0
-121 -116 -194 0
-121 -180 -144 0
-121 -180 -120 0
-121 -180 -220 0
-61 -79 222 0
-62 -80 222 0
-63 -81 222 0
-64 -82 222 0
-65 -83 222 0
-66 -84 222 0
-121 -180 -222 0
-61 -73 223 0
-62 -74 223 0
-63 -75 223 0
-64 -76 223 0
-65 -77 223 0
-66 -78 223 0
-121 -180 -223 0
-121 -181 -222 0
-61 -109 224 0
-62 -110 224 0
-63 -111 224 0
-64 -112 224 0
-65 -113 224 0
-66 -114 224 0
-121 -181 -224 0
-121 -181 -221 0
-61 -103 225 0
-62 -104 225 0
-63 -105 225 0
-64 -106 225 0
-65 -107 225 0
-66 -108 225 0
-121 -181 -225 0
-121 -182 -194 0
-121 -182 -223 0
-121 -182 -225 0
-61 -85 226 0
-62 -86 226 0
-63 -87 226 0
-64 -88 226 0
-65 -89 226 0
-66 -90 226 0
-121 -182 -226 0
-61 -97 227 0
-62 -98 227 0
-63 -99 227 0
-64 -100 227 0
-65 -101 227 0
-66 -102 227 0
-121 -182 -227 0
-127 -184 0
-61 -37 228 0
-62 -38 228 0
-63 -39 228 0
-64 -40 228 0
-65 -41 228 0
-66 -42 228 0
-122 -177 -228 0
-122 -181 -157 0
-122 -181 -222 0
-122 -181 -224 0
-122 -181 -225 0
-122 -183 -226 0
-122 -183 -225 0
-127 -177 0
-123 -176 -205 0
-123 -184 -226 0
-123 -184 -224 0
-127 -181 0
-124 -166 -120 0
-124 -166 -194 0
-124 -166 -222 0
-124 -182 -194 0
-124 -182 -157 0
-124 -182 -223 0
-124 -182 -225 0
-124 -182 -227 0
-124 -183 -221 0
-124 -183 -225 0
-61 -67 229 0
-62 -68 229 0
-63 -69 229 0
-64 -70 229 0
-65 -71 229 0
-66 -72 229 0
-124 -184 -229 0
-124 -184 -224 0
-124 -185 -222 0
-124 -185 -227 0
-124 -185 -224 0
-119 -179 0
-119 -177 0
-123 -178 -153 0
-37 -91 230 0
-38 -92 230 0
-39 -93 230 0
-40 -94 230 0
-41 -95 230 0
-42 -96 230 0
-123 -178 -230 0
-37 -85 231 0
-38 -86 231 0
-39 -87 231 0
-40 -88 231 0
-41 -89 231 0
-42 -90 231 0
-123 -178 -231 0
-123 -184 -228 0
-123 -184 -231 0
-37 -109 232 0
-38 -110 232 0
-39 -111 232 0
-40 -112 232 0
-41 -113 232 0
-42 -114 232 0
-123 -184 -232 0
-119 -178 0
-127 -166 -125 0
-127 -166 -200 0
-127 -166 -231 0
-37 -79 233 0
-38 -80 233 0
-39 -81 233 0
-40 -82 233 0
-41 -83 233 0
-42 -84 233 0
-127 -166 -233 0
-37 -67 234 0
-38 -68 234 0
-39 -69 234 0
-40 -70 234 0
-41 -71 234 0
-42 -72 234 0
-127 -184 -234 0
-127 -184 -231 0
-127 -184 -232 0
-127 -177 -230 0
-127 -181 -153 0
-127 -181 -233 0
-127 -181 -232 0
-127 -181 -230 0
-37 -103 235 0
-38 -104 235 0
-39 -105 235 0
-40 -106 235 0
-41 -107 235 0
-42 -108 235 0
-127 -181 -235 0
-121 -116 0
-151 -117 -139 0
-151 -143 -167 0
-151 -143 -159 0
-151 -180 -139 0
-151 -180 -159 0
-151 -180 -163 0
-151 -180 -160 0
-121 -180 0
-129 -143 -128 0
-129 -143 -159 0
-129 -116 -139 0
-129 -187 -139 0
-129 -187 -160 0
-129 -182 -160 0
-129 -182 -161 0
-129 -182 -156 0
-129 -182 -162 0
-129 -188 -159 0
-129 -188 -162 0
-129 -188 -163 0
-121 -181 0
-124 -178 -153 0
-124 -178 -154 0
-124 -178 -155 0
-124 -182 -167 0
-124 -182 -160 0
-124 -182 -161 0
-124 -182 -162 0
-124 -183 -154 0
-124 -183 -161 0
-124 -184 -157 0
-124 -184 -155 0
-124 -184 -170 0
-124 -185 -163 0
-124 -185 -162 0
-124 -185 -170 0
-121 -178 0
-127 -176 -152 0
-127 -176 -155 0
-127 -184 -155 0
-127 -184 -156 0
-127 -184 -170 0
-127 -177 -153 0
-127 -177 -154 0
-127 -181 -163 0
-127 -181 -170 0
-127 -181 -154 0
-127 -181 -161 0
-121 -182 0
-130 -180 -139 0
-130 -180 -128 0
-130 -180 -159 0
-130 -180 -160 0
-130 -188 -159 0
-130 -188 -167 0
-130 -188 -162 0
-130 -185 -156 0
-130 -185 -162 0
-130 -185 -170 0
-130 -181 -157 0
-130 -181 -170 0
-130 -181 -154 0
-130 -181 -161 0
-130 -189 -160 0
-130 -189 -161 0
-7 -13 0
-8 -14 0
-9 -15 0
-10 -16 0
-11 -17 0
-12 -18 0
-119 -179 0
-132 -118 -214 0
-132 -118 -153 0
-132 -118 -200 0
-132 -205 -153 0
-132 -205 -230 0
-132 -205 -234 0
-132 -205 -231 0
-132 -152 -125 0
-132 -152 -200 0
-132 -152 -231 0
-132 -152 -228 0
-132 -152 -233 0
-119 -207 0
-123 -205 -176 0
-123 -205 -153 0
-123 -205 -230 0
-123 -205 -231 0
-123 -206 -228 0
-123 -206 -231 0
-123 -206 -232 0
-119 -205 0
-127 -179 -125 0
-127 -179 -153 0
-127 -152 -125 0
-127 -152 -176 0
-127 -152 -200 0
-127 -152 -231 0
-127 -152 -233 0
-127 -206 -234 0
-127 -206 -231 0
-127 -206 -232 0
-127 -207 -230 0
-127 -208 -153 0
-127 -208 -233 0
-127 -208 -232 0
-127 -208 -230 0
-127 -208 -235 0
-132 -118 0
-151 -131 -143 0
-151 -209 -180 0
-151 -209 -187 0
-151 -152 -180 0
-151 -152 -181 0
-151 -152 -178 0
-151 -152 -182 0
-151 -199 -143 0
-151 -199 -187 0
-151 -199 -182 0
-151 -199 -166 0
-151 -199 -188 0
-132 -205 0
-127 -210 -177 0
-127 -152 -116 0
-127 -152 -180 0
-127 -152 -181 0
-127 -152 -182 0
-127 -206 -177 0
-127 -206 -181 0
-127 -206 -183 0
-127 -207 -176 0
-127 -207 -184 0
-127 -208 -166 0
-127 -208 -182 0
-127 -208 -183 0
-127 -208 -184 0
-127 -208 -185 0
-132 -210 0
-119 -207 -178 0
-119 -207 -184 0
-119 -205 -166 0
-119 -205 -184 0
-119 -205 -177 0
-119 -205 -181 0
-132 -152 0
-121 -118 -143 0
-121 -118 -180 0
-121 -199 -143 0
-121 -199 -116 0
-121 -199 -187 0
-121 -199 -182 0
-121 -199 -188 0
-121 -208 -178 0
-121 -208 -182 0
-121 -208 -183 0
-121 -208 -184 0
-121 -208 -185 0
-121 -205 -176 0
-121 -205 -184 0
-121 -205 -177 0
-121 -205 -181 0
-121 -211 -180 0
-121 -211 -188 0
-121 -211 -185 0
-121 -211 -181 0
-121 -211 -189 0
-7 -25 0
-8 -26 0
-9 -27 0
-10 -28 0
-11 -29 0
-12 -30 0
-115 -158 0
-204 -134 -148 0
-204 -134 -174 0
-204 -134 -150 0
-204 -134 -202 0
-204 -136 -202 0
-204 -136 -135 0
-204 -134 0
-129 -136 -137 0
-129 -138 -139 0
-129 -138 -137 0
-129 -138 -140 0
-129 -138 -141 0
-129 -138 -142 0
-129 -128 -143 0
-129 -128 -141 0
-129 -128 -144 0
-129 -128 -145 0
-129 -146 -147 0
-129 -146 -142 0
-129 -146 -145 0
-204 -136 0
-212 -146 -149 0
-212 -146 -142 0
-212 -146 -145 0
-212 -134 -145 0
-212 -134 -139 0
-212 -134 -137 0
-121 -116 0
-132 -118 -153 0
-132 -120 -153 0
-132 -120 -154 0
-132 -120 -155 0
-132 -120 -156 0
-132 -125 -152 0
-132 -125 -155 0
-132 -125 -157 0
-121 -134 0
-129 -158 -159 0
-129 -136 -139 0
-129 -136 -160 0
-129 -138 -160 0
-129 -138 -161 0
-129 -138 -156 0
-129 -138 -162 0
-129 -146 -159 0
-129 -146 -162 0
-129 -146 -163 0
-121 -164 0
-124 -120 -166 0
-124 -120 -153 0
-124 -120 -154 0
-124 -120 -155 0
-124 -138 -167 0
-124 -138 -160 0
-124 -138 -161 0
-124 -138 -162 0
-124 -168 -154 0
-124 -168 -161 0
-124 -169 -157 0
-124 -169 -155 0
-124 -169 -170 0
-124 -171 -163 0
-124 -171 -162 0
-124 -171 -170 0
-121 -120 0
-127 -116 -152 0
-127 -116 -153 0
-127 -125 -152 0
-127 -125 -166 0
-127 -125 -155 0
-127 -169 -155 0
-127 -169 -156 0
-127 -169 -170 0
-127 -173 -153 0
-127 -173 -154 0
-127 -164 -163 0
-127 -164 -170 0
-127 -164 -154 0
-127 -164 -161 0
-121 -138 0
-130 -134 -139 0
-130 -134 -159 0
-130 -134 -160 0
-130 -146 -159 0
-130 -146 -167 0
-130 -146 -162 0
-130 -171 -156 0
-130 -171 -162 0
-130 -171 -170 0
-130 -164 -157 0
-130 -164 -170 0
-130 -164 -154 0
-130 -164 -161 0
-130 -175 -160 0
-130 -175 -161 0
-132 -118 0
-126 -125 -177 0
-126 -125 -178 0
-132 -120 0
-127 -125 -179 0
-127 -125 -177 0
-127 -128 -180 0
-127 -128 -181 0
-127 -128 -182 0
-127 -169 -177 0
-127 -169 -181 0
-127 -169 -183 0
-127 -173 -176 0
-127 -173 -184 0
-127 -164 -166 0
-127 -164 -182 0
-127 -164 -183 0
-127 -164 -184 0
-127 -164 -185 0
-132 -125 0
-119 -173 -178 0
-119 -173 -184 0
-119 -120 -166 0
-119 -120 -184 0
-119 -120 -177 0
-119 -120 -181 0
-132 -128 0
-121 -134 -143 0
-121 -134 -187 0
-121 -134 -182 0
-121 -134 -188 0
-121 -164 -178 0
-121 -164 -182 0
-121 -164 -183 0
-121 -164 -184 0
-121 -164 -185 0
-121 -120 -176 0
-121 -120 -184 0
-121 -120 -177 0
-121 -120 -181 0
-121 -138 -180 0
-121 -138 -188 0
-121 -138 -185 0
-121 -138 -181 0
-121 -138 -189 0
-129 -158 0
-204 -136 -190 0
-129 -136 0
-212 -146 -191 0
-212 -146 -192 0
-129 -138 0
-130 -128 -180 0
-130 -128 -193 0
-130 -128 -194 0
-130 -146 -195 0
-130 -146 -191 0
-130 -171 -193 0
-130 -171 -191 0
-130 -171 -196 0
-130 -164 -167 0
-130 -164 -194 0
-130 -164 -196 0
-130 -164 -197 0
-130 -164 -198 0
-130 -175 -190 0
-130 -175 -198 0
-129 -128 0
-121 -116 -199 0
-121 -116 -194 0
-121 -116 -200 0
-121 -164 -194 0
-121 -164 -192 0
-121 -164 -196 0
-121 -164 -197 0
-121 -164 -198 0
-121 -120 -180 0
-121 -120 -200 0
-121 -120 -197 0
-121 -120 -201 0
-121 -120 -193 0
-121 -138 -190 0
-121 -138 -198 0
-121 -138 -193 0
-121 -138 -191 0
-129 -146 0
-213 -136 -149 0
-213 -175 -192 0
-213 -175 -198 0
-213 -138 -167 0
-213 -138 -198 0
-213 -138 -193 0
-213 -138 -191 0
-131 -151 0
-118 -204 -135 0
-118 -204 -148 0
-118 -121 -117 0
-118 -121 -135 0
-118 -121 -165 0
-118 -121 -172 0
-118 -121 -174 0
-118 -132 -172 0
-118 -132 -186 0
-118 -132 -150 0
-118 -129 -133 0
-118 -129 -148 0
-118 -129 -174 0
-118 -129 -150 0
-118 -129 -202 0
-131 -204 0
-209 -129 -203 0
-209 -129 -148 0
-209 -129 -174 0
-209 -129 -150 0
-209 -129 -202 0
-209 -151 -150 0
-209 -151 -117 0
-209 -151 -135 0
-209 -212 -202 0
-209 -212 -135 0
-179 -151 0
-118 -115 -143 0
-118 -204 -180 0
-118 -204 -187 0
-118 -121 -180 0
-118 -121 -181 0
-118 -121 -178 0
-118 -121 -182 0
-118 -129 -143 0
-118 -129 -187 0
-118 -129 -182 0
-118 -129 -166 0
-118 -129 -188 0
-179 -127 0
-205 -119 -177 0
-205 -121 -116 0
-205 -121 -180 0
-205 -121 -181 0
-205 -121 -182 0
-205 -122 -177 0
-205 -122 -181 0
-205 -122 -183 0
-205 -123 -176 0
-205 -123 -184 0
-205 -124 -166 0
-205 -124 -182 0
-205 -124 -183 0
-205 -124 -184 0
-205 -124 -185 0
-179 -119 0
-210 -123 -178 0
-210 -123 -184 0
-210 -127 -166 0
-210 -127 -184 0
-210 -127 -177 0
-210 -127 -181 0
-179 -121 0
-152 -151 -143 0
-152 -151 -180 0
-152 -129 -143 0
-152 -129 -116 0
-152 -129 -187 0
-152 -129 -182 0
-152 -129 -188 0
-152 -124 -178 0
-152 -124 -182 0
-152 -124 -183 0
-152 -124 -184 0
-152 -124 -185 0
-152 -127 -176 0
-152 -127 -184 0
-152 -127 -177 0
-152 -127 -181 0
-152 -130 -180 0
-152 -130 -188 0
-152 -130 -185 0
-152 -130 -181 0
-152 -130 -189 0
-131 -204 -134 0
-131 -204 -136 0
-118 -204 0
-209 -129 -136 0
-209 -129 -138 0
-209 -129 -128 0
-209 -129 -146 0
-209 -212 -146 0
-209 -212 -134 0
-118 -121 0
-152 -132 -120 0
-152 -132 -125 0
-152 -129 -158 0
-152 -129 -136 0
-152 -129 -138 0
-152 -129 -146 0
-152 -124 -120 0
-152 -124 -138 0
-152 -124 -168 0
-152 -124 -169 0
-152 -124 -171 0
-152 -127 -116 0
-152 -127 -125 0
-152 -127 -169 0
-152 -127 -173 0
-152 -127 -164 0
-152 -130 -134 0
-152 -130 -146 0
-152 -130 -171 0
-152 -130 -164 0
-152 -130 -175 0
-118 -132 0
-179 -127 -125 0
-179 -127 -128 0
-179 -127 -169 0
-179 -127 -173 0
-179 -127 -164 0
-179 -119 -173 0
-179 -119 -120 0
-179 -121 -134 0
-179 -121 -164 0
-179 -121 -120 0
-179 -121 -138 0
-118 -129 0
-199 -204 -136 0
-199 -212 -158 0
-199 -212 -146 0
-199 -130 -128 0
-199 -130 -146 0
-199 -130 -171 0
-199 -130 -164 0
-199 -130 -175 0
-199 -121 -116 0
-199 -121 -164 0
-199 -121 -120 0
-199 -121 -138 0
-199 -213 -136 0
-199 -213 -175 0
-199 -213 -138 0
-13 -37 0
-14 -38 0
-15 -39 0
-16 -40 0
-17 -41 0
-18 -42 0
-126 -186 -116 0
-126 -186 -143 0
-126 -125 -143 0
-126 -125 -166 0
-126 -125 -180 0
-179 -125 0
-118 -186 -143 0
-118 -214 -180 0
-118 -214 -187 0
-118 -153 -180 0
-118 -153 -181 0
-118 -153 -178 0
-118 -153 -182 0
-118 -200 -143 0
-118 -200 -187 0
-118 -200 -182 0
-118 -200 -166 0
-118 -200 -188 0
-179 -228 0
-205 -153 -116 0
-205 -153 -180 0
-205 -153 -181 0
-205 -153 -182 0
-205 -230 -177 0
-205 -230 -181 0
-205 -230 -183 0
-205 -234 -184 0
-205 -231 -166 0
-205 -231 -182 0
-205 -231 -183 0
-205 -231 -184 0
-205 -231 -185 0
-179 -153 0
-152 -125 -143 0
-152 -125 -180 0
-152 -200 -143 0
-152 -200 -116 0
-152 -200 -187 0
-152 -200 -182 0
-152 -200 -188 0
-152 -231 -178 0
-152 -231 -182 0
-152 -231 -183 0
-152 -231 -184 0
-152 -231 -185 0
-152 -228 -184 0
-152 -228 -177 0
-152 -228 -181 0
-152 -233 -180 0
-152 -233 -188 0
-152 -233 -185 0
-152 -233 -181 0
-152 -233 -189 0
-207 -228 0
-205 -176 -173 0
-205 -176 -155 0
-205 -153 -173 0
-205 -153 -177 0
-205 -153 -201 0
-67 -85 236 0
-68 -86 236 0
-69 -87 236 0
-70 -88 236 0
-71 -89 236 0
-72 -90 236 0
-205 -153 -236 0
-67 -79 237 0
-68 -80 237 0
-69 -81 237 0
-70 -82 237 0
-71 -83 237 0
-72 -84 237 0
-205 -153 -237 0
-205 -230 -236 0
-67 -109 238 0
-68 -110 238 0
-69 -111 238 0
-70 -112 238 0
-71 -113 238 0
-72 -114 238 0
-205 -230 -238 0
-205 -231 -155 0
-205 -231 -237 0
-205 -231 -238 0
-67 -91 239 0
-68 -92 239 0
-69 -93 239 0
-70 -94 239 0
-71 -95 239 0
-72 -96 239 0
-205 -231 -239 0
-67 -103 240 0
-68 -104 240 0
-69 -105 240 0
-70 -106 240 0
-71 -107 240 0
-72 -108 240 0
-205 -231 -240 0
-207 -230 0
-206 -228 -177 0
-206 -228 -155 0
-206 -228 -236 0
-206 -231 -155 0
-206 -231 -229 0
-206 -231 -237 0
-206 -231 -238 0
-206 -231 -240 0
-206 -232 -236 0
-206 -232 -240 0
-205 -176 0
-179 -119 -120 0
-179 -125 -144 0
-179 -125 -157 0
-179 -125 -194 0
-179 -153 -120 0
-179 -153 -194 0
-179 -153 -226 0
-179 -153 -222 0
-205 -153 0
-152 -125 -144 0
-152 -125 -178 0
-152 -125 -194 0
-152 -176 -120 0
-152 -200 -144 0
-152 -200 -120 0
-152 -200 -220 0
-152 -200 -222 0
-152 -200 -223 0
-152 -231 -222 0
-152 -231 -224 0
-152 -231 -221 0
-152 -231 -225 0
-152 -233 -194 0
-152 -233 -223 0
-152 -233 -225 0
-152 -233 -226 0
-152 -233 -227 0
-205 -230 0
-206 -231 -157 0
-206 -231 -222 0
-206 -231 -224 0
-206 -231 -225 0
-206 -232 -226 0
-206 -232 -225 0
-205 -234 0
-207 -230 -226 0
-207 -230 -224 0
-205 -231 0
-208 -153 -120 0
-208 -153 -178 0
-208 -153 -194 0
-208 -153 -222 0
-208 -233 -194 0
-208 -233 -157 0
-208 -233 -223 0
-208 -233 -225 0
-208 -233 -227 0
-208 -232 -221 0
-208 -232 -225 0
-208 -230 -229 0
-208 -230 -224 0
-208 -235 -222 0
-208 -235 -227 0
-208 -235 -224 0
-13 -31 0
-14 -32 0
-15 -33 0
-16 -34 0
-17 -35 0
-18 -36 0
-131 -116 -204 0
-131 -116 -121 0
-131 -116 -129 0
-131 -143 -129 0
-131 -143 -151 0
-131 -143 -212 0
-126 -116 0
-118 -117 -204 0
-118 -143 -129 0
-118 -143 -212 0
-118 -166 -129 0
-118 -166 -124 0
-118 -166 -127 0
-118 -166 -130 0
-118 -180 -204 0
-118 -180 -212 0
-118 -180 -130 0
-118 -180 -121 0
-118 -180 -213 0
-131 -143 -134 0
-131 -143 -136 0
-126 -117 -158 0
-118 -143 0
-209 -180 -136 0
-209 -180 -138 0
-209 -180 -128 0
-209 -180 -146 0
-209 -187 -146 0
-209 -187 -134 0
-118 -166 0
-152 -180 -158 0
-152 -180 -136 0
-152 -180 -138 0
-152 -180 -146 0
-152 -181 -120 0
-152 -181 -138 0
-152 -181 -168 0
-152 -181 -169 0
-152 -181 -171 0
-152 -178 -125 0
-152 -178 -169 0
-152 -178 -173 0
-152 -178 -164 0
-152 -182 -134 0
-152 -182 -146 0
-152 -182 -171 0
-152 -182 -164 0
-152 -182 -175 0
-118 -180 0
-199 -143 -136 0
-199 -187 -158 0
-199 -187 -146 0
-199 -182 -128 0
-199 -182 -146 0
-199 -182 -171 0
-199 -182 -164 0
-199 -182 -175 0
-199 -166 -164 0
-199 -166 -120 0
-199 -166 -138 0
-199 -188 -136 0
-199 -188 -175 0
-199 -188 -138 0
-205 -176 0
-210 -177 -221 0
-205 -166 0
-152 -116 -144 0
-152 -116 -194 0
-152 -180 -144 0
-152 -180 -120 0
-152 -180 -220 0
-152 -180 -222 0
-152 -180 -223 0
-152 -181 -222 0
-152 -181 -224 0
-152 -181 -221 0
-152 -181 -225 0
-152 -182 -194 0
-152 -182 -223 0
-152 -182 -225 0
-152 -182 -226 0
-152 -182 -227 0
-205 -184 0
-206 -177 -228 0
-206 -181 -157 0
-206 -181 -222 0
-206 -181 -224 0
-206 -181 -225 0
-206 -183 -226 0
-206 -183 -225 0
-205 -177 0
-207 -184 -226 0
-207 -184 -224 0
-205 -181 0
-208 -166 -120 0
-208 -166 -194 0
-208 -166 -222 0
-208 -182 -194 0
-208 -182 -157 0
-208 -182 -223 0
-208 -182 -225 0
-208 -182 -227 0
-208 -183 -221 0
-208 -183 -225 0
-208 -184 -229 0
-208 -184 -224 0
-208 -185 -222 0
-208 -185 -227 0
-208 -185 -224 0
-210 -177 0
-207 -178 -153 0
-207 -178 -230 0
-207 -178 -231 0
-207 -184 -228 0
-207 -184 -231 0
-207 -184 -232 0
-210 -178 0
-205 -166 -125 0
-205 -166 -200 0
-205 -166 -231 0
-205 -166 -233 0
-205 -184 -234 0
-205 -184 -231 0
-205 -184 -232 0
-205 -177 -230 0
-205 -181 -153 0
-205 -181 -233 0
-205 -181 -232 0
-205 -181 -230 0
-205 -181 -235 0
-152 -116 0
-118 -117 -139 0
-118 -143 -167 0
-118 -143 -159 0
-118 -180 -139 0
-118 -180 -159 0
-118 -180 -163 0
-118 -180 -160 0
-152 -180 0
-199 -143 -128 0
-199 -143 -159 0
-199 -116 -139 0
-199 -187 -139 0
-199 -187 -160 0
-199 -182 -160 0
-199 -182 -161 0
-199 -182 -156 0
-199 -182 -162 0
-199 -188 -159 0
-199 -188 -162 0
-199 -188 -163 0
-152 -181 0
-208 -178 -153 0
-208 -178 -154 0
-208 -178 -155 0
-208 -182 -167 0
-208 -182 -160 0
-208 -182 -161 0
-208 -182 -162 0
-208 -183 -154 0
-208 -183 -161 0
-208 -184 -157 0
-208 -184 -155 0
-208 -184 -170 0
-208 -185 -163 0
-208 -185 -162 0
-208 -185 -170 0
-152 -178 0
-205 -176 -155 0
-205 -184 -155 0
-205 -184 -156 0
-205 -184 -170 0
-205 -177 -153 0
-205 -177 -154 0
-205 -181 -163 0
-205 -181 -170 0
-205 -181 -154 0
-205 -181 -161 0
-152 -182 0
-211 -180 -139 0
-211 -180 -128 0
-211 -180 -159 0
-211 -180 -160 0
-211 -188 -159 0
-211 -188 -167 0
-211 -188 -162 0
-211 -185 -156 0
-211 -185 -162 0
-211 -185 -170 0
-211 -181 -157 0
-211 -181 -170 0
-211 -181 -154 0
-211 -181 -161 0
-211 -189 -160 0
-211 -189 -161 0
-204 -117 -120 0
-204 -117 -125 0
-204 -117 -128 0
-204 -131 -125 0
-204 -131 -116 0
-158 -150 0
-139 -117 -120 0
-139 -117 -125 0
-139 -135 -136 0
-139 -135 -138 0
-139 -135 -146 0
-139 -165 -120 0
-139 -165 -138 0
-139 -165 -168 0
-139 -165 -169 0
-139 -165 -171 0
-139 -172 -116 0
-139 -172 -125 0
-139 -172 -169 0
-139 -172 -173 0
-139 -172 -164 0
-139 -174 -134 0
-139 -174 -146 0
-139 -174 -171 0
-139 -174 -164 0
-139 -174 -175 0
-158 -117 0
-143 -131 -125 0
-143 -172 -125 0
-143 -172 -128 0
-143 -172 -169 0
-143 -172 -173 0
-143 -172 -164 0
-143 -186 -173 0
-143 -186 -120 0
-143 -150 -134 0
-143 -150 -164 0
-143 -150 -120 0
-143 -150 -138 0
-158 -135 0
-149 -148 -146 0
-149 -174 -128 0
-149 -174 -146 0
-149 -174 -171 0
-149 -174 -164 0
-149 -174 -175 0
-149 -150 -116 0
-149 -150 -164 0
-149 -150 -120 0
-149 -150 -138 0
-149 -202 -136 0
-149 -202 -175 0
-149 -202 -138 0
-204 -117 0
-143 -131 -119 0
-143 -203 -121 0
-143 -203 -129 0
-143 -172 -119 0
-143 -172 -121 0
-143 -172 -122 0
-143 -172 -123 0
-143 -172 -124 0
-143 -186 -123 0
-143 -186 -127 0
-143 -150 -151 0
-143 -150 -129 0
-143 -150 -124 0
-143 -150 -127 0
-143 -150 -130 0
-209 -186 -132 0
-209 -186 -123 0
-209 -186 -127 0
-209 -117 -151 0
-209 -117 -127 0
-209 -117 -119 0
-209 -117 -121 0
-204 -203 0
-158 -150 -132 0
-158 -150 -129 0
-158 -150 -124 0
-158 -150 -127 0
-158 -150 -130 0
-158 -117 -127 0
-158 -117 -119 0
-158 -117 -121 0
-158 -135 -212 0
-158 -135 -130 0
-158 -135 -121 0
-158 -135 -213 0
-19 -49 0
-20 -50 0
-21 -51 0
-22 -52 0
-23 -53 0
-24 -54 0
-133 -129 -116 0
-204 -180 -120 0
-204 -180 -125 0
-204 -180 -128 0
-204 -199 -125 0
-204 -199 -116 0
-158 -167 0
-139 -180 -120 0
-139 -180 -125 0
-139 -193 -120 0
-139 -193 -138 0
-139 -193 -168 0
-139 -193 -169 0
-139 -193 -171 0
-139 -194 -116 0
-139 -194 -125 0
-139 -194 -169 0
-139 -194 -173 0
-139 -194 -164 0
-139 -192 -146 0
-139 -192 -171 0
-139 -192 -164 0
-139 -192 -175 0
-158 -180 0
-143 -199 -125 0
-143 -194 -125 0
-143 -194 -128 0
-143 -194 -169 0
-143 -194 -173 0
-143 -194 -164 0
-143 -200 -173 0
-143 -200 -120 0
-143 -167 -164 0
-143 -167 -120 0
-143 -167 -138 0
-147 -190 0
-137 -191 -215 0
-137 -191 -216 0
-137 -192 -159 0
-137 -192 -216 0
-137 -192 -217 0
-137 -192 -218 0
-145 -167 0
-139 -134 -182 0
-139 -180 -138 0
-139 -180 -222 0
-139 -180 -233 0
-139 -193 -222 0
-79 -109 241 0
-80 -110 241 0
-81 -111 241 0
-82 -112 241 0
-83 -113 241 0
-84 -114 241 0
-139 -193 -241 0
-79 -91 242 0
-80 -92 242 0
-81 -93 242 0
-82 -94 242 0
-83 -95 242 0
-84 -96 242 0
-139 -193 -242 0
-79 -103 243 0
-80 -104 243 0
-81 -105 243 0
-82 -106 243 0
-83 -107 243 0
-84 -108 243 0
-139 -193 -243 0
-139 -194 -182 0
-139 -194 -233 0
-139 -194 -242 0
-139 -194 -237 0
-79 -85 244 0
-80 -86 244 0
-81 -87 244 0
-82 -88 244 0
-83 -89 244 0
-84 -90 244 0
-139 -194 -244 0
-145 -190 0
-137 -191 -243 0
-145 -198 0
-140 -193 -163 0
-140 -193 -222 0
-140 -193 -241 0
-140 -193 -242 0
-79 -73 245 0
-80 -74 245 0
-81 -75 245 0
-82 -76 245 0
-83 -77 245 0
-84 -78 245 0
-140 -191 -245 0
-140 -196 -244 0
-140 -196 -242 0
-145 -193 0
-141 -167 -138 0
-141 -167 -182 0
-141 -167 -222 0
-141 -194 -182 0
-141 -194 -233 0
-141 -194 -163 0
-141 -194 -242 0
-141 -194 -237 0
-141 -196 -242 0
-141 -196 -243 0
-141 -197 -222 0
-141 -197 -237 0
-141 -197 -241 0
-79 -97 246 0
-80 -98 246 0
-81 -99 246 0
-82 -100 246 0
-83 -101 246 0
-84 -102 246 0
-141 -198 -246 0
-141 -198 -241 0
-145 -191 0
-142 -190 -215 0
-142 -198 -244 0
-142 -198 -241 0
-139 -134 0
-158 -129 -166 0
-158 -180 -157 0
-158 -180 -153 0
-139 -180 0
-143 -129 -128 0
-143 -199 -153 0
-143 -194 -153 0
-143 -194 -154 0
-143 -194 -155 0
-143 -194 -156 0
-143 -200 -155 0
-143 -200 -157 0
-139 -193 0
-141 -194 -166 0
-141 -194 -153 0
-141 -194 -154 0
-141 -194 -155 0
-141 -192 -160 0
-141 -192 -161 0
-141 -192 -162 0
-141 -196 -154 0
-141 -196 -161 0
-141 -197 -157 0
-141 -197 -155 0
-141 -197 -170 0
-141 -198 -163 0
-141 -198 -162 0
-141 -198 -170 0
-139 -194 0
-144 -180 -128 0
-144 -180 -153 0
-144 -200 -166 0
-144 -200 -155 0
-144 -197 -155 0
-144 -197 -156 0
-144 -197 -170 0
-144 -201 -153 0
-144 -201 -154 0
-144 -193 -163 0
-144 -193 -170 0
-144 -193 -154 0
-144 -193 -161 0
-139 -192 0
-145 -190 -159 0
-145 -190 -162 0
-145 -198 -156 0
-145 -198 -162 0
-145 -198 -170 0
-145 -193 -157 0
-145 -193 -170 0
-145 -193 -154 0
-145 -193 -161 0
-145 -191 -160 0
-145 -191 -161 0
-137 -195 0
-137 -191 0
-142 -192 -160 0
-73 -103 247 0
-74 -104 247 0
-75 -105 247 0
-76 -106 247 0
-77 -107 247 0
-78 -108 247 0
-142 -192 -247 0
-73 -85 248 0
-74 -86 248 0
-75 -87 248 0
-76 -88 248 0
-77 -89 248 0
-78 -90 248 0
-142 -192 -248 0
-142 -198 -245 0
-142 -198 -248 0
-73 -109 249 0
-74 -110 249 0
-75 -111 249 0
-76 -112 249 0
-77 -113 249 0
-78 -114 249 0
-142 -198 -249 0
-137 -192 0
-145 -167 -146 0
-145 -167 -188 0
-145 -167 -248 0
-145 -167 -223 0
-145 -198 -248 0
-73 -97 250 0
-74 -98 250 0
-75 -99 250 0
-76 -100 250 0
-77 -101 250 0
-78 -102 250 0
-145 -198 -250 0
-145 -198 -249 0
-145 -193 -160 0
-145 -193 -223 0
-145 -193 -249 0
-73 -91 251 0
-74 -92 251 0
-75 -93 251 0
-76 -94 251 0
-77 -95 251 0
-78 -96 251 0
-145 -193 -251 0
-145 -193 -247 0
-145 -191 -247 0
-19 -25 0
-20 -26 0
-21 -27 0
-22 -28 0
-23 -29 0
-24 -30 0
-204 -116 -172 0
-204 -116 -186 0
-204 -116 -150 0
-204 -118 -186 0
-204 -118 -117 0
-204 -116 0
-143 -118 -119 0
-143 -120 -119 0
-143 -120 -121 0
-143 -120 -122 0
-143 -120 -123 0
-143 -120 -124 0
-143 -125 -123 0
-143 -125 -127 0
-143 -128 -129 0
-143 -128 -124 0
-143 -128 -127 0
-143 -128 -130 0
-209 -125 -132 0
-209 -125 -123 0
-209 -125 -127 0
-209 -116 -127 0
-209 -116 -119 0
-209 -116 -121 0
-139 -116 0
-143 -118 -153 0
-143 -120 -153 0
-143 -120 -154 0
-143 -120 -155 0
-143 -120 -156 0
-143 -125 -155 0
-143 -125 -157 0
-139 -134 0
-149 -136 -160 0
-149 -138 -160 0
-149 -138 -161 0
-149 -138 -156 0
-149 -138 -162 0
-149 -146 -159 0
-149 -146 -162 0
-149 -146 -163 0
-139 -164 0
-141 -120 -166 0
-141 -120 -153 0
-141 -120 -154 0
-141 -120 -155 0
-141 -138 -167 0
-141 -138 -160 0
-141 -138 -161 0
-141 -138 -162 0
-141 -168 -154 0
-141 -168 -161 0
-141 -169 -157 0
-141 -169 -155 0
-141 -169 -170 0
-141 -171 -163 0
-141 -171 -162 0
-141 -171 -170 0
-139 -120 0
-144 -116 -153 0
-144 -125 -166 0
-144 -125 -155 0
-144 -169 -155 0
-144 -169 -156 0
-144 -169 -170 0
-144 -173 -153 0
-144 -173 -154 0
-144 -164 -163 0
-144 -164 -170 0
-144 -164 -154 0
-144 -164 -161 0
-139 -138 0
-145 -134 -159 0
-145 -134 -160 0
-145 -146 -159 0
-145 -146 -167 0
-145 -146 -162 0
-145 -171 -156 0
-145 -171 -162 0
-145 -171 -170 0
-145 -164 -157 0
-145 -164 -170 0
-145 -164 -154 0
-145 -164 -161 0
-145 -175 -160 0
-145 -175 -161 0
-204 -118 -176 0
-209 -125 -177 0
-209 -125 -178 0
-143 -120 0
-144 -125 -177 0
-144 -128 -180 0
-144 -128 -181 0
-144 -128 -182 0
-144 -169 -177 0
-144 -169 -181 0
-144 -169 -183 0
-144 -173 -176 0
-144 -173 -184 0
-144 -164 -166 0
-144 -164 -182 0
-144 -164 -183 0
-144 -164 -184 0
-144 -164 -185 0
-143 -125 0
-214 -173 -178 0
-214 -173 -184 0
-214 -120 -166 0
-214 -120 -184 0
-214 -120 -177 0
-214 -120 -181 0
-143 -128 0
-139 -134 -187 0
-139 -134 -182 0
-139 -134 -188 0
-139 -164 -178 0
-139 -164 -182 0
-139 -164 -183 0
-139 -164 -184 0
-139 -164 -185 0
-139 -120 -176 0
-139 -120 -184 0
-139 -120 -177 0
-139 -120 -181 0
-139 -138 -180 0
-139 -138 -188 0
-139 -138 -185 0
-139 -138 -181 0
-139 -138 -189 0
-149 -136 0
-147 -146 -191 0
-147 -146 -192 0
-149 -138 0
-145 -128 -180 0
-145 -128 -193 0
-145 -128 -194 0
-145 -146 -195 0
-145 -146 -191 0
-145 -171 -193 0
-145 -171 -191 0
-145 -171 -196 0
-145 -164 -167 0
-145 -164 -194 0
-145 -164 -196 0
-145 -164 -197 0
-145 -164 -198 0
-145 -175 -190 0
-145 -175 -198 0
-149 -128 0
-139 -116 -194 0
-139 -116 -200 0
-139 -164 -194 0
-139 -164 -192 0
-139 -164 -196 0
-139 -164 -197 0
-139 -164 -198 0
-139 -120 -180 0
-139 -120 -200 0
-139 -120 -197 0
-139 -120 -201 0
-139 -120 -193 0
-139 -138 -190 0
-139 -138 -198 0
-139 -138 -193 0
-139 -138 -191 0
-149 -146 0
-137 -175 -192 0
-137 -175 -198 0
-137 -138 -167 0
-137 -138 -198 0
-137 -138 -193 0
-137 -138 -191 0
-19 -43 0
-20 -44 0
-21 -45 0
-22 -46 0
-23 -47 0
-24 -48 0
-137 -195 0
-149 -136 -160 0
-149 -136 -188 0
-149 -215 -160 0
-149 -215 -247 0
-149 -215 -248 0
-149 -215 -250 0
-149 -159 -146 0
-149 -159 -188 0
-149 -159 -248 0
-149 -159 -223 0
-149 -159 -245 0
-137 -218 0
-142 -215 -190 0
-142 -215 -160 0
-142 -215 -247 0
-142 -215 -248 0
-142 -216 -245 0
-142 -216 -248 0
-142 -216 -249 0
-137 -215 0
-145 -195 -146 0
-145 -195 -160 0
-145 -159 -146 0
-145 -159 -188 0
-145 -159 -190 0
-145 -159 -248 0
-145 -159 -223 0
-145 -216 -248 0
-145 -216 -250 0
-145 -216 -249 0
-145 -217 -160 0
-145 -217 -223 0
-145 -217 -249 0
-145 -217 -251 0
-145 -217 -247 0
-145 -218 -247 0
-149 -136 0
-158 -212 -180 0
-158 -159 -180 0
-158 -159 -193 0
-158 -159 -194 0
-158 -159 -192 0
-158 -187 -194 0
-158 -187 -200 0
-158 -187 -167 0
-149 -215 0
-145 -159 -134 0
-145 -159 -180 0
-145 -159 -193 0
-145 -159 -194 0
-145 -219 -191 0
-145 -216 -193 0
-145 -216 -191 0
-145 -216 -196 0
-145 -217 -167 0
-145 -217 -194 0
-145 -217 -196 0
-145 -217 -197 0
-145 -217 -198 0
-145 -218 -190 0
-145 -218 -198 0
-149 -159 0
-139 -136 -180 0
-139 -187 -134 0
-139 -187 -194 0
-139 -187 -200 0
-139 -217 -194 0
-139 -217 -192 0
-139 -217 -196 0
-139 -217 -197 0
-139 -217 -198 0
-139 -220 -180 0
-139 -220 -200 0
-139 -220 -197 0
-139 -220 -201 0
-139 -220 -193 0
-139 -215 -190 0
-139 -215 -198 0
-139 -215 -193 0
-139 -215 -191 0
-149 -219 0
-137 -218 -192 0
-137 -218 -198 0
-137 -215 -167 0
-137 -215 -198 0
-137 -215 -193 0
-137 -215 -191 0
-151 -117 0
-116 -131 -119 0
-116 -172 -119 0
-116 -172 -121 0
-116 -172 -122 0
-116 -172 -123 0
-116 -172 -124 0
-116 -186 -123 0
-116 -186 -127 0
-116 -150 -129 0
-116 -150 -124 0
-116 -150 -127 0
-116 -150 -130 0
-118 -186 -132 0
-118 -186 -123 0
-118 -186 -127 0
-118 -117 -127 0
-118 -117 -119 0
-118 -117 -121 0
-158 -135 0
-134 -148 -137 0
-134 -174 -139 0
-134 -174 -137 0
-134 -174 -140 0
-134 -174 -141 0
-134 -174 -142 0
-134 -150 -143 0
-134 -150 -141 0
-134 -150 -144 0
-134 -150 -145 0
-134 -202 -147 0
-134 -202 -142 0
-134 -202 -145 0
-158 -148 0
-136 -202 -149 0
-136 -202 -142 0
-136 -202 -145 0
-136 -135 -145 0
-136 -135 -139 0
-136 -135 -137 0
-158 -129 -148 0
-158 -129 -174 0
-158 -129 -150 0
-158 -129 -202 0
-158 -212 -202 0
-158 -212 -135 0
-118 -119 -177 0
-118 -119 -178 0
-116 -127 0
-120 -119 -177 0
-120 -121 -180 0
-120 -121 -181 0
-120 -121 -182 0
-120 -122 -177 0
-120 -122 -181 0
-120 -122 -183 0
-120 -123 -176 0
-120 -123 -184 0
-120 -124 -166 0
-120 -124 -182 0
-120 -124 -183 0
-120 -124 -184 0
-120 -124 -185 0
-116 -119 0
-125 -123 -178 0
-125 -123 -184 0
-125 -127 -166 0
-125 -127 -184 0
-125 -127 -177 0
-125 -127 -181 0
-116 -121 0
-128 -129 -187 0
-128 -129 -182 0
-128 -129 -188 0
-128 -124 -178 0
-128 -124 -182 0
-128 -124 -183 0
-128 -124 -184 0
-128 -124 -185 0
-128 -127 -176 0
-128 -127 -184 0
-128 -127 -177 0
-128 -127 -181 0
-128 -130 -180 0
-128 -130 -188 0
-128 -130 -185 0
-128 -130 -181 0
-128 -130 -189 0
-118 -119 0
-125 -132 -205 0
-125 -132 -152 0
-125 -123 -205 0
-125 -123 -206 0
-125 -127 -179 0
-125 -127 -152 0
-125 -127 -206 0
-125 -127 -207 0
-125 -127 -208 0
-118 -132 0
-116 -127 -210 0
-116 -127 -152 0
-116 -127 -206 0
-116 -127 -207 0
-116 -127 -208 0
-116 -119 -207 0
-116 -119 -205 0
-116 -121 -199 0
-116 -121 -208 0
-116 -121 -205 0
-116 -121 -211 0
-151 -143 -172 0
-151 -143 -186 0
-151 -143 -150 0
-151 -209 -186 0
-151 -209 -117 0
-134 -147 0
-136 -137 -191 0
-136 -137 -192 0
-134 -145 0
-138 -139 -180 0
-138 -139 -193 0
-138 -139 -194 0
-138 -137 -195 0
-138 -137 -191 0
-138 -140 -193 0
-138 -140 -191 0
-138 -140 -196 0
-138 -141 -167 0
-138 -141 -194 0
-138 -141 -196 0
-138 -141 -197 0
-138 -141 -198 0
-138 -142 -190 0
-138 -142 -198 0
-134 -139 0
-128 -143 -194 0
-128 -143 -200 0
-128 -141 -194 0
-128 -141 -192 0
-128 -141 -196 0
-128 -141 -197 0
-128 -141 -198 0
-128 -144 -180 0
-128 -144 -200 0
-128 -144 -197 0
-128 -144 -201 0
-128 -144 -193 0
-128 -145 -190 0
-128 -145 -198 0
-128 -145 -193 0
-128 -145 -191 0
-134 -137 0
-146 -142 -192 0
-146 -142 -198 0
-146 -145 -167 0
-146 -145 -198 0
-146 -145 -193 0
-146 -145 -191 0
-136 -137 0
-146 -149 -215 0
-146 -149 -159 0
-146 -142 -215 0
-146 -142 -216 0
-146 -145 -195 0
-146 -145 -159 0
-146 -145 -216 0
-146 -145 -217 0
-146 -145 -218 0
-136 -149 0
-134 -145 -159 0
-134 -145 -219 0
-134 -145 -216 0
-134 -145 -217 0
-134 -145 -218 0
-134 -139 -187 0
-134 -139 -217 0
-134 -139 -220 0
-134 -139 -215 0
-134 -137 -218 0
-134 -137 -215 0
-25 -55 0
-26 -56 0
-27 -57 0
-28 -58 0
-29 -59 0
-30 -60 0
-151 -152 -176 0
-118 -153 -177 0
-118 -153 -178 0
-116 -157 0
-120 -153 -177 0
-120 -154 -177 0
-120 -154 -181 0
-120 -154 -183 0
-120 -155 -176 0
-120 -155 -184 0
-120 -156 -182 0
-120 -156 -183 0
-120 -156 -184 0
-120 -156 -185 0
-116 -153 0
-125 -155 -178 0
-125 -155 -184 0
-125 -157 -184 0
-125 -157 -177 0
-125 -157 -181 0
-158 -159 -190 0
-134 -159 0
-136 -160 -191 0
-136 -160 -192 0
-134 -163 0
-138 -160 -195 0
-138 -160 -191 0
-138 -161 -193 0
-138 -161 -191 0
-138 -161 -196 0
-138 -156 -194 0
-138 -156 -196 0
-138 -156 -197 0
-138 -156 -198 0
-138 -162 -190 0
-138 -162 -198 0
-134 -160 0
-146 -162 -192 0
-146 -162 -198 0
-146 -163 -198 0
-146 -163 -193 0
-146 -163 -191 0
-164 -157 0
-120 -166 -231 0
-120 -153 -181 0
-120 -153 -236 0
-120 -154 -236 0
-85 -109 252 0
-86 -110 252 0
-87 -111 252 0
-88 -112 252 0
-89 -113 252 0
-90 -114 252 0
-120 -154 -252 0
-120 -155 -231 0
-85 -91 253 0
-86 -92 253 0
-87 -93 253 0
-88 -94 253 0
-89 -95 253 0
-90 -96 253 0
-120 -155 -253 0
-164 -163 0
-138 -167 -217 0
-138 -167 -248 0
-138 -160 -217 0
-138 -160 -193 0
-85 -97 254 0
-86 -98 254 0
-87 -99 254 0
-88 -100 254 0
-89 -101 254 0
-90 -102 254 0
-138 -160 -254 0
-138 -161 -254 0
-138 -161 -252 0
-138 -162 -248 0
-85 -103 255 0
-86 -104 255 0
-87 -105 255 0
-88 -106 255 0
-89 -107 255 0
-90 -108 255 0
-138 -162 -255 0
-164 -170 0
-168 -154 -226 0
-168 -154 -236 0
-168 -161 -244 0
-168 -161 -254 0
-164 -154 0
-169 -157 -181 0
-169 -157 -231 0
-169 -157 -236 0
-169 -155 -231 0
-169 -155 -226 0
-169 -170 -255 0
-164 -161 0
-171 -163 -193 0
-171 -163 -248 0
-171 -163 -254 0
-171 -162 -248 0
-171 -162 -244 0
-171 -170 -253 0
-120 -166 0
-116 -152 -228 0
-116 -153 -229 0
-120 -153 0
-125 -152 -178 0
-125 -155 -221 0
-120 -154 0
-169 -155 -228 0
-169 -156 -222 0
-169 -156 -224 0
-169 -156 -225 0
-169 -170 -226 0
-169 -170 -225 0
-120 -155 0
-173 -153 -178 0
-173 -154 -226 0
-173 -154 -224 0
-120 -156 0
-164 -163 -194 0
-164 -163 -223 0
-164 -163 -225 0
-164 -163 -227 0
-164 -170 -221 0
-164 -170 -225 0
-164 -154 -229 0
-164 -154 -224 0
-164 -161 -222 0
-164 -161 -227 0
-164 -161 -224 0
-138 -167 0
-134 -139 -215 0
-134 -159 -245 0
-134 -160 -215 0
-134 -160 -246 0
-138 -160 0
-146 -159 -192 0
-146 -167 -215 0
-146 -162 -243 0
-138 -161 0
-171 -156 -222 0
-171 -156 -241 0
-171 -156 -242 0
-171 -162 -245 0
-171 -170 -244 0
-171 -170 -242 0
-138 -156 0
-164 -157 -182 0
-164 -157 -233 0
-164 -157 -242 0
-164 -157 -237 0
-164 -170 -242 0
-164 -170 -243 0
-164 -154 -222 0
-164 -154 -237 0
-164 -154 -241 0
-164 -161 -246 0
-164 -161 -241 0
-138 -162 0
-175 -160 -215 0
-175 -160 -192 0
-175 -161 -244 0
-175 -161 -241 0
-25 -31 0
-26 -32 0
-27 -33 0
-28 -34 0
-29 -35 0
-30 -36 0
-203 -143 -129 0
-203 -143 -212 0
-118 -176 -123 0
-118 -176 -127 0
-118 -176 0
-125 -177 -205 0
-125 -177 -206 0
-125 -178 -152 0
-125 -178 -206 0
-125 -178 -207 0
-125 -178 -208 0
-120 -176 0
-125 -177 -221 0
-120 -166 0
-128 -180 -220 0
-128 -180 -222 0
-128 -180 -223 0
-128 -181 -222 0
-128 -181 -224 0
-128 -181 -221 0
-128 -181 -225 0
-128 -182 -194 0
-128 -182 -223 0
-128 -182 -225 0
-128 -182 -226 0
-128 -182 -227 0
-120 -184 0
-169 -177 -228 0
-169 -181 -157 0
-169 -181 -222 0
-169 -181 -224 0
-169 -181 -225 0
-169 -183 -226 0
-169 -183 -225 0
-120 -177 0
-173 -184 -226 0
-173 -184 -224 0
-120 -181 0
-164 -166 -194 0
-164 -166 -222 0
-164 -182 -194 0
-164 -182 -157 0
-164 -182 -223 0
-164 -182 -225 0
-164 -182 -227 0
-164 -183 -221 0
-164 -183 -225 0
-164 -184 -229 0
-164 -184 -224 0
-164 -185 -222 0
-164 -185 -227 0
-164 -185 -224 0
-125 -177 0
-173 -178 -153 0
-173 -178 -230 0
-173 -178 -231 0
-173 -184 -228 0
-173 -184 -231 0
-173 -184 -232 0
-125 -178 0
-120 -166 -200 0
-120 -166 -231 0
-120 -166 -233 0
-120 -184 -234 0
-120 -184 -231 0
-120 -184 -232 0
-120 -177 -230 0
-120 -181 -153 0
-120 -181 -233 0
-120 -181 -232 0
-120 -181 -230 0
-120 -181 -235 0
-128 -180 0
-134 -143 -159 0
-134 -187 -160 0
-134 -182 -160 0
-134 -182 -161 0
-134 -182 -156 0
-134 -182 -162 0
-134 -188 -159 0
-134 -188 -162 0
-134 -188 -163 0
-128 -181 0
-164 -178 -153 0
-164 -178 -154 0
-164 -178 -155 0
-164 -182 -167 0
-164 -182 -160 0
-164 -182 -161 0
-164 -182 -162 0
-164 -183 -154 0
-164 -183 -161 0
-164 -184 -157 0
-164 -184 -155 0
-164 -184 -170 0
-164 -185 -163 0
-164 -185 -162 0
-164 -185 -170 0
-128 -178 0
-120 -176 -155 0
-120 -184 -155 0
-120 -184 -156 0
-120 -184 -170 0
-120 -177 -153 0
-120 -177 -154 0
-120 -181 -163 0
-120 -181 -170 0
-120 -181 -154 0
-120 -181 -161 0
-128 -182 0
-138 -180 -159 0
-138 -180 -160 0
-138 -188 -159 0
-138 -188 -167 0
-138 -188 -162 0
-138 -185 -156 0
-138 -185 -162 0
-138 -185 -170 0
-138 -181 -157 0
-138 -181 -170 0
-138 -181 -154 0
-138 -181 -161 0
-138 -189 -160 0
-138 -189 -161 0
-25 -49 0
-26 -50 0
-27 -51 0
-28 -52 0
-29 -53 0
-30 -54 0
-203 -129 -143 0
-158 -195 0
-136 -190 -142 0
-136 -190 -145 0
-136 -190 0
-146 -191 -215 0
-146 -191 -216 0
-146 -192 -159 0
-146 -192 -216 0
-146 -192 -217 0
-146 -192 -218 0
-138 -167 0
-128 -180 -222 0
-128 -180 -233 0
-128 -193 -222 0
-128 -193 -241 0
-128 -193 -242 0
-128 -193 -243 0
-128 -194 -182 0
-128 -194 -233 0
-128 -194 -242 0
-128 -194 -237 0
-128 -194 -244 0
-138 -190 0
-146 -191 -243 0
-138 -198 0
-171 -193 -163 0
-171 -193 -222 0
-171 -193 -241 0
-171 -193 -242 0
-171 -191 -245 0
-171 -196 -244 0
-171 -196 -242 0
-138 -193 0
-164 -167 -182 0
-164 -167 -222 0
-164 -194 -182 0
-164 -194 -233 0
-164 -194 -163 0
-164 -194 -242 0
-164 -194 -237 0
-164 -196 -242 0
-164 -196 -243 0
-164 -197 -222 0
-164 -197 -237 0
-164 -197 -241 0
-164 -198 -246 0
-164 -198 -241 0
-138 -191 0
-175 -190 -215 0
-175 -198 -244 0
-175 -198 -241 0
-128 -180 0
-116 -199 -153 0
-116 -194 -153 0
-116 -194 -154 0
-116 -194 -155 0
-116 -194 -156 0
-116 -200 -155 0
-116 -200 -157 0
-128 -193 0
-164 -194 -166 0
-164 -194 -153 0
-164 -194 -154 0
-164 -194 -155 0
-164 -192 -160 0
-164 -192 -161 0
-164 -192 -162 0
-164 -196 -154 0
-164 -196 -161 0
-164 -197 -157 0
-164 -197 -155 0
-164 -197 -170 0
-164 -198 -163 0
-164 -198 -162 0
-164 -198 -170 0
-128 -194 0
-120 -180 -153 0
-120 -200 -166 0
-120 -200 -155 0
-120 -197 -155 0
-120 -197 -156 0
-120 -197 -170 0
-120 -201 -153 0
-120 -201 -154 0
-120 -193 -163 0
-120 -193 -170 0
-120 -193 -154 0
-120 -193 -161 0
-128 -192 0
-138 -190 -159 0
-138 -190 -162 0
-138 -198 -156 0
-138 -198 -162 0
-138 -198 -170 0
-138 -193 -157 0
-138 -193 -170 0
-138 -193 -154 0
-138 -193 -161 0
-138 -191 -160 0
-138 -191 -161 0
-146 -195 0
-146 -191 0
-175 -192 -160 0
-175 -192 -247 0
-175 -192 -248 0
-175 -198 -245 0
-175 -198 -248 0
-175 -198 -249 0
-146 -192 0
-138 -167 -188 0
-138 -167 -248 0
-138 -167 -223 0
-138 -198 -248 0
-138 -198 -250 0
-138 -198 -249 0
-138 -193 -160 0
-138 -193 -223 0
-138 -193 -249 0
-138 -193 -251 0
-138 -193 -247 0
-138 -191 -247 0
-116 -204 -135 0
-116 -204 -148 0
-116 -121 -135 0
-116 -121 -165 0
-116 -121 -172 0
-116 -121 -174 0
-116 -129 -148 0
-116 -129 -174 0
-116 -129 -150 0
-116 -129 -202 0
-143 -129 -148 0
-143 -129 -174 0
-143 -129 -150 0
-143 -129 -202 0
-143 -151 -150 0
-143 -151 -135 0
-143 -212 -202 0
-143 -212 -135 0
-179 -119 0
-176 -123 -205 0
-176 -123 -206 0
-176 -127 -152 0
-176 -127 -206 0
-176 -127 -207 0
-176 -127 -208 0
-117 -204 -134 0
-117 -204 -136 0
-143 -129 -136 0
-143 -129 -138 0
-143 -129 -128 0
-143 -129 -146 0
-143 -212 -146 0
-143 -212 -134 0
-116 -121 0
-166 -129 -136 0
-166 -129 -138 0
-166 -129 -146 0
-166 -124 -120 0
-166 -124 -138 0
-166 -124 -168 0
-166 -124 -169 0
-166 -124 -171 0
-166 -127 -125 0
-166 -127 -169 0
-166 -127 -173 0
-166 -127 -164 0
-166 -130 -134 0
-166 -130 -146 0
-166 -130 -171 0
-166 -130 -164 0
-166 -130 -175 0
-116 -129 0
-180 -204 -136 0
-180 -212 -146 0
-180 -130 -128 0
-180 -130 -146 0
-180 -130 -171 0
-180 -130 -164 0
-180 -130 -175 0
-180 -121 -164 0
-180 -121 -120 0
-180 -121 -138 0
-180 -213 -136 0
-180 -213 -175 0
-180 -213 -138 0
-117 -118 -121 0
-117 -118 -129 0
-117 -209 -129 0
-117 -209 -212 0
-116 -209 -129 0
-116 -209 -212 0
-116 -152 -129 0
-116 -152 -124 0
-116 -152 -127 0
-116 -152 -130 0
-116 -199 -212 0
-116 -199 -130 0
-116 -199 -121 0
-116 -199 -213 0
-176 -207 0
-177 -205 -153 0
-177 -205 -230 0
-177 -205 -231 0
-177 -206 -228 0
-177 -206 -231 0
-177 -206 -232 0
-176 -205 0
-178 -152 -200 0
-178 -152 -231 0
-178 -152 -233 0
-178 -206 -234 0
-178 -206 -231 0
-178 -206 -232 0
-178 -207 -230 0
-178 -208 -153 0
-178 -208 -233 0
-178 -208 -232 0
-178 -208 -230 0
-178 -208 -235 0
-132 -118 -186 0
-143 -134 -148 0
-143 -134 -174 0
-143 -134 -150 0
-143 -134 -202 0
-143 -136 -202 0
-143 -136 -135 0
-117 -158 -129 0
-117 -158 -212 0
-179 -125 -123 0
-179 -125 -127 0
-143 -134 0
-180 -136 -137 0
-180 -138 -139 0
-180 -138 -137 0
-180 -138 -140 0
-180 -138 -141 0
-180 -138 -142 0
-180 -128 -141 0
-180 -128 -144 0
-180 -128 -145 0
-180 -146 -147 0
-180 -146 -142 0
-180 -146 -145 0
-143 -136 0
-187 -146 -149 0
-187 -146 -142 0
-187 -146 -145 0
-187 -134 -145 0
-187 -134 -139 0
-187 -134 -137 0
-166 -134 0
-180 -158 -159 0
-180 -136 -160 0
-180 -138 -160 0
-180 -138 -161 0
-180 -138 -156 0
-180 -138 -162 0
-180 -146 -159 0
-180 -146 -162 0
-180 -146 -163 0
-166 -164 0
-181 -120 -153 0
-181 -120 -154 0
-181 -120 -155 0
-181 -138 -167 0
-181 -138 -160 0
-181 -138 -161 0
-181 -138 -162 0
-181 -168 -154 0
-181 -168 -161 0
-181 -169 -157 0
-181 -169 -155 0
-181 -169 -170 0
-181 -171 -163 0
-181 -171 -162 0
-181 -171 -170 0
-166 -120 0
-178 -125 -155 0
-178 -169 -155 0
-178 -169 -156 0
-178 -169 -170 0
-178 -173 -153 0
-178 -173 -154 0
-178 -164 -163 0
-178 -164 -170 0
-178 -164 -154 0
-178 -164 -161 0
-166 -138 0
-182 -134 -159 0
-182 -134 -160 0
-182 -146 -159 0
-182 -146 -167 0
-182 -146 -162 0
-182 -171 -156 0
-182 -171 -162 0
-182 -171 -170 0
-182 -164 -157 0
-182 -164 -170 0
-182 -164 -154 0
-182 -164 -161 0
-182 -175 -160 0
-182 -175 -161 0
-143 -136 -190 0
-180 -136 0
-187 -146 -191 0
-187 -146 -192 0
-180 -138 0
-182 -128 -193 0
-182 -128 -194 0
-182 -146 -195 0
-182 -146 -191 0
-182 -171 -193 0
-182 -171 -191 0
-182 -171 -196 0
-182 -164 -167 0
-182 -164 -194 0
-182 -164 -196 0
-182 -164 -197 0
-182 -164 -198 0
-182 -175 -190 0
-182 -175 -198 0
-180 -128 0
-166 -164 -194 0
-166 -164 -192 0
-166 -164 -196 0
-166 -164 -197 0
-166 -164 -198 0
-166 -120 -200 0
-166 -120 -197 0
-166 -120 -201 0
-166 -120 -193 0
-166 -138 -190 0
-166 -138 -198 0
-166 -138 -193 0
-166 -138 -191 0
-180 -146 0
-188 -175 -192 0
-188 -175 -198 0
-188 -138 -167 0
-188 -138 -198 0
-188 -138 -193 0
-188 -138 -191 0
-31 -61 0
-32 -62 0
-33 -63 0
-34 -64 0
-35 -65 0
-36 -66 0
-176 -229 0
-177 -221 -231 0
-177 -221 -232 0
-116 -144 -167 0
-116 -144 -159 0
-116 -194 -159 0
-116 -194 -163 0
-116 -194 -160 0
-166 -194 0
-180 -144 -159 0
-180 -220 -160 0
-180 -222 -160 0
-180 -222 -161 0
-180 -222 -156 0
-180 -222 -162 0
-180 -223 -159 0
-180 -223 -162 0
-180 -223 -163 0
-166 -226 0
-181 -222 -167 0
-181 -222 -160 0
-181 -222 -161 0
-181 -222 -162 0
-181 -224 -154 0
-181 -224 -161 0
-181 -221 -155 0
-181 -221 -170 0
-181 -225 -163 0
-181 -225 -162 0
-181 -225 -170 0
-166 -222 0
-182 -194 -159 0
-182 -194 -160 0
-182 -223 -159 0
-182 -223 -167 0
-182 -223 -162 0
-182 -225 -156 0
-182 -225 -162 0
-182 -225 -170 0
-182 -226 -170 0
-182 -226 -154 0
-182 -226 -161 0
-182 -227 -160 0
-182 -227 -161 0
-184 -229 0
-184 -226 0
-181 -157 -197 0
-181 -157 -242 0
-181 -222 -197 0
-181 -222 -154 0
-181 -222 -251 0
-91 -103 256 0
-92 -104 256 0
-93 -105 256 0
-94 -106 256 0
-95 -107 256 0
-96 -108 256 0
-181 -222 -256 0
-91 -97 257 0
-92 -98 257 0
-93 -99 257 0
-94 -100 257 0
-95 -101 257 0
-96 -102 257 0
-181 -222 -257 0
-181 -224 -256 0
-181 -225 -242 0
-181 -225 -257 0
-91 -109 258 0
-92 -110 258 0
-93 -111 258 0
-94 -112 258 0
-95 -113 258 0
-96 -114 258 0
-181 -225 -258 0
-184 -224 0
-183 -226 -154 0
-183 -226 -242 0
-183 -226 -256 0
-183 -225 -242 0
-183 -225 -253 0
-183 -225 -257 0
-177 -228 0
-177 -221 0
-184 -226 -155 0
-184 -226 -237 0
-184 -226 -238 0
-184 -226 -240 0
-184 -224 -236 0
-184 -224 -240 0
-181 -157 0
-166 -120 -193 0
-166 -194 -217 0
-166 -194 -244 0
-166 -194 -248 0
-166 -222 -193 0
-166 -222 -248 0
-166 -222 -255 0
-166 -222 -254 0
-181 -222 0
-182 -194 -217 0
-182 -194 -156 0
-182 -194 -248 0
-182 -157 -193 0
-182 -223 -217 0
-182 -223 -193 0
-182 -223 -254 0
-182 -225 -254 0
-182 -225 -252 0
-182 -227 -248 0
-182 -227 -255 0
-181 -224 0
-183 -221 -236 0
-183 -225 -244 0
-183 -225 -254 0
-181 -221 0
-184 -229 -231 0
-184 -224 -255 0
-181 -225 0
-185 -222 -193 0
-185 -222 -156 0
-185 -222 -248 0
-185 -222 -254 0
-185 -227 -248 0
-185 -227 -244 0
-185 -224 -253 0
-31 -37 0
-32 -38 0
-33 -39 0
-34 -40 0
-35 -41 0
-36 -42 0
-132 -125 -152 0
-132 -125 -199 0
-177 -228 0
-178 -153 -201 0
-178 -153 -236 0
-178 -153 -237 0
-178 -230 -236 0
-178 -230 -238 0
-178 -231 -155 0
-178 -231 -237 0
-178 -231 -238 0
-178 -231 -239 0
-178 -231 -240 0
-177 -230 0
-184 -228 -155 0
-184 -228 -236 0
-184 -231 -155 0
-184 -231 -229 0
-184 -231 -237 0
-184 -231 -238 0
-184 -231 -240 0
-184 -232 -236 0
-184 -232 -240 0
-178 -153 0
-166 -125 -194 0
-166 -200 -220 0
-166 -200 -222 0
-166 -200 -223 0
-166 -231 -222 0
-166 -231 -224 0
-166 -231 -221 0
-166 -231 -225 0
-166 -233 -194 0
-166 -233 -223 0
-166 -233 -225 0
-166 -233 -226 0
-166 -233 -227 0
-178 -230 0
-184 -231 -157 0
-184 -231 -222 0
-184 -231 -224 0
-184 -231 -225 0
-184 -232 -226 0
-184 -232 -225 0
-178 -234 0
-177 -230 -226 0
-177 -230 -224 0
-178 -231 0
-181 -153 -194 0
-181 -153 -222 0
-181 -233 -194 0
-181 -233 -157 0
-181 -233 -223 0
-181 -233 -225 0
-181 -233 -227 0
-181 -232 -221 0
-181 -232 -225 0
-181 -230 -229 0
-181 -230 -224 0
-181 -235 -222 0
-181 -235 -227 0
-181 -235 -224 0
-31 -55 0
-32 -56 0
-33 -57 0
-34 -58 0
-35 -59 0
-36 -60 0
-117 -139 -134 0
-117 -139 -136 0
-132 -152 -125 0
-143 -167 -136 0
-143 -167 -138 0
-143 -167 -146 0
-143 -159 -146 0
-143 -159 -134 0
-116 -167 0
-180 -139 -136 0
-180 -159 -146 0
-180 -163 -146 0
-180 -163 -171 0
-180 -163 -164 0
-180 -163 -175 0
-180 -160 -136 0
-180 -160 -175 0
-180 -160 -138 0
-143 -159 -190 0
-116 -139 -195 0
-180 -159 0
-187 -160 -191 0
-187 -160 -192 0
-180 -163 0
-182 -160 -195 0
-182 -160 -191 0
-182 -161 -193 0
-182 -161 -191 0
-182 -161 -196 0
-182 -156 -194 0
-182 -156 -196 0
-182 -156 -197 0
-182 -156 -198 0
-182 -162 -190 0
-182 -162 -198 0
-180 -160 0
-188 -162 -192 0
-188 -162 -198 0
-188 -163 -198 0
-188 -163 -193 0
-188 -163 -191 0
-181 -157 0
-178 -153 -236 0
-178 -154 -236 0
-178 -154 -252 0
-178 -155 -231 0
-178 -155 -253 0
-181 -163 0
-182 -167 -217 0
-182 -167 -248 0
-182 -160 -217 0
-182 -160 -193 0
-182 -160 -254 0
-182 -161 -254 0
-182 -161 -252 0
-182 -162 -248 0
-182 -162 -255 0
-181 -170 0
-183 -154 -226 0
-183 -154 -236 0
-183 -161 -244 0
-183 -161 -254 0
-181 -154 0
-184 -157 -231 0
-184 -157 -236 0
-184 -155 -231 0
-184 -155 -226 0
-184 -170 -255 0
-181 -161 0
-185 -163 -193 0
-185 -163 -248 0
-185 -163 -254 0
-185 -162 -248 0
-185 -162 -244 0
-185 -170 -253 0
-178 -153 0
-176 -155 -221 0
-178 -154 0
-184 -155 -228 0
-184 -156 -222 0
-184 -156 -224 0
-184 -156 -225 0
-184 -170 -226 0
-184 -170 -225 0
-178 -155 0
-177 -154 -226 0
-177 -154 -224 0
-178 -156 0
-181 -163 -194 0
-181 -163 -223 0
-181 -163 -225 0
-181 -163 -227 0
-181 -170 -221 0
-181 -170 -225 0
-181 -154 -229 0
-181 -154 -224 0
-181 -161 -222 0
-181 -161 -227 0
-181 -161 -224 0
-182 -167 0
-180 -139 -215 0
-180 -159 -245 0
-180 -160 -215 0
-180 -160 -246 0
-182 -160 0
-188 -159 -192 0
-188 -167 -215 0
-188 -162 -243 0
-182 -161 0
-185 -156 -222 0
-185 -156 -241 0
-185 -156 -242 0
-185 -162 -245 0
-185 -170 -244 0
-185 -170 -242 0
-182 -156 0
-181 -157 -233 0
-181 -157 -242 0
-181 -157 -237 0
-181 -170 -242 0
-181 -170 -243 0
-181 -154 -222 0
-181 -154 -237 0
-181 -154 -241 0
-181 -161 -246 0
-181 -161 -241 0
-182 -162 0
-189 -160 -215 0
-189 -160 -192 0
-189 -161 -244 0
-189 -161 -241 0
-186 -118 -121 0
-186 -118 -129 0
-186 -209 -129 0
-186 -209 -212 0
-176 -118 -121 0
-176 -118 -129 0
-176 -205 -121 0
-176 -205 -122 0
-176 -205 -123 0
-176 -205 -124 0
-176 -152 -129 0
-176 -152 -124 0
-176 -152 -127 0
-176 -152 -130 0
-125 -209 -129 0
-125 -209 -212 0
-125 -152 -129 0
-125 -152 -124 0
-125 -152 -127 0
-125 -152 -130 0
-125 -179 -127 0
-125 -179 -121 0
-125 -199 -212 0
-125 -199 -130 0
-125 -199 -121 0
-125 -199 -213 0
-119 -118 -166 0
-119 -118 -180 0
-125 -209 -180 0
-125 -209 -187 0
-125 -152 -180 0
-125 -152 -181 0
-125 -152 -178 0
-125 -152 -182 0
-125 -199 -187 0
-125 -199 -182 0
-125 -199 -166 0
-125 -199 -188 0
-176 -205 0
-228 -152 -180 0
-228 -152 -181 0
-228 -152 -182 0
-228 -206 -177 0
-228 -206 -181 0
-228 -206 -183 0
-228 -207 -184 0
-228 -208 -166 0
-228 -208 -182 0
-228 -208 -183 0
-228 -208 -184 0
-228 -208 -185 0
-176 -152 0
-153 -118 -180 0
-153 -199 -187 0
-153 -199 -182 0
-153 -199 -188 0
-153 -208 -178 0
-153 -208 -182 0
-153 -208 -183 0
-153 -208 -184 0
-153 -208 -185 0
-153 -205 -184 0
-153 -205 -177 0
-153 -205 -181 0
-153 -211 -180 0
-153 -211 -188 0
-153 -211 -185 0
-153 -211 -181 0
-153 -211 -189 0
-186 -116 -121 0
-186 -116 -129 0
-186 -143 -129 0
-186 -143 -212 0
-125 -143 -129 0
-125 -143 -212 0
-125 -166 -129 0
-125 -166 -124 0
-125 -166 -127 0
-125 -166 -130 0
-125 -180 -212 0
-125 -180 -130 0
-125 -180 -121 0
-125 -180 -213 0
-119 -116 -152 0
-119 -116 -199 0
-186 -143 -134 0
-186 -143 -136 0
-214 -180 -136 0
-214 -180 -138 0
-214 -180 -128 0
-214 -180 -146 0
-214 -187 -146 0
-214 -187 -134 0
-125 -166 0
-153 -180 -136 0
-153 -180 -138 0
-153 -180 -146 0
-153 -181 -120 0
-153 -181 -138 0
-153 -181 -168 0
-153 -181 -169 0
-153 -181 -171 0
-153 -178 -169 0
-153 -178 -173 0
-153 -178 -164 0
-153 -182 -134 0
-153 -182 -146 0
-153 -182 -171 0
-153 -182 -164 0
-153 -182 -175 0
-125 -180 0
-200 -143 -136 0
-200 -187 -146 0
-200 -182 -128 0
-200 -182 -146 0
-200 -182 -171 0
-200 -182 -164 0
-200 -182 -175 0
-200 -166 -164 0
-200 -166 -120 0
-200 -166 -138 0
-200 -188 -136 0
-200 -188 -175 0
-200 -188 -138 0
-228 -166 0
-153 -116 -194 0
-153 -180 -220 0
-153 -180 -222 0
-153 -180 -223 0
-153 -181 -222 0
-153 -181 -224 0
-153 -181 -221 0
-153 -181 -225 0
-153 -182 -194 0
-153 -182 -223 0
-153 -182 -225 0
-153 -182 -226 0
-153 -182 -227 0
-228 -184 0
-230 -181 -157 0
-230 -181 -222 0
-230 -181 -224 0
-230 -181 -225 0
-230 -183 -226 0
-230 -183 -225 0
-228 -177 0
-234 -184 -226 0
-234 -184 -224 0
-228 -181 0
-231 -166 -194 0
-231 -166 -222 0
-231 -182 -194 0
-231 -182 -157 0
-231 -182 -223 0
-231 -182 -225 0
-231 -182 -227 0
-231 -183 -221 0
-231 -183 -225 0
-231 -184 -229 0
-231 -184 -224 0
-231 -185 -222 0
-231 -185 -227 0
-231 -185 -224 0
-125 -143 -167 0
-125 -143 -159 0
-125 -180 -159 0
-125 -180 -163 0
-125 -180 -160 0
-153 -180 0
-200 -143 -159 0
-200 -187 -160 0
-200 -182 -160 0
-200 -182 -161 0
-200 -182 -156 0
-200 -182 -162 0
-200 -188 -159 0
-200 -188 -162 0
-200 -188 -163 0
-153 -181 0
-231 -178 -154 0
-231 -178 -155 0
-231 -182 -167 0
-231 -182 -160 0
-231 -182 -161 0
-231 -182 -162 0
-231 -183 -154 0
-231 -183 -161 0
-231 -184 -157 0
-231 -184 -155 0
-231 -184 -170 0
-231 -185 -163 0
-231 -185 -162 0
-231 -185 -170 0
-153 -178 0
-228 -184 -155 0
-228 -184 -156 0
-228 -184 -170 0
-228 -177 -154 0
-228 -181 -163 0
-228 -181 -170 0
-228 -181 -154 0
-228 -181 -161 0
-153 -182 0
-233 -180 -159 0
-233 -180 -160 0
-233 -188 -159 0
-233 -188 -167 0
-233 -188 -162 0
-233 -185 -156 0
-233 -185 -162 0
-233 -185 -170 0
-233 -181 -157 0
-233 -181 -170 0
-233 -181 -154 0
-233 -181 -161 0
-233 -189 -160 0
-233 -189 -161 0
-37 -67 0
-38 -68 0
-39 -69 0
-40 -70 0
-41 -71 0
-42 -72 0
-176 -173 -157 0
-176 -173 -194 0
-176 -155 -194 0
-176 -155 -226 0
-176 -155 -222 0
-228 -155 0
-153 -173 -194 0
-153 -201 -220 0
-153 -201 -222 0
-153 -201 -223 0
-153 -236 -222 0
-153 -236 -224 0
-153 -236 -221 0
-153 -236 -225 0
-153 -237 -194 0
-153 -237 -223 0
-153 -237 -225 0
-153 -237 -226 0
-153 -237 -227 0
-228 -239 0
-230 -236 -157 0
-230 -236 -222 0
-230 -236 -224 0
-230 -236 -225 0
-230 -238 -226 0
-230 -238 -225 0
-228 -236 0
-231 -155 -194 0
-231 -155 -222 0
-231 -237 -194 0
-231 -237 -157 0
-231 -237 -223 0
-231 -237 -225 0
-231 -237 -227 0
-231 -238 -221 0
-231 -238 -225 0
-231 -239 -224 0
-231 -240 -222 0
-231 -240 -227 0
-231 -240 -224 0
-230 -229 0
-228 -177 -154 0
-228 -155 -197 0
-228 -155 -253 0
-228 -155 -242 0
-228 -236 -154 0
-228 -236 -242 0
-228 -236 -258 0
-228 -236 -256 0
-230 -236 0
-231 -155 -197 0
-231 -155 -221 0
-231 -155 -242 0
-231 -229 -154 0
-231 -237 -197 0
-231 -237 -154 0
-231 -237 -251 0
-231 -237 -256 0
-231 -237 -257 0
-231 -238 -256 0
-231 -240 -242 0
-231 -240 -257 0
-231 -240 -258 0
-230 -238 0
-232 -236 -154 0
-232 -236 -221 0
-232 -236 -242 0
-232 -236 -256 0
-232 -240 -242 0
-232 -240 -253 0
-232 -240 -257 0
-37 -61 0
-38 -62 0
-39 -63 0
-40 -64 0
-41 -65 0
-42 -66 0
-119 -120 -166 0
-119 -120 -180 0
-125 -144 -180 0
-125 -144 -187 0
-125 -157 -180 0
-125 -157 -181 0
-125 -157 -182 0
-125 -194 -187 0
-125 -194 -182 0
-125 -194 -166 0
-125 -194 -188 0
-176 -157 0
-153 -120 -180 0
-153 -194 -187 0
-153 -194 -182 0
-153 -194 -188 0
-153 -226 -182 0
-153 -226 -183 0
-153 -226 -184 0
-153 -226 -185 0
-153 -222 -180 0
-153 -222 -188 0
-153 -222 -185 0
-153 -222 -181 0
-153 -222 -189 0
-125 -144 -167 0
-125 -144 -159 0
-125 -194 -159 0
-125 -194 -163 0
-125 -194 -160 0
-176 -120 -167 0
-153 -194 0
-200 -144 -159 0
-200 -220 -160 0
-200 -222 -160 0
-200 -222 -161 0
-200 -222 -156 0
-200 -222 -162 0
-200 -223 -159 0
-200 -223 -162 0
-200 -223 -163 0
-153 -226 0
-231 -222 -167 0
-231 -222 -160 0
-231 -222 -161 0
-231 -222 -162 0
-231 -224 -154 0
-231 -224 -161 0
-231 -221 -155 0
-231 -221 -170 0
-231 -225 -163 0
-231 -225 -162 0
-231 -225 -170 0
-153 -222 0
-233 -194 -159 0
-233 -194 -160 0
-233 -223 -159 0
-233 -223 -167 0
-233 -223 -162 0
-233 -225 -156 0
-233 -225 -162 0
-233 -225 -170 0
-233 -226 -170 0
-233 -226 -154 0
-233 -226 -161 0
-233 -227 -160 0
-233 -227 -161 0
-230 -229 0
-230 -226 0
-231 -157 -197 0
-231 -157 -242 0
-231 -222 -197 0
-231 -222 -154 0
-231 -222 -251 0
-231 -222 -256 0
-231 -222 -257 0
-231 -224 -256 0
-231 -225 -242 0
-231 -225 -257 0
-231 -225 -258 0
-230 -224 0
-232 -226 -154 0
-232 -226 -242 0
-232 -226 -256 0
-232 -225 -242 0
-232 -225 -253 0
-232 -225 -257 0
-234 -221 0
-230 -226 -155 0
-230 -226 -237 0
-230 -226 -238 0
-230 -226 -240 0
-230 -224 -236 0
-230 -224 -240 0
-231 -157 0
-153 -120 -193 0
-153 -194 -217 0
-153 -194 -244 0
-153 -194 -248 0
-153 -222 -193 0
-153 -222 -248 0
-153 -222 -255 0
-153 -222 -254 0
-231 -222 0
-233 -194 -217 0
-233 -194 -156 0
-233 -194 -248 0
-233 -157 -193 0
-233 -223 -217 0
-233 -223 -193 0
-233 -223 -254 0
-233 -225 -254 0
-233 -225 -252 0
-233 -227 -248 0
-233 -227 -255 0
-231 -224 0
-232 -221 -236 0
-232 -225 -244 0
-232 -225 -254 0
-231 -221 0
-230 -224 -255 0
-231 -225 0
-235 -222 -193 0
-235 -222 -156 0
-235 -222 -248 0
-235 -222 -254 0
-235 -227 -248 0
-235 -227 -244 0
-235 -224 -253 0
-136 -139 -135 0
-136 -139 -165 0
-136 -139 -172 0
-136 -139 -174 0
-136 -143 -172 0
-136 -143 -150 0
-136 -149 -174 0
-136 -149 -150 0
-136 -149 -202 0
-212 -143 -172 0
-212 -143 -150 0
-212 -158 -150 0
-212 -158 -135 0
-136 -139 -193 0
-136 -139 -194 0
-136 -139 -192 0
-136 -143 -194 0
-136 -143 -167 0
-195 -145 0
-215 -139 -193 0
-215 -139 -194 0
-215 -137 -191 0
-215 -140 -193 0
-215 -140 -191 0
-215 -140 -196 0
-215 -141 -167 0
-215 -141 -194 0
-215 -141 -196 0
-215 -141 -197 0
-215 -141 -198 0
-215 -142 -190 0
-215 -142 -198 0
-195 -139 0
-159 -143 -194 0
-159 -141 -194 0
-159 -141 -192 0
-159 -141 -196 0
-159 -141 -197 0
-159 -141 -198 0
-159 -144 -197 0
-159 -144 -201 0
-159 -144 -193 0
-159 -145 -190 0
-159 -145 -198 0
-159 -145 -193 0
-159 -145 -191 0
-195 -137 0
-219 -142 -192 0
-219 -142 -198 0
-219 -145 -167 0
-219 -145 -198 0
-219 -145 -193 0
-219 -145 -191 0
-212 -143 -120 0
-212 -143 -128 0
-136 -139 0
-159 -143 -120 0
-159 -149 -138 0
-159 -149 -146 0
-159 -141 -120 0
-159 -141 -138 0
-159 -141 -168 0
-159 -141 -169 0
-159 -141 -171 0
-159 -144 -169 0
-159 -144 -173 0
-159 -144 -164 0
-159 -145 -134 0
-159 -145 -146 0
-159 -145 -171 0
-159 -145 -164 0
-159 -145 -175 0
-187 -144 -128 0
-187 -144 -169 0
-187 -144 -173 0
-187 -144 -164 0
-187 -214 -173 0
-187 -214 -120 0
-187 -139 -134 0
-187 -139 -164 0
-187 -139 -120 0
-187 -139 -138 0
-136 -149 0
-195 -145 -128 0
-195 -145 -146 0
-195 -145 -171 0
-195 -145 -164 0
-195 -145 -175 0
-195 -139 -164 0
-195 -139 -120 0
-195 -139 -138 0
-195 -137 -175 0
-195 -137 -138 0
-43 -73 0
-44 -74 0
-45 -75 0
-46 -76 0
-47 -77 0
-48 -78 0
-147 -146 -167 0
-136 -160 -193 0
-136 -160 -194 0
-136 -160 -192 0
-136 -188 -194 0
-136 -188 -167 0
-195 -245 0
-215 -160 -193 0
-215 -160 -194 0
-215 -247 -193 0
-215 -247 -191 0
-215 -247 -196 0
-215 -248 -167 0
-215 -248 -194 0
-215 -248 -196 0
-215 -248 -197 0
-215 -248 -198 0
-215 -250 -198 0
-195 -160 0
-159 -188 -194 0
-159 -248 -194 0
-159 -248 -192 0
-159 -248 -196 0
-159 -248 -197 0
-159 -248 -198 0
-159 -223 -197 0
-159 -223 -201 0
-159 -223 -193 0
-159 -245 -198 0
-159 -245 -193 0
-159 -245 -191 0
-218 -245 0
-215 -190 -162 0
-215 -160 -191 0
-215 -160 -254 0
-215 -160 -227 0
-215 -247 -254 0
-97 -109 259 0
-98 -110 259 0
-99 -111 259 0
-100 -112 259 0
-101 -113 259 0
-102 -114 259 0
-215 -247 -259 0
-215 -248 -162 0
-215 -248 -227 0
-215 -248 -259 0
-215 -248 -257 0
-97 -103 260 0
-98 -104 260 0
-99 -105 260 0
-100 -106 260 0
-101 -107 260 0
-102 -108 260 0
-215 -248 -260 0
-218 -247 0
-216 -245 -191 0
-216 -245 -162 0
-216 -245 -254 0
-216 -248 -162 0
-216 -248 -227 0
-216 -248 -246 0
-216 -248 -259 0
-216 -248 -257 0
-216 -249 -254 0
-216 -249 -257 0
-215 -190 0
-195 -146 -163 0
-195 -160 -244 0
-195 -160 -222 0
-215 -160 0
-159 -146 -192 0
-159 -188 -222 0
-159 -248 -222 0
-159 -248 -241 0
-159 -248 -242 0
-159 -248 -243 0
-159 -223 -242 0
-159 -223 -237 0
-159 -223 -244 0
-215 -247 0
-216 -248 -163 0
-216 -248 -222 0
-216 -248 -241 0
-216 -248 -242 0
-216 -249 -244 0
-216 -249 -242 0
-215 -248 0
-217 -160 -192 0
-217 -160 -222 0
-217 -223 -163 0
-217 -223 -242 0
-217 -223 -237 0
-217 -249 -242 0
-217 -249 -243 0
-217 -251 -222 0
-217 -251 -237 0
-217 -251 -241 0
-217 -247 -246 0
-217 -247 -241 0
-215 -250 0
-218 -247 -244 0
-218 -247 -241 0
-43 -49 0
-44 -50 0
-45 -51 0
-46 -52 0
-47 -53 0
-48 -54 0
-148 -134 -139 0
-136 -167 -141 0
-136 -167 -144 0
-136 -167 -145 0
-136 -180 -144 0
-136 -180 -139 0
-212 -180 -120 0
-212 -180 -128 0
-136 -167 0
-159 -180 -120 0
-159 -193 -120 0
-159 -193 -138 0
-159 -193 -168 0
-159 -193 -169 0
-159 -193 -171 0
-159 -194 -169 0
-159 -194 -173 0
-159 -194 -164 0
-159 -192 -146 0
-159 -192 -171 0
-159 -192 -164 0
-159 -192 -175 0
-187 -194 -128 0
-187 -194 -169 0
-187 -194 -173 0
-187 -194 -164 0
-187 -200 -173 0
-187 -200 -120 0
-187 -167 -164 0
-187 -167 -120 0
-187 -167 -138 0
-215 -167 0
-159 -180 -222 0
-159 -193 -222 0
-159 -193 -241 0
-159 -193 -242 0
-159 -193 -243 0
-159 -194 -242 0
-159 -194 -237 0
-159 -194 -244 0
-215 -190 0
-219 -191 -243 0
-215 -198 0
-216 -193 -163 0
-216 -193 -222 0
-216 -193 -241 0
-216 -193 -242 0
-216 -191 -245 0
-216 -196 -244 0
-216 -196 -242 0
-215 -193 0
-217 -167 -222 0
-217 -194 -163 0
-217 -194 -242 0
-217 -194 -237 0
-217 -196 -242 0
-217 -196 -243 0
-217 -197 -222 0
-217 -197 -237 0
-217 -197 -241 0
-217 -198 -246 0
-217 -198 -241 0
-215 -191 0
-218 -198 -244 0
-218 -198 -241 0
-136 -180 -157 0
-187 -194 -154 0
-187 -194 -155 0
-187 -194 -156 0
-187 -200 -155 0
-187 -200 -157 0
-159 -193 0
-217 -194 -154 0
-217 -194 -155 0
-217 -192 -160 0
-217 -192 -161 0
-217 -192 -162 0
-217 -196 -154 0
-217 -196 -161 0
-217 -197 -157 0
-217 -197 -155 0
-217 -197 -170 0
-217 -198 -163 0
-217 -198 -162 0
-217 -198 -170 0
-159 -194 0
-220 -200 -155 0
-220 -197 -155 0
-220 -197 -156 0
-220 -197 -170 0
-220 -201 -154 0
-220 -193 -163 0
-220 -193 -170 0
-220 -193 -154 0
-220 -193 -161 0
-159 -192 0
-215 -190 -162 0
-215 -198 -156 0
-215 -198 -162 0
-215 -198 -170 0
-215 -193 -157 0
-215 -193 -170 0
-215 -193 -154 0
-215 -193 -161 0
-215 -191 -160 0
-215 -191 -161 0
-219 -191 0
-218 -192 -160 0
-218 -192 -247 0
-218 -192 -248 0
-218 -198 -245 0
-218 -198 -248 0
-218 -198 -249 0
-219 -192 0
-215 -167 -248 0
-215 -167 -223 0
-215 -198 -248 0
-215 -198 -250 0
-215 -198 -249 0
-215 -193 -160 0
-215 -193 -223 0
-215 -193 -249 0
-215 -193 -251 0
-215 -193 -247 0
-215 -191 -247 0
-134 -139 -165 0
-134 -139 -172 0
-134 -139 -174 0
-134 -143 -172 0
-134 -143 -150 0
-129 -143 -172 0
-129 -143 -150 0
-129 -158 -150 0
-129 -143 -120 0
-129 -143 -128 0
-134 -139 0
-167 -143 -120 0
-167 -141 -120 0
-167 -141 -138 0
-167 -141 -168 0
-167 -141 -169 0
-167 -141 -171 0
-167 -144 -169 0
-167 -144 -173 0
-167 -144 -164 0
-167 -145 -146 0
-167 -145 -171 0
-167 -145 -164 0
-167 -145 -175 0
-180 -144 -128 0
-180 -144 -169 0
-180 -144 -173 0
-180 -144 -164 0
-180 -214 -173 0
-180 -214 -120 0
-180 -139 -164 0
-180 -139 -120 0
-180 -139 -138 0
-195 -137 0
-190 -142 -215 0
-190 -142 -216 0
-190 -145 -159 0
-190 -145 -216 0
-190 -145 -217 0
-190 -145 -218 0
-129 -116 -172 0
-129 -116 -150 0
-149 -136 -202 0
-180 -120 -121 0
-180 -120 -122 0
-180 -120 -123 0
-180 -120 -124 0
-180 -125 -123 0
-180 -125 -127 0
-180 -128 -124 0
-180 -128 -127 0
-180 -128 -130 0
-199 -125 -123 0
-199 -125 -127 0
-199 -116 -127 0
-199 -116 -121 0
-195 -146 -142 0
-195 -146 -145 0
-180 -120 -154 0
-180 -120 -155 0
-180 -120 -156 0
-180 -125 -155 0
-180 -125 -157 0
-167 -164 0
-193 -120 -154 0
-193 -120 -155 0
-193 -138 -160 0
-193 -138 -161 0
-193 -138 -162 0
-193 -168 -154 0
-193 -168 -161 0
-193 -169 -157 0
-193 -169 -155 0
-193 -169 -170 0
-193 -171 -163 0
-193 -171 -162 0
-193 -171 -170 0
-167 -120 0
-194 -125 -155 0
-194 -169 -155 0
-194 -169 -156 0
-194 -169 -170 0
-194 -173 -154 0
-194 -164 -163 0
-194 -164 -170 0
-194 -164 -154 0
-194 -164 -161 0
-167 -138 0
-192 -146 -162 0
-192 -171 -156 0
-192 -171 -162 0
-192 -171 -170 0
-192 -164 -157 0
-192 -164 -170 0
-192 -164 -154 0
-192 -164 -161 0
-192 -175 -160 0
-192 -175 -161 0
-199 -125 -177 0
-199 -125 -178 0
-180 -120 0
-194 -125 -177 0
-194 -128 -181 0
-194 -128 -182 0
-194 -169 -177 0
-194 -169 -181 0
-194 -169 -183 0
-194 -173 -184 0
-194 -164 -166 0
-194 -164 -182 0
-194 -164 -183 0
-194 -164 -184 0
-194 -164 -185 0
-200 -173 -178 0
-200 -173 -184 0
-200 -120 -166 0
-200 -120 -184 0
-200 -120 -177 0
-200 -120 -181 0
-180 -128 0
-167 -164 -178 0
-167 -164 -182 0
-167 -164 -183 0
-167 -164 -184 0
-167 -164 -185 0
-167 -120 -184 0
-167 -120 -177 0
-167 -120 -181 0
-167 -138 -188 0
-167 -138 -185 0
-167 -138 -181 0
-167 -138 -189 0
-135 -136 -139 0
-134 -159 -141 0
-134 -159 -144 0
-134 -159 -145 0
-134 -187 -144 0
-134 -187 -139 0
-190 -218 0
-191 -215 -160 0
-191 -215 -247 0
-191 -215 -248 0
-191 -216 -245 0
-191 -216 -248 0
-191 -216 -249 0
-190 -215 0
-192 -159 -248 0
-192 -159 -223 0
-192 -216 -248 0
-192 -216 -250 0
-192 -216 -249 0
-192 -217 -160 0
-192 -217 -223 0
-192 -217 -249 0
-192 -217 -251 0
-192 -217 -247 0
-192 -218 -247 0
-49 -79 0
-50 -80 0
-51 -81 0
-52 -82 0
-53 -83 0
-54 -84 0
-134 -182 -157 0
-180 -222 -154 0
-180 -222 -155 0
-180 -222 -156 0
-180 -233 -155 0
-180 -233 -157 0
-167 -244 0
-193 -222 -154 0
-193 -222 -155 0
-193 -241 -154 0
-193 -241 -161 0
-193 -242 -157 0
-193 -242 -155 0
-193 -242 -170 0
-193 -243 -162 0
-193 -243 -170 0
-167 -222 0
-194 -233 -155 0
-194 -242 -155 0
-194 -242 -156 0
-194 -242 -170 0
-194 -237 -154 0
-194 -244 -170 0
-194 -244 -154 0
-194 -244 -161 0
-190 -246 0
-191 -243 -248 0
-191 -243 -249 0
-198 -244 0
-193 -163 -225 0
-193 -222 -161 0
-193 -222 -256 0
-193 -222 -240 0
-193 -241 -256 0
-193 -242 -225 0
-193 -242 -240 0
-103 -109 261 0
-104 -110 261 0
-105 -111 261 0
-106 -112 261 0
-107 -113 261 0
-108 -114 261 0
-193 -242 -261 0
-198 -246 0
-198 -241 0
-196 -244 -161 0
-196 -244 -225 0
-196 -244 -256 0
-196 -242 -225 0
-196 -242 -240 0
-196 -242 -255 0
-193 -163 0
-167 -182 -226 0
-167 -222 -253 0
-167 -222 -236 0
-193 -222 0
-194 -182 -156 0
-194 -233 -236 0
-194 -242 -236 0
-194 -242 -252 0
-194 -237 -253 0
-193 -241 0
-196 -242 -226 0
-196 -242 -236 0
-196 -243 -254 0
-193 -242 0
-197 -222 -156 0
-197 -222 -236 0
-197 -237 -226 0
-197 -241 -255 0
-193 -243 0
-198 -246 -248 0
-198 -241 -253 0
-191 -245 0
-191 -243 0
-198 -244 -162 0
-198 -244 -227 0
-198 -244 -259 0
-198 -244 -257 0
-198 -241 -254 0
-198 -241 -257 0
-49 -55 0
-50 -56 0
-51 -57 0
-52 -58 0
-53 -59 0
-54 -60 0
-129 -166 -120 0
-149 -159 -146 0
-180 -157 -169 0
-180 -157 -173 0
-180 -157 -164 0
-180 -153 -173 0
-180 -153 -120 0
-199 -153 -177 0
-199 -153 -178 0
-180 -157 0
-194 -153 -177 0
-194 -154 -177 0
-194 -154 -181 0
-194 -154 -183 0
-194 -155 -184 0
-194 -156 -182 0
-194 -156 -183 0
-194 -156 -184 0
-194 -156 -185 0
-200 -155 -178 0
-200 -155 -184 0
-200 -157 -184 0
-200 -157 -177 0
-200 -157 -181 0
-193 -157 0
-194 -153 -236 0
-194 -154 -236 0
-194 -154 -252 0
-194 -155 -253 0
-193 -163 0
-192 -160 -254 0
-192 -161 -254 0
-192 -161 -252 0
-192 -162 -248 0
-192 -162 -255 0
-193 -170 0
-196 -154 -226 0
-196 -154 -236 0
-196 -161 -244 0
-196 -161 -254 0
-193 -154 0
-197 -157 -236 0
-197 -155 -226 0
-197 -170 -255 0
-193 -161 0
-198 -163 -248 0
-198 -163 -254 0
-198 -162 -248 0
-198 -162 -244 0
-198 -170 -253 0
-180 -153 -229 0
-200 -155 -221 0
-194 -154 0
-197 -156 -222 0
-197 -156 -224 0
-197 -156 -225 0
-197 -170 -226 0
-197 -170 -225 0
-194 -155 0
-201 -154 -226 0
-201 -154 -224 0
-194 -156 0
-193 -163 -223 0
-193 -163 -225 0
-193 -163 -227 0
-193 -170 -221 0
-193 -170 -225 0
-193 -154 -229 0
-193 -154 -224 0
-193 -161 -222 0
-193 -161 -227 0
-193 -161 -224 0
-192 -160 0
-190 -162 -243 0
-192 -161 0
-198 -156 -222 0
-198 -156 -241 0
-198 -156 -242 0
-198 -162 -245 0
-198 -170 -244 0
-198 -170 -242 0
-192 -156 0
-193 -157 -242 0
-193 -157 -237 0
-193 -170 -242 0
-193 -170 -243 0
-193 -154 -222 0
-193 -154 -237 0
-193 -154 -241 0
-193 -161 -246 0
-193 -161 -241 0
-192 -162 0
-191 -161 -244 0
-191 -161 -241 0
-49 -73 0
-50 -74 0
-51 -75 0
-52 -76 0
-53 -77 0
-54 -78 0
-149 -146 -159 0
-191 -245 0
-192 -160 -254 0
-192 -160 -227 0
-192 -247 -254 0
-192 -247 -259 0
-192 -248 -162 0
-192 -248 -227 0
-192 -248 -259 0
-192 -248 -257 0
-192 -248 -260 0
-191 -247 0
-198 -245 -162 0
-198 -245 -254 0
-198 -248 -162 0
-198 -248 -227 0
-198 -248 -246 0
-198 -248 -259 0
-198 -248 -257 0
-198 -249 -254 0
-198 -249 -257 0
-192 -160 0
-167 -188 -222 0
-167 -248 -222 0
-167 -248 -241 0
-167 -248 -242 0
-167 -248 -243 0
-167 -223 -242 0
-167 -223 -237 0
-167 -223 -244 0
-192 -247 0
-198 -248 -163 0
-198 -248 -222 0
-198 -248 -241 0
-198 -248 -242 0
-198 -249 -244 0
-198 -249 -242 0
-192 -248 0
-193 -160 -222 0
-193 -223 -163 0
-193 -223 -242 0
-193 -223 -237 0
-193 -249 -242 0
-193 -249 -243 0
-193 -251 -222 0
-193 -251 -237 0
-193 -251 -241 0
-193 -247 -246 0
-193 -247 -241 0
-192 -250 0
-191 -247 -244 0
-191 -247 -241 0
-121 -116 -172 0
-139 -134 -174 0
-139 -134 -202 0
-139 -136 -202 0
-166 -120 -122 0
-166 -120 -123 0
-166 -120 -124 0
-166 -125 -123 0
-166 -125 -127 0
-152 -125 -123 0
-152 -125 -127 0
-152 -116 -127 0
-167 -136 -137 0
-167 -138 -137 0
-167 -138 -140 0
-167 -138 -141 0
-167 -138 -142 0
-167 -146 -142 0
-167 -146 -145 0
-159 -146 -142 0
-159 -146 -145 0
-159 -134 -145 0
-159 -134 -137 0
-152 -125 -177 0
-152 -125 -178 0
-166 -120 0
-157 -125 -177 0
-157 -169 -177 0
-157 -169 -181 0
-157 -169 -183 0
-157 -173 -184 0
-157 -164 -182 0
-157 -164 -183 0
-157 -164 -184 0
-157 -164 -185 0
-153 -173 -178 0
-153 -173 -184 0
-153 -120 -184 0
-153 -120 -177 0
-153 -120 -181 0
-139 -136 -190 0
-159 -146 -191 0
-159 -146 -192 0
-167 -138 0
-163 -146 -191 0
-163 -171 -193 0
-163 -171 -191 0
-163 -171 -196 0
-163 -164 -194 0
-163 -164 -196 0
-163 -164 -197 0
-163 -164 -198 0
-163 -175 -190 0
-163 -175 -198 0
-167 -146 0
-160 -175 -192 0
-160 -175 -198 0
-160 -138 -198 0
-160 -138 -193 0
-160 -138 -191 0
-152 -176 -123 0
-152 -176 -127 0
-128 -180 -130 0
-128 -180 -213 0
-153 -177 -205 0
-153 -177 -206 0
-153 -178 -206 0
-153 -178 -207 0
-153 -178 -208 0
-139 -180 -138 0
-139 -180 -146 0
-139 -187 -146 0
-167 -187 -146 0
-167 -182 -146 0
-167 -182 -171 0
-167 -182 -164 0
-167 -182 -175 0
-167 -188 -175 0
-167 -188 -138 0
-153 -177 -221 0
-157 -184 0
-154 -181 -222 0
-154 -181 -224 0
-154 -181 -225 0
-154 -183 -226 0
-154 -183 -225 0
-157 -177 0
-155 -184 -226 0
-155 -184 -224 0
-157 -181 0
-156 -182 -223 0
-156 -182 -225 0
-156 -182 -227 0
-156 -183 -221 0
-156 -183 -225 0
-156 -184 -229 0
-156 -184 -224 0
-156 -185 -222 0
-156 -185 -227 0
-156 -185 -224 0
-153 -177 0
-155 -178 -230 0
-155 -178 -231 0
-155 -184 -228 0
-155 -184 -231 0
-155 -184 -232 0
-153 -178 0
-157 -184 -234 0
-157 -184 -231 0
-157 -184 -232 0
-157 -177 -230 0
-157 -181 -233 0
-157 -181 -232 0
-157 -181 -230 0
-157 -181 -235 0
-128 -180 -144 0
-159 -190 -142 0
-159 -190 -145 0
-121 -180 -120 0
-139 -195 -146 0
-166 -194 -169 0
-166 -194 -173 0
-166 -194 -164 0
-166 -200 -173 0
-166 -200 -120 0
-159 -190 0
-160 -191 -215 0
-160 -191 -216 0
-160 -192 -216 0
-160 -192 -217 0
-160 -192 -218 0
-163 -190 0
-160 -191 -243 0
-163 -198 0
-161 -193 -222 0
-161 -193 -241 0
-161 -193 -242 0
-161 -191 -245 0
-161 -196 -244 0
-161 -196 -242 0
-163 -193 0
-156 -194 -242 0
-156 -194 -237 0
-156 -196 -242 0
-156 -196 -243 0
-156 -197 -222 0
-156 -197 -237 0
-156 -197 -241 0
-156 -198 -246 0
-156 -198 -241 0
-163 -191 0
-162 -198 -244 0
-162 -198 -241 0
-160 -191 0
-162 -192 -247 0
-162 -192 -248 0
-162 -198 -245 0
-162 -198 -248 0
-162 -198 -249 0
-160 -192 0
-163 -198 -248 0
-163 -198 -250 0
-163 -198 -249 0
-163 -193 -223 0
-163 -193 -249 0
-163 -193 -251 0
-163 -193 -247 0
-163 -191 -247 0
-55 -85 0
-56 -86 0
-57 -87 0
-58 -88 0
-59 -89 0
-60 -90 0
-166 -231 -229 0
-153 -236 -221 0
-157 -253 0
-154 -252 -225 0
-157 -236 0
-155 -253 -224 0
-167 -217 -245 0
-167 -248 -246 0
-163 -248 0
-160 -254 -243 0
-163 -255 0
-161 -254 -245 0
-161 -252 -242 0
-163 -254 0
-162 -255 -241 0
-170 -253 0
-154 -226 -238 0
-154 -236 -224 0
-170 -255 0
-161 -244 -249 0
-161 -244 -259 0
-161 -254 -249 0
-161 -254 -241 0
-154 -226 0
-157 -231 -239 0
-154 -236 0
-155 -231 -221 0
-154 -252 0
-170 -255 -242 0
-170 -255 -257 0
-161 -244 0
-163 -193 -247 0
-163 -248 -260 0
-163 -254 -247 0
-161 -254 0
-162 -248 -243 0
-162 -244 -247 0
-161 -252 0
-170 -253 -225 0
-170 -253 -240 0
-55 -61 0
-56 -62 0
-57 -63 0
-58 -64 0
-59 -65 0
-60 -66 0
-152 -228 -177 0
-128 -194 -182 0
-128 -194 -188 0
-153 -229 -184 0
-153 -229 0
-155 -221 -231 0
-155 -221 -232 0
-154 -229 0
-154 -226 0
-156 -222 -251 0
-156 -222 -256 0
-156 -222 -257 0
-156 -224 -256 0
-156 -225 -242 0
-156 -225 -257 0
-156 -225 -258 0
-154 -224 0
-170 -226 -242 0
-170 -226 -256 0
-170 -225 -242 0
-170 -225 -253 0
-170 -225 -257 0
-155 -221 0
-154 -226 -237 0
-154 -226 -238 0
-154 -226 -240 0
-154 -224 -236 0
-154 -224 -240 0
-156 -222 0
-163 -194 -248 0
-163 -223 -254 0
-163 -225 -254 0
-163 -225 -252 0
-163 -227 -248 0
-163 -227 -255 0
-156 -224 0
-170 -221 -236 0
-170 -225 -244 0
-170 -225 -254 0
-156 -221 0
-154 -224 -255 0
-156 -225 0
-161 -222 -248 0
-161 -222 -254 0
-161 -227 -248 0
-161 -227 -244 0
-161 -224 -253 0
-55 -79 0
-56 -80 0
-57 -81 0
-58 -82 0
-59 -83 0
-60 -84 0
-139 -215 -190 0
-128 -182 -194 0
-159 -245 -191 0
-167 -245 0
-160 -246 -198 0
-160 -246 0
-162 -243 -248 0
-162 -243 -249 0
-161 -244 0
-156 -222 -256 0
-156 -222 -240 0
-156 -241 -256 0
-156 -242 -225 0
-156 -242 -240 0
-156 -242 -261 0
-161 -246 0
-161 -241 0
-170 -244 -225 0
-170 -244 -256 0
-170 -242 -225 0
-170 -242 -240 0
-170 -242 -255 0
-156 -222 0
-157 -233 -236 0
-157 -242 -236 0
-157 -242 -252 0
-157 -237 -253 0
-156 -241 0
-170 -242 -226 0
-170 -242 -236 0
-170 -243 -254 0
-156 -242 0
-154 -222 -236 0
-154 -237 -226 0
-154 -241 -255 0
-156 -243 0
-161 -246 -248 0
-161 -241 -253 0
-162 -245 0
-162 -243 0
-161 -244 -227 0
-161 -244 -259 0
-161 -244 -257 0
-161 -241 -254 0
-161 -241 -257 0
-205 -176 -123 0
-120 -166 -124 0
-120 -166 -130 0
-120 -180 -130 0
-120 -180 -213 0
-228 -177 -206 0
-144 -180 -138 0
-144 -180 -146 0
-144 -187 -146 0
-157 -180 -138 0
-157 -180 -146 0
-157 -181 -138 0
-157 -181 -168 0
-157 -181 -169 0
-157 -181 -171 0
-157 -182 -146 0
-157 -182 -171 0
-157 -182 -164 0
-157 -182 -175 0
-194 -187 -146 0
-194 -182 -146 0
-194 -182 -171 0
-194 -182 -164 0
-194 -182 -175 0
-194 -166 -164 0
-194 -166 -138 0
-194 -188 -175 0
-194 -188 -138 0
-228 -177 0
-229 -184 -231 0
-229 -184 -232 0
-120 -180 -163 0
-120 -180 -160 0
-194 -187 -160 0
-194 -182 -160 0
-194 -182 -161 0
-194 -182 -156 0
-194 -182 -162 0
-194 -188 -162 0
-194 -188 -163 0
-157 -181 0
-226 -182 -160 0
-226 -182 -161 0
-226 -182 -162 0
-226 -183 -154 0
-226 -183 -161 0
-226 -184 -155 0
-226 -184 -170 0
-226 -185 -163 0
-226 -185 -162 0
-226 -185 -170 0
-157 -182 0
-222 -180 -160 0
-222 -188 -162 0
-222 -185 -156 0
-222 -185 -162 0
-222 -185 -170 0
-222 -181 -170 0
-222 -181 -154 0
-222 -181 -161 0
-222 -189 -160 0
-222 -189 -161 0
-178 -153 -208 0
-178 -153 -211 0
-120 -153 -181 0
-120 -153 -182 0
-120 -200 -182 0
-120 -200 -188 0
-157 -200 -182 0
-157 -200 -188 0
-157 -231 -182 0
-157 -231 -183 0
-157 -231 -184 0
-157 -231 -185 0
-157 -233 -188 0
-157 -233 -185 0
-157 -233 -181 0
-157 -233 -189 0
-229 -230 0
-221 -231 -237 0
-221 -231 -238 0
-221 -231 -240 0
-221 -232 -236 0
-221 -232 -240 0
-144 -167 -138 0
-144 -167 -146 0
-144 -159 -146 0
-178 -153 -173 0
-194 -159 -146 0
-194 -163 -146 0
-194 -163 -171 0
-194 -163 -164 0
-194 -163 -175 0
-194 -160 -175 0
-194 -160 -138 0
-205 -153 -177 0
-120 -167 -182 0
-120 -167 -188 0
-228 -155 -184 0
-144 -159 -190 0
-220 -160 -191 0
-220 -160 -192 0
-194 -163 0
-222 -160 -191 0
-222 -161 -193 0
-222 -161 -191 0
-222 -161 -196 0
-222 -156 -196 0
-222 -156 -197 0
-222 -156 -198 0
-222 -162 -190 0
-222 -162 -198 0
-194 -160 0
-223 -162 -192 0
-223 -162 -198 0
-223 -163 -198 0
-223 -163 -193 0
-223 -163 -191 0
-226 -163 0
-222 -167 -248 0
-222 -160 -254 0
-222 -161 -254 0
-222 -161 -252 0
-222 -162 -248 0
-222 -162 -255 0
-226 -170 0
-224 -154 -236 0
-224 -161 -244 0
-224 -161 -254 0
-226 -154 0
-221 -170 -255 0
-226 -161 0
-225 -163 -248 0
-225 -163 -254 0
-225 -162 -248 0
-225 -162 -244 0
-225 -170 -253 0
-194 -159 -245 0
-194 -160 -246 0
-222 -160 0
-223 -162 -243 0
-222 -161 0
-225 -156 -241 0
-225 -156 -242 0
-225 -162 -245 0
-225 -170 -244 0
-225 -170 -242 0
-222 -156 0
-226 -170 -242 0
-226 -170 -243 0
-226 -154 -237 0
-226 -154 -241 0
-226 -161 -246 0
-226 -161 -241 0
-222 -162 0
-227 -161 -244 0
-227 -161 -241 0
-61 -91 0
-62 -92 0
-63 -93 0
-64 -94 0
-65 -95 0
-66 -96 0
-157 -197 -244 0
-157 -197 -248 0
-157 -242 -248 0
-157 -242 -255 0
-157 -242 -254 0
-226 -242 0
-222 -197 -248 0
-222 -251 -254 0
-222 -256 -254 0
-222 -256 -252 0
-222 -257 -248 0
-222 -257 -255 0
-226 -258 0
-224 -256 -244 0
-224 -256 -254 0
-226 -256 0
-225 -242 -248 0
-225 -242 -254 0
-225 -257 -248 0
-225 -257 -244 0
-224 -253 0
-226 -154 -241 0
-226 -242 -249 0
-226 -242 -261 0
-226 -242 -259 0
-226 -256 -241 0
-226 -256 -259 0
-224 -256 0
-225 -242 -249 0
-225 -242 -252 0
-225 -242 -259 0
-225 -253 -241 0
-225 -257 -249 0
-225 -257 -241 0
-61 -67 0
-62 -68 0
-63 -69 0
-64 -70 0
-65 -71 0
-66 -72 0
-178 -155 -231 0
-178 -155 -233 0
-221 -236 0
-226 -155 -242 0
-226 -237 -251 0
-226 -237 -256 0
-226 -237 -257 0
-226 -238 -256 0
-226 -240 -242 0
-226 -240 -257 0
-226 -240 -258 0
-221 -238 0
-224 -236 -242 0
-224 -236 -256 0
-224 -240 -242 0
-224 -240 -253 0
-224 -240 -257 0
-61 -85 0
-62 -86 0
-63 -87 0
-64 -88 0
-65 -89 0
-66 -90 0
-120 -193 -163 0
-120 -193 -160 0
-178 -231 -155 0
-194 -217 -160 0
-194 -244 -160 0
-194 -244 -161 0
-194 -244 -162 0
-194 -248 -162 0
-194 -248 -163 0
-157 -244 0
-222 -193 -160 0
-222 -248 -162 0
-222 -255 -162 0
-222 -255 -170 0
-222 -254 -160 0
-222 -254 -161 0
-194 -217 -245 0
-194 -248 -246 0
-157 -193 -245 0
-222 -248 0
-223 -254 -243 0
-222 -255 0
-225 -254 -245 0
-225 -252 -242 0
-222 -254 0
-227 -255 -241 0
-224 -253 0
-224 -255 0
-225 -244 -249 0
-225 -244 -259 0
-225 -254 -249 0
-225 -254 -241 0
-221 -236 0
-221 -252 0
-224 -255 -242 0
-224 -255 -257 0
-225 -244 0
-222 -193 -247 0
-222 -248 -260 0
-222 -254 -247 0
-225 -254 0
-227 -248 -243 0
-227 -244 -247 0
-225 -252 0
-224 -253 -240 0
-177 -228 -206 0
-177 -228 -208 0
-177 -153 -208 0
-177 -153 -211 0
-173 -153 -181 0
-173 -153 -182 0
-173 -200 -182 0
-173 -200 -188 0
-229 -153 -181 0
-229 -153 -182 0
-229 -230 -181 0
-229 -230 -183 0
-229 -231 -182 0
-229 -231 -183 0
-229 -231 -184 0
-229 -231 -185 0
-155 -200 -182 0
-155 -200 -188 0
-155 -231 -182 0
-155 -231 -183 0
-155 -231 -184 0
-155 -231 -185 0
-155 -228 -184 0
-155 -228 -181 0
-155 -233 -188 0
-155 -233 -185 0
-155 -233 -181 0
-155 -233 -189 0
-177 -153 -226 0
-177 -153 -222 0
-155 -200 -222 0
-155 -200 -223 0
-155 -231 -222 0
-155 -231 -224 0
-155 -231 -221 0
-155 -231 -225 0
-155 -233 -223 0
-155 -233 -225 0
-155 -233 -226 0
-155 -233 -227 0
-229 -230 0
-239 -231 -222 0
-239 -231 -224 0
-239 -231 -225 0
-239 -232 -226 0
-239 -232 -225 0
-229 -231 0
-236 -153 -222 0
-236 -233 -223 0
-236 -233 -225 0
-236 -233 -227 0
-236 -232 -221 0
-236 -232 -225 0
-236 -230 -224 0
-236 -235 -222 0
-236 -235 -227 0
-236 -235 -224 0
-173 -157 -181 0
-173 -157 -182 0
-173 -194 -182 0
-173 -194 -188 0
-155 -194 -182 0
-155 -194 -188 0
-155 -226 -182 0
-155 -226 -183 0
-155 -226 -184 0
-155 -226 -185 0
-155 -222 -188 0
-155 -222 -185 0
-155 -222 -181 0
-155 -222 -189 0
-177 -157 -231 0
-177 -157 -233 0
-173 -194 -163 0
-173 -194 -160 0
-201 -220 -160 0
-201 -222 -160 0
-201 -222 -161 0
-201 -222 -156 0
-201 -222 -162 0
-201 -223 -162 0
-201 -223 -163 0
-155 -226 0
-236 -222 -160 0
-236 -222 -161 0
-236 -222 -162 0
-236 -224 -154 0
-236 -224 -161 0
-236 -221 -170 0
-236 -225 -163 0
-236 -225 -162 0
-236 -225 -170 0
-155 -222 0
-237 -194 -160 0
-237 -223 -162 0
-237 -225 -156 0
-237 -225 -162 0
-237 -225 -170 0
-237 -226 -170 0
-237 -226 -154 0
-237 -226 -161 0
-237 -227 -160 0
-237 -227 -161 0
-239 -226 0
-236 -157 -242 0
-236 -222 -251 0
-236 -222 -256 0
-236 -222 -257 0
-236 -224 -256 0
-236 -225 -242 0
-236 -225 -257 0
-236 -225 -258 0
-239 -224 0
-238 -226 -242 0
-238 -226 -256 0
-238 -225 -242 0
-238 -225 -253 0
-238 -225 -257 0
-155 -194 -244 0
-155 -194 -248 0
-155 -222 -248 0
-155 -222 -255 0
-155 -222 -254 0
-236 -222 0
-237 -194 -248 0
-237 -223 -254 0
-237 -225 -254 0
-237 -225 -252 0
-237 -227 -248 0
-237 -227 -255 0
-236 -224 0
-238 -225 -244 0
-238 -225 -254 0
-236 -221 0
-239 -224 -255 0
-236 -225 0
-240 -222 -248 0
-240 -222 -254 0
-240 -227 -248 0
-240 -227 -244 0
-240 -224 -253 0
-67 -91 0
-68 -92 0
-69 -93 0
-70 -94 0
-71 -95 0
-72 -96 0
-177 -154 -226 0
-177 -154 -222 0
-155 -197 -222 0
-155 -197 -223 0
-155 -253 -222 0
-155 -253 -224 0
-155 -253 -225 0
-155 -242 -223 0
-155 -242 -225 0
-155 -242 -226 0
-155 -242 -227 0
-229 -253 0
-236 -154 -222 0
-236 -242 -223 0
-236 -242 -225 0
-236 -242 -227 0
-236 -258 -225 0
-236 -256 -222 0
-236 -256 -227 0
-236 -256 -224 0
-155 -197 -244 0
-155 -197 -248 0
-155 -242 -248 0
-155 -242 -255 0
-155 -242 -254 0
-229 -154 -244 0
-236 -242 0
-237 -197 -248 0
-237 -251 -254 0
-237 -256 -254 0
-237 -256 -252 0
-237 -257 -248 0
-237 -257 -255 0
-236 -258 0
-238 -256 -244 0
-238 -256 -254 0
-236 -256 0
-240 -242 -248 0
-240 -242 -254 0
-240 -257 -248 0
-240 -257 -244 0
-238 -253 0
-236 -154 -241 0
-236 -242 -249 0
-236 -242 -261 0
-236 -242 -259 0
-236 -256 -241 0
-236 -256 -259 0
-238 -256 0
-240 -242 -249 0
-240 -242 -252 0
-240 -242 -259 0
-240 -253 -241 0
-240 -257 -249 0
-240 -257 -241 0
-190 -215 -140 0
-190 -215 -141 0
-190 -215 -142 0
-190 -159 -141 0
-190 -159 -145 0
-146 -159 -141 0
-146 -159 -145 0
-146 -195 -145 0
-146 -159 -193 0
-146 -159 -192 0
-190 -215 0
-245 -159 -193 0
-245 -216 -193 0
-245 -216 -191 0
-245 -216 -196 0
-245 -217 -196 0
-245 -217 -197 0
-245 -217 -198 0
-245 -218 -198 0
-160 -217 -192 0
-160 -217 -196 0
-160 -217 -197 0
-160 -217 -198 0
-160 -220 -197 0
-160 -220 -193 0
-160 -215 -198 0
-160 -215 -193 0
-160 -215 -191 0
-146 -167 -141 0
-146 -167 -145 0
-160 -193 -138 0
-160 -193 -168 0
-160 -193 -169 0
-160 -193 -171 0
-160 -194 -169 0
-160 -194 -164 0
-160 -192 -171 0
-160 -192 -164 0
-160 -192 -175 0
-188 -194 -169 0
-188 -194 -164 0
-188 -167 -164 0
-188 -167 -138 0
-160 -193 -241 0
-160 -193 -242 0
-160 -193 -243 0
-160 -194 -242 0
-160 -194 -244 0
-245 -198 0
-247 -193 -241 0
-247 -193 -242 0
-247 -196 -244 0
-247 -196 -242 0
-245 -193 0
-248 -194 -242 0
-248 -196 -242 0
-248 -196 -243 0
-248 -197 -241 0
-248 -198 -246 0
-248 -198 -241 0
-245 -191 0
-250 -198 -244 0
-250 -198 -241 0
-188 -194 -154 0
-188 -194 -156 0
-160 -193 0
-248 -194 -154 0
-248 -192 -161 0
-248 -192 -162 0
-248 -196 -154 0
-248 -196 -161 0
-248 -197 -170 0
-248 -198 -163 0
-248 -198 -162 0
-248 -198 -170 0
-223 -197 -156 0
-223 -197 -170 0
-223 -201 -154 0
-223 -193 -163 0
-223 -193 -170 0
-223 -193 -154 0
-223 -193 -161 0
-160 -192 0
-245 -198 -156 0
-245 -198 -162 0
-245 -198 -170 0
-245 -193 -170 0
-245 -193 -154 0
-245 -193 -161 0
-245 -191 -161 0
-73 -97 0
-74 -98 0
-75 -99 0
-76 -100 0
-77 -101 0
-78 -102 0
-190 -162 -244 0
-160 -254 -241 0
-160 -254 -242 0
-160 -254 -243 0
-160 -227 -242 0
-160 -227 -244 0
-245 -260 0
-247 -254 -241 0
-247 -254 -242 0
-247 -259 -244 0
-247 -259 -242 0
-245 -254 0
-248 -227 -242 0
-248 -259 -242 0
-248 -259 -243 0
-248 -257 -241 0
-248 -260 -241 0
-247 -246 0
-245 -162 -255 0
-245 -254 -261 0
-245 -254 -256 0
-247 -254 0
-248 -162 -243 0
-248 -227 -256 0
-248 -259 -256 0
-248 -257 -261 0
-247 -259 0
-249 -254 -243 0
-249 -254 -256 0
-249 -257 -255 0
-73 -79 0
-74 -80 0
-75 -81 0
-76 -82 0
-77 -83 0
-78 -84 0
-146 -163 -193 0
-160 -244 -196 0
-160 -244 -197 0
-160 -244 -198 0
-160 -222 -197 0
-160 -222 -193 0
-188 -222 -154 0
-188 -222 -156 0
-160 -244 0
-248 -222 -154 0
-248 -241 -154 0
-248 -241 -161 0
-248 -242 -170 0
-248 -243 -162 0
-248 -243 -170 0
-223 -242 -156 0
-223 -242 -170 0
-223 -237 -154 0
-223 -244 -170 0
-223 -244 -154 0
-223 -244 -161 0
-247 -244 0
-248 -222 -256 0
-248 -241 -256 0
-248 -242 -261 0
-247 -246 0
-247 -241 0
-249 -244 -256 0
-249 -242 -255 0
-160 -222 -253 0
-223 -242 -252 0
-223 -237 -253 0
-248 -241 0
-249 -243 -254 0
-248 -242 0
-251 -241 -255 0
-248 -243 0
-247 -241 -253 0
-250 -243 0
-247 -244 -259 0
-247 -244 -257 0
-247 -241 -254 0
-247 -241 -257 0
-138 -167 -141 0
-215 -190 -142 0
-163 -193 -168 0
-163 -193 -169 0
-163 -193 -171 0
-163 -194 -169 0
-163 -194 -164 0
-182 -194 -169 0
-182 -194 -164 0
-182 -167 -164 0
-245 -191 -216 0
-182 -194 -154 0
-182 -194 -156 0
-163 -193 0
-244 -194 -154 0
-244 -196 -154 0
-244 -196 -161 0
-244 -197 -170 0
-244 -198 -162 0
-244 -198 -170 0
-222 -197 -156 0
-222 -197 -170 0
-222 -201 -154 0
-222 -193 -170 0
-222 -193 -154 0
-222 -193 -161 0
-245 -191 0
-246 -198 -248 0
-246 -198 -249 0
-182 -157 -169 0
-182 -157 -164 0
-192 -160 -175 0
-222 -154 -181 0
-222 -154 -183 0
-222 -155 -184 0
-222 -156 -183 0
-222 -156 -184 0
-222 -156 -185 0
-233 -155 -184 0
-233 -157 -184 0
-233 -157 -181 0
-215 -160 -191 0
-245 -162 -198 0
-222 -154 -252 0
-222 -155 -253 0
-244 -170 0
-241 -161 -254 0
-244 -154 0
-242 -170 -255 0
-244 -161 0
-243 -170 -253 0
-233 -155 -221 0
-222 -154 0
-242 -156 -224 0
-242 -156 -225 0
-242 -170 -226 0
-242 -170 -225 0
-237 -154 -226 0
-237 -154 -224 0
-222 -156 0
-244 -170 -221 0
-244 -170 -225 0
-244 -154 -224 0
-244 -161 -227 0
-244 -161 -224 0
-192 -160 -217 0
-138 -160 -193 0
-163 -248 -196 0
-163 -248 -197 0
-163 -248 -198 0
-163 -223 -197 0
-163 -223 -193 0
-246 -247 0
-243 -248 -259 0
-243 -248 -257 0
-243 -249 -254 0
-243 -249 -257 0
-79 -103 0
-80 -104 0
-81 -105 0
-82 -106 0
-83 -107 0
-84 -108 0
-163 -225 -253 0
-222 -256 -252 0
-222 -240 -253 0
-244 -261 0
-244 -256 0
-241 -255 0
-244 -225 -258 0
-241 -256 0
-242 -225 -252 0
-79 -85 0
-80 -86 0
-81 -87 0
-82 -88 0
-83 -89 0
-84 -90 0
-182 -226 -154 0
-192 -248 -162 0
-222 -253 -170 0
-222 -236 -154 0
-233 -236 -221 0
-222 -253 0
-242 -252 -225 0
-237 -253 -224 0
-241 -253 0
-241 -255 0
-242 -252 0
-241 -255 -257 0
-243 -254 0
-243 -252 0
-79 -97 0
-80 -98 0
-81 -99 0
-82 -100 0
-83 -101 0
-84 -102 0
-192 -162 -248 0
-243 -254 0
-244 -227 -256 0
-244 -259 -256 0
-244 -257 -261 0
-243 -259 0
-241 -254 -256 0
-241 -257 -255 0
-181 -157 -169 0
-193 -163 -171 0
-193 -163 -175 0
-193 -160 -175 0
-226 -154 -183 0
-226 -155 -184 0
-231 -155 -184 0
-231 -157 -184 0
-217 -160 -191 0
-244 -160 -191 0
-244 -161 -191 0
-244 -161 -196 0
-244 -162 -198 0
-248 -162 -198 0
-248 -163 -198 0
-248 -163 -191 0
-231 -155 -221 0
-226 -154 0
-253 -170 -225 0
-236 -154 -224 0
-193 -160 -246 0
-248 -162 -243 0
-244 -161 0
-255 -170 -242 0
-244 -162 0
-254 -161 -241 0
-231 -229 -184 0
-156 -222 -185 0
-156 -222 -189 0
-236 -221 -232 0
-193 -222 -161 0
-193 -222 -162 0
-193 -223 -162 0
-244 -223 -162 0
-244 -225 -162 0
-244 -225 -170 0
-244 -227 -161 0
-253 -224 0
-252 -225 -257 0
-236 -221 0
-253 -224 -240 0
-217 -245 -191 0
-156 -222 -197 0
-248 -246 -198 0
-181 -222 -154 0
-193 -245 -162 0
-226 -242 -170 0
-226 -237 -154 0
-248 -246 0
-254 -243 -249 0
-255 -246 0
-255 -241 0
-254 -243 0
-255 -241 -257 0
-85 -109 0
-86 -110 0
-87 -111 0
-88 -112 0
-89 -113 0
-90 -114 0
-244 -249 -260 0
-255 -259 0
-85 -91 0
-86 -92 0
-87 -93 0
-88 -94 0
-89 -95 0
-90 -96 0
-156 -242 -225 0
-156 -242 -227 0
-252 -256 0
-255 -242 -259 0
-85 -103 0
-86 -104 0
-87 -105 0
-88 -106 0
-89 -107 0
-90 -108 0
-193 -247 -246 0
-156 -225 -242 0
-244 -260 0
-252 -256 0
-154 -226 -183 0
-154 -226 -185 0
-154 -222 -185 0
-154 -222 -189 0
-197 -222 -161 0
-197 -222 -162 0
-197 -223 -162 0
-253 -222 -161 0
-253 -222 -162 0
-253 -224 -161 0
-253 -225 -162 0
-253 -225 -170 0
-242 -223 -162 0
-242 -225 -162 0
-242 -225 -170 0
-242 -226 -170 0
-242 -226 -161 0
-242 -227 -161 0
-154 -222 -255 0
-154 -222 -254 0
-242 -223 -254 0
-242 -225 -254 0
-242 -225 -252 0
-242 -227 -255 0
-253 -224 0
-258 -225 -254 0
-253 -225 0
-256 -222 -254 0
-221 -236 -232 0
-221 -236 -235 0
-154 -236 -224 0
-154 -236 -225 0
-154 -237 -225 0
-154 -237 -227 0
-253 -237 -225 0
-253 -237 -227 0
-253 -238 -225 0
-253 -240 -227 0
-253 -240 -224 0
-197 -244 -161 0
-197 -244 -162 0
-197 -248 -162 0
-242 -248 -162 0
-242 -255 -162 0
-242 -255 -170 0
-242 -254 -161 0
-154 -244 -225 0
-154 -244 -227 0
-197 -248 -246 0
-251 -254 -243 0
-242 -255 0
-242 -254 0
-257 -255 -241 0
-258 -255 0
-256 -244 -259 0
-242 -248 -260 0
-256 -254 0
-256 -252 0
-91 -109 0
-92 -110 0
-93 -111 0
-94 -112 0
-95 -113 0
-96 -114 0
-154 -241 -255 0
-154 -241 -254 0
-242 -249 -254 0
-242 -261 -254 0
-242 -259 -255 0
-253 -261 0
-256 -241 -254 0
-242 -249 -260 0
-253 -241 -260 0
-256 -259 0
-191 -245 -216 0
-246 -247 -196 0
-246 -248 -196 0
-246 -248 -198 0
-162 -248 -196 0
-162 -248 -198 0
-162 -245 -198 0
-162 -248 -241 0
-162 -248 -243 0
-246 -247 0
-260 -248 -241 0
-254 -249 -243 0
-254 -251 -241 0
-254 -247 -241 0
-162 -244 -196 0
-162 -244 -198 0
-254 -241 -161 0
-254 -242 -170 0
-254 -243 -170 0
-227 -242 -170 0
-227 -244 -170 0
-227 -244 -161 0
-254 -242 -261 0
-260 -241 0
-227 -242 -252 0
-254 -241 0
-257 -241 -255 0
-254 -243 0
-97 -103 0
-98 -104 0
-99 -105 0
-100 -106 0
-101 -107 0
-102 -108 0
-162 -255 -241 0
-254 -256 -241 0
-227 -256 -252 0
-254 -261 0
-161 -244 -196 0
-255 -242 -170 0
-225 -242 -170 0
-225 -244 -170 0
-225 -242 -252 0
-255 -241 0
-225 -253 -170 0
-240 -253 -224 0
-256 -252 0
-243 -254 -249 0
-161 -254 -241 0
-255 -257 -241 0
-103 -109 0
-104 -110 0
-105 -111 0
-106 -112 0
-107 -113 0
-108 -114 0
55 0
26 0
32 33 0
-186 -120 -122 -207 0
-19 -91 262 0
-20 -92 262 0
-21 -93 262 0
-22 -94 262 0
-23 -95 262 0
-24 -96 262 0
-73 -37 263 0
-74 -38 263 0
-75 -39 263 0
-76 -40 263 0
-77 -41 263 0
-78 -42 263 0
-97 -13 264 0
-98 -14 264 0
-99 -15 264 0
-100 -16 264 0
-101 -17 264 0
-102 -18 264 0
-165 -120 -262 -201 -263 -264 -182 0
-103 -7 265 0
-104 -8 265 0
-105 -9 265 0
-106 -10 265 0
-107 -11 265 0
-108 -12 265 0
-165 -120 -262 -201 -263 -264 -182 -265 0
-165 -120 -262 -201 -263 -264 -265 0
-165 -120 -262 -201 -263 -264 -265 -182 0
-165 -120 -262 -201 -263 -182 0
-165 -120 -262 -201 -263 -182 -265 0
-165 -120 -262 -201 -263 -182 -264 -265 0
-165 -120 -201 -263 -264 -182 0
-165 -120 -201 -263 -264 -182 -265 0
-165 -120 -201 -263 -264 -265 0
-165 -120 -201 -263 -264 -265 -182 0
-165 -120 -201 -263 -182 0
-165 -120 -201 -263 -182 -265 0
-165 -120 -201 -263 -182 -264 -265 0
-165 -122 -120 -201 -263 -264 -182 0
-165 -122 -120 -201 -263 -182 0
-165 -265 -182 -264 -263 -201 -120 0
-165 -265 -182 -264 -263 -201 -120 -262 0
-165 -265 -182 -264 -263 -201 -262 0
-165 -265 -182 -264 -263 -201 -262 -120 0
-109 -43 266 0
-110 -44 266 0
-111 -45 266 0
-112 -46 266 0
-113 -47 266 0
-114 -48 266 0
-165 -265 -182 -264 -263 -201 -262 -266 0
-165 -265 -182 -263 -201 -120 0
-165 -265 -182 -263 -201 -120 -262 0
-165 -265 -182 -263 -201 -120 -262 -266 0
-165 -265 -182 -263 -201 -262 0
-165 -265 -182 -263 -201 -262 -120 0
-165 -265 -182 -263 -201 -262 -266 0
-165 -265 -264 -263 -201 -120 0
-165 -265 -264 -263 -201 -120 -262 0
-165 -265 -264 -263 -201 -120 -262 -266 0
-165 -265 -264 -263 -201 -262 0
-165 -265 -264 -263 -201 -262 -120 0
-165 -265 -264 -263 -201 -262 -266 0
-165 -265 -264 -182 -263 -201 -120 0
-165 -265 -264 -182 -263 -201 -120 -262 0
-165 -265 -264 -182 -263 -201 -262 0
-165 -265 -264 -182 -263 -201 -262 -120 0
-165 -265 -264 -182 -263 -201 -262 -266 0
-165 -262 -201 -263 -264 -182 0
-165 -262 -201 -263 -264 -182 -265 0
-165 -262 -201 -263 -264 -265 0
-165 -262 -201 -263 -264 -265 -182 0
-165 -262 -201 -263 -182 0
-165 -262 -201 -263 -182 -265 0
-165 -262 -201 -263 -182 -264 -265 0
-165 -262 -120 -201 -263 -264 -182 0
-165 -262 -120 -201 -263 -264 -182 -265 0
-165 -262 -120 -201 -263 -264 -265 0
-165 -262 -120 -201 -263 -264 -265 -182 0
-165 -262 -120 -201 -263 -182 0
-165 -262 -120 -201 -263 -182 -265 0
-165 -262 -120 -201 -263 -182 -264 -265 0
-265 -165 -120 -262 -201 -263 -264 0
-265 -165 -120 -262 -201 -263 -264 -182 0
-265 -165 -120 -262 -201 -263 -182 0
-265 -165 -120 -262 -201 -263 -182 -264 0
-265 -165 -120 -201 -263 -264 0
-265 -165 -120 -201 -263 -264 -182 0
-265 -165 -120 -201 -263 -182 0
-265 -165 -120 -201 -263 -182 -264 0
-265 -165 -262 -201 -263 -264 0
-265 -165 -262 -201 -263 -264 -182 0
-265 -165 -262 -201 -263 -182 0
-265 -165 -262 -201 -263 -182 -264 0
-265 -165 -262 -120 -201 -263 -264 0
-265 -165 -262 -120 -201 -263 -264 -182 0
-265 -165 -262 -120 -201 -263 -182 0
-265 -165 -262 -120 -201 -263 -182 -264 0
-265 -182 -264 -263 -201 -120 -262 -266 0
-265 -182 -264 -263 -201 -262 -266 0
-265 -182 -263 -201 -120 -262 -266 0
-265 -182 -263 -201 -120 -165 -262 -266 0
-265 -182 -263 -201 -262 -266 0
-265 -264 -263 -201 -120 -262 -266 0
-265 -264 -263 -201 -120 -165 -262 -266 0
-265 -264 -263 -201 -262 -266 0
-265 -264 -182 -263 -201 -120 -262 -266 0
-265 -264 -182 -263 -201 -262 -266 0
-199 -263 -182 -265 -165 -120 0
-199 -263 -182 -265 -165 -120 -262 0
-199 -263 -182 -265 -165 -120 -262 -266 0
-199 -263 -182 -265 -165 -262 0
-199 -263 -182 -265 -165 -262 -120 0
-199 -263 -182 -265 -165 -262 -266 0
-199 -182 -265 -165 -120 0
-199 -182 -265 -165 -120 -262 0
-199 -182 -265 -165 -120 -262 -266 0
-199 -182 -265 -165 -262 0
-199 -182 -265 -165 -262 -120 0
-199 -182 -265 -165 -262 -266 0
-264 -265 -165 -120 -262 -201 -263 0
-264 -265 -165 -120 -262 -201 -263 -182 0
-264 -265 -165 -120 -201 -263 0
-264 -265 -165 -120 -201 -263 -182 0
-264 -265 -165 -262 -201 -263 0
-264 -265 -165 -262 -201 -263 -182 0
-264 -265 -165 -262 -120 -201 -263 0
-264 -265 -165 -262 -120 -201 -263 -182 0
-264 -263 -201 -120 -122 -165 -140 0
-264 -263 -201 -120 -262 -165 -265 -182 0
-264 -263 -201 -120 -165 -265 -182 0
-264 -263 -201 -120 -165 -140 0
-264 -263 -201 -262 -120 -165 -265 -182 0
-264 -263 -201 -262 -165 -265 -182 0
-264 -182 -265 -165 -120 -262 -201 -263 0
-264 -182 -265 -165 -120 -201 -263 0
-264 -182 -265 -165 -262 -201 -263 0
-264 -182 -265 -165 -262 -120 -201 -263 0
-264 -182 -263 -201 -120 -122 -165 -140 0
-264 -182 -263 -201 -120 -165 -140 0
-67 -97 267 0
-68 -98 267 0
-69 -99 267 0
-70 -100 267 0
-71 -101 267 0
-72 -102 267 0
-262 -165 -265 -182 -199 -263 -267 0
-262 -165 -265 -182 -264 -263 -201 0
-262 -165 -265 -182 -264 -263 -201 -120 0
-262 -165 -265 -182 -263 -201 0
-262 -165 -265 -182 -263 -201 -120 0
-262 -165 -265 -182 -263 -267 0
-262 -165 -265 -264 -263 -201 0
-262 -165 -265 -264 -263 -201 -120 0
-262 -165 -265 -264 -182 -263 -201 0
-262 -165 -265 -264 -182 -263 -201 -120 0
-262 -201 -263 -264 -182 -265 -165 -120 0
-262 -201 -263 -264 -265 -165 -120 0
-262 -201 -263 -182 -265 -165 -120 0
-262 -201 -263 -182 -264 -265 -165 -120 0
-262 -120 -165 -265 -182 -199 -263 -267 0
-262 -120 -165 -265 -182 -264 -263 -201 0
-262 -120 -165 -265 -182 -263 -201 0
-262 -120 -165 -265 -182 -263 -267 0
-262 -120 -165 -265 -264 -263 -201 0
-262 -120 -165 -265 -264 -182 -263 -201 0
-140 -165 -120 -201 -263 -264 -182 0
-140 -165 -120 -201 -263 -182 0
-140 -165 -122 -120 -201 -263 -264 -182 0
-140 -165 -122 -120 -201 -263 -182 0
-120 -165 -265 -182 0
-120 -165 -265 -182 -199 -263 0
-120 -165 -265 -182 -199 -263 -267 0
-120 -165 -265 -182 -264 -263 0
-120 -165 -265 -182 -264 -263 -201 0
-120 -165 -265 -182 -263 0
-120 -165 -265 -182 -263 -201 0
-120 -165 -265 -182 -263 -267 0
-120 -165 -265 -264 -263 0
-120 -165 -265 -264 -263 -182 0
-120 -165 -265 -264 -263 -201 0
-120 -165 -265 -264 -182 0
-120 -165 -265 -264 -182 -263 0
-120 -165 -265 -264 -182 -263 -201 0
-120 -262 -165 -265 -182 0
-120 -262 -165 -265 -182 -199 -263 0
-120 -262 -165 -265 -182 -199 -263 -267 0
-120 -262 -165 -265 -182 -264 -263 0
-120 -262 -165 -265 -182 -264 -263 -201 0
-120 -262 -165 -265 -182 -263 0
-120 -262 -165 -265 -182 -263 -201 0
-120 -262 -165 -265 -182 -263 -267 0
-120 -262 -165 -265 -264 -263 0
-120 -262 -165 -265 -264 -263 -182 0
-120 -262 -165 -265 -264 -263 -201 0
-120 -262 -165 -265 -264 -182 0
-120 -262 -165 -265 -264 -182 -263 0
-120 -262 -165 -265 -264 -182 -263 -201 0
-120 -201 -262 -165 -265 -182 0
-120 -201 -262 -165 -265 -182 -264 -263 0
-120 -201 -262 -165 -265 -182 -263 0
-120 -201 -262 -165 -265 -264 -263 0
-120 -201 -262 -165 -265 -264 -263 -182 0
-120 -201 -262 -165 -265 -264 -182 0
-120 -201 -262 -165 -265 -264 -182 -263 0
-182 -265 -165 -120 -262 -201 0
-182 -265 -165 -120 -262 -201 -263 0
-182 -265 -165 -120 -201 0
-182 -265 -165 -120 -201 -263 0
-182 -265 -165 -262 -201 0
-182 -265 -165 -262 -201 -263 0
-182 -265 -165 -262 -120 -201 0
-182 -265 -165 -262 -120 -201 -263 0
-182 -264 -265 -165 -120 -262 -201 0
-182 -264 -265 -165 -120 -262 -201 -263 0
-182 -264 -265 -165 -120 -201 0
-182 -264 -265 -165 -120 -201 -263 0
-182 -264 -265 -165 -262 -201 0
-182 -264 -265 -165 -262 -201 -263 0
-182 -264 -265 -165 -262 -120 -201 0
-182 -264 -265 -165 -262 -120 -201 -263 0
-182 -263 -264 -265 -165 -120 -262 -201 0
-182 -263 -264 -265 -165 -120 -201 0
-182 -263 -264 -265 -165 -262 -201 0
-182 -263 -264 -265 -165 -262 -120 -201 0
-263 -199 -182 -265 -165 -120 -262 -266 0
-263 -199 -182 -265 -165 -262 -266 0
-263 -264 -265 -165 -120 -262 -201 0
-263 -264 -265 -165 -120 -262 -266 0
-263 -264 -265 -165 -120 -201 0
-263 -264 -265 -165 -120 -201 -262 -266 0
-263 -264 -265 -165 -262 -201 0
-263 -264 -265 -165 -262 -120 -201 0
-263 -264 -265 -165 -262 -266 0
-263 -264 -182 -265 -165 -120 -262 -201 0
-263 -264 -182 -265 -165 -120 -262 -266 0
-263 -264 -182 -265 -165 -120 -201 0
-263 -264 -182 -265 -165 -262 -201 0
-263 -264 -182 -265 -165 -262 -120 -201 0
-263 -264 -182 -265 -165 -262 -266 0
-263 -182 -265 -165 -120 -262 -201 0
-263 -182 -265 -165 -120 -262 -266 0
-263 -182 -265 -165 -120 -201 0
-263 -182 -265 -165 -120 -201 -262 -266 0
-263 -182 -265 -165 -262 -201 0
-263 -182 -265 -165 -262 -120 -201 0
-263 -182 -265 -165 -262 -266 0
-263 -182 -264 -265 -165 -120 -262 -201 0
-263 -182 -264 -265 -165 -120 -262 -266 0
-263 -182 -264 -265 -165 -120 -201 0
-263 -182 -264 -265 -165 -262 -201 0
-263 -182 -264 -265 -165 -262 -120 -201 0
-263 -182 -264 -265 -165 -262 -266 0
-201 -262 -165 -265 -182 -264 -263 0
-201 -262 -165 -265 -182 -263 0
-201 -262 -165 -265 -264 -263 0
-201 -262 -165 -265 -264 -182 -263 0
-201 -262 -120 -165 -265 -182 -264 -263 0
-201 -262 -120 -165 -265 -182 -263 0
-201 -262 -120 -165 -265 -264 -263 0
-201 -262 -120 -165 -265 -264 -182 -263 0
-201 -120 -165 -265 -182 -264 -263 0
-201 -120 -165 -265 -182 -263 0
-201 -120 -165 -265 -264 -263 0
-201 -120 -165 -265 -264 -182 -263 0
-201 -120 -262 -165 -265 -182 -264 -263 0
-201 -120 -262 -165 -265 -182 -263 0
-201 -120 -262 -165 -265 -264 -263 0
-201 -120 -262 -165 -265 -264 -182 -263 0
-191 -140 -266 -248 0
-120 -262 -201 -263 -264 -265 0
-120 -262 -201 -263 -264 -265 -165 0
-120 -262 -201 -263 -264 -265 -182 0
-120 -262 -201 -263 -264 -182 0
-120 -262 -201 -263 -264 -182 -265 0
-120 -262 -201 -263 -264 -182 -265 -165 0
-120 -262 -201 -263 -182 0
-120 -262 -201 -263 -182 -265 0
-120 -262 -201 -263 -182 -265 -165 0
-120 -262 -201 -263 -182 -264 -265 0
-120 -262 -201 -263 -182 -264 -265 -165 0
-120 -262 -165 -265 -182 -263 -201 0
-120 -262 -165 -265 -182 -264 -263 -201 0
-120 -262 -165 -265 -264 -263 -201 0
-120 -262 -165 -265 -264 -182 -263 -201 0
-120 -201 -263 -264 -265 0
-120 -201 -263 -264 -265 -165 0
-120 -201 -263 -264 -265 -165 -262 0
-120 -201 -263 -264 -265 -182 0
-120 -201 -263 -264 -182 0
-120 -201 -263 -264 -182 -265 0
-120 -201 -263 -264 -182 -265 -165 0
-120 -201 -263 -264 -182 -265 -165 -262 0
-120 -201 -263 -182 0
-120 -201 -263 -182 -265 0
-120 -201 -263 -182 -265 -165 0
-120 -201 -263 -182 -265 -165 -262 0
-120 -201 -263 -182 -264 -265 0
-120 -201 -263 -182 -264 -265 -165 0
-120 -201 -263 -182 -264 -265 -165 -262 0
-120 -165 -262 -201 -263 -264 -265 0
-120 -165 -262 -201 -263 -264 -265 -182 0
-120 -165 -262 -201 -263 -264 -182 0
-120 -165 -262 -201 -263 -264 -182 -265 0
-120 -165 -262 -201 -263 -182 0
-120 -165 -262 -201 -263 -182 -265 0
-120 -165 -262 -201 -263 -182 -264 -265 0
-120 -165 -265 -182 -263 -201 0
-120 -165 -265 -182 -263 -201 -262 0
-120 -165 -265 -182 -264 -263 -201 0
-120 -165 -265 -182 -264 -263 -201 -262 0
-120 -165 -265 -264 -263 -201 0
-120 -165 -265 -264 -263 -201 -262 0
-120 -165 -265 -264 -182 -263 -201 0
-120 -165 -265 -264 -182 -263 -201 -262 0
-201 -263 -264 -265 -165 -120 -262 0
-201 -263 -264 -265 -165 -120 -262 -266 0
-201 -263 -264 -265 -165 -262 0
-201 -263 -264 -265 -165 -262 -266 0
-201 -263 -264 -182 -265 -165 -120 -262 0
-201 -263 -264 -182 -265 -165 -262 0
-201 -263 -264 -182 -265 -165 -262 -266 0
-201 -263 -182 -265 -165 -120 -262 0
-201 -263 -182 -265 -165 -120 -262 -266 0
-201 -263 -182 -265 -165 -262 0
-201 -263 -182 -265 -165 -262 -266 0
-201 -263 -182 -264 -265 -165 -120 -262 0
-201 -263 -182 -264 -265 -165 -262 0
-201 -263 -182 -264 -265 -165 -262 -266 0
-263 -201 -262 -165 -265 -182 0
-263 -201 -262 -165 -265 -182 -264 0
-263 -201 -262 -165 -265 -264 0
-263 -201 -262 -165 -265 -264 -182 0
-263 -201 -262 -120 -165 -265 -182 0
-263 -201 -262 -120 -165 -265 -182 -264 0
-263 -201 -262 -120 -165 -265 -264 0
-263 -201 -262 -120 -165 -265 -264 -182 0
-263 -201 -120 -165 -265 -182 0
-263 -201 -120 -165 -265 -182 -264 0
-263 -201 -120 -165 -265 -264 0
-263 -201 -120 -165 -265 -264 -182 0
-263 -201 -120 -262 -165 -265 -182 0
-263 -201 -120 -262 -165 -265 -182 -264 0
-263 -201 -120 -262 -165 -265 -264 0
-263 -201 -120 -262 -165 -265 -264 -182 0
-182 -263 -201 -262 -165 -265 0
-182 -263 -201 -262 -165 -265 -264 0
-182 -263 -201 -262 -120 -165 -265 0
-182 -263 -201 -262 -120 -165 -265 -264 0
-182 -263 -201 -120 -165 -122 0
-182 -263 -201 -120 -165 -265 0
-182 -263 -201 -120 -165 -265 -264 0
-182 -263 -201 -120 -122 0
-182 -263 -201 -120 -262 -165 -265 0
-182 -263 -201 -120 -262 -165 -265 -264 0
-182 -265 -165 -120 -262 -201 -263 -264 0
-182 -265 -165 -120 -201 -263 -264 0
-182 -265 -165 -262 -120 -201 -263 -264 0
-182 -265 -165 -262 -201 -263 -264 0
-182 -264 -263 -201 -262 -165 -265 0
-182 -264 -263 -201 -262 -120 -165 -265 0
-182 -264 -263 -201 -120 -165 -122 0
-182 -264 -263 -201 -120 -165 -265 0
-182 -264 -263 -201 -120 -122 0
-182 -264 -263 -201 -120 -262 -165 -265 0
-165 -120 -262 -201 -263 -264 -265 0
-165 -120 -262 -201 -263 -264 -182 -265 0
-165 -120 -262 -201 -263 -182 -265 0
-165 -120 -262 -201 -263 -182 -264 -265 0
-165 -120 -201 -263 -264 -265 0
-165 -120 -201 -263 -264 -182 -265 0
-165 -120 -201 -263 -182 -265 0
-165 -120 -201 -263 -182 -264 -265 0
-165 -262 -120 -201 -263 -264 -265 0
-165 -262 -120 -201 -263 -264 -182 -265 0
-165 -262 -120 -201 -263 -182 -265 0
-165 -262 -120 -201 -263 -182 -264 -265 0
-165 -262 -201 -263 -264 -265 0
-165 -262 -201 -263 -264 -182 -265 0
-165 -262 -201 -263 -182 -265 0
-165 -262 -201 -263 -182 -264 -265 0
-165 -265 -182 -263 -201 -262 0
-165 -265 -182 -263 -201 -120 -262 0
-165 -265 -182 -264 -263 -201 -262 0
-165 -265 -182 -264 -263 -201 -120 -262 0
-165 -265 -264 -263 -201 -262 0
-165 -265 -264 -263 -201 -120 -262 0
-165 -265 -264 -182 -263 -201 -262 0
-165 -265 -264 -182 -263 -201 -120 -262 0
-122 -120 -201 -263 -264 0
-122 -120 -201 -263 -182 -264 0
-122 -165 -120 -201 -263 -264 0
-122 -165 -120 -201 -263 -182 -264 0
-264 -263 -201 -262 -165 -265 0
-264 -263 -201 -262 -120 -165 -265 0
-264 -263 -201 -120 -165 -265 0
-264 -263 -201 -120 -262 -165 -265 0
-264 -182 -263 -201 -262 -165 -265 0
-264 -182 -263 -201 -262 -120 -165 -265 0
-264 -182 -263 -201 -120 -165 -265 0
-264 -182 -263 -201 -120 -262 -165 -265 0
-1 -67 268 0
-2 -68 268 0
-3 -69 268 0
-4 -70 268 0
-5 -71 268 0
-6 -72 268 0
-268 -262 -193 -168 -265 -182 -264 -263 0
-268 -262 -193 -168 -265 -182 -263 0
-268 -262 -193 -168 -265 -182 -263 -220 0
-268 -262 -193 -168 -265 -264 -263 0
-268 -262 -193 -168 -265 -264 -263 -220 0
-268 -262 -193 -168 -265 -264 -182 -263 0
-268 -262 -168 -265 -182 -264 -263 0
-268 -262 -168 -265 -182 -264 -263 -220 0
-268 -262 -168 -265 -182 -263 0
-268 -262 -168 -265 -182 -263 -220 0
-268 -262 -168 -265 -264 -263 0
-268 -262 -168 -265 -264 -263 -220 0
-268 -262 -168 -265 -264 -182 -263 0
-268 -262 -168 -265 -264 -182 -263 -220 0
-268 -262 -220 -193 -168 -265 -182 -263 0
-268 -262 -220 -193 -168 -265 -264 -263 0
-265 -182 -264 -263 -220 -262 -193 0
-265 -182 -264 -263 -220 -262 -193 -168 0
-265 -182 -264 -263 -220 -262 -168 0
-265 -182 -264 -263 -220 -262 -168 -193 0
-265 -182 -264 -263 -220 -193 0
-265 -182 -264 -263 -220 -193 -168 0
-265 -182 -264 -263 -220 -193 -262 -168 0
-265 -182 -263 -220 -262 -193 0
-265 -182 -263 -220 -262 -193 -168 0
-265 -182 -263 -220 -262 -168 0
-265 -182 -263 -220 -262 -168 -193 0
-265 -182 -263 -220 -193 0
-265 -182 -263 -220 -193 -168 0
-265 -182 -263 -220 -193 -262 -168 0
-265 -264 -263 -220 -262 -193 0
-265 -264 -263 -220 -262 -193 -168 0
-265 -264 -263 -220 -262 -168 0
-265 -264 -263 -220 -262 -168 -193 0
-265 -264 -263 -220 -193 0
-265 -264 -263 -220 -193 -168 0
-265 -264 -263 -220 -193 -262 -168 0
-265 -264 -182 -263 -220 -262 -193 0
-265 -264 -182 -263 -220 -262 -193 -168 0
-265 -264 -182 -263 -220 -262 -168 0
-265 -264 -182 -263 -220 -262 -168 -193 0
-265 -264 -182 -263 -220 -193 0
-265 -264 -182 -263 -220 -193 -168 0
-265 -264 -182 -263 -220 -193 -262 -168 0
-265 -175 -182 -263 -220 -262 -193 0
-265 -175 -182 -263 -220 -193 0
-265 -168 -262 -193 -220 -263 -264 0
-265 -168 -262 -193 -220 -263 -264 -182 0
-265 -168 -262 -193 -220 -263 -182 0
-265 -168 -262 -193 -220 -263 -182 -264 0
-265 -168 -262 -220 -263 -264 0
-265 -168 -262 -220 -263 -264 -182 0
-265 -168 -262 -220 -263 -182 0
-265 -168 -262 -220 -263 -182 -264 0
-265 -168 -193 -262 -220 -263 -264 0
-265 -168 -193 -262 -220 -263 -264 -182 0
-265 -168 -193 -262 -220 -263 -182 0
-265 -168 -193 -262 -220 -263 -182 -264 0
-265 -168 -193 -220 -263 -264 0
-265 -168 -193 -220 -263 -264 -182 0
-265 -168 -193 -220 -263 -182 0
-265 -168 -193 -220 -263 -182 -264 0
-264 -265 -168 -262 -193 -220 -263 0
-264 -265 -168 -262 -193 -220 -263 -182 0
-264 -265 -168 -262 -220 -263 0
-264 -265 -168 -262 -220 -263 -182 0
-264 -265 -168 -193 -262 -220 -263 0
-264 -265 -168 -193 -262 -220 -263 -182 0
-264 -265 -168 -193 -220 -263 0
-264 -265 -168 -193 -220 -263 -182 0
-264 -265 -168 -193 -220 -251 0
-264 -265 -168 -193 -251 0
-264 -263 -220 -262 -193 -168 -265 -182 0
-264 -263 -220 -262 -168 -265 -182 0
-264 -263 -220 -193 -168 -265 -182 0
-264 -263 -220 -193 -262 -168 -265 -182 0
-264 -182 -265 -168 -262 -193 -220 -263 0
-264 -182 -265 -168 -262 -220 -263 0
-264 -182 -265 -168 -193 -262 -220 -263 0
-264 -182 -265 -168 -193 -220 -263 0
-264 -182 -265 -168 -193 -220 -251 0
-264 -182 -265 -168 -193 -251 0
-13 -109 269 0
-14 -110 269 0
-15 -111 269 0
-16 -112 269 0
-17 -113 269 0
-18 -114 269 0
-269 -265 -182 -263 -220 -262 0
-269 -265 -182 -263 -220 -262 -193 0
-269 -265 -182 -263 -220 -193 0
-269 -265 -182 -263 -220 -193 -262 0
-269 -265 -175 -182 -263 -220 -262 0
-269 -265 -175 -182 -263 -220 -262 -193 0
-269 -265 -175 -182 -263 -220 -193 0
-269 -265 -175 -182 -263 -220 -193 -262 0
-214 -220 -251 -193 -168 -265 -182 0
-214 -220 -251 -193 -168 -265 -182 -264 0
-214 -220 -251 -193 -168 -265 -264 0
-214 -220 -251 -193 -168 -265 -264 -182 0
-214 -220 -193 -168 -265 -182 0
-214 -220 -193 -168 -265 -182 -264 0
-214 -220 -193 -168 -265 -264 0
-214 -220 -193 -168 -265 -264 -182 0
-262 -193 -168 -265 -182 -264 -263 -220 0
-262 -193 -168 -265 -182 -263 -220 0
-262 -193 -168 -265 -264 -263 -220 0
-262 -193 -168 -265 -264 -182 -263 -220 0
-262 -193 -220 -263 -264 -182 -265 -168 0
-262 -193 -220 -263 -264 -265 -168 0
-262 -193 -220 -263 -182 -265 -168 0
-262 -193 -220 -263 -182 -264 -265 -168 0
-262 -168 -265 -182 -264 -263 -220 0
-262 -168 -265 -182 -264 -263 -220 -193 0
-262 -168 -265 -182 -263 -220 0
-262 -168 -265 -182 -263 -220 -193 0
-262 -168 -265 -264 -263 -220 0
-262 -168 -265 -264 -263 -220 -193 0
-262 -168 -265 -264 -182 -263 -220 0
-262 -168 -265 -264 -182 -263 -220 -193 0
-262 -220 -263 -264 -182 -265 -168 0
-262 -220 -263 -264 -182 -265 -168 -193 0
-262 -220 -263 -264 -265 -168 0
-262 -220 -263 -264 -265 -168 -193 0
-262 -220 -263 -182 -265 -168 0
-262 -220 -263 -182 -265 -168 -193 0
-262 -220 -263 -182 -264 -265 -168 0
-262 -220 -263 -182 -264 -265 -168 -193 0
-118 -214 -268 -127 0
-168 -265 -182 -264 -263 -220 -262 -193 0
-168 -265 -182 -264 -263 -220 -193 0
-168 -265 -182 -263 -220 -262 -193 0
-168 -265 -182 -263 -220 -193 0
-168 -265 -264 -263 -220 -262 -193 0
-168 -265 -264 -263 -220 -193 0
-168 -265 -264 -182 -263 -220 -262 -193 0
-168 -265 -264 -182 -263 -220 -193 0
-182 -265 -264 -263 -220 -262 -193 0
-182 -265 -264 -263 -220 -262 -168 -193 0
-182 -265 -264 -263 -220 -193 0
-182 -265 -168 -262 -193 0
-182 -265 -168 -262 -193 -220 -263 0
-182 -265 -168 -262 -220 -263 0
-182 -265 -168 -262 -220 -193 0
-182 -265 -168 -193 0
-182 -265 -168 -193 -262 -220 -263 0
-182 -265 -168 -193 -220 -263 0
-182 -265 -168 -193 -220 -251 0
-182 -265 -168 -193 -251 0
-182 -264 -265 -168 -262 -193 0
-182 -264 -265 -168 -262 -193 -220 -263 0
-182 -264 -265 -168 -262 -220 -263 0
-182 -264 -265 -168 -262 -220 -193 0
-182 -264 -265 -168 -193 0
-182 -264 -265 -168 -193 -262 -220 -263 0
-182 -264 -265 -168 -193 -220 -263 0
-182 -264 -265 -168 -193 -220 -251 0
-182 -264 -265 -168 -193 -251 0
-182 -264 -263 -220 -262 -193 0
-182 -264 -263 -220 -262 -168 -193 0
-182 -264 -263 -220 -193 0
-182 -263 -264 -265 -168 -262 -193 0
-182 -263 -264 -265 -168 -262 -220 -193 0
-182 -263 -264 -265 -168 -193 0
-182 -263 -220 -262 -193 0
-182 -263 -220 -262 -168 -193 0
-182 -263 -220 -193 0
-263 -264 -265 -168 -262 -193 0
-263 -264 -265 -168 -262 -193 -220 0
-263 -264 -265 -168 -262 -220 0
-263 -264 -265 -168 -262 -220 -193 0
-263 -264 -265 -168 -193 0
-263 -264 -265 -168 -193 -262 -220 0
-263 -264 -265 -168 -193 -220 0
-263 -264 -182 -265 -168 -262 -193 0
-263 -264 -182 -265 -168 -262 -193 -220 0
-263 -264 -182 -265 -168 -262 -220 0
-263 -264 -182 -265 -168 -262 -220 -193 0
-263 -264 -182 -265 -168 -193 0
-263 -264 -182 -265 -168 -193 -262 -220 0
-263 -264 -182 -265 -168 -193 -220 0
-263 -182 -265 -168 -262 -193 0
-263 -182 -265 -168 -262 -193 -220 0
-263 -182 -265 -168 -262 -220 0
-263 -182 -265 -168 -262 -220 -193 0
-263 -182 -265 -168 -193 0
-263 -182 -265 -168 -193 -262 -220 0
-263 -182 -265 -168 -193 -220 0
-263 -182 -264 -265 -168 -262 -193 0
-263 -182 -264 -265 -168 -262 -193 -220 0
-263 -182 -264 -265 -168 -262 -220 0
-263 -182 -264 -265 -168 -262 -220 -193 0
-263 -182 -264 -265 -168 -193 0
-263 -182 -264 -265 -168 -193 -262 -220 0
-263 -182 -264 -265 -168 -193 -220 0
-220 -262 -193 -168 -265 -182 0
-220 -262 -193 -168 -265 -182 -264 -263 0
-220 -262 -193 -168 -265 -182 -263 0
-220 -262 -193 -168 -265 -264 -263 0
-220 -262 -193 -168 -265 -264 -263 -182 0
-220 -262 -193 -168 -265 -264 -182 0
-220 -262 -193 -168 -265 -264 -182 -263 0
-220 -262 -168 -265 -182 0
-220 -262 -168 -265 -182 -264 -263 0
-220 -262 -168 -265 -182 -263 0
-220 -262 -168 -265 -264 -263 0
-220 -262 -168 -265 -264 -263 -182 0
-220 -262 -168 -265 -264 -182 0
-220 -262 -168 -265 -264 -182 -263 0
-220 -263 -264 -182 -265 -168 -193 0
-220 -263 -264 -182 -265 -168 -262 -193 0
-220 -263 -264 -265 -168 -193 0
-220 -263 -264 -265 -168 -262 -193 0
-220 -263 -182 -265 -168 -193 0
-220 -263 -182 -265 -168 -262 -193 0
-220 -263 -182 -264 -265 -168 -193 0
-220 -263 -182 -264 -265 -168 -262 -193 0
-220 -251 -193 -168 -265 -182 0
-220 -251 -193 -168 -265 -264 -182 0
-220 -193 -262 -168 -265 -182 0
-220 -193 -262 -168 -265 -182 -264 -263 0
-220 -193 -262 -168 -265 -182 -263 0
-220 -193 -262 -168 -265 -264 -263 0
-220 -193 -262 -168 -265 -264 -263 -182 0
-220 -193 -262 -168 -265 -264 -182 0
-220 -193 -262 -168 -265 -264 -182 -263 0
-220 -193 -168 -265 -182 0
-220 -193 -168 -265 -182 -264 -263 0
-220 -193 -168 -265 -182 -263 0
-220 -193 -168 -265 -264 -263 0
-220 -193 -168 -265 -264 -263 -182 0
-220 -193 -168 -265 -264 -182 0
-220 -193 -168 -265 -264 -182 -263 0
-216 -193 -251 -259 0
-220 -263 -264 -265 -168 -262 0
-220 -263 -264 -265 -168 -262 -193 0
-220 -263 -264 -265 -168 -193 0
-220 -263 -264 -265 -168 -193 -262 0
-220 -263 -264 -182 -265 -168 -262 0
-220 -263 -264 -182 -265 -168 -262 -193 0
-220 -263 -264 -182 -265 -168 -193 0
-220 -263 -264 -182 -265 -168 -193 -262 0
-220 -263 -182 -265 -168 -262 0
-220 -263 -182 -265 -168 -262 -193 0
-220 -263 -182 -265 -168 -193 0
-220 -263 -182 -265 -168 -193 -262 0
-220 -263 -182 -264 -265 -168 -262 0
-220 -263 -182 -264 -265 -168 -262 -193 0
-220 -263 -182 -264 -265 -168 -193 0
-220 -263 -182 -264 -265 -168 -193 -262 0
-268 -262 -220 -263 -264 -265 0
-268 -262 -220 -263 -264 -265 -168 0
-268 -262 -220 -263 -264 -182 -265 0
-268 -262 -220 -263 -264 -182 -265 -168 0
-268 -262 -220 -263 -182 -265 0
-268 -262 -220 -263 -182 -265 -175 0
-268 -262 -220 -263 -182 -265 -168 0
-268 -262 -220 -263 -182 -264 -265 0
-268 -262 -220 -263 -182 -264 -265 -168 0
-268 -262 -220 -263 -182 -175 0
-268 -262 -220 -263 -182 -175 -265 0
-268 -262 -193 -220 -263 -264 -265 0
-268 -262 -193 -220 -263 -264 -265 -168 0
-268 -262 -193 -220 -263 -264 -182 -265 0
-268 -262 -193 -220 -263 -182 -265 0
-268 -262 -193 -220 -263 -182 -265 -175 0
-268 -262 -193 -220 -263 -182 -265 -168 0
-268 -262 -193 -220 -263 -182 -264 -265 0
-268 -262 -193 -220 -263 -182 -175 0
-268 -262 -193 -220 -263 -182 -175 -265 0
-268 -262 -168 -193 -220 -263 -264 -265 0
-268 -262 -168 -193 -220 -263 -182 -265 0
-263 -220 -262 -193 -168 -265 -182 0
-263 -220 -262 -193 -168 -265 -182 -264 0
-263 -220 -262 -193 -168 -265 -264 0
-263 -220 -262 -193 -168 -265 -264 -182 0
-263 -220 -262 -168 -265 -182 0
-263 -220 -262 -168 -265 -182 -264 0
-263 -220 -262 -168 -265 -264 0
-263 -220 -262 -168 -265 -264 -182 0
-263 -220 -193 -262 -168 -265 -182 0
-263 -220 -193 -262 -168 -265 -182 -264 0
-263 -220 -193 -262 -168 -265 -264 0
-263 -220 -193 -262 -168 -265 -264 -182 0
-263 -220 -193 -168 -265 -182 0
-263 -220 -193 -168 -265 -182 -264 0
-263 -220 -193 -168 -265 -264 0
-263 -220 -193 -168 -265 -264 -182 0
-182 -263 -220 -262 -193 -168 0
-182 -263 -220 -262 -193 -168 -265 0
-182 -263 -220 -262 -193 -168 -265 -264 0
-182 -263 -220 -262 -168 0
-182 -263 -220 -262 -168 -265 0
-182 -263 -220 -262 -168 -265 -264 0
-182 -263 -220 -193 -262 -168 0
-182 -263 -220 -193 -262 -168 -265 0
-182 -263 -220 -193 -262 -168 -265 -264 0
-182 -263 -220 -193 -168 0
-182 -263 -220 -193 -168 -265 0
-182 -263 -220 -193 -168 -265 -264 0
-182 -265 -264 -263 -220 -262 -193 -168 0
-182 -265 -264 -263 -220 -262 -168 0
-182 -265 -264 -263 -220 -193 -262 -168 0
-182 -265 -264 -263 -220 -193 -168 0
-182 -265 -168 -193 -220 -263 -264 0
-182 -265 -168 -193 -262 -220 -263 -264 0
-182 -265 -168 -262 -220 -263 -264 0
-182 -265 -168 -262 -193 -220 -263 -264 0
-182 -264 -263 -220 -262 -193 -168 0
-182 -264 -263 -220 -262 -193 -168 -265 0
-182 -264 -263 -220 -262 -168 0
-182 -264 -263 -220 -262 -168 -265 0
-182 -264 -263 -220 -193 -262 -168 0
-182 -264 -263 -220 -193 -262 -168 -265 0
-182 -264 -263 -220 -193 -168 0
-182 -264 -263 -220 -193 -168 -265 0
-193 -220 -263 -264 -265 -168 0
-193 -220 -263 -264 -265 -168 -262 0
-193 -220 -263 -264 -182 -265 -168 0
-193 -220 -263 -264 -182 -265 -168 -262 0
-193 -220 -263 -182 -265 -175 0
-193 -220 -263 -182 -265 -168 0
-193 -220 -263 -182 -265 -168 -262 0
-193 -220 -263 -182 -264 -265 -168 0
-193 -220 -263 -182 -264 -265 -168 -262 0
-193 -220 -263 -182 -175 0
-193 -168 -265 -182 -263 -220 -262 0
-193 -168 -265 -182 -264 -263 -220 -262 0
-193 -168 -265 -264 -263 -220 -262 0
-193 -168 -265 -264 -182 -263 -220 -262 0
-193 -262 -220 -263 -264 -265 -168 0
-193 -262 -220 -263 -264 -182 -265 -168 0
-193 -262 -220 -263 -182 -265 -175 0
-193 -262 -220 -263 -182 -265 -168 0
-193 -262 -220 -263 -182 -264 -265 -168 0
-193 -262 -220 -263 -182 -175 0
-262 -220 -263 -264 -265 -168 0
-262 -220 -263 -264 -182 -265 -168 0
-262 -220 -263 -182 -265 -175 0
-262 -220 -263 -182 -265 -168 0
-262 -220 -263 -182 -264 -265 -168 0
-262 -220 -263 -182 -175 0
-262 -193 -220 -263 -264 -265 -168 0
-262 -193 -220 -263 -264 -182 -265 -168 0
-262 -193 -220 -263 -182 -265 -175 0
-262 -193 -220 -263 -182 -265 -168 0
-262 -193 -220 -263 -182 -264 -265 -168 0
-262 -193 -220 -263 -182 -175 0
-264 -263 -220 -262 -193 -168 -265 0
-264 -263 -220 -262 -168 -265 0
-264 -263 -220 -193 -262 -168 -265 0
-264 -263 -220 -193 -168 -265 0
-264 -182 -263 -220 -262 -193 -168 -265 0
-264 -182 -263 -220 -262 -168 -265 0
-264 -182 -263 -220 -193 -262 -168 -265 0
-264 -182 -263 -220 -193 -168 -265 0
-265 -182 -263 -220 -262 -193 -168 0
-265 -182 -263 -220 -262 -168 0
-265 -182 -263 -220 -193 -262 -168 0
-265 -182 -263 -220 -193 -168 0
-265 -182 -264 -263 -220 -262 -193 -168 0
-265 -182 -264 -263 -220 -262 -168 0
-265 -182 -264 -263 -220 -193 -262 -168 0
-265 -182 -264 -263 -220 -193 -168 0
-265 -264 -263 -220 -262 -193 -168 0
-265 -264 -263 -220 -262 -168 0
-265 -264 -263 -220 -193 -262 -168 0
-265 -264 -263 -220 -193 -168 0
-265 -264 -182 -263 -220 -262 -193 -168 0
-265 -264 -182 -263 -220 -262 -168 0
-265 -264 -182 -263 -220 -193 -262 -168 0
-265 -264 -182 -263 -220 -193 -168 0
-165 -120 -262 -201 -263 -189 -265 0
-165 -120 -262 -201 -263 -189 -265 -269 0
-165 -120 -201 -263 -189 -265 0
-165 -120 -201 -263 -189 -265 -269 0
-165 -138 -265 -189 -263 -201 -262 0
-165 -138 -265 -189 -263 -201 -262 -266 0
-165 -138 -189 -263 -201 -262 0
-165 -138 -189 -263 -201 -262 -266 0
-165 -122 -269 -235 -189 -222 0
-165 -122 -269 -235 -222 0
-165 -265 -189 -222 0
-165 -265 -189 -222 -263 -201 -262 0
-165 -265 -189 -222 -263 -201 -262 -266 0
-165 -265 -189 -222 -251 0
-165 -265 -189 -222 -251 -266 0
-165 -265 -189 -222 -201 -262 0
-165 -265 -189 -222 -201 -262 -266 0
-165 -265 -189 -222 -201 -251 0
-165 -265 -189 -222 -201 -251 -266 0
-165 -265 -189 -263 -201 -120 0
-165 -265 -189 -263 -201 -120 -262 0
-165 -265 -189 -263 -201 -120 -262 -266 0
-165 -265 -189 -263 -201 -222 0
-165 -265 -189 -263 -201 -262 0
-165 -265 -189 -263 -201 -262 -120 0
-165 -265 -189 -263 -201 -262 -266 0
-165 -265 -189 -263 -222 0
-165 -265 -189 -263 -222 -201 -262 0
-165 -265 -189 -263 -222 -201 -262 -266 0
-165 -265 -138 -189 -263 -201 -262 0
-165 -265 -138 -189 -263 -201 -262 -266 0
-165 -262 -201 -222 0
-165 -262 -201 -222 -263 -189 -265 0
-165 -262 -201 -222 -263 -189 -265 -269 0
-165 -262 -201 -222 -235 0
-165 -262 -201 -222 -235 -269 0
-165 -262 -201 -222 -189 -265 0
-165 -262 -201 -222 -189 -265 -269 0
-165 -262 -201 -222 -189 -235 0
-165 -262 -201 -222 -189 -235 -269 0
-165 -262 -201 -263 -189 -138 0
-165 -262 -201 -263 -189 -138 -265 0
-165 -262 -201 -263 -189 -138 -265 -269 0
-165 -262 -201 -263 -189 -222 0
-165 -262 -201 -263 -189 -265 0
-165 -262 -201 -263 -189 -265 -138 0
-165 -262 -201 -263 -189 -265 -269 0
-165 -262 -201 -263 -222 0
-165 -262 -201 -263 -222 -189 -265 0
-165 -262 -201 -263 -222 -189 -265 -269 0
-165 -262 -120 -201 -263 -189 -265 0
-165 -262 -120 -201 -263 -189 -265 -269 0
-165 -140 -266 -251 -201 -222 0
-165 -140 -266 -251 -222 0
-13 -43 270 0
-14 -44 270 0
-15 -45 270 0
-16 -46 270 0
-17 -47 270 0
-18 -48 270 0
-204 -270 -263 -189 -138 0
-204 -270 -263 -189 -138 -165 0
-213 -189 -138 -165 -262 -201 0
-213 -189 -138 -165 -262 -266 0
-213 -189 -138 -165 -140 -266 0
-213 -189 -138 -140 -266 0
-213 -138 -165 -262 -201 0
-213 -138 -165 -262 -266 0
-213 -138 -165 -140 -266 0
-213 -138 -140 -266 0
-122 -165 -138 -189 -263 -201 0
-122 -165 -140 -138 -189 -263 -201 0
-122 -269 -235 -189 -222 0
-122 -269 -235 -189 -222 -201 0
-122 -269 -235 -222 0
-122 -269 -235 -222 -201 0
-265 -165 -120 -262 -201 -263 -189 0
-265 -165 -120 -201 -263 -189 0
-265 -165 -138 -189 -263 -201 -262 -266 0
-265 -165 -262 -201 -222 0
-265 -165 -262 -201 -222 -263 -189 0
-265 -165 -262 -201 -222 -189 0
-265 -165 -262 -201 -263 -189 0
-265 -165 -262 -201 -263 -189 -138 0
-265 -165 -262 -201 -263 -189 -222 0
-265 -165 -262 -201 -263 -222 0
-265 -165 -262 -201 -263 -222 -189 0
-265 -165 -262 -120 -201 -263 -189 0
-265 -189 -222 -263 -201 -262 -266 0
-265 -189 -222 -251 -266 0
-265 -189 -222 -201 -262 -266 0
-265 -189 -222 -201 -251 -266 0
-265 -189 -263 -201 -120 -262 -266 0
-265 -189 -263 -201 -120 -165 -262 -266 0
-265 -189 -263 -201 -262 -165 -138 0
-265 -189 -263 -201 -262 -266 0
-265 -189 -263 -222 -201 -262 -266 0
-265 -138 -165 -262 -201 -263 -189 0
-265 -138 -189 -263 -201 -262 -266 0
-270 -213 -189 -138 -165 -262 0
-270 -213 -189 -138 -165 -262 -201 0
-270 -213 -189 -138 -165 -140 0
-270 -213 -189 -138 -140 0
-270 -213 -138 -165 -262 0
-270 -213 -138 -165 -262 -201 0
-270 -213 -138 -165 -140 0
-270 -213 -138 -140 0
-270 -263 -189 -265 -165 -120 -262 0
-270 -263 -189 -265 -165 -120 -262 -201 0
-270 -263 -189 -265 -165 -120 -201 0
-270 -263 -189 -265 -165 -120 -201 -262 0
-270 -263 -189 -265 -165 -262 0
-270 -263 -189 -265 -165 -262 -201 0
-270 -263 -189 -265 -165 -262 -120 -201 0
-270 -263 -189 -265 -138 -165 -262 0
-270 -263 -189 -265 -138 -165 -262 -201 0
-270 -263 -189 -138 -165 -262 0
-270 -263 -189 -138 -165 -262 -201 0
-270 -263 -189 -138 -165 -140 0
-270 -263 -189 -138 -265 -165 -262 0
-270 -263 -189 -138 -265 -165 -262 -201 0
-270 -263 -189 -138 -140 0
-270 -263 -201 -222 -189 -265 -165 -262 0
-270 -263 -222 -189 -265 -165 -262 0
-270 -263 -222 -189 -265 -165 -262 -201 0
-269 -265 -165 -138 -189 -263 -201 -262 0
-269 -265 -189 -222 -263 -201 -262 0
-269 -265 -189 -222 -251 0
-269 -265 -189 -222 -201 -262 0
-269 -265 -189 -222 -201 -251 0
-269 -265 -189 -263 -201 -120 -262 0
-269 -265 -189 -263 -201 -120 -165 -262 0
-269 -265 -189 -263 -201 -262 0
-269 -265 -189 -263 -222 -201 -262 0
-269 -265 -138 -189 -263 -201 -262 0
-269 -235 -189 -222 -251 0
-269 -235 -189 -222 -201 -262 0
-269 -235 -189 -222 -201 -251 0
-269 -235 -222 -251 0
-269 -235 -222 -201 -262 0
-269 -235 -222 -201 -251 0
-204 -270 -263 -201 -120 0
-204 -270 -263 -201 -120 -165 0
-214 -201 -120 -165 -122 -269 0
-214 -201 -120 -165 -265 -189 0
-214 -201 -120 -165 -265 -269 0
-214 -201 -120 -122 -269 0
-214 -120 -165 -122 -269 0
-214 -120 -165 -265 -189 0
-214 -120 -165 -265 -269 0
-214 -120 -122 -269 0
-262 -165 -138 -265 -189 -263 -201 0
-262 -165 -138 -189 -263 -201 0
-262 -165 -265 -189 -222 0
-262 -165 -265 -189 -222 -263 -201 0
-262 -165 -265 -189 -222 -201 0
-262 -165 -265 -189 -263 -201 0
-262 -165 -265 -189 -263 -201 -120 0
-262 -165 -265 -189 -263 -201 -222 0
-262 -165 -265 -189 -263 -222 0
-262 -165 -265 -189 -263 -222 -201 0
-262 -165 -265 -138 -189 -263 -201 0
-262 -201 -263 -189 -265 -165 -120 0
-262 -120 -165 -265 -189 -263 -201 0
-140 -165 -120 -201 -263 -189 0
-140 -165 -122 -120 -201 -263 -189 0
-140 -266 -251 -201 -222 0
-140 -266 -251 -201 -222 -189 0
-140 -266 -251 -222 0
-140 -266 -251 -222 -189 0
-120 -165 -122 -269 -235 0
-120 -165 -122 -269 -235 -189 0
-120 -165 -265 -189 0
-120 -165 -265 -189 -263 0
-120 -165 -265 -189 -263 -201 0
-120 -165 -265 -269 -230 0
-120 -122 -269 -235 0
-120 -122 -269 -235 -189 0
-120 -262 -165 -265 -189 0
-120 -262 -165 -265 -189 -263 0
-120 -262 -165 -265 -189 -263 -201 0
-120 -201 -262 -165 -265 -189 0
-120 -201 -262 -165 -265 -189 -263 0
-138 -165 -262 -201 0
-138 -165 -262 -201 -263 0
-138 -165 -262 -201 -263 -189 0
-138 -165 -262 -266 -247 0
-138 -165 -140 -266 -251 0
-138 -165 -140 -266 -251 -201 0
-138 -265 -165 -262 -201 0
-138 -265 -165 -262 -201 -263 0
-138 -265 -165 -262 -201 -263 -189 0
-138 -140 -266 -251 0
-138 -140 -266 -251 -201 0
-138 -189 -265 -165 -262 -201 0
-138 -189 -265 -165 -262 -201 -263 0
-189 -265 -165 -120 -214 -201 -251 0
-189 -265 -165 -120 -262 -201 -263 0
-189 -265 -165 -120 -201 -263 0
-189 -265 -165 -120 -201 -251 0
-189 -265 -165 -262 -201 -222 0
-189 -265 -165 -262 -201 -222 -263 0
-189 -265 -165 -262 -201 -263 0
-189 -265 -165 -262 -201 -263 -222 0
-189 -265 -165 -262 -120 -201 -263 0
-189 -265 -138 -165 -262 -201 -263 0
-189 -138 -165 -262 -201 -263 0
-189 -138 -165 -262 -266 -247 0
-189 -138 -165 -140 -266 -251 0
-189 -138 -265 -165 -262 -201 -263 0
-189 -138 -140 -266 -251 0
-189 -222 -201 -262 -266 -247 0
-214 -270 -213 -189 -138 0
-214 -270 -213 -189 -138 -165 0
-214 -270 -213 -138 0
-214 -270 -213 -138 -165 0
-214 -201 -222 -189 -265 -165 0
-214 -201 -251 -222 -189 -265 -165 0
-263 -189 -265 -165 -120 -262 -201 0
-263 -189 -265 -165 -120 -262 -266 0
-263 -189 -265 -165 -120 -201 0
-263 -189 -265 -165 -120 -201 -262 -266 0
-263 -189 -265 -165 -262 -201 0
-263 -189 -265 -165 -262 -201 -222 0
-263 -189 -265 -165 -262 -120 -201 0
-263 -189 -265 -165 -262 -266 0
-263 -189 -265 -138 -165 -262 -201 0
-263 -189 -265 -138 -165 -262 -266 0
-263 -189 -138 -165 -262 -201 0
-263 -189 -138 -165 -262 -266 0
-263 -189 -138 -165 -140 -266 0
-263 -189 -138 -265 -165 -262 -201 0
-263 -189 -138 -265 -165 -262 -266 0
-263 -189 -138 -140 -266 0
-263 -201 -222 -189 -265 -165 -262 -266 0
-263 -201 -262 -165 -265 -189 -222 0
-263 -222 -189 -265 -165 -262 -201 0
-263 -222 -189 -265 -165 -262 -266 0
-230 -269 -265 -189 -222 0
-230 -269 -265 -189 -222 -201 0
-235 -189 -222 -251 -266 0
-235 -189 -222 -201 -262 -266 0
-235 -189 -222 -201 -251 -266 0
-235 -222 -251 -266 0
-235 -222 -201 -262 -266 0
-235 -222 -201 -251 -266 0
-270 -214 -201 -120 -165 -122 0
-270 -214 -201 -120 -165 -265 0
-270 -214 -201 -120 -165 -265 -189 0
-270 -214 -201 -120 -122 0
-270 -214 -120 -165 -122 0
-270 -214 -120 -165 -265 0
-270 -214 -120 -165 -265 -189 0
-270 -214 -120 -122 0
-270 -263 -201 -262 -165 -138 -265 0
-270 -263 -201 -262 -165 -138 -265 -189 0
-270 -263 -201 -262 -165 -138 -189 0
-270 -263 -201 -262 -165 -138 -189 -265 0
-270 -263 -201 -262 -165 -265 0
-270 -263 -201 -262 -165 -265 -189 0
-270 -263 -201 -262 -165 -265 -138 -189 0
-270 -263 -201 -262 -120 -165 -265 0
-270 -263 -201 -262 -120 -165 -265 -189 0
-270 -263 -201 -120 -165 -122 0
-270 -263 -201 -120 -165 -265 0
-270 -263 -201 -120 -165 -265 -189 0
-270 -263 -201 -120 -122 0
-270 -263 -201 -120 -262 -165 -265 0
-270 -263 -201 -120 -262 -165 -265 -189 0
-270 -263 -189 -222 -201 -262 -165 -265 0
-270 -263 -222 -201 -262 -165 -265 0
-270 -263 -222 -201 -262 -165 -265 -189 0
-201 -262 -165 -138 -213 -189 -235 0
-201 -262 -165 -138 -265 -189 -263 0
-201 -262 -165 -138 -189 -263 0
-201 -262 -165 -138 -189 -235 0
-201 -262 -165 -265 -189 -222 0
-201 -262 -165 -265 -189 -222 -263 0
-201 -262 -165 -265 -189 -263 0
-201 -262 -165 -265 -189 -263 -222 0
-201 -262 -165 -265 -138 -189 -263 0
-201 -262 -120 -165 -265 -189 -263 0
-201 -120 -165 -122 -269 -235 0
-201 -120 -165 -265 -189 -263 0
-201 -120 -165 -265 -269 -230 0
-201 -120 -122 -269 -235 0
-201 -120 -262 -165 -265 -189 -263 0
-120 -214 -270 -213 0
-120 -214 -270 -213 -189 0
-120 -262 -201 -263 -189 0
-120 -262 -201 -263 -189 -265 0
-120 -262 -201 -263 -189 -265 -165 0
-120 -262 -165 -265 -189 -263 -201 0
-120 -201 -214 -270 -213 0
-120 -201 -214 -270 -213 -189 0
-120 -201 -263 -189 0
-120 -201 -263 -189 -265 0
-120 -201 -263 -189 -265 -165 0
-120 -201 -263 -189 -265 -165 -262 0
-120 -165 -262 -201 -263 -189 0
-120 -165 -262 -201 -263 -189 -265 0
-120 -165 -265 -189 -263 -201 0
-120 -165 -265 -189 -263 -201 -262 0
-222 -189 -265 -165 -262 -201 0
-222 -263 -189 -265 -165 -262 -201 0
-222 -201 -262 -266 -247 0
-201 -214 -270 -213 -189 -138 0
-201 -214 -270 -213 -138 0
-201 -263 -189 -265 -165 -120 -262 0
-201 -263 -189 -265 -165 -120 -262 -266 0
-201 -263 -189 -265 -165 -138 0
-201 -263 -189 -265 -165 -262 0
-201 -263 -189 -265 -165 -262 -266 0
-201 -263 -189 -265 -138 0
-201 -263 -189 -265 -138 -165 -262 0
-201 -263 -189 -265 -138 -165 -262 -266 0
-201 -263 -189 -138 0
-201 -263 -189 -138 -165 -262 0
-201 -263 -189 -138 -165 -262 -266 0
-201 -263 -189 -138 -165 -140 0
-201 -263 -189 -138 -165 -140 -266 0
-201 -263 -189 -138 -265 -165 -262 0
-201 -263 -189 -138 -265 -165 -262 -266 0
-201 -263 -189 -138 -140 0
-201 -263 -189 -138 -140 -266 0
-201 -263 -222 -189 -265 -165 -262 0
-201 -263 -222 -189 -265 -165 -262 -266 0
-201 -222 -189 -265 -165 -262 0
-201 -222 -189 -265 -165 -262 -266 0
-201 -222 -263 -189 -265 -165 -262 0
-201 -222 -263 -189 -265 -165 -262 -266 0
-213 -270 -214 -201 -120 -165 0
-213 -270 -214 -120 -165 0
-213 -189 -222 -201 -262 -165 0
-213 -189 -235 -222 -201 -262 -165 0
-263 -201 -262 -165 -138 -265 -189 0
-263 -201 -262 -165 -138 -265 -269 0
-263 -201 -262 -165 -138 -189 0
-263 -201 -262 -165 -138 -189 -265 -269 0
-263 -201 -262 -165 -265 -189 0
-263 -201 -262 -165 -265 -189 -222 0
-263 -201 -262 -165 -265 -269 0
-263 -201 -262 -165 -265 -138 -189 0
-263 -201 -262 -120 -165 -265 -189 0
-263 -201 -262 -120 -165 -265 -269 0
-263 -201 -120 -165 -122 -269 0
-263 -201 -120 -165 -265 -189 0
-263 -201 -120 -165 -265 -269 0
-263 -201 -120 -122 -269 0
-263 -201 -120 -262 -165 -265 -189 0
-263 -201 -120 -262 -165 -265 -269 0
-263 -189 -222 -201 -262 -165 -265 -269 0
-263 -189 -265 -165 -262 -201 -222 0
-263 -222 -201 -262 -165 -265 -189 0
-263 -222 -201 -262 -165 -265 -269 0
-138 -265 -165 -262 -201 -263 -189 0
-138 -265 -189 -263 -201 -262 0
-138 -265 -189 -263 -201 -262 -165 0
-138 -165 -262 -201 -263 -189 0
-138 -165 -262 -201 -263 -189 -265 0
-138 -165 -265 -189 -263 -201 -262 0
-138 -189 -263 -201 -262 0
-138 -189 -263 -201 -262 -165 0
-138 -189 -263 -201 -262 -165 -265 0
-222 -201 -262 -165 -265 -189 0
-222 -263 -201 -262 -165 -265 -189 0
-165 -120 -262 -201 -263 -189 -265 0
-165 -120 -201 -263 -189 -265 0
-165 -138 -265 -189 -263 -201 -262 0
-165 -138 -189 -263 -201 -262 0
-165 -262 -120 -201 -263 -189 -265 0
-165 -262 -201 -263 -189 -265 0
-165 -262 -201 -263 -189 -138 -265 0
-165 -262 -201 -263 -222 -189 -265 0
-165 -262 -201 -222 -189 -265 0
-165 -262 -201 -222 -263 -189 -265 0
-165 -265 -138 -189 -263 -201 -262 0
-165 -265 -189 -263 -201 -262 0
-165 -265 -189 -263 -201 -120 -262 0
-165 -265 -189 -263 -222 -201 -262 0
-165 -265 -189 -222 -201 -262 0
-165 -265 -189 -222 -263 -201 -262 0
-122 -120 -201 -263 -189 0
-122 -165 -120 -201 -263 -189 0
-189 -263 -201 -262 -165 -138 -265 0
-189 -263 -201 -262 -165 -138 -265 -269 0
-189 -263 -201 -262 -165 -265 0
-189 -263 -201 -262 -165 -265 -269 0
-189 -263 -201 -262 -120 -165 -265 0
-189 -263 -201 -262 -120 -165 -265 -269 0
-189 -263 -201 -120 -165 -122 -269 0
-189 -263 -201 -120 -165 -265 0
-189 -263 -201 -120 -165 -265 -269 0
-189 -263 -201 -120 -122 -269 0
-189 -263 -201 -120 -262 -165 -265 0
-189 -263 -201 -120 -262 -165 -265 -269 0
-189 -263 -222 -201 -262 -165 -265 0
-189 -263 -222 -201 -262 -165 -265 -269 0
-189 -222 -201 -262 -165 -265 0
-189 -222 -201 -262 -165 -265 -269 0
-189 -222 -263 -201 -262 -165 -265 0
-189 -222 -263 -201 -262 -165 -265 -269 0
-148 -213 -138 -142 0
-177 -122 -269 -231 0
-202 -138 -140 -218 0
-184 -269 -235 -236 0
-143 -270 -213 -135 0
-240 -222 -251 -259 0
-207 -122 -181 -232 0
-1 -97 271 0
-2 -98 271 0
-3 -99 271 0
-4 -100 271 0
-5 -101 271 0
-6 -102 271 0
-136 -213 -271 -145 0
-117 -214 -270 -129 0
-238 -235 -222 -257 0
-131 -214 -180 -212 0
-224 -235 -267 -242 0
-209 -180 -213 -148 0
-225 -267 -251 -241 0
-268 -122 -181 -211 -263 0
-268 -122 -181 -211 -263 -220 0
-268 -122 -181 -211 -235 0
-268 -122 -181 -235 0
-268 -122 -168 -181 -211 -263 0
-268 -122 -168 -181 -211 -263 -220 0
-268 -122 -168 -181 -211 -235 0
-268 -122 -168 -181 -235 0
-268 -262 -193 -168 -265 -211 -263 0
-268 -262 -193 -168 -265 -211 -263 -220 0
-268 -262 -168 -265 -181 -211 -263 0
-268 -262 -168 -265 -181 -211 -263 -220 0
-268 -262 -168 -265 -211 -263 0
-268 -262 -168 -265 -211 -263 -180 -220 0
-268 -262 -168 -265 -211 -263 -220 0
-268 -262 -168 -265 -211 -180 -220 0
-268 -262 -168 -265 -211 -180 -220 -263 0
-268 -262 -168 -265 -211 -180 -263 0
-268 -262 -168 -265 -211 -180 -263 -220 0
-268 -262 -168 -181 -265 -211 -263 0
-268 -262 -168 -181 -265 -211 -263 -220 0
-268 -262 -168 -181 -211 -263 0
-268 -262 -168 -181 -211 -263 -220 0
-268 -262 -168 -181 -211 -235 0
-268 -262 -168 -181 -235 0
-268 -262 -220 -193 -168 -265 -211 -263 0
-271 -265 -181 -168 -262 -220 -263 0
-271 -265 -181 -168 -262 -220 -263 -211 0
-271 -265 -211 -181 -168 -262 -220 -263 0
-271 -265 -168 -262 -193 -220 -263 0
-271 -265 -168 -262 -193 -220 -263 -211 0
-271 -265 -168 -262 -220 -263 0
-271 -265 -168 -262 -220 -263 -180 -211 0
-271 -265 -168 -262 -220 -263 -211 0
-271 -265 -168 -262 -220 -180 -211 0
-271 -265 -168 -262 -220 -180 -211 -263 0
-271 -265 -168 -262 -220 -180 -263 0
-271 -265 -168 -262 -220 -180 -263 -211 0
-271 -265 -168 -193 -262 -220 -263 0
-271 -265 -168 -193 -262 -220 -263 -211 0
-271 -265 -168 -193 -220 -263 0
-271 -265 -168 -193 -220 -263 -211 0
-271 -265 -168 -193 -220 -251 0
-271 -265 -168 -193 -251 0
-271 -140 -193 -220 -263 0
-271 -140 -193 -220 -263 -211 0
-271 -140 -193 -220 -251 0
-271 -140 -193 -251 0
-271 -140 -168 -193 -220 -263 0
-271 -140 -168 -193 -220 -263 -211 0
-271 -140 -168 -193 -220 -251 0
-271 -140 -168 -193 -251 0
-119 -268 -262 -168 -181 0
-119 -268 -262 -168 -181 -211 0
-213 -271 -140 -193 0
-213 -271 -140 -193 -220 0
-213 -271 -140 -168 -193 0
-213 -271 -140 -168 -193 -220 0
-213 -211 -235 -181 -168 -262 -220 0
-213 -211 -181 -168 -262 -220 0
-122 -181 -211 -263 -267 0
-122 -181 -211 -263 -220 0
-122 -181 -211 -235 -267 0
-122 -181 -235 -267 0
-122 -168 -181 -211 -263 -267 0
-122 -168 -181 -211 -263 -220 0
-122 -168 -181 -211 -235 -267 0
-122 -168 -181 -235 -267 0
-265 -181 -211 -263 -220 -262 -168 0
-265 -181 -168 -262 -220 -263 -267 0
-265 -181 -168 -262 -220 -263 -211 0
-265 -211 -263 -180 -220 -262 -168 0
-265 -211 -263 -220 -262 -193 0
-265 -211 -263 -220 -262 -193 -168 0
-265 -211 -263 -220 -262 -168 0
-265 -211 -263 -220 -262 -168 -181 0
-265 -211 -263 -220 -262 -168 -193 0
-265 -211 -263 -220 -193 0
-265 -211 -263 -220 -193 -168 0
-265 -211 -263 -220 -193 -262 -168 0
-265 -211 -180 -220 -262 -168 0
-265 -211 -180 -263 -220 -262 -168 0
-265 -211 -181 -168 -262 -220 -263 -267 0
-265 -168 -262 -193 -220 -263 -267 0
-265 -168 -262 -193 -220 -263 -211 0
-265 -168 -262 -220 -263 -180 -211 0
-265 -168 -262 -220 -263 -267 0
-265 -168 -262 -220 -263 -211 0
-265 -168 -262 -220 -263 -211 -181 0
-265 -168 -262 -220 -180 -211 0
-265 -168 -262 -220 -180 -211 -263 -267 0
-265 -168 -262 -220 -180 -263 -267 0
-265 -168 -262 -220 -180 -263 -211 0
-265 -168 -193 -262 -220 -263 -267 0
-265 -168 -193 -262 -220 -263 -211 0
-265 -168 -193 -220 -263 -267 0
-265 -168 -193 -220 -263 -211 0
-265 -168 -193 -220 -251 -267 0
-265 -168 -193 -251 -267 0
-211 -213 -271 -140 -193 0
-211 -213 -271 -140 -168 -193 0
-211 -265 -181 -168 -262 -220 -263 0
-211 -265 -181 -168 -262 -220 -263 -267 0
-211 -265 -168 -262 -193 0
-211 -265 -168 -262 -193 -220 -263 0
-211 -265 -168 -262 -193 -220 -263 -267 0
-211 -265 -168 -262 -220 -263 0
-211 -265 -168 -262 -220 -263 -180 0
-211 -265 -168 -262 -220 -263 -267 0
-211 -265 -168 -262 -220 -180 0
-211 -265 -168 -262 -220 -180 -263 0
-211 -265 -168 -262 -220 -180 -263 -267 0
-211 -265 -168 -262 -220 -193 0
-211 -265 -168 -193 0
-211 -265 -168 -193 -262 -220 -263 0
-211 -265 -168 -193 -262 -220 -263 -267 0
-211 -265 -168 -193 -220 -263 0
-211 -265 -168 -193 -220 -263 -267 0
-211 -265 -168 -193 -220 -251 0
-211 -265 -168 -193 -220 -251 -267 0
-211 -265 -168 -193 -251 0
-211 -265 -168 -193 -251 -267 0
-211 -263 -220 -262 -193 0
-211 -263 -220 -262 -168 -181 0
-211 -263 -220 -262 -168 -193 0
-211 -263 -220 -262 -168 -265 -181 0
-211 -263 -220 -193 0
-211 -263 -220 -193 -168 -140 0
-211 -263 -220 -193 -140 0
-211 -235 -267 -251 -220 -193 0
-211 -235 -267 -251 -193 0
-211 -181 -265 -168 -262 -220 -263 0
-211 -181 -265 -168 -262 -220 -263 -267 0
-211 -181 -168 -262 -220 -263 0
-211 -181 -168 -262 -220 -263 -267 0
-214 -268 -122 -181 0
-214 -268 -122 -181 -211 0
-214 -268 -122 -168 -181 0
-214 -268 -122 -168 -181 -211 0
-214 -220 -251 -193 -168 -265 -211 0
-214 -220 -193 -168 -265 -211 0
-137 -271 -265 -168 -193 0
-137 -271 -265 -168 -193 -220 0
-262 -193 -168 -265 -211 -263 -267 0
-262 -193 -168 -265 -211 -263 -220 0
-262 -193 -220 -263 -211 -265 -168 0
-262 -168 -265 -181 -211 -263 -267 0
-262 -168 -265 -181 -211 -263 -220 0
-262 -168 -265 -211 -263 -180 -220 0
-262 -168 -265 -211 -263 -267 0
-262 -168 -265 -211 -263 -220 0
-262 -168 -265 -211 -263 -220 -193 0
-262 -168 -265 -211 -180 -220 0
-262 -168 -265 -211 -180 -220 -263 -267 0
-262 -168 -265 -211 -180 -263 -267 0
-262 -168 -265 -211 -180 -263 -220 0
-262 -168 -181 -265 -211 -263 -267 0
-262 -168 -181 -265 -211 -263 -220 0
-262 -168 -181 -211 -263 -267 0
-262 -168 -181 -211 -263 -220 0
-262 -168 -181 -211 -235 -267 0
-262 -168 -181 -235 -267 0
-262 -220 -263 -180 -211 -265 -168 0
-262 -220 -263 -211 -265 -181 0
-262 -220 -263 -211 -265 -181 -168 0
-262 -220 -263 -211 -265 -168 0
-262 -220 -263 -211 -265 -168 -181 0
-262 -220 -263 -211 -265 -168 -193 0
-262 -220 -263 -211 -181 0
-262 -220 -263 -211 -181 -168 0
-262 -220 -263 -211 -181 -265 -168 0
-262 -220 -180 -211 -265 -168 0
-262 -220 -180 -263 -211 -265 -168 0
-262 -220 -193 -168 -265 -211 -263 -267 0
-140 -193 -220 -263 -267 0
-140 -193 -220 -251 -267 0
-140 -193 -251 -267 0
-140 -168 -193 -220 -263 -267 0
-140 -168 -193 -220 -251 -267 0
-140 -168 -193 -251 -267 0
-168 -265 -211 -263 -220 -262 -193 0
-168 -265 -211 -263 -220 -193 0
-168 -265 -211 -180 -220 -251 0
-168 -265 -211 -180 -214 -220 -251 0
-168 -262 -220 -263 -211 -265 -181 0
-168 -262 -220 -263 -211 -181 0
-168 -262 -220 -180 -211 -235 0
-168 -262 -220 -180 -213 -211 -235 0
-168 -181 -211 -263 -267 -256 0
-168 -181 -211 -235 -267 -251 0
-168 -181 -235 -267 -251 0
-168 -193 -220 -263 -267 -256 0
-168 -193 -220 -251 -267 -235 0
-168 -193 -251 -267 -235 0
-180 -213 -271 -140 0
-180 -213 -271 -140 -168 0
-180 -211 -213 -271 -140 0
-180 -211 -213 -271 -140 -168 0
-180 -211 -265 -271 -137 0
-180 -211 -265 -168 0
-180 -211 -265 -168 -262 0
-180 -211 -265 -168 -262 -220 0
-180 -211 -265 -168 -262 -220 -263 0
-180 -220 -263 -211 -265 -168 0
-180 -220 -263 -211 -265 -168 -262 0
-180 -220 -262 -168 -265 -211 -263 0
-180 -263 -211 -265 -168 0
-180 -263 -211 -265 -168 -262 0
-180 -263 -211 -265 -168 -262 -220 0
-181 -265 -211 -263 -220 0
-181 -211 -263 -267 -256 0
-181 -211 -263 -220 0
-181 -211 -235 -267 -251 0
-181 -211 -235 -267 -251 -220 0
-181 -168 -265 -211 -263 -220 0
-181 -235 -267 -251 0
-181 -235 -267 -251 -220 0
-119 -268 -262 -220 -180 0
-119 -268 -262 -220 -180 -211 0
-214 -180 -213 -271 0
-214 -180 -211 -213 -271 0
-214 -180 -211 -265 -271 0
-214 -180 -211 -265 -168 0
-214 -220 -180 -213 -271 0
-214 -220 -180 -211 -213 -271 0
-214 -220 -180 -211 -265 -271 0
-214 -220 -180 -211 -265 -168 0
-263 -211 -265 -181 -168 -262 -220 0
-263 -211 -265 -168 -262 -193 0
-263 -211 -265 -168 -262 -193 -220 0
-263 -211 -265 -168 -262 -220 0
-263 -211 -265 -168 -262 -220 -193 0
-263 -211 -265 -168 -193 0
-263 -211 -265 -168 -193 -262 -220 0
-263 -211 -265 -168 -193 -220 0
-263 -211 -181 -265 -168 -262 -220 0
-263 -211 -181 -168 -262 -220 0
-263 -180 -211 -265 -168 -262 -220 0
-235 -267 -251 -220 -193 0
-235 -267 -251 -193 0
-220 -214 -268 -122 -181 0
-220 -214 -268 -122 -168 -181 0
-220 -262 -193 -168 -265 -211 -263 0
-220 -262 -193 -168 -265 -211 -263 -267 0
-220 -262 -168 -265 -181 0
-220 -262 -168 -265 -181 -211 -263 0
-220 -262 -168 -265 -181 -211 -263 -267 0
-220 -262 -168 -265 -211 -263 0
-220 -262 -168 -265 -211 -263 -180 0
-220 -262 -168 -265 -211 -263 -267 0
-220 -262 -168 -265 -211 -180 0
-220 -262 -168 -265 -211 -180 -263 0
-220 -262 -168 -265 -211 -180 -263 -267 0
-220 -262 -168 -265 -211 -181 0
-220 -262 -168 -181 0
-220 -262 -168 -181 -265 -211 -263 0
-220 -262 -168 -181 -265 -211 -263 -267 0
-220 -262 -168 -181 -211 -263 0
-220 -262 -168 -181 -211 -263 -267 0
-220 -262 -168 -181 -211 -235 0
-220 -262 -168 -181 -211 -235 -267 0
-220 -262 -168 -181 -235 0
-220 -262 -168 -181 -235 -267 0
-220 -263 -211 -265 -168 -193 0
-220 -263 -211 -265 -168 -262 -193 0
-220 -193 -262 -168 -265 -211 -263 0
-220 -193 -262 -168 -265 -211 -263 -267 0
-220 -193 -168 -265 -211 -263 0
-220 -193 -168 -265 -211 -263 -267 0
-180 -214 -268 -122 0
-180 -214 -268 -122 -168 0
-180 -220 -214 -268 -122 0
-180 -220 -214 -268 -122 -168 0
-180 -220 -262 -168 0
-180 -220 -262 -168 -265 0
-180 -220 -262 -168 -265 -211 0
-180 -220 -262 -168 -265 -211 -263 0
-180 -211 -263 -220 -262 -168 0
-180 -211 -263 -220 -262 -168 -265 0
-180 -211 -265 -168 -262 -220 -263 0
-180 -263 -220 -262 -168 0
-180 -263 -220 -262 -168 -265 0
-180 -263 -220 -262 -168 -265 -211 0
-193 -220 -263 -267 -256 0
-220 -180 -213 -271 -140 0
-220 -180 -211 -213 -271 -140 0
-220 -180 -211 -265 -271 -137 0
-220 -180 -211 -265 -168 -262 0
-220 -180 -263 -211 -265 -168 -262 0
-220 -263 -211 -265 -181 -168 -262 0
-220 -263 -211 -265 -168 -262 0
-220 -263 -211 -265 -168 -262 -193 0
-220 -263 -211 -265 -168 -193 0
-220 -263 -211 -265 -168 -193 -262 0
-220 -263 -211 -181 -122 -168 -140 0
-220 -263 -211 -181 -265 -168 -262 0
-220 -263 -211 -181 -168 -262 0
-220 -263 -211 -181 -168 -140 0
-220 -263 -180 -211 -265 -168 -262 0
-268 -214 -180 -213 0
-268 -214 -180 -211 -213 0
-268 -214 -180 -211 -265 0
-268 -214 -180 -211 -265 -168 0
-268 -214 -220 -180 -213 0
-268 -214 -220 -180 -211 -213 0
-268 -214 -220 -180 -211 -265 0
-268 -214 -220 -180 -211 -265 -168 0
-268 -262 -220 -180 -213 0
-268 -262 -220 -180 -211 -213 0
-268 -262 -220 -180 -211 -265 0
-268 -262 -220 -180 -211 -265 -168 0
-268 -262 -220 -180 -263 -211 -265 0
-268 -262 -220 -180 -263 -211 -265 -168 0
-268 -262 -220 -263 -211 -265 0
-268 -262 -220 -263 -211 -265 -181 -168 0
-268 -262 -220 -263 -211 -265 -168 0
-268 -262 -220 -263 -211 -181 -265 0
-268 -262 -220 -263 -211 -181 -265 -168 0
-268 -262 -220 -263 -211 -181 -168 0
-268 -262 -220 -263 -211 -181 -168 -265 0
-268 -262 -220 -263 -180 -211 -265 0
-268 -262 -220 -263 -180 -211 -265 -168 0
-268 -262 -193 -220 -263 -211 -265 0
-268 -262 -193 -220 -263 -211 -265 -168 0
-268 -262 -168 -193 -220 -263 -211 -265 0
-213 -180 -220 -262 -168 0
-213 -211 -180 -220 -262 -168 0
-263 -220 -262 -193 -168 -265 -211 0
-263 -220 -262 -168 -265 -181 0
-263 -220 -262 -168 -265 -181 -211 0
-263 -220 -262 -168 -265 -211 0
-263 -220 -262 -168 -265 -211 -181 0
-263 -220 -262 -168 -181 0
-263 -220 -262 -168 -181 -265 -211 0
-263 -220 -262 -168 -181 -211 0
-263 -220 -193 -262 -168 -265 -211 0
-263 -220 -193 -168 -265 -211 0
-263 -180 -220 -262 -168 -265 -211 0
-211 -180 -214 -268 -122 0
-211 -180 -220 -214 -268 -122 0
-211 -180 -220 -262 -168 -265 0
-211 -180 -263 -220 -262 -168 -265 0
-211 -263 -220 -262 -193 -168 -265 0
-211 -263 -220 -262 -168 -265 0
-211 -263 -220 -262 -168 -265 -181 0
-211 -263 -220 -262 -168 -181 0
-211 -263 -220 -262 -168 -181 -265 0
-211 -263 -220 -193 -262 -168 -265 0
-211 -263 -220 -193 -140 -168 -122 0
-211 -263 -220 -193 -168 -122 0
-211 -263 -220 -193 -168 -265 0
-211 -263 -180 -220 -262 -168 -265 0
-181 -211 -263 -220 -262 -168 0
-181 -211 -263 -220 -262 -168 -265 0
-181 -168 -262 -220 -263 -211 -265 0
-181 -265 -211 -263 -220 -262 -168 0
-193 -220 -263 -211 -265 -168 0
-193 -220 -263 -211 -265 -168 -262 0
-193 -168 -265 -211 -263 -220 -262 0
-193 -262 -220 -263 -211 -265 -168 0
-262 -220 -180 -213 -271 0
-262 -220 -180 -211 -213 -271 0
-262 -220 -180 -211 -265 -271 0
-262 -220 -180 -211 -265 -168 0
-262 -220 -180 -263 -211 -265 -271 0
-262 -220 -180 -263 -211 -265 -168 0
-262 -220 -263 -211 -265 -271 0
-262 -220 -263 -211 -265 -181 -168 0
-262 -220 -263 -211 -265 -168 0
-262 -220 -263 -211 -181 -265 -271 0
-262 -220 -263 -211 -181 -265 -168 0
-262 -220 -263 -211 -181 -168 0
-262 -220 -263 -211 -181 -168 -265 -271 0
-262 -220 -263 -180 -211 -265 -271 0
-262 -220 -263 -180 -211 -265 -168 0
-262 -193 -220 -263 -211 -265 -271 0
-262 -193 -220 -263 -211 -265 -168 0
-262 -168 -193 -220 -263 -211 -265 -271 0
-271 -213 -180 -220 -262 -168 0
-271 -213 -211 -180 -220 -262 -168 0
-271 -265 -211 -180 -220 -262 -168 0
-271 -265 -211 -180 -263 -220 -262 -168 0
-271 -265 -211 -263 -220 -262 -193 -168 0
-271 -265 -211 -263 -220 -262 -168 0
-271 -265 -211 -263 -220 -193 -262 -168 0
-271 -265 -211 -263 -220 -193 -168 0
-271 -265 -211 -263 -180 -220 -262 -168 0
-271 -265 -181 -211 -263 -220 -262 -168 0
-265 -211 -180 -220 -262 -168 0
-265 -211 -180 -263 -220 -262 -168 0
-265 -211 -263 -220 -262 -193 -168 0
-265 -211 -263 -220 -262 -168 0
-265 -211 -263 -220 -193 -262 -168 0
-265 -211 -263 -220 -193 -168 0
-265 -211 -263 -180 -220 -262 -168 0
-265 -181 -211 -263 -220 -262 -168 0
-206 -181 -235 -238 0
-146 -271 -140 -215 0
