c nonrepetitive tri hex:3 colours 7, unsat core of tri_hex3_c7.cnf plus all structural clauses
p cnf 925 22121
1 2 3 4 5 6 7 0
-2 -1 0
-3 -1 0
-4 -1 0
-5 -1 0
-6 -1 0
-7 -1 0
-3 -2 0
-4 -2 0
-5 -2 0
-6 -2 0
-7 -2 0
-4 -3 0
-5 -3 0
-6 -3 0
-7 -3 0
-5 -4 0
-6 -4 0
-7 -4 0
-6 -5 0
-7 -5 0
-7 -6 0
8 9 10 11 12 13 14 0
-9 -8 0
-10 -8 0
-11 -8 0
-12 -8 0
-13 -8 0
-14 -8 0
-10 -9 0
-11 -9 0
-12 -9 0
-13 -9 0
-14 -9 0
-11 -10 0
-12 -10 0
-13 -10 0
-14 -10 0
-12 -11 0
-13 -11 0
-14 -11 0
-13 -12 0
-14 -12 0
-14 -13 0
15 16 17 18 19 20 21 0
-16 -15 0
-17 -15 0
-18 -15 0
-19 -15 0
-20 -15 0
-21 -15 0
-17 -16 0
-18 -16 0
-19 -16 0
-20 -16 0
-21 -16 0
-18 -17 0
-19 -17 0
-20 -17 0
-21 -17 0
-19 -18 0
-20 -18 0
-21 -18 0
-20 -19 0
-21 -19 0
-21 -20 0
22 23 24 25 26 27 28 0
-23 -22 0
-24 -22 0
-25 -22 0
-26 -22 0
-27 -22 0
-28 -22 0
-24 -23 0
-25 -23 0
-26 -23 0
-27 -23 0
-28 -23 0
-25 -24 0
-26 -24 0
-27 -24 0
-28 -24 0
-26 -25 0
-27 -25 0
-28 -25 0
-27 -26 0
-28 -26 0
-28 -27 0
29 30 31 32 33 34 35 0
-30 -29 0
-31 -29 0
-32 -29 0
-33 -29 0
-34 -29 0
-35 -29 0
-31 -30 0
-32 -30 0
-33 -30 0
-34 -30 0
-35 -30 0
-32 -31 0
-33 -31 0
-34 -31 0
-35 -31 0
-33 -32 0
-34 -32 0
-35 -32 0
-34 -33 0
-35 -33 0
-35 -34 0
36 37 38 39 40 41 42 0
-37 -36 0
-38 -36 0
-39 -36 0
-40 -36 0
-41 -36 0
-42 -36 0
-38 -37 0
-39 -37 0
-40 -37 0
-41 -37 0
-42 -37 0
-39 -38 0
-40 -38 0
-41 -38 0
-42 -38 0
-40 -39 0
-41 -39 0
-42 -39 0
-41 -40 0
-42 -40 0
-42 -41 0
43 44 45 46 47 48 49 0
-44 -43 0
-45 -43 0
-46 -43 0
-47 -43 0
-48 -43 0
-49 -43 0
-45 -44 0
-46 -44 0
-47 -44 0
-48 -44 0
-49 -44 0
-46 -45 0
-47 -45 0
-48 -45 0
-49 -45 0
-47 -46 0
-48 -46 0
-49 -46 0
-48 -47 0
-49 -47 0
-49 -48 0
50 51 52 53 54 55 56 0
-51 -50 0
-52 -50 0
-53 -50 0
-54 -50 0
-55 -50 0
-56 -50 0
-52 -51 0
-53 -51 0
-54 -51 0
-55 -51 0
-56 -51 0
-53 -52 0
-54 -52 0
-55 -52 0
-56 -52 0
-54 -53 0
-55 -53 0
-56 -53 0
-55 -54 0
-56 -54 0
-56 -55 0
57 58 59 60 61 62 63 0
-58 -57 0
-59 -57 0
-60 -57 0
-61 -57 0
-62 -57 0
-63 -57 0
-59 -58 0
-60 -58 0
-61 -58 0
-62 -58 0
-63 -58 0
-60 -59 0
-61 -59 0
-62 -59 0
-63 -59 0
-61 -60 0
-62 -60 0
-63 -60 0
-62 -61 0
-63 -61 0
-63 -62 0
64 65 66 67 68 69 70 0
-65 -64 0
-66 -64 0
-67 -64 0
-68 -64 0
-69 -64 0
-70 -64 0
-66 -65 0
-67 -65 0
-68 -65 0
-69 -65 0
-70 -65 0
-67 -66 0
-68 -66 0
-69 -66 0
-70 -66 0
-68 -67 0
-69 -67 0
-70 -67 0
-69 -68 0
-70 -68 0
-70 -69 0
71 72 73 74 75 76 77 0
-72 -71 0
-73 -71 0
-74 -71 0
-75 -71 0
-76 -71 0
-77 -71 0
-73 -72 0
-74 -72 0
-75 -72 0
-76 -72 0
-77 -72 0
-74 -73 0
-75 -73 0
-76 -73 0
-77 -73 0
-75 -74 0
-76 -74 0
-77 -74 0
-76 -75 0
-77 -75 0
-77 -76 0
78 79 80 81 82 83 84 0
-79 -78 0
-80 -78 0
-81 -78 0
-82 -78 0
-83 -78 0
-84 -78 0
-80 -79 0
-81 -79 0
-82 -79 0
-83 -79 0
-84 -79 0
-81 -80 0
-82 -80 0
-83 -80 0
-84 -80 0
-82 -81 0
-83 -81 0
-84 -81 0
-83 -82 0
-84 -82 0
-84 -83 0
85 86 87 88 89 90 91 0
-86 -85 0
-87 -85 0
-88 -85 0
-89 -85 0
-90 -85 0
-91 -85 0
-87 -86 0
-88 -86 0
-89 -86 0
-90 -86 0
-91 -86 0
-88 -87 0
-89 -87 0
-90 -87 0
-91 -87 0
-89 -88 0
-90 -88 0
-91 -88 0
-90 -89 0
-91 -89 0
-91 -90 0
92 93 94 95 96 97 98 0
-93 -92 0
-94 -92 0
-95 -92 0
-96 -92 0
-97 -92 0
-98 -92 0
-94 -93 0
-95 -93 0
-96 -93 0
-97 -93 0
-98 -93 0
-95 -94 0
-96 -94 0
-97 -94 0
-98 -94 0
-96 -95 0
-97 -95 0
-98 -95 0
-97 -96 0
-98 -96 0
-98 -97 0
99 100 101 102 103 104 105 0
-100 -99 0
-101 -99 0
-102 -99 0
-103 -99 0
-104 -99 0
-105 -99 0
-101 -100 0
-102 -100 0
-103 -100 0
-104 -100 0
-105 -100 0
-102 -101 0
-103 -101 0
-104 -101 0
-105 -101 0
-103 -102 0
-104 -102 0
-105 -102 0
-104 -103 0
-105 -103 0
-105 -104 0
106 107 108 109 110 111 112 0
-107 -106 0
-108 -106 0
-109 -106 0
-110 -106 0
-111 -106 0
-112 -106 0
-108 -107 0
-109 -107 0
-110 -107 0
-111 -107 0
-112 -107 0
-109 -108 0
-110 -108 0
-111 -108 0
-112 -108 0
-110 -109 0
-111 -109 0
-112 -109 0
-111 -110 0
-112 -110 0
-112 -111 0
113 114 115 116 117 118 119 0
-114 -113 0
-115 -113 0
-116 -113 0
-117 -113 0
-118 -113 0
-119 -113 0
-115 -114 0
-116 -114 0
-117 -114 0
-118 -114 0
-119 -114 0
-116 -115 0
-117 -115 0
-118 -115 0
-119 -115 0
-117 -116 0
-118 -116 0
-119 -116 0
-118 -117 0
-119 -117 0
-119 -118 0
120 121 122 123 124 125 126 0
-121 -120 0
-122 -120 0
-123 -120 0
-124 -120 0
-125 -120 0
-126 -120 0
-122 -121 0
-123 -121 0
-124 -121 0
-125 -121 0
-126 -121 0
-123 -122 0
-124 -122 0
-125 -122 0
-126 -122 0
-124 -123 0
-125 -123 0
-126 -123 0
-125 -124 0
-126 -124 0
-126 -125 0
127 128 129 130 131 132 133 0
-128 -127 0
-129 -127 0
-130 -127 0
-131 -127 0
-132 -127 0
-133 -127 0
-129 -128 0
-130 -128 0
-131 -128 0
-132 -128 0
-133 -128 0
-130 -129 0
-131 -129 0
-132 -129 0
-133 -129 0
-131 -130 0
-132 -130 0
-133 -130 0
-132 -131 0
-133 -131 0
-133 -132 0
134 135 136 137 138 139 140 0
-135 -134 0
-136 -134 0
-137 -134 0
-138 -134 0
-139 -134 0
-140 -134 0
-136 -135 0
-137 -135 0
-138 -135 0
-139 -135 0
-140 -135 0
-137 -136 0
-138 -136 0
-139 -136 0
-140 -136 0
-138 -137 0
-139 -137 0
-140 -137 0
-139 -138 0
-140 -138 0
-140 -139 0
141 142 143 144 145 146 147 0
-142 -141 0
-143 -141 0
-144 -141 0
-145 -141 0
-146 -141 0
-147 -141 0
-143 -142 0
-144 -142 0
-145 -142 0
-146 -142 0
-147 -142 0
-144 -143 0
-145 -143 0
-146 -143 0
-147 -143 0
-145 -144 0
-146 -144 0
-147 -144 0
-146 -145 0
-147 -145 0
-147 -146 0
148 149 150 151 152 153 154 0
-149 -148 0
-150 -148 0
-151 -148 0
-152 -148 0
-153 -148 0
-154 -148 0
-150 -149 0
-151 -149 0
-152 -149 0
-153 -149 0
-154 -149 0
-151 -150 0
-152 -150 0
-153 -150 0
-154 -150 0
-152 -151 0
-153 -151 0
-154 -151 0
-153 -152 0
-154 -152 0
-154 -153 0
155 156 157 158 159 160 161 0
-156 -155 0
-157 -155 0
-158 -155 0
-159 -155 0
-160 -155 0
-161 -155 0
-157 -156 0
-158 -156 0
-159 -156 0
-160 -156 0
-161 -156 0
-158 -157 0
-159 -157 0
-160 -157 0
-161 -157 0
-159 -158 0
-160 -158 0
-161 -158 0
-160 -159 0
-161 -159 0
-161 -160 0
162 163 164 165 166 167 168 0
-163 -162 0
-164 -162 0
-165 -162 0
-166 -162 0
-167 -162 0
-168 -162 0
-164 -163 0
-165 -163 0
-166 -163 0
-167 -163 0
-168 -163 0
-165 -164 0
-166 -164 0
-167 -164 0
-168 -164 0
-166 -165 0
-167 -165 0
-168 -165 0
-167 -166 0
-168 -166 0
-168 -167 0
169 170 171 172 173 174 175 0
-170 -169 0
-171 -169 0
-172 -169 0
-173 -169 0
-174 -169 0
-175 -169 0
-171 -170 0
-172 -170 0
-173 -170 0
-174 -170 0
-175 -170 0
-172 -171 0
-173 -171 0
-174 -171 0
-175 -171 0
-173 -172 0
-174 -172 0
-175 -172 0
-174 -173 0
-175 -173 0
-175 -174 0
176 177 178 179 180 181 182 0
-177 -176 0
-178 -176 0
-179 -176 0
-180 -176 0
-181 -176 0
-182 -176 0
-178 -177 0
-179 -177 0
-180 -177 0
-181 -177 0
-182 -177 0
-179 -178 0
-180 -178 0
-181 -178 0
-182 -178 0
-180 -179 0
-181 -179 0
-182 -179 0
-181 -180 0
-182 -180 0
-182 -181 0
183 184 185 186 187 188 189 0
-184 -183 0
-185 -183 0
-186 -183 0
-187 -183 0
-188 -183 0
-189 -183 0
-185 -184 0
-186 -184 0
-187 -184 0
-188 -184 0
-189 -184 0
-186 -185 0
-187 -185 0
-188 -185 0
-189 -185 0
-187 -186 0
-188 -186 0
-189 -186 0
-188 -187 0
-189 -187 0
-189 -188 0
190 191 192 193 194 195 196 0
-191 -190 0
-192 -190 0
-193 -190 0
-194 -190 0
-195 -190 0
-196 -190 0
-192 -191 0
-193 -191 0
-194 -191 0
-195 -191 0
-196 -191 0
-193 -192 0
-194 -192 0
-195 -192 0
-196 -192 0
-194 -193 0
-195 -193 0
-196 -193 0
-195 -194 0
-196 -194 0
-196 -195 0
197 198 199 200 201 202 203 0
-198 -197 0
-199 -197 0
-200 -197 0
-201 -197 0
-202 -197 0
-203 -197 0
-199 -198 0
-200 -198 0
-201 -198 0
-202 -198 0
-203 -198 0
-200 -199 0
-201 -199 0
-202 -199 0
-203 -199 0
-201 -200 0
-202 -200 0
-203 -200 0
-202 -201 0
-203 -201 0
-203 -202 0
204 205 206 207 208 209 210 0
-205 -204 0
-206 -204 0
-207 -204 0
-208 -204 0
-209 -204 0
-210 -204 0
-206 -205 0
-207 -205 0
-208 -205 0
-209 -205 0
-210 -205 0
-207 -206 0
-208 -206 0
-209 -206 0
-210 -206 0
-208 -207 0
-209 -207 0
-210 -207 0
-209 -208 0
-210 -208 0
-210 -209 0
211 212 213 214 215 216 217 0
-212 -211 0
-213 -211 0
-214 -211 0
-215 -211 0
-216 -211 0
-217 -211 0
-213 -212 0
-214 -212 0
-215 -212 0
-216 -212 0
-217 -212 0
-214 -213 0
-215 -213 0
-216 -213 0
-217 -213 0
-215 -214 0
-216 -214 0
-217 -214 0
-216 -215 0
-217 -215 0
-217 -216 0
218 219 220 221 222 223 224 0
-219 -218 0
-220 -218 0
-221 -218 0
-222 -218 0
-223 -218 0
-224 -218 0
-220 -219 0
-221 -219 0
-222 -219 0
-223 -219 0
-224 -219 0
-221 -220 0
-222 -220 0
-223 -220 0
-224 -220 0
-222 -221 0
-223 -221 0
-224 -221 0
-223 -222 0
-224 -222 0
-224 -223 0
225 226 227 228 229 230 231 0
-226 -225 0
-227 -225 0
-228 -225 0
-229 -225 0
-230 -225 0
-231 -225 0
-227 -226 0
-228 -226 0
-229 -226 0
-230 -226 0
-231 -226 0
-228 -227 0
-229 -227 0
-230 -227 0
-231 -227 0
-229 -228 0
-230 -228 0
-231 -228 0
-230 -229 0
-231 -229 0
-231 -230 0
232 233 234 235 236 237 238 0
-233 -232 0
-234 -232 0
-235 -232 0
-236 -232 0
-237 -232 0
-238 -232 0
-234 -233 0
-235 -233 0
-236 -233 0
-237 -233 0
-238 -233 0
-235 -234 0
-236 -234 0
-237 -234 0
-238 -234 0
-236 -235 0
-237 -235 0
-238 -235 0
-237 -236 0
-238 -236 0
-238 -237 0
239 240 241 242 243 244 245 0
-240 -239 0
-241 -239 0
-242 -239 0
-243 -239 0
-244 -239 0
-245 -239 0
-241 -240 0
-242 -240 0
-243 -240 0
-244 -240 0
-245 -240 0
-242 -241 0
-243 -241 0
-244 -241 0
-245 -241 0
-243 -242 0
-244 -242 0
-245 -242 0
-244 -243 0
-245 -243 0
-245 -244 0
246 247 248 249 250 251 252 0
-247 -246 0
-248 -246 0
-249 -246 0
-250 -246 0
-251 -246 0
-252 -246 0
-248 -247 0
-249 -247 0
-250 -247 0
-251 -247 0
-252 -247 0
-249 -248 0
-250 -248 0
-251 -248 0
-252 -248 0
-250 -249 0
-251 -249 0
-252 -249 0
-251 -250 0
-252 -250 0
-252 -251 0
253 254 255 256 257 258 259 0
-254 -253 0
-255 -253 0
-256 -253 0
-257 -253 0
-258 -253 0
-259 -253 0
-255 -254 0
-256 -254 0
-257 -254 0
-258 -254 0
-259 -254 0
-256 -255 0
-257 -255 0
-258 -255 0
-259 -255 0
-257 -256 0
-258 -256 0
-259 -256 0
-258 -257 0
-259 -257 0
-259 -258 0
-8 -1 260 0
-9 -2 260 0
-10 -3 260 0
-11 -4 260 0
-12 -5 260 0
-13 -6 260 0
-14 -7 260 0
-43 -36 261 0
-44 -37 261 0
-45 -38 261 0
-46 -39 261 0
-47 -40 261 0
-48 -41 261 0
-49 -42 261 0
-43 -1 262 0
-44 -2 262 0
-45 -3 262 0
-46 -4 262 0
-47 -5 262 0
-48 -6 262 0
-49 -7 262 0
-36 -15 263 0
-37 -16 263 0
-38 -17 263 0
-39 -18 263 0
-40 -19 263 0
-41 -20 263 0
-42 -21 263 0
-50 -8 264 0
-51 -9 264 0
-52 -10 264 0
-53 -11 264 0
-54 -12 264 0
-55 -13 264 0
-56 -14 264 0
-22 -8 265 0
-23 -9 265 0
-24 -10 265 0
-25 -11 265 0
-26 -12 265 0
-27 -13 265 0
-28 -14 265 0
-85 -36 266 0
-86 -37 266 0
-87 -38 266 0
-88 -39 266 0
-89 -40 266 0
-90 -41 266 0
-91 -42 266 0
-78 -8 267 0
-79 -9 267 0
-80 -10 267 0
-81 -11 267 0
-82 -12 267 0
-83 -13 267 0
-84 -14 267 0
-134 -8 268 0
-135 -9 268 0
-136 -10 268 0
-137 -11 268 0
-138 -12 268 0
-139 -13 268 0
-140 -14 268 0
-92 -8 269 0
-93 -9 269 0
-94 -10 269 0
-95 -11 269 0
-96 -12 269 0
-97 -13 269 0
-98 -14 269 0
-127 -8 270 0
-128 -9 270 0
-129 -10 270 0
-130 -11 270 0
-131 -12 270 0
-132 -13 270 0
-133 -14 270 0
-50 -36 271 0
-51 -37 271 0
-52 -38 271 0
-53 -39 271 0
-54 -40 271 0
-55 -41 271 0
-56 -42 271 0
-15 -8 272 0
-16 -9 272 0
-17 -10 272 0
-18 -11 272 0
-19 -12 272 0
-20 -13 272 0
-21 -14 272 0
-57 -8 273 0
-58 -9 273 0
-59 -10 273 0
-60 -11 273 0
-61 -12 273 0
-62 -13 273 0
-63 -14 273 0
-85 -8 274 0
-86 -9 274 0
-87 -10 274 0
-88 -11 274 0
-89 -12 274 0
-90 -13 274 0
-91 -14 274 0
-78 -36 275 0
-79 -37 275 0
-80 -38 275 0
-81 -39 275 0
-82 -40 275 0
-83 -41 275 0
-84 -42 275 0
-71 -8 276 0
-72 -9 276 0
-73 -10 276 0
-74 -11 276 0
-75 -12 276 0
-76 -13 276 0
-77 -14 276 0
-120 -8 277 0
-121 -9 277 0
-122 -10 277 0
-123 -11 277 0
-124 -12 277 0
-125 -13 277 0
-126 -14 277 0
-15 -1 278 0
-16 -2 278 0
-17 -3 278 0
-18 -4 278 0
-19 -5 278 0
-20 -6 278 0
-21 -7 278 0
-43 -8 279 0
-44 -9 279 0
-45 -10 279 0
-46 -11 279 0
-47 -12 279 0
-48 -13 279 0
-49 -14 279 0
-36 -22 280 0
-37 -23 280 0
-38 -24 280 0
-39 -25 280 0
-40 -26 280 0
-41 -27 280 0
-42 -28 280 0
-29 -1 281 0
-30 -2 281 0
-31 -3 281 0
-32 -4 281 0
-33 -5 281 0
-34 -6 281 0
-35 -7 281 0
-71 -36 282 0
-72 -37 282 0
-73 -38 282 0
-74 -39 282 0
-75 -40 282 0
-76 -41 282 0
-77 -42 282 0
-71 -1 283 0
-72 -2 283 0
-73 -3 283 0
-74 -4 283 0
-75 -5 283 0
-76 -6 283 0
-77 -7 283 0
-64 -36 284 0
-65 -37 284 0
-66 -38 284 0
-67 -39 284 0
-68 -40 284 0
-69 -41 284 0
-70 -42 284 0
-113 -29 285 0
-114 -30 285 0
-115 -31 285 0
-116 -32 285 0
-117 -33 285 0
-118 -34 285 0
-119 -35 285 0
-106 -29 286 0
-107 -30 286 0
-108 -31 286 0
-109 -32 286 0
-110 -33 286 0
-111 -34 286 0
-112 -35 286 0
-120 -36 287 0
-121 -37 287 0
-122 -38 287 0
-123 -39 287 0
-124 -40 287 0
-125 -41 287 0
-126 -42 287 0
-78 -29 288 0
-79 -30 288 0
-80 -31 288 0
-81 -32 288 0
-82 -33 288 0
-83 -34 288 0
-84 -35 288 0
-169 -29 289 0
-170 -30 289 0
-171 -31 289 0
-172 -32 289 0
-173 -33 289 0
-174 -34 289 0
-175 -35 289 0
-127 -29 290 0
-128 -30 290 0
-129 -31 290 0
-130 -32 290 0
-131 -33 290 0
-132 -34 290 0
-133 -35 290 0
-162 -29 291 0
-163 -30 291 0
-164 -31 291 0
-165 -32 291 0
-166 -33 291 0
-167 -34 291 0
-168 -35 291 0
-43 -29 292 0
-44 -30 292 0
-45 -31 292 0
-46 -32 292 0
-47 -33 292 0
-48 -34 292 0
-49 -35 292 0
-85 -29 293 0
-86 -30 293 0
-87 -31 293 0
-88 -32 293 0
-89 -33 293 0
-90 -34 293 0
-91 -35 293 0
-120 -29 294 0
-121 -30 294 0
-122 -31 294 0
-123 -32 294 0
-124 -33 294 0
-125 -34 294 0
-126 -35 294 0
-113 -36 295 0
-114 -37 295 0
-115 -38 295 0
-116 -39 295 0
-117 -40 295 0
-118 -41 295 0
-119 -42 295 0
-64 -29 296 0
-65 -30 296 0
-66 -31 296 0
-67 -32 296 0
-68 -33 296 0
-69 -34 296 0
-70 -35 296 0
-155 -29 297 0
-156 -30 297 0
-157 -31 297 0
-158 -32 297 0
-159 -33 297 0
-160 -34 297 0
-161 -35 297 0
-64 -1 298 0
-65 -2 298 0
-66 -3 298 0
-67 -4 298 0
-68 -5 298 0
-69 -6 298 0
-70 -7 298 0
-71 -29 299 0
-72 -30 299 0
-73 -31 299 0
-74 -32 299 0
-75 -33 299 0
-76 -34 299 0
-77 -35 299 0
-106 -36 300 0
-107 -37 300 0
-108 -38 300 0
-109 -39 300 0
-110 -40 300 0
-111 -41 300 0
-112 -42 300 0
-78 -1 301 0
-79 -2 301 0
-80 -3 301 0
-81 -4 301 0
-82 -5 301 0
-83 -6 301 0
-84 -7 301 0
-36 -8 302 0
-37 -9 302 0
-38 -10 302 0
-39 -11 302 0
-40 -12 302 0
-41 -13 302 0
-42 -14 302 0
-78 -15 303 0
-79 -16 303 0
-80 -17 303 0
-81 -18 303 0
-82 -19 303 0
-83 -20 303 0
-84 -21 303 0
-78 -50 304 0
-79 -51 304 0
-80 -52 304 0
-81 -53 304 0
-82 -54 304 0
-83 -55 304 0
-84 -56 304 0
-78 -22 305 0
-79 -23 305 0
-80 -24 305 0
-81 -25 305 0
-82 -26 305 0
-83 -27 305 0
-84 -28 305 0
-134 -78 306 0
-135 -79 306 0
-136 -80 306 0
-137 -81 306 0
-138 -82 306 0
-139 -83 306 0
-140 -84 306 0
-92 -78 307 0
-93 -79 307 0
-94 -80 307 0
-95 -81 307 0
-96 -82 307 0
-97 -83 307 0
-98 -84 307 0
-127 -78 308 0
-128 -79 308 0
-129 -80 308 0
-130 -81 308 0
-131 -82 308 0
-132 -83 308 0
-133 -84 308 0
-78 -57 309 0
-79 -58 309 0
-80 -59 309 0
-81 -60 309 0
-82 -61 309 0
-83 -62 309 0
-84 -63 309 0
-85 -78 310 0
-86 -79 310 0
-87 -80 310 0
-88 -81 310 0
-89 -82 310 0
-90 -83 310 0
-91 -84 310 0
-36 -29 311 0
-37 -30 311 0
-38 -31 311 0
-39 -32 311 0
-40 -33 311 0
-41 -34 311 0
-42 -35 311 0
-78 -64 312 0
-79 -65 312 0
-80 -66 312 0
-81 -67 312 0
-82 -68 312 0
-83 -69 312 0
-84 -70 312 0
-113 -78 313 0
-114 -79 313 0
-115 -80 313 0
-116 -81 313 0
-117 -82 313 0
-118 -83 313 0
-119 -84 313 0
-106 -78 314 0
-107 -79 314 0
-108 -80 314 0
-109 -81 314 0
-110 -82 314 0
-111 -83 314 0
-112 -84 314 0
-169 -78 315 0
-170 -79 315 0
-171 -80 315 0
-172 -81 315 0
-173 -82 315 0
-174 -83 315 0
-175 -84 315 0
-162 -78 316 0
-163 -79 316 0
-164 -80 316 0
-165 -81 316 0
-166 -82 316 0
-167 -83 316 0
-168 -84 316 0
-120 -78 317 0
-121 -79 317 0
-122 -80 317 0
-123 -81 317 0
-124 -82 317 0
-125 -83 317 0
-126 -84 317 0
-155 -78 318 0
-156 -79 318 0
-157 -80 318 0
-158 -81 318 0
-159 -82 318 0
-160 -83 318 0
-161 -84 318 0
-127 -36 319 0
-128 -37 319 0
-129 -38 319 0
-130 -39 319 0
-131 -40 319 0
-132 -41 319 0
-133 -42 319 0
-127 -1 320 0
-128 -2 320 0
-129 -3 320 0
-130 -4 320 0
-131 -5 320 0
-132 -6 320 0
-133 -7 320 0
-78 -43 321 0
-79 -44 321 0
-80 -45 321 0
-81 -46 321 0
-82 -47 321 0
-83 -48 321 0
-84 -49 321 0
-78 -71 322 0
-79 -72 322 0
-80 -73 322 0
-81 -74 322 0
-82 -75 322 0
-83 -76 322 0
-84 -77 322 0
-176 -36 323 0
-177 -37 323 0
-178 -38 323 0
-179 -39 323 0
-180 -40 323 0
-181 -41 323 0
-182 -42 323 0
-218 -78 324 0
-219 -79 324 0
-220 -80 324 0
-221 -81 324 0
-222 -82 324 0
-223 -83 324 0
-224 -84 324 0
-183 -78 325 0
-184 -79 325 0
-185 -80 325 0
-186 -81 325 0
-187 -82 325 0
-188 -83 325 0
-189 -84 325 0
-211 -78 326 0
-212 -79 326 0
-213 -80 326 0
-214 -81 326 0
-215 -82 326 0
-216 -83 326 0
-217 -84 326 0
-134 -36 327 0
-135 -37 327 0
-136 -38 327 0
-137 -39 327 0
-138 -40 327 0
-139 -41 327 0
-140 -42 327 0
-141 -78 328 0
-142 -79 328 0
-143 -80 328 0
-144 -81 328 0
-145 -82 328 0
-146 -83 328 0
-147 -84 328 0
-176 -78 329 0
-177 -79 329 0
-178 -80 329 0
-179 -81 329 0
-180 -82 329 0
-181 -83 329 0
-182 -84 329 0
-169 -36 330 0
-170 -37 330 0
-171 -38 330 0
-172 -39 330 0
-173 -40 330 0
-174 -41 330 0
-175 -42 330 0
-204 -78 331 0
-205 -79 331 0
-206 -80 331 0
-207 -81 331 0
-208 -82 331 0
-209 -83 331 0
-210 -84 331 0
-85 -1 332 0
-86 -2 332 0
-87 -3 332 0
-88 -4 332 0
-89 -5 332 0
-90 -6 332 0
-91 -7 332 0
-92 -36 333 0
-93 -37 333 0
-94 -38 333 0
-95 -39 333 0
-96 -40 333 0
-97 -41 333 0
-98 -42 333 0
-99 -78 334 0
-100 -79 334 0
-101 -80 334 0
-102 -81 334 0
-103 -82 334 0
-104 -83 334 0
-105 -84 334 0
-120 -1 335 0
-121 -2 335 0
-122 -3 335 0
-123 -4 335 0
-124 -5 335 0
-125 -6 335 0
-126 -7 335 0
-162 -36 336 0
-163 -37 336 0
-164 -38 336 0
-165 -39 336 0
-166 -40 336 0
-167 -41 336 0
-168 -42 336 0
-197 -78 337 0
-198 -79 337 0
-199 -80 337 0
-200 -81 337 0
-201 -82 337 0
-202 -83 337 0
-203 -84 337 0
-50 -43 338 0
-51 -44 338 0
-52 -45 338 0
-53 -46 338 0
-54 -47 338 0
-55 -48 338 0
-56 -49 338 0
-43 -22 339 0
-44 -23 339 0
-45 -24 339 0
-46 -25 339 0
-47 -26 339 0
-48 -27 339 0
-49 -28 339 0
-92 -43 340 0
-93 -44 340 0
-94 -45 340 0
-95 -46 340 0
-96 -47 340 0
-97 -48 340 0
-98 -49 340 0
-57 -43 341 0
-58 -44 341 0
-59 -45 341 0
-60 -46 341 0
-61 -47 341 0
-62 -48 341 0
-63 -49 341 0
-85 -43 342 0
-86 -44 342 0
-87 -45 342 0
-88 -46 342 0
-89 -47 342 0
-90 -48 342 0
-91 -49 342 0
-43 -15 343 0
-44 -16 343 0
-45 -17 343 0
-46 -18 343 0
-47 -19 343 0
-48 -20 343 0
-49 -21 343 0
-71 -43 344 0
-72 -44 344 0
-73 -45 344 0
-74 -46 344 0
-75 -47 344 0
-76 -48 344 0
-77 -49 344 0
-127 -43 345 0
-128 -44 345 0
-129 -45 345 0
-130 -46 345 0
-131 -47 345 0
-132 -48 345 0
-133 -49 345 0
-120 -43 346 0
-121 -44 346 0
-122 -45 346 0
-123 -46 346 0
-124 -47 346 0
-125 -48 346 0
-126 -49 346 0
-183 -43 347 0
-184 -44 347 0
-185 -45 347 0
-186 -46 347 0
-187 -47 347 0
-188 -48 347 0
-189 -49 347 0
-141 -43 348 0
-142 -44 348 0
-143 -45 348 0
-144 -46 348 0
-145 -47 348 0
-146 -48 348 0
-147 -49 348 0
-176 -43 349 0
-177 -44 349 0
-178 -45 349 0
-179 -46 349 0
-180 -47 349 0
-181 -48 349 0
-182 -49 349 0
-99 -43 350 0
-100 -44 350 0
-101 -45 350 0
-102 -46 350 0
-103 -47 350 0
-104 -48 350 0
-105 -49 350 0
-134 -43 351 0
-135 -44 351 0
-136 -45 351 0
-137 -46 351 0
-138 -47 351 0
-139 -48 351 0
-140 -49 351 0
-169 -43 352 0
-170 -44 352 0
-171 -45 352 0
-172 -46 352 0
-173 -47 352 0
-174 -48 352 0
-175 -49 352 0
-50 -1 353 0
-51 -2 353 0
-52 -3 353 0
-53 -4 353 0
-54 -5 353 0
-55 -6 353 0
-56 -7 353 0
-57 -36 354 0
-58 -37 354 0
-59 -38 354 0
-60 -39 354 0
-61 -40 354 0
-62 -41 354 0
-63 -42 354 0
-64 -43 355 0
-65 -44 355 0
-66 -45 355 0
-67 -46 355 0
-68 -47 355 0
-69 -48 355 0
-70 -49 355 0
-113 -43 356 0
-114 -44 356 0
-115 -45 356 0
-116 -46 356 0
-117 -47 356 0
-118 -48 356 0
-119 -49 356 0
-162 -43 357 0
-163 -44 357 0
-164 -45 357 0
-165 -46 357 0
-166 -47 357 0
-167 -48 357 0
-168 -49 357 0
-113 -71 358 0
-114 -72 358 0
-115 -73 358 0
-116 -74 358 0
-117 -75 358 0
-118 -76 358 0
-119 -77 358 0
-106 -71 359 0
-107 -72 359 0
-108 -73 359 0
-109 -74 359 0
-110 -75 359 0
-111 -76 359 0
-112 -77 359 0
-162 -71 360 0
-163 -72 360 0
-164 -73 360 0
-165 -74 360 0
-166 -75 360 0
-167 -76 360 0
-168 -77 360 0
-120 -71 361 0
-121 -72 361 0
-122 -73 361 0
-123 -74 361 0
-124 -75 361 0
-125 -76 361 0
-126 -77 361 0
-155 -71 362 0
-156 -72 362 0
-157 -73 362 0
-158 -74 362 0
-159 -75 362 0
-160 -76 362 0
-161 -77 362 0
-127 -71 363 0
-128 -72 363 0
-129 -73 363 0
-130 -74 363 0
-131 -75 363 0
-132 -76 363 0
-133 -77 363 0
-85 -71 364 0
-86 -72 364 0
-87 -73 364 0
-88 -74 364 0
-89 -75 364 0
-90 -76 364 0
-91 -77 364 0
-71 -64 365 0
-72 -65 365 0
-73 -66 365 0
-74 -67 365 0
-75 -68 365 0
-76 -69 365 0
-77 -70 365 0
-211 -71 366 0
-212 -72 366 0
-213 -73 366 0
-214 -74 366 0
-215 -75 366 0
-216 -76 366 0
-217 -77 366 0
-176 -71 367 0
-177 -72 367 0
-178 -73 367 0
-179 -74 367 0
-180 -75 367 0
-181 -76 367 0
-182 -77 367 0
-204 -71 368 0
-205 -72 368 0
-206 -73 368 0
-207 -74 368 0
-208 -75 368 0
-209 -76 368 0
-210 -77 368 0
-134 -71 369 0
-135 -72 369 0
-136 -73 369 0
-137 -74 369 0
-138 -75 369 0
-139 -76 369 0
-140 -77 369 0
-169 -71 370 0
-170 -72 370 0
-171 -73 370 0
-172 -74 370 0
-173 -75 370 0
-174 -76 370 0
-175 -77 370 0
-197 -71 371 0
-198 -72 371 0
-199 -73 371 0
-200 -74 371 0
-201 -75 371 0
-202 -76 371 0
-203 -77 371 0
-71 -15 372 0
-72 -16 372 0
-73 -17 372 0
-74 -18 372 0
-75 -19 372 0
-76 -20 372 0
-77 -21 372 0
-71 -50 373 0
-72 -51 373 0
-73 -52 373 0
-74 -53 373 0
-75 -54 373 0
-76 -55 373 0
-77 -56 373 0
-92 -71 374 0
-93 -72 374 0
-94 -73 374 0
-95 -74 374 0
-96 -75 374 0
-97 -76 374 0
-98 -77 374 0
-113 -1 375 0
-114 -2 375 0
-115 -3 375 0
-116 -4 375 0
-117 -5 375 0
-118 -6 375 0
-119 -7 375 0
-155 -36 376 0
-156 -37 376 0
-157 -38 376 0
-158 -39 376 0
-159 -40 376 0
-160 -41 376 0
-161 -42 376 0
-36 -1 377 0
-37 -2 377 0
-38 -3 377 0
-39 -4 377 0
-40 -5 377 0
-41 -6 377 0
-42 -7 377 0
-29 -8 378 0
-30 -9 378 0
-31 -10 378 0
-32 -11 378 0
-33 -12 378 0
-34 -13 378 0
-35 -14 378 0
-57 -15 379 0
-58 -16 379 0
-59 -17 379 0
-60 -18 379 0
-61 -19 379 0
-62 -20 379 0
-63 -21 379 0
-85 -15 380 0
-86 -16 380 0
-87 -17 380 0
-88 -18 380 0
-89 -19 380 0
-90 -20 380 0
-91 -21 380 0
-141 -15 381 0
-142 -16 381 0
-143 -17 381 0
-144 -18 381 0
-145 -19 381 0
-146 -20 381 0
-147 -21 381 0
-99 -15 382 0
-100 -16 382 0
-101 -17 382 0
-102 -18 382 0
-103 -19 382 0
-104 -20 382 0
-105 -21 382 0
-134 -15 383 0
-135 -16 383 0
-136 -17 383 0
-137 -18 383 0
-138 -19 383 0
-139 -20 383 0
-140 -21 383 0
-22 -15 384 0
-23 -16 384 0
-24 -17 384 0
-25 -18 384 0
-26 -19 384 0
-27 -20 384 0
-28 -21 384 0
-92 -15 385 0
-93 -16 385 0
-94 -17 385 0
-95 -18 385 0
-96 -19 385 0
-97 -20 385 0
-98 -21 385 0
-127 -15 386 0
-128 -16 386 0
-129 -17 386 0
-130 -18 386 0
-131 -19 386 0
-132 -20 386 0
-133 -21 386 0
-22 -1 387 0
-23 -2 387 0
-24 -3 387 0
-25 -4 387 0
-26 -5 387 0
-27 -6 387 0
-28 -7 387 0
-50 -15 388 0
-51 -16 388 0
-52 -17 388 0
-53 -18 388 0
-54 -19 388 0
-55 -20 388 0
-56 -21 388 0
-29 -15 389 0
-30 -16 389 0
-31 -17 389 0
-32 -18 389 0
-33 -19 389 0
-34 -20 389 0
-35 -21 389 0
-120 -15 390 0
-121 -16 390 0
-122 -17 390 0
-123 -18 390 0
-124 -19 390 0
-125 -20 390 0
-126 -21 390 0
-64 -8 391 0
-65 -9 391 0
-66 -10 391 0
-67 -11 391 0
-68 -12 391 0
-69 -13 391 0
-70 -14 391 0
-113 -8 392 0
-114 -9 392 0
-115 -10 392 0
-116 -11 392 0
-117 -12 392 0
-118 -13 392 0
-119 -14 392 0
-50 -29 393 0
-51 -30 393 0
-52 -31 393 0
-53 -32 393 0
-54 -33 393 0
-55 -34 393 0
-56 -35 393 0
-120 -64 394 0
-121 -65 394 0
-122 -66 394 0
-123 -67 394 0
-124 -68 394 0
-125 -69 394 0
-126 -70 394 0
-155 -64 395 0
-156 -65 395 0
-157 -66 395 0
-158 -67 395 0
-159 -68 395 0
-160 -69 395 0
-161 -70 395 0
-204 -64 396 0
-205 -65 396 0
-206 -66 396 0
-207 -67 396 0
-208 -68 396 0
-209 -69 396 0
-210 -70 396 0
-169 -64 397 0
-170 -65 397 0
-171 -66 397 0
-172 -67 397 0
-173 -68 397 0
-174 -69 397 0
-175 -70 397 0
-197 -64 398 0
-198 -65 398 0
-199 -66 398 0
-200 -67 398 0
-201 -68 398 0
-202 -69 398 0
-203 -70 398 0
-127 -64 399 0
-128 -65 399 0
-129 -66 399 0
-130 -67 399 0
-131 -68 399 0
-132 -69 399 0
-133 -70 399 0
-162 -64 400 0
-163 -65 400 0
-164 -66 400 0
-165 -67 400 0
-166 -68 400 0
-167 -69 400 0
-168 -70 400 0
-106 -64 401 0
-107 -65 401 0
-108 -66 401 0
-109 -67 401 0
-110 -68 401 0
-111 -69 401 0
-112 -70 401 0
-113 -64 402 0
-114 -65 402 0
-115 -66 402 0
-116 -67 402 0
-117 -68 402 0
-118 -69 402 0
-119 -70 402 0
-85 -64 403 0
-86 -65 403 0
-87 -66 403 0
-88 -67 403 0
-89 -68 403 0
-90 -69 403 0
-91 -70 403 0
-106 -1 404 0
-107 -2 404 0
-108 -3 404 0
-109 -4 404 0
-110 -5 404 0
-111 -6 404 0
-112 -7 404 0
-85 -22 405 0
-86 -23 405 0
-87 -24 405 0
-88 -25 405 0
-89 -26 405 0
-90 -27 405 0
-91 -28 405 0
-85 -57 406 0
-86 -58 406 0
-87 -59 406 0
-88 -60 406 0
-89 -61 406 0
-90 -62 406 0
-91 -63 406 0
-141 -85 407 0
-142 -86 407 0
-143 -87 407 0
-144 -88 407 0
-145 -89 407 0
-146 -90 407 0
-147 -91 407 0
-99 -85 408 0
-100 -86 408 0
-101 -87 408 0
-102 -88 408 0
-103 -89 408 0
-104 -90 408 0
-105 -91 408 0
-134 -85 409 0
-135 -86 409 0
-136 -87 409 0
-137 -88 409 0
-138 -89 409 0
-139 -90 409 0
-140 -91 409 0
-92 -85 410 0
-93 -86 410 0
-94 -87 410 0
-95 -88 410 0
-96 -89 410 0
-97 -90 410 0
-98 -91 410 0
-120 -85 411 0
-121 -86 411 0
-122 -87 411 0
-123 -88 411 0
-124 -89 411 0
-125 -90 411 0
-126 -91 411 0
-113 -85 412 0
-114 -86 412 0
-115 -87 412 0
-116 -88 412 0
-117 -89 412 0
-118 -90 412 0
-119 -91 412 0
-176 -85 413 0
-177 -86 413 0
-178 -87 413 0
-179 -88 413 0
-180 -89 413 0
-181 -90 413 0
-182 -91 413 0
-169 -85 414 0
-170 -86 414 0
-171 -87 414 0
-172 -88 414 0
-173 -89 414 0
-174 -90 414 0
-175 -91 414 0
-127 -85 415 0
-128 -86 415 0
-129 -87 415 0
-130 -88 415 0
-131 -89 415 0
-132 -90 415 0
-133 -91 415 0
-162 -85 416 0
-163 -86 416 0
-164 -87 416 0
-165 -88 416 0
-166 -89 416 0
-167 -90 416 0
-168 -91 416 0
-85 -50 417 0
-86 -51 417 0
-87 -52 417 0
-88 -53 417 0
-89 -54 417 0
-90 -55 417 0
-91 -56 417 0
-225 -85 418 0
-226 -86 418 0
-227 -87 418 0
-228 -88 418 0
-229 -89 418 0
-230 -90 418 0
-231 -91 418 0
-190 -85 419 0
-191 -86 419 0
-192 -87 419 0
-193 -88 419 0
-194 -89 419 0
-195 -90 419 0
-196 -91 419 0
-218 -85 420 0
-219 -86 420 0
-220 -87 420 0
-221 -88 420 0
-222 -89 420 0
-223 -90 420 0
-224 -91 420 0
-148 -85 421 0
-149 -86 421 0
-150 -87 421 0
-151 -88 421 0
-152 -89 421 0
-153 -90 421 0
-154 -91 421 0
-183 -85 422 0
-184 -86 422 0
-185 -87 422 0
-186 -88 422 0
-187 -89 422 0
-188 -90 422 0
-189 -91 422 0
-211 -85 423 0
-212 -86 423 0
-213 -87 423 0
-214 -88 423 0
-215 -89 423 0
-216 -90 423 0
-217 -91 423 0
-204 -85 424 0
-205 -86 424 0
-206 -87 424 0
-207 -88 424 0
-208 -89 424 0
-209 -90 424 0
-210 -91 424 0
-57 -50 425 0
-58 -51 425 0
-59 -52 425 0
-60 -53 425 0
-61 -54 425 0
-62 -55 425 0
-63 -56 425 0
-99 -50 426 0
-100 -51 426 0
-101 -52 426 0
-102 -53 426 0
-103 -54 426 0
-104 -55 426 0
-105 -56 426 0
-92 -50 427 0
-93 -51 427 0
-94 -52 427 0
-95 -53 427 0
-96 -54 427 0
-97 -55 427 0
-98 -56 427 0
-50 -22 428 0
-51 -23 428 0
-52 -24 428 0
-53 -25 428 0
-54 -26 428 0
-55 -27 428 0
-56 -28 428 0
-134 -50 429 0
-135 -51 429 0
-136 -52 429 0
-137 -53 429 0
-138 -54 429 0
-139 -55 429 0
-140 -56 429 0
-127 -50 430 0
-128 -51 430 0
-129 -52 430 0
-130 -53 430 0
-131 -54 430 0
-132 -55 430 0
-133 -56 430 0
-190 -50 431 0
-191 -51 431 0
-192 -52 431 0
-193 -53 431 0
-194 -54 431 0
-195 -55 431 0
-196 -56 431 0
-148 -50 432 0
-149 -51 432 0
-150 -52 432 0
-151 -53 432 0
-152 -54 432 0
-153 -55 432 0
-154 -56 432 0
-183 -50 433 0
-184 -51 433 0
-185 -52 433 0
-186 -53 433 0
-187 -54 433 0
-188 -55 433 0
-189 -56 433 0
-141 -50 434 0
-142 -51 434 0
-143 -52 434 0
-144 -53 434 0
-145 -54 434 0
-146 -55 434 0
-147 -56 434 0
-176 -50 435 0
-177 -51 435 0
-178 -52 435 0
-179 -53 435 0
-180 -54 435 0
-181 -55 435 0
-182 -56 435 0
-120 -50 436 0
-121 -51 436 0
-122 -52 436 0
-123 -53 436 0
-124 -54 436 0
-125 -55 436 0
-126 -56 436 0
-169 -50 437 0
-170 -51 437 0
-171 -52 437 0
-172 -53 437 0
-173 -54 437 0
-174 -55 437 0
-175 -56 437 0
-92 -22 438 0
-93 -23 438 0
-94 -24 438 0
-95 -25 438 0
-96 -26 438 0
-97 -27 438 0
-98 -28 438 0
-148 -22 439 0
-149 -23 439 0
-150 -24 439 0
-151 -25 439 0
-152 -26 439 0
-153 -27 439 0
-154 -28 439 0
-141 -22 440 0
-142 -23 440 0
-143 -24 440 0
-144 -25 440 0
-145 -26 440 0
-146 -27 440 0
-147 -28 440 0
-99 -22 441 0
-100 -23 441 0
-101 -24 441 0
-102 -25 441 0
-103 -26 441 0
-104 -27 441 0
-105 -28 441 0
-134 -22 442 0
-135 -23 442 0
-136 -24 442 0
-137 -25 442 0
-138 -26 442 0
-139 -27 442 0
-140 -28 442 0
-57 -22 443 0
-58 -23 443 0
-59 -24 443 0
-60 -25 443 0
-61 -26 443 0
-62 -27 443 0
-63 -28 443 0
-127 -22 444 0
-128 -23 444 0
-129 -24 444 0
-130 -25 444 0
-131 -26 444 0
-132 -27 444 0
-133 -28 444 0
-148 -92 445 0
-149 -93 445 0
-150 -94 445 0
-151 -95 445 0
-152 -96 445 0
-153 -97 445 0
-154 -98 445 0
-141 -92 446 0
-142 -93 446 0
-143 -94 446 0
-144 -95 446 0
-145 -96 446 0
-146 -97 446 0
-147 -98 446 0
-127 -92 447 0
-128 -93 447 0
-129 -94 447 0
-130 -95 447 0
-131 -96 447 0
-132 -97 447 0
-133 -98 447 0
-120 -92 448 0
-121 -93 448 0
-122 -94 448 0
-123 -95 448 0
-124 -96 448 0
-125 -97 448 0
-126 -98 448 0
-183 -92 449 0
-184 -93 449 0
-185 -94 449 0
-186 -95 449 0
-187 -96 449 0
-188 -97 449 0
-189 -98 449 0
-176 -92 450 0
-177 -93 450 0
-178 -94 450 0
-179 -95 450 0
-180 -96 450 0
-181 -97 450 0
-182 -98 450 0
-134 -92 451 0
-135 -93 451 0
-136 -94 451 0
-137 -95 451 0
-138 -96 451 0
-139 -97 451 0
-140 -98 451 0
-169 -92 452 0
-170 -93 452 0
-171 -94 452 0
-172 -95 452 0
-173 -96 452 0
-174 -97 452 0
-175 -98 452 0
-92 -57 453 0
-93 -58 453 0
-94 -59 453 0
-95 -60 453 0
-96 -61 453 0
-97 -62 453 0
-98 -63 453 0
-225 -92 454 0
-226 -93 454 0
-227 -94 454 0
-228 -95 454 0
-229 -96 454 0
-230 -97 454 0
-231 -98 454 0
-99 -92 455 0
-100 -93 455 0
-101 -94 455 0
-102 -95 455 0
-103 -96 455 0
-104 -97 455 0
-105 -98 455 0
-190 -92 456 0
-191 -93 456 0
-192 -94 456 0
-193 -95 456 0
-194 -96 456 0
-195 -97 456 0
-196 -98 456 0
-218 -92 457 0
-219 -93 457 0
-220 -94 457 0
-221 -95 457 0
-222 -96 457 0
-223 -97 457 0
-224 -98 457 0
-211 -92 458 0
-212 -93 458 0
-213 -94 458 0
-214 -95 458 0
-215 -96 458 0
-216 -97 458 0
-217 -98 458 0
-141 -57 459 0
-142 -58 459 0
-143 -59 459 0
-144 -60 459 0
-145 -61 459 0
-146 -62 459 0
-147 -63 459 0
-134 -57 460 0
-135 -58 460 0
-136 -59 460 0
-137 -60 460 0
-138 -61 460 0
-139 -62 460 0
-140 -63 460 0
-190 -57 461 0
-191 -58 461 0
-192 -59 461 0
-193 -60 461 0
-194 -61 461 0
-195 -62 461 0
-196 -63 461 0
-148 -57 462 0
-149 -58 462 0
-150 -59 462 0
-151 -60 462 0
-152 -61 462 0
-153 -62 462 0
-154 -63 462 0
-183 -57 463 0
-184 -58 463 0
-185 -59 463 0
-186 -60 463 0
-187 -61 463 0
-188 -62 463 0
-189 -63 463 0
-127 -57 464 0
-128 -58 464 0
-129 -59 464 0
-130 -60 464 0
-131 -61 464 0
-132 -62 464 0
-133 -63 464 0
-99 -57 465 0
-100 -58 465 0
-101 -59 465 0
-102 -60 465 0
-103 -61 465 0
-104 -62 465 0
-105 -63 465 0
-176 -57 466 0
-177 -58 466 0
-178 -59 466 0
-179 -60 466 0
-180 -61 466 0
-181 -62 466 0
-182 -63 466 0
-134 -99 467 0
-135 -100 467 0
-136 -101 467 0
-137 -102 467 0
-138 -103 467 0
-139 -104 467 0
-140 -105 467 0
-127 -99 468 0
-128 -100 468 0
-129 -101 468 0
-130 -102 468 0
-131 -103 468 0
-132 -104 468 0
-133 -105 468 0
-190 -99 469 0
-191 -100 469 0
-192 -101 469 0
-193 -102 469 0
-194 -103 469 0
-195 -104 469 0
-196 -105 469 0
-148 -99 470 0
-149 -100 470 0
-150 -101 470 0
-151 -102 470 0
-152 -103 470 0
-153 -104 470 0
-154 -105 470 0
-183 -99 471 0
-184 -100 471 0
-185 -101 471 0
-186 -102 471 0
-187 -103 471 0
-188 -104 471 0
-189 -105 471 0
-141 -99 472 0
-142 -100 472 0
-143 -101 472 0
-144 -102 472 0
-145 -103 472 0
-146 -104 472 0
-147 -105 472 0
-176 -99 473 0
-177 -100 473 0
-178 -101 473 0
-179 -102 473 0
-180 -103 473 0
-181 -104 473 0
-182 -105 473 0
-225 -99 474 0
-226 -100 474 0
-227 -101 474 0
-228 -102 474 0
-229 -103 474 0
-230 -104 474 0
-231 -105 474 0
-218 -99 475 0
-219 -100 475 0
-220 -101 475 0
-221 -102 475 0
-222 -103 475 0
-223 -104 475 0
-224 -105 475 0
-176 -120 476 0
-177 -121 476 0
-178 -122 476 0
-179 -123 476 0
-180 -124 476 0
-181 -125 476 0
-182 -126 476 0
-134 -120 477 0
-135 -121 477 0
-136 -122 477 0
-137 -123 477 0
-138 -124 477 0
-139 -125 477 0
-140 -126 477 0
-169 -120 478 0
-170 -121 478 0
-171 -122 478 0
-172 -123 478 0
-173 -124 478 0
-174 -125 478 0
-175 -126 478 0
-127 -120 479 0
-128 -121 479 0
-129 -122 479 0
-130 -123 479 0
-131 -124 479 0
-132 -125 479 0
-133 -126 479 0
-120 -106 480 0
-121 -107 480 0
-122 -108 480 0
-123 -109 480 0
-124 -110 480 0
-125 -111 480 0
-126 -112 480 0
-155 -120 481 0
-156 -121 481 0
-157 -122 481 0
-158 -123 481 0
-159 -124 481 0
-160 -125 481 0
-161 -126 481 0
-204 -120 482 0
-205 -121 482 0
-206 -122 482 0
-207 -123 482 0
-208 -124 482 0
-209 -125 482 0
-210 -126 482 0
-197 -120 483 0
-198 -121 483 0
-199 -122 483 0
-200 -123 483 0
-201 -124 483 0
-202 -125 483 0
-203 -126 483 0
-162 -120 484 0
-163 -121 484 0
-164 -122 484 0
-165 -123 484 0
-166 -124 484 0
-167 -125 484 0
-168 -126 484 0
-120 -113 485 0
-121 -114 485 0
-122 -115 485 0
-123 -116 485 0
-124 -117 485 0
-125 -118 485 0
-126 -119 485 0
-246 -120 486 0
-247 -121 486 0
-248 -122 486 0
-249 -123 486 0
-250 -124 486 0
-251 -125 486 0
-252 -126 486 0
-218 -120 487 0
-219 -121 487 0
-220 -122 487 0
-221 -123 487 0
-222 -124 487 0
-223 -125 487 0
-224 -126 487 0
-239 -120 488 0
-240 -121 488 0
-241 -122 488 0
-242 -123 488 0
-243 -124 488 0
-244 -125 488 0
-245 -126 488 0
-183 -120 489 0
-184 -121 489 0
-185 -122 489 0
-186 -123 489 0
-187 -124 489 0
-188 -125 489 0
-189 -126 489 0
-211 -120 490 0
-212 -121 490 0
-213 -122 490 0
-214 -123 490 0
-215 -124 490 0
-216 -125 490 0
-217 -126 490 0
-232 -120 491 0
-233 -121 491 0
-234 -122 491 0
-235 -123 491 0
-236 -124 491 0
-237 -125 491 0
-238 -126 491 0
-141 -120 492 0
-142 -121 492 0
-143 -122 492 0
-144 -123 492 0
-145 -124 492 0
-146 -125 492 0
-147 -126 492 0
-155 -113 493 0
-156 -114 493 0
-157 -115 493 0
-158 -116 493 0
-159 -117 493 0
-160 -118 493 0
-161 -119 493 0
-197 -113 494 0
-198 -114 494 0
-199 -115 494 0
-200 -116 494 0
-201 -117 494 0
-202 -118 494 0
-203 -119 494 0
-162 -113 495 0
-163 -114 495 0
-164 -115 495 0
-165 -116 495 0
-166 -117 495 0
-167 -118 495 0
-168 -119 495 0
-169 -113 496 0
-170 -114 496 0
-171 -115 496 0
-172 -116 496 0
-173 -117 496 0
-174 -118 496 0
-175 -119 496 0
-127 -113 497 0
-128 -114 497 0
-129 -115 497 0
-130 -116 497 0
-131 -117 497 0
-132 -118 497 0
-133 -119 497 0
-113 -106 498 0
-114 -107 498 0
-115 -108 498 0
-116 -109 498 0
-117 -110 498 0
-118 -111 498 0
-119 -112 498 0
-239 -113 499 0
-240 -114 499 0
-241 -115 499 0
-242 -116 499 0
-243 -117 499 0
-244 -118 499 0
-245 -119 499 0
-211 -113 500 0
-212 -114 500 0
-213 -115 500 0
-214 -116 500 0
-215 -117 500 0
-216 -118 500 0
-217 -119 500 0
-232 -113 501 0
-233 -114 501 0
-234 -115 501 0
-235 -116 501 0
-236 -117 501 0
-237 -118 501 0
-238 -119 501 0
-176 -113 502 0
-177 -114 502 0
-178 -115 502 0
-179 -116 502 0
-180 -117 502 0
-181 -118 502 0
-182 -119 502 0
-204 -113 503 0
-205 -114 503 0
-206 -115 503 0
-207 -116 503 0
-208 -117 503 0
-209 -118 503 0
-210 -119 503 0
-134 -113 504 0
-135 -114 504 0
-136 -115 504 0
-137 -116 504 0
-138 -117 504 0
-139 -118 504 0
-140 -119 504 0
-162 -106 505 0
-163 -107 505 0
-164 -108 505 0
-165 -109 505 0
-166 -110 505 0
-167 -111 505 0
-168 -112 505 0
-232 -106 506 0
-233 -107 506 0
-234 -108 506 0
-235 -109 506 0
-236 -110 506 0
-237 -111 506 0
-238 -112 506 0
-204 -106 507 0
-205 -107 507 0
-206 -108 507 0
-207 -109 507 0
-208 -110 507 0
-209 -111 507 0
-210 -112 507 0
-169 -106 508 0
-170 -107 508 0
-171 -108 508 0
-172 -109 508 0
-173 -110 508 0
-174 -111 508 0
-175 -112 508 0
-197 -106 509 0
-198 -107 509 0
-199 -108 509 0
-200 -109 509 0
-201 -110 509 0
-202 -111 509 0
-203 -112 509 0
-155 -106 510 0
-156 -107 510 0
-157 -108 510 0
-158 -109 510 0
-159 -110 510 0
-160 -111 510 0
-161 -112 510 0
-127 -106 511 0
-128 -107 511 0
-129 -108 511 0
-130 -109 511 0
-131 -110 511 0
-132 -111 511 0
-133 -112 511 0
-183 -127 512 0
-184 -128 512 0
-185 -129 512 0
-186 -130 512 0
-187 -131 512 0
-188 -132 512 0
-189 -133 512 0
-141 -127 513 0
-142 -128 513 0
-143 -129 513 0
-144 -130 513 0
-145 -131 513 0
-146 -132 513 0
-147 -133 513 0
-176 -127 514 0
-177 -128 514 0
-178 -129 514 0
-179 -130 514 0
-180 -131 514 0
-181 -132 514 0
-182 -133 514 0
-134 -127 515 0
-135 -128 515 0
-136 -129 515 0
-137 -130 515 0
-138 -131 515 0
-139 -132 515 0
-140 -133 515 0
-162 -127 516 0
-163 -128 516 0
-164 -129 516 0
-165 -130 516 0
-166 -131 516 0
-167 -132 516 0
-168 -133 516 0
-155 -127 517 0
-156 -128 517 0
-157 -129 517 0
-158 -130 517 0
-159 -131 517 0
-160 -132 517 0
-161 -133 517 0
-211 -127 518 0
-212 -128 518 0
-213 -129 518 0
-214 -130 518 0
-215 -131 518 0
-216 -132 518 0
-217 -133 518 0
-204 -127 519 0
-205 -128 519 0
-206 -129 519 0
-207 -130 519 0
-208 -131 519 0
-209 -132 519 0
-210 -133 519 0
-169 -127 520 0
-170 -128 520 0
-171 -129 520 0
-172 -130 520 0
-173 -131 520 0
-174 -132 520 0
-175 -133 520 0
-197 -127 521 0
-198 -128 521 0
-199 -129 521 0
-200 -130 521 0
-201 -131 521 0
-202 -132 521 0
-203 -133 521 0
-253 -127 522 0
-254 -128 522 0
-255 -129 522 0
-256 -130 522 0
-257 -131 522 0
-258 -132 522 0
-259 -133 522 0
-225 -127 523 0
-226 -128 523 0
-227 -129 523 0
-228 -130 523 0
-229 -131 523 0
-230 -132 523 0
-231 -133 523 0
-246 -127 524 0
-247 -128 524 0
-248 -129 524 0
-249 -130 524 0
-250 -131 524 0
-251 -132 524 0
-252 -133 524 0
-190 -127 525 0
-191 -128 525 0
-192 -129 525 0
-193 -130 525 0
-194 -131 525 0
-195 -132 525 0
-196 -133 525 0
-218 -127 526 0
-219 -128 526 0
-220 -129 526 0
-221 -130 526 0
-222 -131 526 0
-223 -132 526 0
-224 -133 526 0
-239 -127 527 0
-240 -128 527 0
-241 -129 527 0
-242 -130 527 0
-243 -131 527 0
-244 -132 527 0
-245 -133 527 0
-148 -127 528 0
-149 -128 528 0
-150 -129 528 0
-151 -130 528 0
-152 -131 528 0
-153 -132 528 0
-154 -133 528 0
-232 -127 529 0
-233 -128 529 0
-234 -129 529 0
-235 -130 529 0
-236 -131 529 0
-237 -132 529 0
-238 -133 529 0
-190 -134 530 0
-191 -135 530 0
-192 -136 530 0
-193 -137 530 0
-194 -138 530 0
-195 -139 530 0
-196 -140 530 0
-148 -134 531 0
-149 -135 531 0
-150 -136 531 0
-151 -137 531 0
-152 -138 531 0
-153 -139 531 0
-154 -140 531 0
-183 -134 532 0
-184 -135 532 0
-185 -136 532 0
-186 -137 532 0
-187 -138 532 0
-188 -139 532 0
-189 -140 532 0
-141 -134 533 0
-142 -135 533 0
-143 -136 533 0
-144 -137 533 0
-145 -138 533 0
-146 -139 533 0
-147 -140 533 0
-169 -134 534 0
-170 -135 534 0
-171 -136 534 0
-172 -137 534 0
-173 -138 534 0
-174 -139 534 0
-175 -140 534 0
-162 -134 535 0
-163 -135 535 0
-164 -136 535 0
-165 -137 535 0
-166 -138 535 0
-167 -139 535 0
-168 -140 535 0
-218 -134 536 0
-219 -135 536 0
-220 -136 536 0
-221 -137 536 0
-222 -138 536 0
-223 -139 536 0
-224 -140 536 0
-211 -134 537 0
-212 -135 537 0
-213 -136 537 0
-214 -137 537 0
-215 -138 537 0
-216 -139 537 0
-217 -140 537 0
-176 -134 538 0
-177 -135 538 0
-178 -136 538 0
-179 -137 538 0
-180 -138 538 0
-181 -139 538 0
-182 -140 538 0
-204 -134 539 0
-205 -135 539 0
-206 -136 539 0
-207 -137 539 0
-208 -138 539 0
-209 -139 539 0
-210 -140 539 0
-253 -134 540 0
-254 -135 540 0
-255 -136 540 0
-256 -137 540 0
-257 -138 540 0
-258 -139 540 0
-259 -140 540 0
-225 -134 541 0
-226 -135 541 0
-227 -136 541 0
-228 -137 541 0
-229 -138 541 0
-230 -139 541 0
-231 -140 541 0
-246 -134 542 0
-247 -135 542 0
-248 -136 542 0
-249 -137 542 0
-250 -138 542 0
-251 -139 542 0
-252 -140 542 0
-239 -134 543 0
-240 -135 543 0
-241 -136 543 0
-242 -137 543 0
-243 -138 543 0
-244 -139 543 0
-245 -140 543 0
-190 -141 544 0
-191 -142 544 0
-192 -143 544 0
-193 -144 544 0
-194 -145 544 0
-195 -146 544 0
-196 -147 544 0
-176 -141 545 0
-177 -142 545 0
-178 -143 545 0
-179 -144 545 0
-180 -145 545 0
-181 -146 545 0
-182 -147 545 0
-169 -141 546 0
-170 -142 546 0
-171 -143 546 0
-172 -144 546 0
-173 -145 546 0
-174 -146 546 0
-175 -147 546 0
-225 -141 547 0
-226 -142 547 0
-227 -143 547 0
-228 -144 547 0
-229 -145 547 0
-230 -146 547 0
-231 -147 547 0
-218 -141 548 0
-219 -142 548 0
-220 -143 548 0
-221 -144 548 0
-222 -145 548 0
-223 -146 548 0
-224 -147 548 0
-183 -141 549 0
-184 -142 549 0
-185 -143 549 0
-186 -144 549 0
-187 -145 549 0
-188 -146 549 0
-189 -147 549 0
-211 -141 550 0
-212 -142 550 0
-213 -143 550 0
-214 -144 550 0
-215 -145 550 0
-216 -146 550 0
-217 -147 550 0
-253 -141 551 0
-254 -142 551 0
-255 -143 551 0
-256 -144 551 0
-257 -145 551 0
-258 -146 551 0
-259 -147 551 0
-148 -141 552 0
-149 -142 552 0
-150 -143 552 0
-151 -144 552 0
-152 -145 552 0
-153 -146 552 0
-154 -147 552 0
-246 -141 553 0
-247 -142 553 0
-248 -143 553 0
-249 -144 553 0
-250 -145 553 0
-251 -146 553 0
-252 -147 553 0
-183 -148 554 0
-184 -149 554 0
-185 -150 554 0
-186 -151 554 0
-187 -152 554 0
-188 -153 554 0
-189 -154 554 0
-176 -148 555 0
-177 -149 555 0
-178 -150 555 0
-179 -151 555 0
-180 -152 555 0
-181 -153 555 0
-182 -154 555 0
-225 -148 556 0
-226 -149 556 0
-227 -150 556 0
-228 -151 556 0
-229 -152 556 0
-230 -153 556 0
-231 -154 556 0
-190 -148 557 0
-191 -149 557 0
-192 -150 557 0
-193 -151 557 0
-194 -152 557 0
-195 -153 557 0
-196 -154 557 0
-218 -148 558 0
-219 -149 558 0
-220 -150 558 0
-221 -151 558 0
-222 -152 558 0
-223 -153 558 0
-224 -154 558 0
-253 -148 559 0
-254 -149 559 0
-255 -150 559 0
-256 -151 559 0
-257 -152 559 0
-258 -153 559 0
-259 -154 559 0
-211 -162 560 0
-212 -163 560 0
-213 -164 560 0
-214 -165 560 0
-215 -166 560 0
-216 -167 560 0
-217 -168 560 0
-176 -162 561 0
-177 -163 561 0
-178 -164 561 0
-179 -165 561 0
-180 -166 561 0
-181 -167 561 0
-182 -168 561 0
-204 -162 562 0
-205 -163 562 0
-206 -164 562 0
-207 -165 562 0
-208 -166 562 0
-209 -167 562 0
-210 -168 562 0
-169 -162 563 0
-170 -163 563 0
-171 -164 563 0
-172 -165 563 0
-173 -166 563 0
-174 -167 563 0
-175 -168 563 0
-232 -162 564 0
-233 -163 564 0
-234 -164 564 0
-235 -165 564 0
-236 -166 564 0
-237 -167 564 0
-238 -168 564 0
-162 -155 565 0
-163 -156 565 0
-164 -157 565 0
-165 -158 565 0
-166 -159 565 0
-167 -160 565 0
-168 -161 565 0
-246 -162 566 0
-247 -163 566 0
-248 -164 566 0
-249 -165 566 0
-250 -166 566 0
-251 -167 566 0
-252 -168 566 0
-218 -162 567 0
-219 -163 567 0
-220 -164 567 0
-221 -165 567 0
-222 -166 567 0
-223 -167 567 0
-224 -168 567 0
-239 -162 568 0
-240 -163 568 0
-241 -164 568 0
-242 -165 568 0
-243 -166 568 0
-244 -167 568 0
-245 -168 568 0
-197 -162 569 0
-198 -163 569 0
-199 -164 569 0
-200 -165 569 0
-201 -166 569 0
-202 -167 569 0
-203 -168 569 0
-183 -162 570 0
-184 -163 570 0
-185 -164 570 0
-186 -165 570 0
-187 -166 570 0
-188 -167 570 0
-189 -168 570 0
-204 -155 571 0
-205 -156 571 0
-206 -157 571 0
-207 -158 571 0
-208 -159 571 0
-209 -160 571 0
-210 -161 571 0
-169 -155 572 0
-170 -156 572 0
-171 -157 572 0
-172 -158 572 0
-173 -159 572 0
-174 -160 572 0
-175 -161 572 0
-239 -155 573 0
-240 -156 573 0
-241 -157 573 0
-242 -158 573 0
-243 -159 573 0
-244 -160 573 0
-245 -161 573 0
-211 -155 574 0
-212 -156 574 0
-213 -157 574 0
-214 -158 574 0
-215 -159 574 0
-216 -160 574 0
-217 -161 574 0
-232 -155 575 0
-233 -156 575 0
-234 -157 575 0
-235 -158 575 0
-236 -159 575 0
-237 -160 575 0
-238 -161 575 0
-197 -155 576 0
-198 -156 576 0
-199 -157 576 0
-200 -158 576 0
-201 -159 576 0
-202 -160 576 0
-203 -161 576 0
-176 -155 577 0
-177 -156 577 0
-178 -157 577 0
-179 -158 577 0
-180 -159 577 0
-181 -160 577 0
-182 -161 577 0
-218 -169 578 0
-219 -170 578 0
-220 -171 578 0
-221 -172 578 0
-222 -173 578 0
-223 -174 578 0
-224 -175 578 0
-183 -169 579 0
-184 -170 579 0
-185 -171 579 0
-186 -172 579 0
-187 -173 579 0
-188 -174 579 0
-189 -175 579 0
-211 -169 580 0
-212 -170 580 0
-213 -171 580 0
-214 -172 580 0
-215 -173 580 0
-216 -174 580 0
-217 -175 580 0
-176 -169 581 0
-177 -170 581 0
-178 -171 581 0
-179 -172 581 0
-180 -173 581 0
-181 -174 581 0
-182 -175 581 0
-197 -169 582 0
-198 -170 582 0
-199 -171 582 0
-200 -172 582 0
-201 -173 582 0
-202 -174 582 0
-203 -175 582 0
-239 -169 583 0
-240 -170 583 0
-241 -171 583 0
-242 -172 583 0
-243 -173 583 0
-244 -174 583 0
-245 -175 583 0
-232 -169 584 0
-233 -170 584 0
-234 -171 584 0
-235 -172 584 0
-236 -173 584 0
-237 -174 584 0
-238 -175 584 0
-204 -169 585 0
-205 -170 585 0
-206 -171 585 0
-207 -172 585 0
-208 -173 585 0
-209 -174 585 0
-210 -175 585 0
-253 -169 586 0
-254 -170 586 0
-255 -171 586 0
-256 -172 586 0
-257 -173 586 0
-258 -174 586 0
-259 -175 586 0
-225 -169 587 0
-226 -170 587 0
-227 -171 587 0
-228 -172 587 0
-229 -173 587 0
-230 -174 587 0
-231 -175 587 0
-246 -169 588 0
-247 -170 588 0
-248 -171 588 0
-249 -172 588 0
-250 -173 588 0
-251 -174 588 0
-252 -175 588 0
-190 -169 589 0
-191 -170 589 0
-192 -171 589 0
-193 -172 589 0
-194 -173 589 0
-195 -174 589 0
-196 -175 589 0
-225 -176 590 0
-226 -177 590 0
-227 -178 590 0
-228 -179 590 0
-229 -180 590 0
-230 -181 590 0
-231 -182 590 0
-190 -176 591 0
-191 -177 591 0
-192 -178 591 0
-193 -179 591 0
-194 -180 591 0
-195 -181 591 0
-196 -182 591 0
-218 -176 592 0
-219 -177 592 0
-220 -178 592 0
-221 -179 592 0
-222 -180 592 0
-223 -181 592 0
-224 -182 592 0
-183 -176 593 0
-184 -177 593 0
-185 -178 593 0
-186 -179 593 0
-187 -180 593 0
-188 -181 593 0
-189 -182 593 0
-204 -176 594 0
-205 -177 594 0
-206 -178 594 0
-207 -179 594 0
-208 -180 594 0
-209 -181 594 0
-210 -182 594 0
-197 -176 595 0
-198 -177 595 0
-199 -178 595 0
-200 -179 595 0
-201 -180 595 0
-202 -181 595 0
-203 -182 595 0
-246 -176 596 0
-247 -177 596 0
-248 -178 596 0
-249 -179 596 0
-250 -180 596 0
-251 -181 596 0
-252 -182 596 0
-239 -176 597 0
-240 -177 597 0
-241 -178 597 0
-242 -179 597 0
-243 -180 597 0
-244 -181 597 0
-245 -182 597 0
-211 -176 598 0
-212 -177 598 0
-213 -178 598 0
-214 -179 598 0
-215 -180 598 0
-216 -181 598 0
-217 -182 598 0
-232 -176 599 0
-233 -177 599 0
-234 -178 599 0
-235 -179 599 0
-236 -180 599 0
-237 -181 599 0
-238 -182 599 0
-253 -176 600 0
-254 -177 600 0
-255 -178 600 0
-256 -179 600 0
-257 -180 600 0
-258 -181 600 0
-259 -182 600 0
-225 -183 601 0
-226 -184 601 0
-227 -185 601 0
-228 -186 601 0
-229 -187 601 0
-230 -188 601 0
-231 -189 601 0
-190 -183 602 0
-191 -184 602 0
-192 -185 602 0
-193 -186 602 0
-194 -187 602 0
-195 -188 602 0
-196 -189 602 0
-211 -183 603 0
-212 -184 603 0
-213 -185 603 0
-214 -186 603 0
-215 -187 603 0
-216 -188 603 0
-217 -189 603 0
-204 -183 604 0
-205 -184 604 0
-206 -185 604 0
-207 -186 604 0
-208 -187 604 0
-209 -188 604 0
-210 -189 604 0
-253 -183 605 0
-254 -184 605 0
-255 -185 605 0
-256 -186 605 0
-257 -187 605 0
-258 -188 605 0
-259 -189 605 0
-246 -183 606 0
-247 -184 606 0
-248 -185 606 0
-249 -186 606 0
-250 -187 606 0
-251 -188 606 0
-252 -189 606 0
-218 -183 607 0
-219 -184 607 0
-220 -185 607 0
-221 -186 607 0
-222 -187 607 0
-223 -188 607 0
-224 -189 607 0
-239 -183 608 0
-240 -184 608 0
-241 -185 608 0
-242 -186 608 0
-243 -187 608 0
-244 -188 608 0
-245 -189 608 0
-218 -190 609 0
-219 -191 609 0
-220 -192 609 0
-221 -193 609 0
-222 -194 609 0
-223 -195 609 0
-224 -196 609 0
-211 -190 610 0
-212 -191 610 0
-213 -192 610 0
-214 -193 610 0
-215 -194 610 0
-216 -195 610 0
-217 -196 610 0
-253 -190 611 0
-254 -191 611 0
-255 -192 611 0
-256 -193 611 0
-257 -194 611 0
-258 -195 611 0
-259 -196 611 0
-225 -190 612 0
-226 -191 612 0
-227 -192 612 0
-228 -193 612 0
-229 -194 612 0
-230 -195 612 0
-231 -196 612 0
-246 -190 613 0
-247 -191 613 0
-248 -192 613 0
-249 -193 613 0
-250 -194 613 0
-251 -195 613 0
-252 -196 613 0
-239 -197 614 0
-240 -198 614 0
-241 -199 614 0
-242 -200 614 0
-243 -201 614 0
-244 -202 614 0
-245 -203 614 0
-211 -197 615 0
-212 -198 615 0
-213 -199 615 0
-214 -200 615 0
-215 -201 615 0
-216 -202 615 0
-217 -203 615 0
-232 -197 616 0
-233 -198 616 0
-234 -199 616 0
-235 -200 616 0
-236 -201 616 0
-237 -202 616 0
-238 -203 616 0
-204 -197 617 0
-205 -198 617 0
-206 -199 617 0
-207 -200 617 0
-208 -201 617 0
-209 -202 617 0
-210 -203 617 0
-246 -197 618 0
-247 -198 618 0
-248 -199 618 0
-249 -200 618 0
-250 -201 618 0
-251 -202 618 0
-252 -203 618 0
-218 -197 619 0
-219 -198 619 0
-220 -199 619 0
-221 -200 619 0
-222 -201 619 0
-223 -202 619 0
-224 -203 619 0
-246 -204 620 0
-247 -205 620 0
-248 -206 620 0
-249 -207 620 0
-250 -208 620 0
-251 -209 620 0
-252 -210 620 0
-218 -204 621 0
-219 -205 621 0
-220 -206 621 0
-221 -207 621 0
-222 -208 621 0
-223 -209 621 0
-224 -210 621 0
-239 -204 622 0
-240 -205 622 0
-241 -206 622 0
-242 -207 622 0
-243 -208 622 0
-244 -209 622 0
-245 -210 622 0
-211 -204 623 0
-212 -205 623 0
-213 -206 623 0
-214 -207 623 0
-215 -208 623 0
-216 -209 623 0
-217 -210 623 0
-253 -204 624 0
-254 -205 624 0
-255 -206 624 0
-256 -207 624 0
-257 -208 624 0
-258 -209 624 0
-259 -210 624 0
-225 -204 625 0
-226 -205 625 0
-227 -206 625 0
-228 -207 625 0
-229 -208 625 0
-230 -209 625 0
-231 -210 625 0
-232 -204 626 0
-233 -205 626 0
-234 -206 626 0
-235 -207 626 0
-236 -208 626 0
-237 -209 626 0
-238 -210 626 0
-253 -211 627 0
-254 -212 627 0
-255 -213 627 0
-256 -214 627 0
-257 -215 627 0
-258 -216 627 0
-259 -217 627 0
-225 -211 628 0
-226 -212 628 0
-227 -213 628 0
-228 -214 628 0
-229 -215 628 0
-230 -216 628 0
-231 -217 628 0
-246 -211 629 0
-247 -212 629 0
-248 -213 629 0
-249 -214 629 0
-250 -215 629 0
-251 -216 629 0
-252 -217 629 0
-218 -211 630 0
-219 -212 630 0
-220 -213 630 0
-221 -214 630 0
-222 -215 630 0
-223 -216 630 0
-224 -217 630 0
-232 -211 631 0
-233 -212 631 0
-234 -213 631 0
-235 -214 631 0
-236 -215 631 0
-237 -216 631 0
-238 -217 631 0
-239 -211 632 0
-240 -212 632 0
-241 -213 632 0
-242 -214 632 0
-243 -215 632 0
-244 -216 632 0
-245 -217 632 0
-253 -218 633 0
-254 -219 633 0
-255 -220 633 0
-256 -221 633 0
-257 -222 633 0
-258 -223 633 0
-259 -224 633 0
-225 -218 634 0
-226 -219 634 0
-227 -220 634 0
-228 -221 634 0
-229 -222 634 0
-230 -223 634 0
-231 -224 634 0
-239 -218 635 0
-240 -219 635 0
-241 -220 635 0
-242 -221 635 0
-243 -222 635 0
-244 -223 635 0
-245 -224 635 0
-232 -218 636 0
-233 -219 636 0
-234 -220 636 0
-235 -221 636 0
-236 -222 636 0
-237 -223 636 0
-238 -224 636 0
-246 -218 637 0
-247 -219 637 0
-248 -220 637 0
-249 -221 637 0
-250 -222 637 0
-251 -223 637 0
-252 -224 637 0
-246 -225 638 0
-247 -226 638 0
-248 -227 638 0
-249 -228 638 0
-250 -229 638 0
-251 -230 638 0
-252 -231 638 0
-239 -225 639 0
-240 -226 639 0
-241 -227 639 0
-242 -228 639 0
-243 -229 639 0
-244 -230 639 0
-245 -231 639 0
-253 -225 640 0
-254 -226 640 0
-255 -227 640 0
-256 -228 640 0
-257 -229 640 0
-258 -230 640 0
-259 -231 640 0
-246 -232 641 0
-247 -233 641 0
-248 -234 641 0
-249 -235 641 0
-250 -236 641 0
-251 -237 641 0
-252 -238 641 0
-239 -232 642 0
-240 -233 642 0
-241 -234 642 0
-242 -235 642 0
-243 -236 642 0
-244 -237 642 0
-245 -238 642 0
-253 -232 643 0
-254 -233 643 0
-255 -234 643 0
-256 -235 643 0
-257 -236 643 0
-258 -237 643 0
-259 -238 643 0
-253 -239 644 0
-254 -240 644 0
-255 -241 644 0
-256 -242 644 0
-257 -243 644 0
-258 -244 644 0
-259 -245 644 0
-246 -239 645 0
-247 -240 645 0
-248 -241 645 0
-249 -242 645 0
-250 -243 645 0
-251 -244 645 0
-252 -245 645 0
-253 -246 646 0
-254 -247 646 0
-255 -248 646 0
-256 -249 646 0
-257 -250 646 0
-258 -251 646 0
-259 -252 646 0
127 0
79 0
86 87 0
-141 -1 647 0
-142 -2 647 0
-143 -3 647 0
-144 -4 647 0
-145 -5 647 0
-146 -6 647 0
-147 -7 647 0
-169 -8 648 0
-170 -9 648 0
-171 -10 648 0
-172 -11 648 0
-173 -12 648 0
-174 -13 648 0
-175 -14 648 0
-204 -15 649 0
-205 -16 649 0
-206 -17 649 0
-207 -18 649 0
-208 -19 649 0
-209 -20 649 0
-210 -21 649 0
-239 -50 650 0
-240 -51 650 0
-241 -52 650 0
-242 -53 650 0
-243 -54 650 0
-244 -55 650 0
-245 -56 650 0
-232 -57 651 0
-233 -58 651 0
-234 -59 651 0
-235 -60 651 0
-236 -61 651 0
-237 -62 651 0
-238 -63 651 0
-197 -99 652 0
-198 -100 652 0
-199 -101 652 0
-200 -102 652 0
-201 -103 652 0
-202 -104 652 0
-203 -105 652 0
-162 -22 653 0
-163 -23 653 0
-164 -24 653 0
-165 -25 653 0
-166 -26 653 0
-167 -27 653 0
-168 -28 653 0
-155 -57 654 0
-156 -58 654 0
-157 -59 654 0
-158 -60 654 0
-159 -61 654 0
-160 -62 654 0
-161 -63 654 0
-113 -92 655 0
-114 -93 655 0
-115 -94 655 0
-116 -95 655 0
-117 -96 655 0
-118 -97 655 0
-119 -98 655 0
-218 -50 656 0
-219 -51 656 0
-220 -52 656 0
-221 -53 656 0
-222 -54 656 0
-223 -55 656 0
-224 -56 656 0
-253 -92 657 0
-254 -93 657 0
-255 -94 657 0
-256 -95 657 0
-257 -96 657 0
-258 -97 657 0
-259 -98 657 0
-148 -36 658 0
-149 -37 658 0
-150 -38 658 0
-151 -39 658 0
-152 -40 658 0
-153 -41 658 0
-154 -42 658 0
-190 -8 659 0
-191 -9 659 0
-192 -10 659 0
-193 -11 659 0
-194 -12 659 0
-195 -13 659 0
-196 -14 659 0
-225 -15 660 0
-226 -16 660 0
-227 -17 660 0
-228 -18 660 0
-229 -19 660 0
-230 -20 660 0
-231 -21 660 0
-169 -99 661 0
-170 -100 661 0
-171 -101 661 0
-172 -102 661 0
-173 -103 661 0
-174 -104 661 0
-175 -105 661 0
-190 -78 662 0
-191 -79 662 0
-192 -80 662 0
-193 -81 662 0
-194 -82 662 0
-195 -83 662 0
-196 -84 662 0
-99 -8 663 0
-100 -9 663 0
-101 -10 663 0
-102 -11 663 0
-103 -12 663 0
-104 -13 663 0
-105 -14 663 0
-211 -148 664 0
-212 -149 664 0
-213 -150 664 0
-214 -151 664 0
-215 -152 664 0
-216 -153 664 0
-217 -154 664 0
-162 -1 665 0
-163 -2 665 0
-164 -3 665 0
-165 -4 665 0
-166 -5 665 0
-167 -6 665 0
-168 -7 665 0
-141 -71 666 0
-142 -72 666 0
-143 -73 666 0
-144 -74 666 0
-145 -75 666 0
-146 -76 666 0
-147 -77 666 0
-183 -113 667 0
-184 -114 667 0
-185 -115 667 0
-186 -116 667 0
-187 -117 667 0
-188 -118 667 0
-189 -119 667 0
-211 -36 668 0
-212 -37 668 0
-213 -38 668 0
-214 -39 668 0
-215 -40 668 0
-216 -41 668 0
-217 -42 668 0
-246 -71 669 0
-247 -72 669 0
-248 -73 669 0
-249 -74 669 0
-250 -75 669 0
-251 -76 669 0
-252 -77 669 0
-253 -113 670 0
-254 -114 670 0
-255 -115 670 0
-256 -116 670 0
-257 -117 670 0
-258 -118 670 0
-259 -119 670 0
-134 -106 671 0
-135 -107 671 0
-136 -108 671 0
-137 -109 671 0
-138 -110 671 0
-139 -111 671 0
-140 -112 671 0
-197 -8 672 0
-198 -9 672 0
-199 -10 672 0
-200 -11 672 0
-201 -12 672 0
-202 -13 672 0
-203 -14 672 0
-232 -43 673 0
-233 -44 673 0
-234 -45 673 0
-235 -46 673 0
-236 -47 673 0
-237 -48 673 0
-238 -49 673 0
-162 -141 674 0
-163 -142 674 0
-164 -143 674 0
-165 -144 674 0
-166 -145 674 0
-167 -146 674 0
-168 -147 674 0
-176 -29 675 0
-177 -30 675 0
-178 -31 675 0
-179 -32 675 0
-180 -33 675 0
-181 -34 675 0
-182 -35 675 0
-197 -190 676 0
-198 -191 676 0
-199 -192 676 0
-200 -193 676 0
-201 -194 676 0
-202 -195 676 0
-203 -196 676 0
-211 -106 677 0
-212 -107 677 0
-213 -108 677 0
-214 -109 677 0
-215 -110 677 0
-216 -111 677 0
-217 -112 677 0
-246 -22 678 0
-247 -23 678 0
-248 -24 678 0
-249 -25 678 0
-250 -26 678 0
-251 -27 678 0
-252 -28 678 0
-64 -15 679 0
-65 -16 679 0
-66 -17 679 0
-67 -18 679 0
-68 -19 679 0
-69 -20 679 0
-70 -21 679 0
-71 -22 680 0
-72 -23 680 0
-73 -24 680 0
-74 -25 680 0
-75 -26 680 0
-76 -27 680 0
-77 -28 680 0
-232 -29 681 0
-233 -30 681 0
-234 -31 681 0
-235 -32 681 0
-236 -33 681 0
-237 -34 681 0
-238 -35 681 0
-155 -43 682 0
-156 -44 682 0
-157 -45 682 0
-158 -46 682 0
-159 -47 682 0
-160 -48 682 0
-161 -49 682 0
-225 -64 683 0
-226 -65 683 0
-227 -66 683 0
-228 -67 683 0
-229 -68 683 0
-230 -69 683 0
-231 -70 683 0
-162 -15 684 0
-163 -16 684 0
-164 -17 684 0
-165 -18 684 0
-166 -19 684 0
-167 -20 684 0
-168 -21 684 0
-204 -43 685 0
-205 -44 685 0
-206 -45 685 0
-207 -46 685 0
-208 -47 685 0
-209 -48 685 0
-210 -49 685 0
-218 -29 686 0
-219 -30 686 0
-220 -31 686 0
-221 -32 686 0
-222 -33 686 0
-223 -34 686 0
-224 -35 686 0
-253 -64 687 0
-254 -65 687 0
-255 -66 687 0
-256 -67 687 0
-257 -68 687 0
-258 -69 687 0
-259 -70 687 0
-183 -8 688 0
-184 -9 688 0
-185 -10 688 0
-186 -11 688 0
-187 -12 688 0
-188 -13 688 0
-189 -14 688 0
-218 -43 689 0
-219 -44 689 0
-220 -45 689 0
-221 -46 689 0
-222 -47 689 0
-223 -48 689 0
-224 -49 689 0
-204 -92 690 0
-205 -93 690 0
-206 -94 690 0
-207 -95 690 0
-208 -96 690 0
-209 -97 690 0
-210 -98 690 0
-197 -134 691 0
-198 -135 691 0
-199 -136 691 0
-200 -137 691 0
-201 -138 691 0
-202 -139 691 0
-203 -140 691 0
-246 -99 692 0
-247 -100 692 0
-248 -101 692 0
-249 -102 692 0
-250 -103 692 0
-251 -104 692 0
-252 -105 692 0
-225 -36 693 0
-226 -37 693 0
-227 -38 693 0
-228 -39 693 0
-229 -40 693 0
-230 -41 693 0
-231 -42 693 0
-64 -50 694 0
-65 -51 694 0
-66 -52 694 0
-67 -53 694 0
-68 -54 694 0
-69 -55 694 0
-70 -56 694 0
-29 -22 695 0
-30 -23 695 0
-31 -24 695 0
-32 -25 695 0
-33 -26 695 0
-34 -27 695 0
-35 -28 695 0
-204 -29 696 0
-205 -30 696 0
-206 -31 696 0
-207 -32 696 0
-208 -33 696 0
-209 -34 696 0
-210 -35 696 0
-239 -71 697 0
-240 -72 697 0
-241 -73 697 0
-242 -74 697 0
-243 -75 697 0
-244 -76 697 0
-245 -77 697 0
-176 -106 698 0
-177 -107 698 0
-178 -108 698 0
-179 -109 698 0
-180 -110 698 0
-181 -111 698 0
-182 -112 698 0
-246 -106 699 0
-247 -107 699 0
-248 -108 699 0
-249 -109 699 0
-250 -110 699 0
-251 -111 699 0
-252 -112 699 0
-253 -155 700 0
-254 -156 700 0
-255 -157 700 0
-256 -158 700 0
-257 -159 700 0
-258 -160 700 0
-259 -161 700 0
-232 -64 701 0
-233 -65 701 0
-234 -66 701 0
-235 -67 701 0
-236 -68 701 0
-237 -69 701 0
-238 -70 701 0
-239 -1 702 0
-240 -2 702 0
-241 -3 702 0
-242 -4 702 0
-243 -5 702 0
-244 -6 702 0
-245 -7 702 0
-246 -36 703 0
-247 -37 703 0
-248 -38 703 0
-249 -39 703 0
-250 -40 703 0
-251 -41 703 0
-252 -42 703 0
-225 -106 704 0
-226 -107 704 0
-227 -108 704 0
-228 -109 704 0
-229 -110 704 0
-230 -111 704 0
-231 -112 704 0
-190 -113 705 0
-191 -114 705 0
-192 -115 705 0
-193 -116 705 0
-194 -117 705 0
-195 -118 705 0
-196 -119 705 0
-155 -50 706 0
-156 -51 706 0
-157 -52 706 0
-158 -53 706 0
-159 -54 706 0
-160 -55 706 0
-161 -56 706 0
-239 -141 707 0
-240 -142 707 0
-241 -143 707 0
-242 -144 707 0
-243 -145 707 0
-244 -146 707 0
-245 -147 707 0
-148 -120 708 0
-149 -121 708 0
-150 -122 708 0
-151 -123 708 0
-152 -124 708 0
-153 -125 708 0
-154 -126 708 0
-239 -15 709 0
-240 -16 709 0
-241 -17 709 0
-242 -18 709 0
-243 -19 709 0
-244 -20 709 0
-245 -21 709 0
-232 -50 710 0
-233 -51 710 0
-234 -52 710 0
-235 -53 710 0
-236 -54 710 0
-237 -55 710 0
-238 -56 710 0
-99 -36 711 0
-100 -37 711 0
-101 -38 711 0
-102 -39 711 0
-103 -40 711 0
-104 -41 711 0
-105 -42 711 0
-92 -29 712 0
-93 -30 712 0
-94 -31 712 0
-95 -32 712 0
-96 -33 712 0
-97 -34 712 0
-98 -35 712 0
-253 -50 713 0
-254 -51 713 0
-255 -52 713 0
-256 -53 713 0
-257 -54 713 0
-258 -55 713 0
-259 -56 713 0
-148 -8 714 0
-149 -9 714 0
-150 -10 714 0
-151 -11 714 0
-152 -12 714 0
-153 -13 714 0
-154 -14 714 0
-162 -50 715 0
-163 -51 715 0
-164 -52 715 0
-165 -53 715 0
-166 -54 715 0
-167 -55 715 0
-168 -56 715 0
-106 -43 716 0
-107 -44 716 0
-108 -45 716 0
-109 -46 716 0
-110 -47 716 0
-111 -48 716 0
-112 -49 716 0
-99 -1 717 0
-100 -2 717 0
-101 -3 717 0
-102 -4 717 0
-103 -5 717 0
-104 -6 717 0
-105 -7 717 0
-141 -36 718 0
-142 -37 718 0
-143 -38 718 0
-144 -39 718 0
-145 -40 718 0
-146 -41 718 0
-147 -42 718 0
-183 -15 719 0
-184 -16 719 0
-185 -17 719 0
-186 -18 719 0
-187 -19 719 0
-188 -20 719 0
-189 -21 719 0
-176 -22 720 0
-177 -23 720 0
-178 -24 720 0
-179 -25 720 0
-180 -26 720 0
-181 -27 720 0
-182 -28 720 0
-120 -57 721 0
-121 -58 721 0
-122 -59 721 0
-123 -60 721 0
-124 -61 721 0
-125 -62 721 0
-126 -63 721 0
-169 -1 722 0
-170 -2 722 0
-171 -3 722 0
-172 -4 722 0
-173 -5 722 0
-174 -6 722 0
-175 -7 722 0
-211 -29 723 0
-212 -30 723 0
-213 -31 723 0
-214 -32 723 0
-215 -33 723 0
-216 -34 723 0
-217 -35 723 0
-246 -64 724 0
-247 -65 724 0
-248 -66 724 0
-249 -67 724 0
-250 -68 724 0
-251 -69 724 0
-252 -70 724 0
-218 -113 725 0
-219 -114 725 0
-220 -115 725 0
-221 -116 725 0
-222 -117 725 0
-223 -118 725 0
-224 -119 725 0
-253 -71 726 0
-254 -72 726 0
-255 -73 726 0
-256 -74 726 0
-257 -75 726 0
-258 -76 726 0
-259 -77 726 0
-225 -78 727 0
-226 -79 727 0
-227 -80 727 0
-228 -81 727 0
-229 -82 727 0
-230 -83 727 0
-231 -84 727 0
-162 -148 728 0
-163 -149 728 0
-164 -150 728 0
-165 -151 728 0
-166 -152 728 0
-167 -153 728 0
-168 -154 728 0
-204 -141 729 0
-205 -142 729 0
-206 -143 729 0
-207 -144 729 0
-208 -145 729 0
-209 -146 729 0
-210 -147 729 0
-155 -141 730 0
-156 -142 730 0
-157 -143 730 0
-158 -144 730 0
-159 -145 730 0
-160 -146 730 0
-161 -147 730 0
-211 -43 731 0
-212 -44 731 0
-213 -45 731 0
-214 -46 731 0
-215 -47 731 0
-216 -48 731 0
-217 -49 731 0
-246 -50 732 0
-247 -51 732 0
-248 -52 732 0
-249 -53 732 0
-250 -54 732 0
-251 -55 732 0
-252 -56 732 0
-204 -22 733 0
-205 -23 733 0
-206 -24 733 0
-207 -25 733 0
-208 -26 733 0
-209 -27 733 0
-210 -28 733 0
-204 -36 734 0
-205 -37 734 0
-206 -38 734 0
-207 -39 734 0
-208 -40 734 0
-209 -41 734 0
-210 -42 734 0
-239 -57 735 0
-240 -58 735 0
-241 -59 735 0
-242 -60 735 0
-243 -61 735 0
-244 -62 735 0
-245 -63 735 0
-99 -71 736 0
-100 -72 736 0
-101 -73 736 0
-102 -74 736 0
-103 -75 736 0
-104 -76 736 0
-105 -77 736 0
-148 -64 737 0
-149 -65 737 0
-150 -66 737 0
-151 -67 737 0
-152 -68 737 0
-153 -69 737 0
-154 -70 737 0
-106 -92 738 0
-107 -93 738 0
-108 -94 738 0
-109 -95 738 0
-110 -96 738 0
-111 -97 738 0
-112 -98 738 0
-155 -22 739 0
-156 -23 739 0
-157 -24 739 0
-158 -25 739 0
-159 -26 739 0
-160 -27 739 0
-161 -28 739 0
-225 -8 740 0
-226 -9 740 0
-227 -10 740 0
-228 -11 740 0
-229 -12 740 0
-230 -13 740 0
-231 -14 740 0
-232 -190 741 0
-233 -191 741 0
-234 -192 741 0
-235 -193 741 0
-236 -194 741 0
-237 -195 741 0
-238 -196 741 0
-225 -197 742 0
-226 -198 742 0
-227 -199 742 0
-228 -200 742 0
-229 -201 742 0
-230 -202 742 0
-231 -203 742 0
-232 -85 743 0
-233 -86 743 0
-234 -87 743 0
-235 -88 743 0
-236 -89 743 0
-237 -90 743 0
-238 -91 743 0
-253 -1 744 0
-254 -2 744 0
-255 -3 744 0
-256 -4 744 0
-257 -5 744 0
-258 -6 744 0
-259 -7 744 0
-155 -8 745 0
-156 -9 745 0
-157 -10 745 0
-158 -11 745 0
-159 -12 745 0
-160 -13 745 0
-161 -14 745 0
-232 -78 746 0
-233 -79 746 0
-234 -80 746 0
-235 -81 746 0
-236 -82 746 0
-237 -83 746 0
-238 -84 746 0
-92 -1 747 0
-93 -2 747 0
-94 -3 747 0
-95 -4 747 0
-96 -5 747 0
-97 -6 747 0
-98 -7 747 0
-197 -1 748 0
-198 -2 748 0
-199 -3 748 0
-200 -4 748 0
-201 -5 748 0
-202 -6 748 0
-203 -7 748 0
-218 -155 749 0
-219 -156 749 0
-220 -157 749 0
-221 -158 749 0
-222 -159 749 0
-223 -160 749 0
-224 -161 749 0
-253 -162 750 0
-254 -163 750 0
-255 -164 750 0
-256 -165 750 0
-257 -166 750 0
-258 -167 750 0
-259 -168 750 0
-253 -106 751 0
-254 -107 751 0
-255 -108 751 0
-256 -109 751 0
-257 -110 751 0
-258 -111 751 0
-259 -112 751 0
-246 -1 752 0
-247 -2 752 0
-248 -3 752 0
-249 -4 752 0
-250 -5 752 0
-251 -6 752 0
-252 -7 752 0
-218 -8 753 0
-219 -9 753 0
-220 -10 753 0
-221 -11 753 0
-222 -12 753 0
-223 -13 753 0
-224 -14 753 0
-253 -43 754 0
-254 -44 754 0
-255 -45 754 0
-256 -46 754 0
-257 -47 754 0
-258 -48 754 0
-259 -49 754 0
-183 -36 755 0
-184 -37 755 0
-185 -38 755 0
-186 -39 755 0
-187 -40 755 0
-188 -41 755 0
-189 -42 755 0
-232 -134 756 0
-233 -135 756 0
-234 -136 756 0
-235 -137 756 0
-236 -138 756 0
-237 -139 756 0
-238 -140 756 0
-197 -92 757 0
-198 -93 757 0
-199 -94 757 0
-200 -95 757 0
-201 -96 757 0
-202 -97 757 0
-203 -98 757 0
-232 -99 758 0
-233 -100 758 0
-234 -101 758 0
-235 -102 758 0
-236 -103 758 0
-237 -104 758 0
-238 -105 758 0
-141 -106 759 0
-142 -107 759 0
-143 -108 759 0
-144 -109 759 0
-145 -110 759 0
-146 -111 759 0
-147 -112 759 0
-113 -15 760 0
-114 -16 760 0
-115 -17 760 0
-116 -18 760 0
-117 -19 760 0
-118 -20 760 0
-119 -21 760 0
-246 -92 761 0
-247 -93 761 0
-248 -94 761 0
-249 -95 761 0
-250 -96 761 0
-251 -97 761 0
-252 -98 761 0
-113 -57 762 0
-114 -58 762 0
-115 -59 762 0
-116 -60 762 0
-117 -61 762 0
-118 -62 762 0
-119 -63 762 0
-225 -22 763 0
-226 -23 763 0
-227 -24 763 0
-228 -25 763 0
-229 -26 763 0
-230 -27 763 0
-231 -28 763 0
-92 -64 764 0
-93 -65 764 0
-94 -66 764 0
-95 -67 764 0
-96 -68 764 0
-97 -69 764 0
-98 -70 764 0
-225 -29 765 0
-226 -30 765 0
-227 -31 765 0
-228 -32 765 0
-229 -33 765 0
-230 -34 765 0
-231 -35 765 0
-155 -148 766 0
-156 -149 766 0
-157 -150 766 0
-158 -151 766 0
-159 -152 766 0
-160 -153 766 0
-161 -154 766 0
-211 -50 767 0
-212 -51 767 0
-213 -52 767 0
-214 -53 767 0
-215 -54 767 0
-216 -55 767 0
-217 -56 767 0
-253 -85 768 0
-254 -86 768 0
-255 -87 768 0
-256 -88 768 0
-257 -89 768 0
-258 -90 768 0
-259 -91 768 0
-113 -50 769 0
-114 -51 769 0
-115 -52 769 0
-116 -53 769 0
-117 -54 769 0
-118 -55 769 0
-119 -56 769 0
-134 -64 770 0
-135 -65 770 0
-136 -66 770 0
-137 -67 770 0
-138 -68 770 0
-139 -69 770 0
-140 -70 770 0
-141 -29 771 0
-142 -30 771 0
-143 -31 771 0
-144 -32 771 0
-145 -33 771 0
-146 -34 771 0
-147 -35 771 0
-64 -57 772 0
-65 -58 772 0
-66 -59 772 0
-67 -60 772 0
-68 -61 772 0
-69 -62 772 0
-70 -63 772 0
-176 -15 773 0
-177 -16 773 0
-178 -17 773 0
-179 -18 773 0
-180 -19 773 0
-181 -20 773 0
-182 -21 773 0
-190 -36 774 0
-191 -37 774 0
-192 -38 774 0
-193 -39 774 0
-194 -40 774 0
-195 -41 774 0
-196 -42 774 0
-148 -78 775 0
-149 -79 775 0
-150 -80 775 0
-151 -81 775 0
-152 -82 775 0
-153 -83 775 0
-154 -84 775 0
-113 -99 776 0
-114 -100 776 0
-115 -101 776 0
-116 -102 776 0
-117 -103 776 0
-118 -104 776 0
-119 -105 776 0
-169 -148 777 0
-170 -149 777 0
-171 -150 777 0
-172 -151 777 0
-173 -152 777 0
-174 -153 777 0
-175 -154 777 0
-211 -99 778 0
-212 -100 778 0
-213 -101 778 0
-214 -102 778 0
-215 -103 778 0
-216 -104 778 0
-217 -105 778 0
-218 -71 779 0
-219 -72 779 0
-220 -73 779 0
-221 -74 779 0
-222 -75 779 0
-223 -76 779 0
-224 -77 779 0
-225 -1 780 0
-226 -2 780 0
-227 -3 780 0
-228 -4 780 0
-229 -5 780 0
-230 -6 780 0
-231 -7 780 0
-253 -29 781 0
-254 -30 781 0
-255 -31 781 0
-256 -32 781 0
-257 -33 781 0
-258 -34 781 0
-259 -35 781 0
-232 -183 782 0
-233 -184 782 0
-234 -185 782 0
-235 -186 782 0
-236 -187 782 0
-237 -188 782 0
-238 -189 782 0
-183 -106 783 0
-184 -107 783 0
-185 -108 783 0
-186 -109 783 0
-187 -110 783 0
-188 -111 783 0
-189 -112 783 0
-225 -155 784 0
-226 -156 784 0
-227 -157 784 0
-228 -158 784 0
-229 -159 784 0
-230 -160 784 0
-231 -161 784 0
-246 -155 785 0
-247 -156 785 0
-248 -157 785 0
-249 -158 785 0
-250 -159 785 0
-251 -160 785 0
-252 -161 785 0
-253 -15 786 0
-254 -16 786 0
-255 -17 786 0
-256 -18 786 0
-257 -19 786 0
-258 -20 786 0
-259 -21 786 0
-239 -64 787 0
-240 -65 787 0
-241 -66 787 0
-242 -67 787 0
-243 -68 787 0
-244 -69 787 0
-245 -70 787 0
-190 -43 788 0
-191 -44 788 0
-192 -45 788 0
-193 -46 788 0
-194 -47 788 0
-195 -48 788 0
-196 -49 788 0
-246 -85 789 0
-247 -86 789 0
-248 -87 789 0
-249 -88 789 0
-250 -89 789 0
-251 -90 789 0
-252 -91 789 0
-169 -22 790 0
-170 -23 790 0
-171 -24 790 0
-172 -25 790 0
-173 -26 790 0
-174 -27 790 0
-175 -28 790 0
-204 -50 791 0
-205 -51 791 0
-206 -52 791 0
-207 -53 791 0
-208 -54 791 0
-209 -55 791 0
-210 -56 791 0
-162 -92 792 0
-163 -93 792 0
-164 -94 792 0
-165 -95 792 0
-166 -96 792 0
-167 -97 792 0
-168 -98 792 0
-155 -134 793 0
-156 -135 793 0
-157 -136 793 0
-158 -137 793 0
-159 -138 793 0
-160 -139 793 0
-161 -140 793 0
-239 -8 794 0
-240 -9 794 0
-241 -10 794 0
-242 -11 794 0
-243 -12 794 0
-244 -13 794 0
-245 -14 794 0
-246 -15 795 0
-247 -16 795 0
-248 -17 795 0
-249 -18 795 0
-250 -19 795 0
-251 -20 795 0
-252 -21 795 0
-183 -64 796 0
-184 -65 796 0
-185 -66 796 0
-186 -67 796 0
-187 -68 796 0
-188 -69 796 0
-189 -70 796 0
-141 -113 797 0
-142 -114 797 0
-143 -115 797 0
-144 -116 797 0
-145 -117 797 0
-146 -118 797 0
-147 -119 797 0
-190 -106 798 0
-191 -107 798 0
-192 -108 798 0
-193 -109 798 0
-194 -110 798 0
-195 -111 798 0
-196 -112 798 0
-253 -120 799 0
-254 -121 799 0
-255 -122 799 0
-256 -123 799 0
-257 -124 799 0
-258 -125 799 0
-259 -126 799 0
-246 -113 800 0
-247 -114 800 0
-248 -115 800 0
-249 -116 800 0
-250 -117 800 0
-251 -118 800 0
-252 -119 800 0
-232 -1 801 0
-233 -2 801 0
-234 -3 801 0
-235 -4 801 0
-236 -5 801 0
-237 -6 801 0
-238 -7 801 0
-239 -29 802 0
-240 -30 802 0
-241 -31 802 0
-242 -32 802 0
-243 -33 802 0
-244 -34 802 0
-245 -35 802 0
-246 -57 803 0
-247 -58 803 0
-248 -59 803 0
-249 -60 803 0
-250 -61 803 0
-251 -62 803 0
-252 -63 803 0
-239 -99 804 0
-240 -100 804 0
-241 -101 804 0
-242 -102 804 0
-243 -103 804 0
-244 -104 804 0
-245 -105 804 0
-190 -71 805 0
-191 -72 805 0
-192 -73 805 0
-193 -74 805 0
-194 -75 805 0
-195 -76 805 0
-196 -77 805 0
-232 -22 806 0
-233 -23 806 0
-234 -24 806 0
-235 -25 806 0
-236 -26 806 0
-237 -27 806 0
-238 -28 806 0
-232 -148 807 0
-233 -149 807 0
-234 -150 807 0
-235 -151 807 0
-236 -152 807 0
-237 -153 807 0
-238 -154 807 0
-218 -106 808 0
-219 -107 808 0
-220 -108 808 0
-221 -109 808 0
-222 -110 808 0
-223 -111 808 0
-224 -112 808 0
-197 -29 809 0
-198 -30 809 0
-199 -31 809 0
-200 -32 809 0
-201 -33 809 0
-202 -34 809 0
-203 -35 809 0
-134 -1 810 0
-135 -2 810 0
-136 -3 810 0
-137 -4 810 0
-138 -5 810 0
-139 -6 810 0
-140 -7 810 0
-148 -43 811 0
-149 -44 811 0
-150 -45 811 0
-151 -46 811 0
-152 -47 811 0
-153 -48 811 0
-154 -49 811 0
-99 -29 812 0
-100 -30 812 0
-101 -31 812 0
-102 -32 812 0
-103 -33 812 0
-104 -34 812 0
-105 -35 812 0
-141 -64 813 0
-142 -65 813 0
-143 -66 813 0
-144 -67 813 0
-145 -68 813 0
-146 -69 813 0
-147 -70 813 0
-183 -71 814 0
-184 -72 814 0
-185 -73 814 0
-186 -74 814 0
-187 -75 814 0
-188 -76 814 0
-189 -77 814 0
-218 -36 815 0
-219 -37 815 0
-220 -38 815 0
-221 -39 815 0
-222 -40 815 0
-223 -41 815 0
-224 -42 815 0
-239 -190 816 0
-240 -191 816 0
-241 -192 816 0
-242 -193 816 0
-243 -194 816 0
-244 -195 816 0
-245 -196 816 0
-197 -50 817 0
-198 -51 817 0
-199 -52 817 0
-200 -53 817 0
-201 -54 817 0
-202 -55 817 0
-203 -56 817 0
-155 -99 818 0
-156 -100 818 0
-157 -101 818 0
-158 -102 818 0
-159 -103 818 0
-160 -104 818 0
-161 -105 818 0
-148 -106 819 0
-149 -107 819 0
-150 -108 819 0
-151 -109 819 0
-152 -110 819 0
-153 -111 819 0
-154 -112 819 0
-204 -57 820 0
-205 -58 820 0
-206 -59 820 0
-207 -60 820 0
-208 -61 820 0
-209 -62 820 0
-210 -63 820 0
-246 -8 821 0
-247 -9 821 0
-248 -10 821 0
-249 -11 821 0
-250 -12 821 0
-251 -13 821 0
-252 -14 821 0
-253 -78 822 0
-254 -79 822 0
-255 -80 822 0
-256 -81 822 0
-257 -82 822 0
-258 -83 822 0
-259 -84 822 0
-246 -29 823 0
-247 -30 823 0
-248 -31 823 0
-249 -32 823 0
-250 -33 823 0
-251 -34 823 0
-252 -35 823 0
-148 -71 824 0
-149 -72 824 0
-150 -73 824 0
-151 -74 824 0
-152 -75 824 0
-153 -76 824 0
-154 -77 824 0
-141 -8 825 0
-142 -9 825 0
-143 -10 825 0
-144 -11 825 0
-145 -12 825 0
-146 -13 825 0
-147 -14 825 0
-225 -57 826 0
-226 -58 826 0
-227 -59 826 0
-228 -60 826 0
-229 -61 826 0
-230 -62 826 0
-231 -63 826 0
-190 -15 827 0
-191 -16 827 0
-192 -17 827 0
-193 -18 827 0
-194 -19 827 0
-195 -20 827 0
-196 -21 827 0
-232 -71 828 0
-233 -72 828 0
-234 -73 828 0
-235 -74 828 0
-236 -75 828 0
-237 -76 828 0
-238 -77 828 0
-155 -85 829 0
-156 -86 829 0
-157 -87 829 0
-158 -88 829 0
-159 -89 829 0
-160 -90 829 0
-161 -91 829 0
-162 -8 830 0
-163 -9 830 0
-164 -10 830 0
-165 -11 830 0
-166 -12 830 0
-167 -13 830 0
-168 -14 830 0
-232 -92 831 0
-233 -93 831 0
-234 -94 831 0
-235 -95 831 0
-236 -96 831 0
-237 -97 831 0
-238 -98 831 0
-225 -120 832 0
-226 -121 832 0
-227 -122 832 0
-228 -123 832 0
-229 -124 832 0
-230 -125 832 0
-231 -126 832 0
-253 -197 833 0
-254 -198 833 0
-255 -199 833 0
-256 -200 833 0
-257 -201 833 0
-258 -202 833 0
-259 -203 833 0
-106 -99 834 0
-107 -100 834 0
-108 -101 834 0
-109 -102 834 0
-110 -103 834 0
-111 -104 834 0
-112 -105 834 0
-239 -43 835 0
-240 -44 835 0
-241 -45 835 0
-242 -46 835 0
-243 -47 835 0
-244 -48 835 0
-245 -49 835 0
-197 -15 836 0
-198 -16 836 0
-199 -17 836 0
-200 -18 836 0
-201 -19 836 0
-202 -20 836 0
-203 -21 836 0
-148 -29 837 0
-149 -30 837 0
-150 -31 837 0
-151 -32 837 0
-152 -33 837 0
-153 -34 837 0
-154 -35 837 0
-253 -57 838 0
-254 -58 838 0
-255 -59 838 0
-256 -60 838 0
-257 -61 838 0
-258 -62 838 0
-259 -63 838 0
-211 -8 839 0
-212 -9 839 0
-213 -10 839 0
-214 -11 839 0
-215 -12 839 0
-216 -13 839 0
-217 -14 839 0
-218 -1 840 0
-219 -2 840 0
-220 -3 840 0
-221 -4 840 0
-222 -5 840 0
-223 -6 840 0
-224 -7 840 0
-162 -99 841 0
-163 -100 841 0
-164 -101 841 0
-165 -102 841 0
-166 -103 841 0
-167 -104 841 0
-168 -105 841 0
-197 -148 842 0
-198 -149 842 0
-199 -150 842 0
-200 -151 842 0
-201 -152 842 0
-202 -153 842 0
-203 -154 842 0
-197 -183 843 0
-198 -184 843 0
-199 -185 843 0
-200 -186 843 0
-201 -187 843 0
-202 -188 843 0
-203 -189 843 0
-71 -57 844 0
-72 -58 844 0
-73 -59 844 0
-74 -60 844 0
-75 -61 844 0
-76 -62 844 0
-77 -63 844 0
-120 -22 845 0
-121 -23 845 0
-122 -24 845 0
-123 -25 845 0
-124 -26 845 0
-125 -27 845 0
-126 -28 845 0
-155 -15 846 0
-156 -16 846 0
-157 -17 846 0
-158 -18 846 0
-159 -19 846 0
-160 -20 846 0
-161 -21 846 0
-190 -155 847 0
-191 -156 847 0
-192 -157 847 0
-193 -158 847 0
-194 -159 847 0
-195 -160 847 0
-196 -161 847 0
-239 -36 848 0
-240 -37 848 0
-241 -38 848 0
-242 -39 848 0
-243 -40 848 0
-244 -41 848 0
-245 -42 848 0
-232 -225 849 0
-233 -226 849 0
-234 -227 849 0
-235 -228 849 0
-236 -229 849 0
-237 -230 849 0
-238 -231 849 0
-197 -57 850 0
-198 -58 850 0
-199 -59 850 0
-200 -60 850 0
-201 -61 850 0
-202 -62 850 0
-203 -63 850 0
-134 -29 851 0
-135 -30 851 0
-136 -31 851 0
-137 -32 851 0
-138 -33 851 0
-139 -34 851 0
-140 -35 851 0
-155 -1 852 0
-156 -2 852 0
-157 -3 852 0
-158 -4 852 0
-159 -5 852 0
-160 -6 852 0
-161 -7 852 0
-211 -22 853 0
-212 -23 853 0
-213 -24 853 0
-214 -25 853 0
-215 -26 853 0
-216 -27 853 0
-217 -28 853 0
-113 -22 854 0
-114 -23 854 0
-115 -24 854 0
-116 -25 854 0
-117 -26 854 0
-118 -27 854 0
-119 -28 854 0
-106 -50 855 0
-107 -51 855 0
-108 -52 855 0
-109 -53 855 0
-110 -54 855 0
-111 -55 855 0
-112 -56 855 0
-232 -141 856 0
-233 -142 856 0
-234 -143 856 0
-235 -144 856 0
-236 -145 856 0
-237 -146 856 0
-238 -147 856 0
-204 -190 857 0
-205 -191 857 0
-206 -192 857 0
-207 -193 857 0
-208 -194 857 0
-209 -195 857 0
-210 -196 857 0
-183 -22 858 0
-184 -23 858 0
-185 -24 858 0
-186 -25 858 0
-187 -26 858 0
-188 -27 858 0
-189 -28 858 0
-246 -78 859 0
-247 -79 859 0
-248 -80 859 0
-249 -81 859 0
-250 -82 859 0
-251 -83 859 0
-252 -84 859 0
-148 -1 860 0
-149 -2 860 0
-150 -3 860 0
-151 -4 860 0
-152 -5 860 0
-153 -6 860 0
-154 -7 860 0
-211 -57 861 0
-212 -58 861 0
-213 -59 861 0
-214 -60 861 0
-215 -61 861 0
-216 -62 861 0
-217 -63 861 0
-183 -1 862 0
-184 -2 862 0
-185 -3 862 0
-186 -4 862 0
-187 -5 862 0
-188 -6 862 0
-189 -7 862 0
-218 -22 863 0
-219 -23 863 0
-220 -24 863 0
-221 -25 863 0
-222 -26 863 0
-223 -27 863 0
-224 -28 863 0
-99 -64 864 0
-100 -65 864 0
-101 -66 864 0
-102 -67 864 0
-103 -68 864 0
-104 -69 864 0
-105 -70 864 0
-57 -1 865 0
-58 -2 865 0
-59 -3 865 0
-60 -4 865 0
-61 -5 865 0
-62 -6 865 0
-63 -7 865 0
-190 -64 866 0
-191 -65 866 0
-192 -66 866 0
-193 -67 866 0
-194 -68 866 0
-195 -69 866 0
-196 -70 866 0
-176 -64 867 0
-177 -65 867 0
-178 -66 867 0
-179 -67 867 0
-180 -68 867 0
-181 -69 867 0
-182 -70 867 0
-232 -36 868 0
-233 -37 868 0
-234 -38 868 0
-235 -39 868 0
-236 -40 868 0
-237 -41 868 0
-238 -42 868 0
-106 -85 869 0
-107 -86 869 0
-108 -87 869 0
-109 -88 869 0
-110 -89 869 0
-111 -90 869 0
-112 -91 869 0
-197 -141 870 0
-198 -142 870 0
-199 -143 870 0
-200 -144 870 0
-201 -145 870 0
-202 -146 870 0
-203 -147 870 0
-176 -1 871 0
-177 -2 871 0
-178 -3 871 0
-179 -4 871 0
-180 -5 871 0
-181 -6 871 0
-182 -7 871 0
-211 -1 872 0
-212 -2 872 0
-213 -3 872 0
-214 -4 872 0
-215 -5 872 0
-216 -6 872 0
-217 -7 872 0
-253 -22 873 0
-254 -23 873 0
-255 -24 873 0
-256 -25 873 0
-257 -26 873 0
-258 -27 873 0
-259 -28 873 0
-204 -8 874 0
-205 -9 874 0
-206 -10 874 0
-207 -11 874 0
-208 -12 874 0
-209 -13 874 0
-210 -14 874 0
-148 -15 875 0
-149 -16 875 0
-150 -17 875 0
-151 -18 875 0
-152 -19 875 0
-153 -20 875 0
-154 -21 875 0
-239 -106 876 0
-240 -107 876 0
-241 -108 876 0
-242 -109 876 0
-243 -110 876 0
-244 -111 876 0
-245 -112 876 0
-225 -50 877 0
-226 -51 877 0
-227 -52 877 0
-228 -53 877 0
-229 -54 877 0
-230 -55 877 0
-231 -56 877 0
-239 -85 878 0
-240 -86 878 0
-241 -87 878 0
-242 -88 878 0
-243 -89 878 0
-244 -90 878 0
-245 -91 878 0
-225 -113 879 0
-226 -114 879 0
-227 -115 879 0
-228 -116 879 0
-229 -117 879 0
-230 -118 879 0
-231 -119 879 0
-106 -15 880 0
-107 -16 880 0
-108 -17 880 0
-109 -18 880 0
-110 -19 880 0
-111 -20 880 0
-112 -21 880 0
-190 -22 881 0
-191 -23 881 0
-192 -24 881 0
-193 -25 881 0
-194 -26 881 0
-195 -27 881 0
-196 -28 881 0
-239 -78 882 0
-240 -79 882 0
-241 -80 882 0
-242 -81 882 0
-243 -82 882 0
-244 -83 882 0
-245 -84 882 0
-120 -99 883 0
-121 -100 883 0
-122 -101 883 0
-123 -102 883 0
-124 -103 883 0
-125 -104 883 0
-126 -105 883 0
-183 -29 884 0
-184 -30 884 0
-185 -31 884 0
-186 -32 884 0
-187 -33 884 0
-188 -34 884 0
-189 -35 884 0
-197 -85 885 0
-198 -86 885 0
-199 -87 885 0
-200 -88 885 0
-201 -89 885 0
-202 -90 885 0
-203 -91 885 0
-106 -8 886 0
-107 -9 886 0
-108 -10 886 0
-109 -11 886 0
-110 -12 886 0
-111 -13 886 0
-112 -14 886 0
-239 -22 887 0
-240 -23 887 0
-241 -24 887 0
-242 -25 887 0
-243 -26 887 0
-244 -27 887 0
-245 -28 887 0
-225 -162 888 0
-226 -163 888 0
-227 -164 888 0
-228 -165 888 0
-229 -166 888 0
-230 -167 888 0
-231 -168 888 0
-190 -1 889 0
-191 -2 889 0
-192 -3 889 0
-193 -4 889 0
-194 -5 889 0
-195 -6 889 0
-196 -7 889 0
-204 -148 890 0
-205 -149 890 0
-206 -150 890 0
-207 -151 890 0
-208 -152 890 0
-209 -153 890 0
-210 -154 890 0
-197 -22 891 0
-198 -23 891 0
-199 -24 891 0
-200 -25 891 0
-201 -26 891 0
-202 -27 891 0
-203 -28 891 0
-232 -8 892 0
-233 -9 892 0
-234 -10 892 0
-235 -11 892 0
-236 -12 892 0
-237 -13 892 0
-238 -14 892 0
-225 -71 893 0
-226 -72 893 0
-227 -73 893 0
-228 -74 893 0
-229 -75 893 0
-230 -76 893 0
-231 -77 893 0
-176 -8 894 0
-177 -9 894 0
-178 -10 894 0
-179 -11 894 0
-180 -12 894 0
-181 -13 894 0
-182 -14 894 0
-239 -92 895 0
-240 -93 895 0
-241 -94 895 0
-242 -95 895 0
-243 -96 895 0
-244 -97 895 0
-245 -98 895 0
-218 -15 896 0
-219 -16 896 0
-220 -17 896 0
-221 -18 896 0
-222 -19 896 0
-223 -20 896 0
-224 -21 896 0
-204 -99 897 0
-205 -100 897 0
-206 -101 897 0
-207 -102 897 0
-208 -103 897 0
-209 -104 897 0
-210 -105 897 0
-169 -57 898 0
-170 -58 898 0
-171 -59 898 0
-172 -60 898 0
-173 -61 898 0
-174 -62 898 0
-175 -63 898 0
-190 -120 899 0
-191 -121 899 0
-192 -122 899 0
-193 -123 899 0
-194 -124 899 0
-195 -125 899 0
-196 -126 899 0
-57 -29 900 0
-58 -30 900 0
-59 -31 900 0
-60 -32 900 0
-61 -33 900 0
-62 -34 900 0
-63 -35 900 0
-211 -64 901 0
-212 -65 901 0
-213 -66 901 0
-214 -67 901 0
-215 -68 901 0
-216 -69 901 0
-217 -70 901 0
-183 -155 902 0
-184 -156 902 0
-185 -157 902 0
-186 -158 902 0
-187 -159 902 0
-188 -160 902 0
-189 -161 902 0
-64 -22 903 0
-65 -23 903 0
-66 -24 903 0
-67 -25 903 0
-68 -26 903 0
-69 -27 903 0
-70 -28 903 0
-218 -57 904 0
-219 -58 904 0
-220 -59 904 0
-221 -60 904 0
-222 -61 904 0
-223 -62 904 0
-224 -63 904 0
-169 -15 905 0
-170 -16 905 0
-171 -17 905 0
-172 -18 905 0
-173 -19 905 0
-174 -20 905 0
-175 -21 905 0
-106 -57 906 0
-107 -58 906 0
-108 -59 906 0
-109 -60 906 0
-110 -61 906 0
-111 -62 906 0
-112 -63 906 0
-190 -162 907 0
-191 -163 907 0
-192 -164 907 0
-193 -165 907 0
-194 -166 907 0
-195 -167 907 0
-196 -168 907 0
-197 -36 908 0
-198 -37 908 0
-199 -38 908 0
-200 -39 908 0
-201 -40 908 0
-202 -41 908 0
-203 -42 908 0
-162 -57 909 0
-163 -58 909 0
-164 -59 909 0
-165 -60 909 0
-166 -61 909 0
-167 -62 909 0
-168 -63 909 0
-190 -29 910 0
-191 -30 910 0
-192 -31 910 0
-193 -32 910 0
-194 -33 910 0
-195 -34 910 0
-196 -35 910 0
-253 -36 911 0
-254 -37 911 0
-255 -38 911 0
-256 -39 911 0
-257 -40 911 0
-258 -41 911 0
-259 -42 911 0
-197 -43 912 0
-198 -44 912 0
-199 -45 912 0
-200 -46 912 0
-201 -47 912 0
-202 -48 912 0
-203 -49 912 0
-246 -148 913 0
-247 -149 913 0
-248 -150 913 0
-249 -151 913 0
-250 -152 913 0
-251 -153 913 0
-252 -154 913 0
-106 -22 914 0
-107 -23 914 0
-108 -24 914 0
-109 -25 914 0
-110 -26 914 0
-111 -27 914 0
-112 -28 914 0
-225 -43 915 0
-226 -44 915 0
-227 -45 915 0
-228 -46 915 0
-229 -47 915 0
-230 -48 915 0
-231 -49 915 0
-204 -1 916 0
-205 -2 916 0
-206 -3 916 0
-207 -4 916 0
-208 -5 916 0
-209 -6 916 0
-210 -7 916 0
-232 -15 917 0
-233 -16 917 0
-234 -17 917 0
-235 -18 917 0
-236 -19 917 0
-237 -20 917 0
-238 -21 917 0
-253 -8 918 0
-254 -9 918 0
-255 -10 918 0
-256 -11 918 0
-257 -12 918 0
-258 -13 918 0
-259 -14 918 0
-211 -15 919 0
-212 -16 919 0
-213 -17 919 0
-214 -18 919 0
-215 -19 919 0
-216 -20 919 0
-217 -21 919 0
-155 -92 920 0
-156 -93 920 0
-157 -94 920 0
-158 -95 920 0
-159 -96 920 0
-160 -97 920 0
-161 -98 920 0
-218 -64 921 0
-219 -65 921 0
-220 -66 921 0
-221 -67 921 0
-222 -68 921 0
-223 -69 921 0
-224 -70 921 0
-239 -148 922 0
-240 -149 922 0
-241 -150 922 0
-242 -151 922 0
-243 -152 922 0
-244 -153 922 0
-245 -154 922 0
-148 -113 923 0
-149 -114 923 0
-150 -115 923 0
-151 -116 923 0
-152 -117 923 0
-153 -118 923 0
-154 -119 923 0
-253 -99 924 0
-254 -100 924 0
-255 -101 924 0
-256 -102 924 0
-257 -103 924 0
-258 -104 924 0
-259 -105 924 0
-246 -43 925 0
-247 -44 925 0
-248 -45 925 0
-249 -46 925 0
-250 -47 925 0
-251 -48 925 0
-252 -49 925 0
-36 -1 0
-38 -3 0
-39 -4 0
-40 -5 0
-41 -6 0
-42 -7 0
-278 -271 -265 0
-278 -271 -269 0
-278 -273 -271 0
-278 -274 -271 0
-280 -278 -273 0
-284 -281 0
-298 -295 -291 0
-298 -295 -294 0
-298 -297 -295 0
-300 -298 -297 0
-319 -301 0
-323 -320 -306 0
-323 -320 -315 0
-324 -323 -320 0
-325 -323 -320 0
-326 -323 -320 0
-327 -320 -307 0
-327 -325 -320 0
-328 -327 -320 0
-329 -327 -320 0
-330 -320 -316 0
-330 -326 -320 0
-330 -329 -320 0
-331 -330 -320 0
-301 -266 0
-332 -303 -271 0
-332 -305 -271 0
-332 -307 -271 0
-332 -309 -271 0
-332 -327 -307 0
-332 -327 -325 0
-332 -328 -327 0
-332 -329 -327 0
-333 -332 -304 0
-333 -332 -309 0
-333 -332 -328 0
-334 -333 -332 0
-333 -332 -306 0
-301 -287 0
-335 -312 -295 0
-335 -314 -295 0
-335 -316 -295 0
-335 -318 -295 0
-335 -330 -316 0
-335 -330 -326 0
-335 -330 -329 0
-335 -331 -330 0
-336 -335 -313 0
-336 -335 -318 0
-336 -335 -331 0
-336 -335 -315 0
-337 -336 -335 0
-263 -262 0
-341 -280 -278 0
-266 -262 0
-340 -332 -327 0
-345 -332 -327 0
-347 -332 -327 0
-348 -332 -327 0
-349 -332 -327 0
-341 -333 -332 0
-348 -333 -332 0
-350 -333 -332 0
-351 -333 -332 0
-346 -332 -319 0
-349 -332 -319 0
-351 -332 -319 0
-352 -332 -319 0
-271 -262 0
-353 -341 -280 0
-353 -341 -333 0
-353 -348 -333 0
-353 -350 -333 0
-353 -351 -333 0
-354 -353 -339 0
-354 -353 -350 0
-354 -353 -340 0
-284 -283 0
-362 -300 -298 0
-287 -283 0
-363 -335 -330 0
-360 -335 -330 0
-366 -335 -330 0
-367 -335 -330 0
-368 -335 -330 0
-364 -335 -319 0
-367 -335 -319 0
-369 -335 -319 0
-370 -335 -319 0
-362 -336 -335 0
-368 -336 -335 0
-370 -336 -335 0
-371 -336 -335 0
-295 -283 0
-375 -362 -300 0
-375 -362 -336 0
-375 -368 -336 0
-375 -370 -336 0
-375 -371 -336 0
-376 -375 -359 0
-376 -375 -371 0
-376 -375 -360 0
-8 -1 0
-9 -2 0
-10 -3 0
-11 -4 0
-12 -5 0
-13 -6 0
-14 -7 0
-274 -262 0
-340 -332 -268 0
-345 -332 -268 0
-347 -332 -268 0
-348 -332 -268 0
-349 -332 -268 0
-341 -332 -269 0
-348 -332 -269 0
-350 -332 -269 0
-351 -332 -269 0
-346 -332 -270 0
-349 -332 -270 0
-351 -332 -270 0
-352 -332 -270 0
-264 -262 0
-353 -341 -265 0
-353 -341 -269 0
-353 -348 -269 0
-353 -350 -269 0
-353 -351 -269 0
-353 -339 -273 0
-353 -350 -273 0
-353 -340 -273 0
-267 -262 0
-355 -301 -276 0
-346 -301 -276 0
-356 -301 -276 0
-346 -301 -270 0
-349 -301 -270 0
-351 -301 -270 0
-352 -301 -270 0
-344 -301 -277 0
-356 -301 -277 0
-352 -301 -277 0
-345 -301 -277 0
-357 -301 -277 0
-278 -264 0
-379 -353 -269 0
-380 -353 -269 0
-381 -353 -269 0
-382 -353 -269 0
-383 -353 -269 0
-382 -353 -273 0
-385 -353 -273 0
-353 -303 -274 0
-383 -353 -274 0
-385 -353 -274 0
-386 -353 -274 0
-278 -265 0
-387 -382 -273 0
-387 -385 -273 0
-323 -301 -270 0
-327 -301 -270 0
-330 -301 -270 0
-301 -274 -271 0
-327 -301 -274 0
-333 -301 -274 0
-301 -295 -277 0
-330 -301 -277 0
-336 -301 -277 0
-391 -300 -283 0
-330 -283 -277 0
-319 -283 -277 0
-336 -283 -277 0
-392 -300 -283 0
-392 -336 -283 0
-392 -376 -283 0
-29 -1 0
-30 -2 0
-31 -3 0
-32 -4 0
-33 -5 0
-34 -6 0
-35 -7 0
-294 -283 0
-363 -335 -289 0
-360 -335 -289 0
-366 -335 -289 0
-367 -335 -289 0
-368 -335 -289 0
-364 -335 -290 0
-367 -335 -290 0
-369 -335 -290 0
-370 -335 -290 0
-362 -335 -291 0
-368 -335 -291 0
-370 -335 -291 0
-371 -335 -291 0
-288 -283 0
-372 -301 -292 0
-364 -301 -292 0
-373 -301 -292 0
-364 -301 -290 0
-367 -301 -290 0
-369 -301 -290 0
-370 -301 -290 0
-344 -301 -293 0
-373 -301 -293 0
-369 -301 -293 0
-374 -301 -293 0
-363 -301 -293 0
-285 -283 0
-375 -362 -286 0
-375 -362 -291 0
-375 -368 -291 0
-375 -370 -291 0
-375 -371 -291 0
-375 -359 -297 0
-375 -371 -297 0
-375 -360 -297 0
-323 -301 -290 0
-327 -301 -290 0
-330 -301 -290 0
-301 -293 -271 0
-327 -301 -293 0
-333 -301 -293 0
-301 -295 -294 0
-330 -301 -294 0
-336 -301 -294 0
-389 -280 -262 0
-327 -293 -262 0
-333 -293 -262 0
-319 -293 -262 0
-393 -280 -262 0
-393 -333 -262 0
-393 -354 -262 0
-298 -285 0
-394 -375 -291 0
-395 -375 -291 0
-396 -375 -291 0
-397 -375 -291 0
-398 -375 -291 0
-375 -312 -294 0
-397 -375 -294 0
-399 -375 -294 0
-400 -375 -294 0
-398 -375 -297 0
-400 -375 -297 0
-298 -286 0
-404 -398 -297 0
-404 -400 -297 0
-378 -298 -295 0
-323 -320 -267 0
-327 -320 -267 0
-330 -320 -267 0
-332 -271 -267 0
-332 -327 -267 0
-333 -332 -267 0
-335 -295 -267 0
-335 -330 -267 0
-336 -335 -267 0
-300 -298 -276 0
-335 -330 -276 0
-335 -319 -276 0
-336 -335 -276 0
-375 -300 -276 0
-375 -336 -276 0
-376 -375 -276 0
-378 -283 0
-335 -288 -276 0
-335 -285 -276 0
-335 -289 -276 0
-335 -290 -276 0
-335 -291 -276 0
-301 -290 -276 0
-301 -293 -276 0
-301 -294 -276 0
-375 -286 -276 0
-375 -291 -276 0
-375 -294 -276 0
-375 -297 -276 0
-378 -298 0
-391 -375 -286 0
-391 -375 -291 0
-391 -375 -294 0
-391 -375 -297 0
-404 -391 -297 0
-404 -391 -285 0
-43 -8 0
-46 -11 0
-47 -12 0
-48 -13 0
-49 -14 0
-382 -341 -265 0
-385 -341 -265 0
-378 -355 -295 0
-378 -355 -300 0
-346 -295 -267 0
-355 -300 -276 0
-346 -330 -276 0
-346 -319 -276 0
-346 -336 -276 0
-356 -300 -276 0
-356 -336 -276 0
-376 -356 -276 0
-411 -344 -267 0
-351 -274 0
-407 -347 -268 0
-413 -347 -268 0
-418 -347 -268 0
-419 -347 -268 0
-420 -347 -268 0
-408 -348 -268 0
-419 -348 -268 0
-421 -348 -268 0
-422 -348 -268 0
-414 -349 -268 0
-420 -349 -268 0
-422 -349 -268 0
-423 -349 -268 0
-340 -274 0
-405 -341 -269 0
-408 -341 -269 0
-408 -348 -269 0
-419 -348 -269 0
-421 -348 -269 0
-422 -348 -269 0
-406 -350 -269 0
-421 -350 -269 0
-407 -350 -269 0
-345 -274 0
-364 -346 -270 0
-412 -346 -270 0
-414 -346 -270 0
-416 -346 -270 0
-414 -349 -270 0
-420 -349 -270 0
-422 -349 -270 0
-423 -349 -270 0
-411 -352 -270 0
-416 -352 -270 0
-423 -352 -270 0
-413 -352 -270 0
-424 -352 -270 0
-339 -264 0
-340 -264 0
-426 -348 -269 0
-429 -348 -269 0
-431 -348 -269 0
-432 -348 -269 0
-433 -348 -269 0
-432 -350 -269 0
-434 -350 -269 0
-430 -351 -269 0
-433 -351 -269 0
-434 -351 -269 0
-435 -351 -269 0
-341 -264 0
-432 -350 -273 0
-434 -350 -273 0
-344 -267 0
-312 -292 -276 0
-355 -288 -276 0
-355 -313 -276 0
-355 -314 -276 0
-356 -312 -276 0
-356 -314 -276 0
-356 -316 -276 0
-356 -318 -276 0
-345 -267 0
-349 -306 -270 0
-349 -315 -270 0
-349 -324 -270 0
-349 -325 -270 0
-349 -326 -270 0
-351 -307 -270 0
-351 -325 -270 0
-351 -328 -270 0
-351 -329 -270 0
-352 -316 -270 0
-352 -326 -270 0
-352 -329 -270 0
-352 -331 -270 0
-351 -325 -274 0
-346 -267 0
-356 -312 -277 0
-356 -314 -277 0
-356 -316 -277 0
-356 -318 -277 0
-352 -316 -277 0
-352 -326 -277 0
-352 -329 -277 0
-352 -331 -277 0
-357 -313 -277 0
-357 -318 -277 0
-357 -331 -277 0
-357 -315 -277 0
-357 -337 -277 0
-15 -8 0
-16 -9 0
-17 -10 0
-18 -11 0
-19 -12 0
-20 -13 0
-21 -14 0
-384 -264 0
-385 -264 0
-430 -380 -269 0
-426 -381 -269 0
-429 -381 -269 0
-431 -381 -269 0
-432 -381 -269 0
-433 -381 -269 0
-432 -382 -269 0
-434 -382 -269 0
-430 -383 -269 0
-433 -383 -269 0
-434 -383 -269 0
-435 -383 -269 0
-379 -264 0
-434 -382 -273 0
-380 -264 0
-373 -303 -274 0
-430 -303 -274 0
-436 -303 -274 0
-430 -383 -274 0
-433 -383 -274 0
-434 -383 -274 0
-435 -383 -274 0
-386 -304 -274 0
-436 -386 -274 0
-435 -386 -274 0
-429 -386 -274 0
-437 -386 -274 0
-379 -265 0
-438 -382 -273 0
-439 -382 -273 0
-440 -382 -273 0
-405 -385 -273 0
-440 -385 -273 0
-441 -385 -273 0
-442 -385 -273 0
-383 -347 -274 0
-383 -348 -274 0
-383 -349 -274 0
-385 -341 -274 0
-385 -348 -274 0
-385 -350 -274 0
-386 -346 -274 0
-386 -349 -274 0
-386 -352 -274 0
-372 -292 -267 0
-372 -355 -267 0
-372 -356 -267 0
-386 -349 -267 0
-386 -351 -267 0
-386 -352 -267 0
-390 -356 -267 0
-390 -352 -267 0
-390 -357 -267 0
-36 -8 0
-38 -10 0
-39 -11 0
-40 -12 0
-41 -13 0
-42 -14 0
-378 -284 0
-391 -295 -286 0
-391 -295 -291 0
-391 -295 -294 0
-391 -297 -295 0
-391 -300 -297 0
-391 -300 -285 0
-319 -267 0
-323 -306 -270 0
-323 -315 -270 0
-324 -323 -270 0
-325 -323 -270 0
-326 -323 -270 0
-327 -307 -270 0
-327 -325 -270 0
-328 -327 -270 0
-329 -327 -270 0
-330 -316 -270 0
-330 -326 -270 0
-330 -329 -270 0
-331 -330 -270 0
-267 -266 0
-305 -274 -271 0
-307 -274 -271 0
-309 -274 -271 0
-327 -307 -274 0
-327 -325 -274 0
-328 -327 -274 0
-329 -327 -274 0
-333 -304 -274 0
-333 -309 -274 0
-333 -328 -274 0
-334 -333 -274 0
-333 -306 -274 0
-287 -267 0
-312 -295 -277 0
-314 -295 -277 0
-316 -295 -277 0
-318 -295 -277 0
-330 -316 -277 0
-330 -326 -277 0
-330 -329 -277 0
-331 -330 -277 0
-336 -313 -277 0
-336 -318 -277 0
-336 -331 -277 0
-336 -315 -277 0
-337 -336 -277 0
-347 -327 -274 0
-348 -327 -274 0
-349 -327 -274 0
-341 -333 -274 0
-348 -333 -274 0
-350 -333 -274 0
-346 -319 -274 0
-349 -319 -274 0
-352 -319 -274 0
-279 -271 0
-348 -333 -264 0
-350 -333 -264 0
-351 -333 -264 0
-354 -350 -264 0
-284 -276 0
-391 -362 -300 0
-287 -276 0
-363 -330 -277 0
-360 -330 -277 0
-366 -330 -277 0
-367 -330 -277 0
-368 -330 -277 0
-364 -319 -277 0
-367 -319 -277 0
-369 -319 -277 0
-370 -319 -277 0
-362 -336 -277 0
-368 -336 -277 0
-370 -336 -277 0
-371 -336 -277 0
-295 -276 0
-392 -362 -300 0
-392 -362 -336 0
-392 -368 -336 0
-392 -370 -336 0
-392 -371 -336 0
-392 -376 -359 0
-392 -376 -371 0
-392 -376 -360 0
-378 -278 0
-389 -298 -276 0
-389 -335 -276 0
-389 -301 -276 0
-389 -375 -276 0
-391 -389 -375 0
-391 -389 -283 0
-404 -391 -389 0
-380 -347 -268 0
-380 -348 -268 0
-380 -349 -268 0
-380 -341 -269 0
-380 -348 -269 0
-380 -350 -269 0
-380 -346 -270 0
-380 -349 -270 0
-380 -352 -270 0
-303 -292 -276 0
-355 -303 -276 0
-356 -303 -276 0
-349 -303 -270 0
-351 -303 -270 0
-352 -303 -270 0
-356 -303 -277 0
-352 -303 -277 0
-357 -303 -277 0
-378 -263 0
-391 -389 -295 0
-391 -389 -300 0
-267 -263 0
-303 -295 -276 0
-303 -270 -266 0
-303 -287 -270 0
-323 -303 -270 0
-327 -303 -270 0
-330 -303 -270 0
-327 -303 -274 0
-333 -303 -274 0
-319 -303 -274 0
-303 -295 -277 0
-330 -303 -277 0
-319 -303 -277 0
-336 -303 -277 0
-276 -263 0
-391 -372 -295 0
-391 -372 -300 0
-372 -295 -277 0
-372 -330 -277 0
-372 -319 -277 0
-372 -336 -277 0
-392 -372 -284 0
-392 -372 -300 0
-392 -372 -336 0
-392 -372 -287 0
-392 -376 -372 0
-50 -15 0
-51 -16 0
-53 -18 0
-54 -19 0
-55 -20 0
-56 -21 0
-393 -355 -263 0
-373 -355 -263 0
-373 -346 -263 0
-373 -356 -263 0
-429 -380 -347 0
-429 -380 -349 0
-373 -303 -292 0
-373 -355 -303 0
-373 -356 -303 0
-430 -349 -303 0
-430 -351 -303 0
-430 -352 -303 0
-436 -356 -303 0
-436 -352 -303 0
-436 -357 -303 0
-450 -430 -380 0
-434 -385 0
-445 -431 -381 0
-449 -431 -381 0
-454 -431 -381 0
-456 -432 -381 0
-450 -433 -381 0
-454 -433 -381 0
-456 -433 -381 0
-457 -433 -381 0
-426 -385 0
-456 -432 -382 0
-429 -385 0
-430 -383 -307 0
-448 -430 -383 0
-450 -430 -383 0
-452 -430 -383 0
-450 -433 -383 0
-454 -433 -383 0
-456 -433 -383 0
-457 -433 -383 0
-447 -435 -383 0
-452 -435 -383 0
-457 -435 -383 0
-449 -435 -383 0
-458 -435 -383 0
-426 -379 0
-459 -432 -382 0
-461 -432 -382 0
-460 -434 -382 0
-461 -434 -382 0
-462 -434 -382 0
-463 -434 -382 0
-380 -304 0
-303 -293 -271 0
-364 -303 -271 0
-373 -303 -293 0
-373 -303 -266 0
-403 -373 -303 0
-411 -373 -303 0
-412 -373 -303 0
-436 -364 -303 0
-436 -412 -303 0
-436 -414 -303 0
-436 -416 -303 0
-429 -380 0
-433 -407 -383 0
-433 -413 -383 0
-433 -418 -383 0
-433 -419 -383 0
-433 -420 -383 0
-434 -408 -383 0
-434 -419 -383 0
-434 -421 -383 0
-434 -422 -383 0
-435 -414 -383 0
-435 -420 -383 0
-435 -422 -383 0
-435 -423 -383 0
-430 -380 0
-436 -386 -364 0
-436 -412 -386 0
-436 -414 -386 0
-436 -416 -386 0
-435 -414 -386 0
-435 -420 -386 0
-435 -422 -386 0
-435 -423 -386 0
-437 -411 -386 0
-437 -416 -386 0
-437 -423 -386 0
-437 -413 -386 0
-437 -424 -386 0
-22 -15 0
-23 -16 0
-24 -17 0
-25 -18 0
-26 -19 0
-27 -20 0
-28 -21 0
-441 -379 0
-460 -438 -382 0
-459 -439 -382 0
-461 -439 -382 0
-460 -440 -382 0
-461 -440 -382 0
-462 -440 -382 0
-463 -440 -382 0
-438 -379 0
-405 -385 -309 0
-460 -405 -385 0
-464 -405 -385 0
-460 -440 -385 0
-461 -440 -385 0
-462 -440 -385 0
-463 -440 -385 0
-442 -406 -385 0
-464 -442 -385 0
-463 -442 -385 0
-459 -442 -385 0
-466 -442 -385 0
-440 -431 -385 0
-440 -432 -385 0
-440 -433 -385 0
-441 -432 -385 0
-442 -430 -385 0
-442 -433 -385 0
-442 -435 -385 0
-380 -305 -271 0
-380 -373 -305 0
-436 -380 -305 0
-442 -433 -380 0
-442 -434 -380 0
-442 -435 -380 0
-438 -426 -380 0
-444 -436 -380 0
-444 -435 -380 0
-444 -437 -380 0
-43 -15 0
-46 -18 0
-47 -19 0
-48 -20 0
-49 -21 0
-292 -278 -276 0
-391 -292 -278 0
-292 -263 0
-389 -355 -295 0
-389 -355 -300 0
-346 -303 -295 0
-344 -263 0
-372 -355 -295 0
-372 -355 -300 0
-372 -346 -295 0
-372 -346 -330 0
-372 -346 -319 0
-372 -346 -336 0
-372 -356 -284 0
-372 -356 -300 0
-372 -356 -336 0
-372 -356 -287 0
-376 -372 -356 0
-411 -344 -303 0
-380 -351 0
-407 -383 -347 0
-413 -383 -347 0
-418 -383 -347 0
-419 -383 -347 0
-420 -383 -347 0
-408 -383 -348 0
-419 -383 -348 0
-421 -383 -348 0
-422 -383 -348 0
-414 -383 -349 0
-420 -383 -349 0
-422 -383 -349 0
-423 -383 -349 0
-380 -340 0
-408 -385 -341 0
-408 -385 -348 0
-419 -385 -348 0
-421 -385 -348 0
-422 -385 -348 0
-406 -385 -350 0
-421 -385 -350 0
-407 -385 -350 0
-380 -345 0
-386 -364 -346 0
-412 -386 -346 0
-414 -386 -346 0
-416 -386 -346 0
-414 -386 -349 0
-420 -386 -349 0
-422 -386 -349 0
-423 -386 -349 0
-411 -386 -352 0
-416 -386 -352 0
-423 -386 -352 0
-413 -386 -352 0
-424 -386 -352 0
-431 -385 -348 0
-432 -385 -348 0
-433 -385 -348 0
-432 -385 -350 0
-430 -385 -351 0
-433 -385 -351 0
-435 -385 -351 0
-432 -379 -350 0
-434 -379 -350 0
-344 -303 0
-372 -312 -292 0
-372 -355 -288 0
-372 -355 -313 0
-372 -355 -314 0
-372 -356 -312 0
-372 -356 -314 0
-372 -356 -316 0
-372 -356 -318 0
-345 -303 0
-386 -349 -306 0
-386 -349 -315 0
-386 -349 -324 0
-386 -349 -325 0
-386 -349 -326 0
-386 -351 -307 0
-386 -351 -325 0
-386 -351 -328 0
-386 -351 -329 0
-386 -352 -316 0
-386 -352 -326 0
-386 -352 -329 0
-386 -352 -331 0
-346 -303 0
-390 -356 -312 0
-390 -356 -314 0
-390 -356 -316 0
-390 -356 -318 0
-390 -352 -316 0
-390 -352 -326 0
-390 -352 -329 0
-390 -352 -331 0
-390 -357 -313 0
-390 -357 -318 0
-390 -357 -331 0
-390 -357 -315 0
-390 -357 -337 0
-389 -387 -276 0
-391 -389 -387 0
-265 -263 0
-389 -280 -276 0
-391 -389 -280 0
-303 -280 -276 0
-303 -280 -270 0
-303 -280 -274 0
-303 -280 -277 0
-378 -372 -280 0
-391 -372 -280 0
-372 -280 -277 0
-372 -280 -267 0
-392 -372 -280 0
-438 -431 -381 0
-438 -432 -381 0
-438 -433 -381 0
-438 -432 -382 0
-438 -434 -382 0
-438 -430 -383 0
-438 -433 -383 0
-438 -435 -383 0
-405 -303 -271 0
-405 -373 -303 0
-436 -405 -303 0
-433 -405 -383 0
-434 -405 -383 0
-435 -405 -383 0
-436 -405 -386 0
-435 -405 -386 0
-437 -405 -386 0
-339 -263 0
-292 -280 -278 0
-389 -344 -280 0
-389 -355 -280 0
-372 -292 -280 0
-372 -355 -280 0
-372 -346 -280 0
-372 -356 -280 0
-380 -339 0
-405 -383 -340 0
-405 -383 -345 0
-405 -383 -347 0
-405 -383 -348 0
-405 -383 -349 0
-405 -385 -348 0
-405 -385 -350 0
-405 -385 -351 0
-405 -386 -346 0
-405 -386 -349 0
-405 -386 -351 0
-405 -386 -352 0
-339 -303 0
-372 -305 -292 0
-372 -355 -305 0
-372 -346 -305 0
-372 -356 -305 0
-386 -346 -305 0
-386 -349 -305 0
-386 -351 -305 0
-386 -352 -305 0
-390 -344 -305 0
-390 -356 -305 0
-390 -352 -305 0
-390 -345 -305 0
-390 -357 -305 0
-57 -22 0
-58 -23 0
-59 -24 0
-60 -25 0
-61 -26 0
-62 -27 0
-63 -28 0
-393 -354 -339 0
-373 -354 -339 0
-373 -339 -309 0
-430 -339 -309 0
-436 -339 -309 0
-405 -309 -271 0
-405 -373 -309 0
-436 -405 -309 0
-460 -433 -405 0
-460 -434 -405 0
-460 -435 -405 0
-464 -436 -405 0
-464 -435 -405 0
-464 -437 -405 0
-462 -441 0
-471 -461 -439 0
-474 -461 -439 0
-459 -441 0
-460 -440 -408 0
-468 -460 -440 0
-471 -460 -440 0
-473 -460 -440 0
-471 -461 -440 0
-474 -461 -440 0
-467 -463 -440 0
-473 -463 -440 0
-474 -463 -440 0
-469 -463 -440 0
-475 -463 -440 0
-438 -406 0
-405 -341 -333 0
-405 -341 -307 0
-405 -333 -309 0
-405 -340 -309 0
-405 -374 -309 0
-447 -405 -309 0
-448 -405 -309 0
-464 -405 -307 0
-464 -448 -405 0
-464 -450 -405 0
-464 -452 -405 0
-459 -438 0
-461 -445 -440 0
-461 -449 -440 0
-461 -454 -440 0
-462 -456 -440 0
-463 -450 -440 0
-463 -454 -440 0
-463 -456 -440 0
-463 -457 -440 0
-460 -438 0
-464 -442 -307 0
-464 -448 -442 0
-464 -450 -442 0
-464 -452 -442 0
-463 -450 -442 0
-463 -454 -442 0
-463 -456 -442 0
-463 -457 -442 0
-466 -447 -442 0
-466 -452 -442 0
-466 -457 -442 0
-466 -449 -442 0
-466 -458 -442 0
-50 -22 0
-51 -23 0
-53 -25 0
-54 -26 0
-55 -27 0
-56 -28 0
-389 -353 -265 0
-389 -271 -265 0
-303 -271 -265 0
-372 -271 -265 0
-353 -292 -265 0
-339 -271 0
-353 -292 -280 0
-393 -344 -280 0
-393 -355 -280 0
-373 -292 -280 0
-373 -355 -280 0
-373 -346 -280 0
-373 -356 -280 0
-429 -405 -347 0
-429 -405 -349 0
-339 -304 0
-373 -305 -292 0
-373 -355 -305 0
-373 -346 -305 0
-373 -356 -305 0
-430 -346 -305 0
-430 -349 -305 0
-430 -351 -305 0
-430 -352 -305 0
-436 -344 -305 0
-436 -356 -305 0
-436 -352 -305 0
-436 -345 -305 0
-436 -357 -305 0
-447 -405 -304 0
-438 -434 0
-445 -440 -431 0
-449 -440 -431 0
-454 -440 -431 0
-456 -440 -432 0
-450 -440 -433 0
-454 -440 -433 0
-456 -440 -433 0
-457 -440 -433 0
-438 -426 0
-456 -441 -432 0
-438 -429 0
-442 -430 -307 0
-448 -442 -430 0
-450 -442 -430 0
-452 -442 -430 0
-450 -442 -433 0
-454 -442 -433 0
-456 -442 -433 0
-457 -442 -433 0
-447 -442 -435 0
-452 -442 -435 0
-457 -442 -435 0
-449 -442 -435 0
-458 -442 -435 0
-461 -441 -432 0
-460 -441 -434 0
-461 -441 -434 0
-463 -441 -434 0
-405 -304 0
-305 -293 -271 0
-364 -305 -271 0
-373 -305 -293 0
-373 -305 -266 0
-403 -373 -305 0
-411 -373 -305 0
-412 -373 -305 0
-436 -364 -305 0
-436 -412 -305 0
-436 -414 -305 0
-436 -416 -305 0
-429 -405 0
-442 -433 -407 0
-442 -433 -413 0
-442 -433 -418 0
-442 -433 -419 0
-442 -433 -420 0
-442 -434 -408 0
-442 -434 -419 0
-442 -434 -421 0
-442 -434 -422 0
-442 -435 -414 0
-442 -435 -420 0
-442 -435 -422 0
-442 -435 -423 0
-438 -434 -422 0
-430 -405 0
-444 -436 -364 0
-444 -436 -412 0
-444 -436 -414 0
-444 -436 -416 0
-444 -435 -414 0
-444 -435 -420 0
-444 -435 -422 0
-444 -435 -423 0
-444 -437 -411 0
-444 -437 -416 0
-444 -437 -423 0
-444 -437 -413 0
-444 -437 -424 0
-323 -320 -288 0
-327 -320 -288 0
-330 -320 -288 0
-332 -288 -271 0
-332 -327 -288 0
-333 -332 -288 0
-335 -295 -288 0
-335 -330 -288 0
-336 -335 -288 0
-332 -327 -292 0
-333 -332 -292 0
-332 -319 -292 0
-353 -333 -292 0
-354 -353 -292 0
-378 -262 0
-332 -292 -264 0
-332 -292 -267 0
-332 -292 -268 0
-332 -292 -269 0
-332 -292 -270 0
-353 -292 -269 0
-353 -292 -273 0
-353 -292 -274 0
-301 -292 -276 0
-301 -292 -270 0
-301 -292 -274 0
-301 -292 -277 0
-389 -353 -269 0
-389 -353 -273 0
-389 -353 -274 0
-389 -387 -273 0
-389 -387 -264 0
-71 -29 0
-73 -31 0
-74 -32 0
-75 -33 0
-76 -34 0
-77 -35 0
-378 -372 -271 0
-363 -323 -288 0
-364 -327 -292 0
-364 -333 -292 0
-364 -319 -292 0
-373 -333 -292 0
-373 -354 -292 0
-398 -362 -286 0
-400 -362 -286 0
-411 -344 -288 0
-477 -364 -288 0
-483 -362 -285 0
-370 -294 0
-476 -366 -289 0
-482 -366 -289 0
-486 -366 -289 0
-487 -366 -289 0
-488 -366 -289 0
-477 -367 -289 0
-487 -367 -289 0
-489 -367 -289 0
-490 -367 -289 0
-483 -368 -289 0
-488 -368 -289 0
-490 -368 -289 0
-491 -368 -289 0
-363 -294 0
-364 -346 -290 0
-436 -364 -290 0
-477 -364 -290 0
-448 -364 -290 0
-477 -367 -290 0
-487 -367 -290 0
-489 -367 -290 0
-490 -367 -290 0
-411 -369 -290 0
-448 -369 -290 0
-489 -369 -290 0
-492 -369 -290 0
-476 -369 -290 0
-360 -294 0
-480 -362 -291 0
-483 -362 -291 0
-483 -368 -291 0
-488 -368 -291 0
-490 -368 -291 0
-491 -368 -291 0
-481 -371 -291 0
-491 -371 -291 0
-482 -371 -291 0
-344 -288 0
-372 -304 -292 0
-373 -307 -292 0
-373 -309 -292 0
-363 -288 0
-367 -306 -290 0
-367 -315 -290 0
-367 -324 -290 0
-367 -325 -290 0
-367 -326 -290 0
-369 -307 -290 0
-369 -325 -290 0
-369 -328 -290 0
-369 -329 -290 0
-370 -316 -290 0
-370 -326 -290 0
-370 -329 -290 0
-370 -331 -290 0
-364 -288 0
-373 -307 -293 0
-373 -309 -293 0
-369 -307 -293 0
-369 -325 -293 0
-369 -328 -293 0
-369 -329 -293 0
-374 -304 -293 0
-374 -309 -293 0
-374 -328 -293 0
-374 -334 -293 0
-374 -306 -293 0
-360 -331 -294 0
-359 -285 0
-360 -285 0
-496 -368 -291 0
-494 -368 -291 0
-499 -368 -291 0
-500 -368 -291 0
-501 -368 -291 0
-497 -370 -291 0
-500 -370 -291 0
-502 -370 -291 0
-503 -370 -291 0
-501 -371 -291 0
-503 -371 -291 0
-362 -285 0
-501 -371 -297 0
-503 -371 -297 0
-36 -29 0
-38 -31 0
-39 -32 0
-40 -33 0
-41 -34 0
-42 -35 0
-389 -271 -269 0
-389 -273 -271 0
-389 -274 -271 0
-389 -280 -273 0
-389 -280 -264 0
-319 -288 0
-323 -306 -290 0
-323 -315 -290 0
-324 -323 -290 0
-325 -323 -290 0
-326 -323 -290 0
-327 -307 -290 0
-327 -325 -290 0
-328 -327 -290 0
-329 -327 -290 0
-330 -316 -290 0
-330 -326 -290 0
-330 -329 -290 0
-331 -330 -290 0
-288 -266 0
-307 -293 -271 0
-309 -293 -271 0
-327 -307 -293 0
-327 -325 -293 0
-328 -327 -293 0
-329 -327 -293 0
-333 -304 -293 0
-333 -309 -293 0
-333 -328 -293 0
-334 -333 -293 0
-333 -306 -293 0
-288 -287 0
-314 -295 -294 0
-316 -295 -294 0
-318 -295 -294 0
-330 -316 -294 0
-330 -326 -294 0
-330 -329 -294 0
-331 -330 -294 0
-336 -313 -294 0
-336 -318 -294 0
-336 -331 -294 0
-336 -315 -294 0
-337 -336 -294 0
-389 -341 -280 0
-292 -266 0
-340 -327 -293 0
-345 -327 -293 0
-347 -327 -293 0
-348 -327 -293 0
-349 -327 -293 0
-341 -333 -293 0
-348 -333 -293 0
-350 -333 -293 0
-351 -333 -293 0
-346 -319 -293 0
-349 -319 -293 0
-351 -319 -293 0
-352 -319 -293 0
-292 -271 0
-393 -341 -280 0
-393 -341 -333 0
-393 -348 -333 0
-393 -350 -333 0
-393 -351 -333 0
-393 -354 -350 0
-393 -354 -340 0
-299 -287 0
-366 -330 -294 0
-367 -330 -294 0
-368 -330 -294 0
-364 -319 -294 0
-367 -319 -294 0
-369 -319 -294 0
-362 -336 -294 0
-368 -336 -294 0
-371 -336 -294 0
-299 -295 0
-368 -336 -285 0
-370 -336 -285 0
-371 -336 -285 0
-376 -371 -285 0
-64 -29 0
-65 -30 0
-66 -31 0
-67 -32 0
-68 -33 0
-69 -34 0
-70 -35 0
-400 -285 0
-494 -395 -291 0
-496 -396 -291 0
-494 -396 -291 0
-499 -396 -291 0
-500 -396 -291 0
-501 -396 -291 0
-497 -397 -291 0
-500 -397 -291 0
-502 -397 -291 0
-503 -397 -291 0
-501 -398 -291 0
-503 -398 -291 0
-394 -285 0
-312 -295 -294 0
-356 -312 -294 0
-497 -312 -294 0
-412 -312 -294 0
-497 -397 -294 0
-500 -397 -294 0
-502 -397 -294 0
-503 -397 -294 0
-399 -313 -294 0
-412 -399 -294 0
-502 -399 -294 0
-504 -399 -294 0
-496 -399 -294 0
-395 -285 0
-501 -398 -297 0
-503 -398 -297 0
-397 -366 -294 0
-397 -367 -294 0
-397 -368 -294 0
-399 -364 -294 0
-399 -367 -294 0
-399 -369 -294 0
-400 -362 -294 0
-400 -368 -294 0
-400 -371 -294 0
-373 -355 -288 0
-399 -367 -288 0
-399 -369 -288 0
-399 -370 -288 0
-403 -373 -288 0
-403 -369 -288 0
-403 -374 -288 0
-395 -286 0
-505 -398 -297 0
-506 -398 -297 0
-507 -398 -297 0
-480 -400 -297 0
-507 -400 -297 0
-508 -400 -297 0
-509 -400 -297 0
-353 -269 -263 0
-353 -273 -263 0
-353 -274 -263 0
-387 -273 -263 0
-375 -291 -284 0
-375 -294 -284 0
-375 -297 -284 0
-404 -297 -284 0
-341 -266 -264 0
-347 -268 -266 0
-348 -268 -266 0
-349 -268 -266 0
-341 -269 -266 0
-348 -269 -266 0
-350 -269 -266 0
-346 -270 -266 0
-349 -270 -266 0
-352 -270 -266 0
-348 -271 -269 0
-350 -271 -269 0
-351 -271 -269 0
-350 -273 -271 0
-264 -263 0
-379 -271 -269 0
-380 -271 -269 0
-381 -271 -269 0
-382 -271 -269 0
-383 -271 -269 0
-382 -273 -271 0
-385 -273 -271 0
-383 -274 -271 0
-385 -274 -271 0
-386 -274 -271 0
-382 -280 -273 0
-385 -280 -273 0
-366 -289 -287 0
-367 -289 -287 0
-368 -289 -287 0
-364 -290 -287 0
-367 -290 -287 0
-369 -290 -287 0
-362 -291 -287 0
-368 -291 -287 0
-371 -291 -287 0
-368 -295 -291 0
-370 -295 -291 0
-371 -295 -291 0
-371 -297 -295 0
-285 -284 0
-394 -295 -291 0
-395 -295 -291 0
-396 -295 -291 0
-397 -295 -291 0
-398 -295 -291 0
-397 -295 -294 0
-399 -295 -294 0
-400 -295 -294 0
-398 -297 -295 0
-400 -297 -295 0
-286 -284 0
-398 -300 -297 0
-400 -300 -297 0
-79 -37 0
-341 -304 -263 0
-341 -305 -263 0
-348 -307 -271 0
-350 -307 -271 0
-351 -307 -271 0
-350 -309 -271 0
-362 -314 -284 0
-368 -316 -295 0
-370 -316 -295 0
-371 -316 -295 0
-371 -318 -295 0
-329 -319 0
-516 -323 -315 0
-512 -324 -323 0
-518 -324 -323 0
-522 -324 -323 0
-523 -324 -323 0
-524 -324 -323 0
-513 -325 -323 0
-523 -325 -323 0
-525 -325 -323 0
-526 -325 -323 0
-519 -326 -323 0
-524 -326 -323 0
-526 -326 -323 0
-527 -326 -323 0
-319 -306 0
-430 -327 -307 0
-464 -327 -307 0
-513 -327 -307 0
-468 -327 -307 0
-513 -327 -325 0
-523 -327 -325 0
-525 -327 -325 0
-526 -327 -325 0
-447 -328 -327 0
-468 -328 -327 0
-525 -328 -327 0
-528 -328 -327 0
-512 -328 -327 0
-319 -315 0
-497 -330 -316 0
-517 -330 -316 0
-519 -330 -316 0
-521 -330 -316 0
-519 -330 -326 0
-524 -330 -326 0
-526 -330 -326 0
-527 -330 -326 0
-516 -331 -330 0
-521 -331 -330 0
-527 -331 -330 0
-518 -331 -330 0
-529 -331 -330 0
-304 -266 0
-406 -305 -271 0
-408 -309 -271 0
-306 -266 0
-407 -327 -325 0
-413 -327 -325 0
-418 -327 -325 0
-419 -327 -325 0
-420 -327 -325 0
-408 -328 -327 0
-419 -328 -327 0
-421 -328 -327 0
-422 -328 -327 0
-414 -329 -327 0
-420 -329 -327 0
-422 -329 -327 0
-423 -329 -327 0
-307 -266 0
-408 -333 -309 0
-408 -333 -328 0
-419 -333 -328 0
-421 -333 -328 0
-422 -333 -328 0
-406 -334 -333 0
-421 -334 -333 0
-407 -334 -333 0
-313 -287 0
-480 -312 -295 0
-394 -314 -295 0
-481 -314 -295 0
-480 -318 -295 0
-483 -318 -295 0
-315 -287 0
-476 -330 -326 0
-482 -330 -326 0
-486 -330 -326 0
-487 -330 -326 0
-488 -330 -326 0
-477 -330 -329 0
-487 -330 -329 0
-489 -330 -329 0
-490 -330 -329 0
-483 -331 -330 0
-488 -331 -330 0
-490 -331 -330 0
-491 -331 -330 0
-477 -329 -319 0
-489 -319 -306 0
-476 -319 -306 0
-316 -287 0
-480 -336 -318 0
-483 -336 -318 0
-483 -336 -331 0
-488 -336 -331 0
-490 -336 -331 0
-491 -336 -331 0
-481 -337 -336 0
-491 -337 -336 0
-482 -337 -336 0
-43 -36 0
-46 -39 0
-47 -40 0
-48 -41 0
-49 -42 0
-381 -340 -271 0
-382 -341 -280 0
-385 -341 -280 0
-351 -266 0
-406 -340 -327 0
-407 -347 -327 0
-413 -347 -327 0
-418 -347 -327 0
-419 -347 -327 0
-420 -347 -327 0
-408 -348 -327 0
-419 -348 -327 0
-421 -348 -327 0
-422 -348 -327 0
-414 -349 -327 0
-420 -349 -327 0
-422 -349 -327 0
-423 -349 -327 0
-340 -266 0
-408 -341 -333 0
-408 -348 -333 0
-419 -348 -333 0
-421 -348 -333 0
-422 -348 -333 0
-406 -350 -333 0
-421 -350 -333 0
-407 -350 -333 0
-345 -266 0
-412 -346 -319 0
-414 -346 -319 0
-416 -346 -319 0
-414 -349 -319 0
-420 -349 -319 0
-422 -349 -319 0
-423 -349 -319 0
-411 -352 -319 0
-416 -352 -319 0
-423 -352 -319 0
-413 -352 -319 0
-424 -352 -319 0
-340 -271 0
-426 -348 -333 0
-429 -348 -333 0
-431 -348 -333 0
-432 -348 -333 0
-433 -348 -333 0
-432 -350 -333 0
-434 -350 -333 0
-430 -351 -333 0
-433 -351 -333 0
-434 -351 -333 0
-435 -351 -333 0
-341 -271 0
-432 -354 -350 0
-434 -354 -350 0
-349 -324 -319 0
-349 -325 -319 0
-349 -326 -319 0
-351 -319 -307 0
-351 -325 -319 0
-351 -328 -319 0
-352 -319 -316 0
-352 -326 -319 0
-352 -331 -319 0
-356 -312 -287 0
-356 -314 -287 0
-356 -318 -287 0
-352 -326 -287 0
-352 -329 -287 0
-352 -331 -287 0
-357 -318 -287 0
-357 -331 -287 0
-357 -337 -287 0
-71 -36 0
-73 -38 0
-74 -39 0
-75 -40 0
-76 -41 0
-77 -42 0
-359 -284 0
-398 -362 -300 0
-400 -362 -300 0
-370 -287 0
-481 -360 -330 0
-483 -360 -330 0
-476 -366 -330 0
-482 -366 -330 0
-486 -366 -330 0
-487 -366 -330 0
-488 -366 -330 0
-477 -367 -330 0
-487 -367 -330 0
-489 -367 -330 0
-490 -367 -330 0
-483 -368 -330 0
-488 -368 -330 0
-490 -368 -330 0
-491 -368 -330 0
-363 -287 0
-436 -364 -319 0
-477 -364 -319 0
-448 -364 -319 0
-477 -367 -319 0
-487 -367 -319 0
-489 -367 -319 0
-490 -367 -319 0
-411 -369 -319 0
-448 -369 -319 0
-489 -369 -319 0
-492 -369 -319 0
-476 -369 -319 0
-360 -287 0
-480 -362 -336 0
-483 -362 -336 0
-483 -368 -336 0
-488 -368 -336 0
-490 -368 -336 0
-491 -368 -336 0
-481 -371 -336 0
-491 -371 -336 0
-482 -371 -336 0
-367 -324 -319 0
-367 -325 -319 0
-367 -326 -319 0
-369 -319 -307 0
-369 -325 -319 0
-369 -328 -319 0
-370 -319 -316 0
-370 -326 -319 0
-370 -331 -319 0
-373 -309 -266 0
-369 -325 -266 0
-369 -328 -266 0
-369 -329 -266 0
-374 -309 -266 0
-374 -328 -266 0
-374 -334 -266 0
-359 -295 0
-360 -295 0
-496 -368 -336 0
-494 -368 -336 0
-499 -368 -336 0
-500 -368 -336 0
-501 -368 -336 0
-497 -370 -336 0
-500 -370 -336 0
-502 -370 -336 0
-503 -370 -336 0
-501 -371 -336 0
-503 -371 -336 0
-362 -295 0
-501 -376 -371 0
-503 -376 -371 0
-298 -292 -276 0
-335 -292 -276 0
-375 -292 -276 0
-391 -375 -292 0
-391 -292 -283 0
-382 -339 -273 0
-385 -339 -273 0
-391 -295 -292 0
-391 -300 -292 0
-391 -344 -300 0
-344 -330 -277 0
-344 -319 -277 0
-344 -336 -277 0
-392 -344 -300 0
-392 -344 -336 0
-392 -376 -344 0
-389 -276 -262 0
-391 -389 -262 0
-431 -381 -340 0
-432 -381 -340 0
-433 -381 -340 0
-432 -382 -340 0
-430 -383 -340 0
-433 -383 -340 0
-435 -383 -340 0
-432 -382 -341 0
-434 -382 -341 0
-379 -339 0
-438 -382 -341 0
-439 -382 -341 0
-440 -382 -341 0
-440 -385 -341 0
-441 -385 -341 0
-442 -385 -341 0
-292 -284 0
-355 -295 -286 0
-355 -295 -291 0
-355 -295 -294 0
-355 -297 -295 0
-355 -300 -297 0
-355 -300 -285 0
-345 -324 -323 0
-345 -325 -323 0
-345 -326 -323 0
-345 -327 -307 0
-345 -327 -325 0
-345 -328 -327 0
-345 -330 -316 0
-345 -330 -326 0
-345 -331 -330 0
-346 -312 -295 0
-346 -314 -295 0
-346 -318 -295 0
-346 -330 -326 0
-346 -330 -329 0
-346 -331 -330 0
-346 -336 -318 0
-346 -336 -331 0
-346 -337 -336 0
-344 -284 0
-362 -355 -300 0
-344 -287 0
-363 -346 -330 0
-360 -346 -330 0
-366 -346 -330 0
-367 -346 -330 0
-368 -346 -330 0
-364 -346 -319 0
-367 -346 -319 0
-369 -346 -319 0
-370 -346 -319 0
-362 -346 -336 0
-368 -346 -336 0
-370 -346 -336 0
-371 -346 -336 0
-344 -295 0
-362 -356 -300 0
-362 -356 -336 0
-368 -356 -336 0
-370 -356 -336 0
-371 -356 -336 0
-376 -359 -356 0
-376 -371 -356 0
-376 -360 -356 0
-87 -45 0
-432 -408 -341 0
-434 -408 -341 0
-403 -344 -314 0
-412 -344 -312 0
-412 -344 -314 0
-412 -344 -316 0
-412 -344 -318 0
-412 -346 -312 0
-412 -346 -314 0
-412 -346 -318 0
-414 -346 -326 0
-414 -346 -329 0
-414 -346 -331 0
-416 -346 -318 0
-416 -346 -331 0
-416 -346 -337 0
-534 -411 -345 0
-422 -351 0
-467 -407 -347 0
-530 -407 -347 0
-531 -407 -347 0
-536 -413 -347 0
-530 -418 -347 0
-536 -418 -347 0
-540 -418 -347 0
-531 -419 -347 0
-541 -419 -347 0
-537 -420 -347 0
-540 -420 -347 0
-541 -420 -347 0
-542 -420 -347 0
-407 -351 0
-460 -408 -348 0
-531 -408 -348 0
-531 -419 -348 0
-541 -419 -348 0
-467 -421 -348 0
-530 -421 -348 0
-530 -422 -348 0
-413 -351 0
-477 -414 -349 0
-535 -414 -349 0
-537 -414 -349 0
-539 -414 -349 0
-537 -420 -349 0
-540 -420 -349 0
-541 -420 -349 0
-542 -420 -349 0
-534 -423 -349 0
-539 -423 -349 0
-542 -423 -349 0
-536 -423 -349 0
-543 -423 -349 0
-406 -340 0
-445 -408 -341 0
-407 -340 0
-445 -419 -348 0
-449 -419 -348 0
-454 -419 -348 0
-456 -421 -348 0
-450 -422 -348 0
-454 -422 -348 0
-456 -422 -348 0
-457 -422 -348 0
-408 -340 0
-456 -421 -350 0
-411 -345 0
-399 -364 -346 0
-497 -364 -346 0
-412 -399 -346 0
-412 -363 -346 0
-511 -412 -346 0
-516 -412 -346 0
-517 -412 -346 0
-497 -416 -346 0
-517 -416 -346 0
-519 -416 -346 0
-521 -416 -346 0
-413 -345 0
-512 -420 -349 0
-518 -420 -349 0
-522 -420 -349 0
-523 -420 -349 0
-524 -420 -349 0
-513 -422 -349 0
-523 -422 -349 0
-525 -422 -349 0
-526 -422 -349 0
-519 -423 -349 0
-524 -423 -349 0
-526 -423 -349 0
-527 -423 -349 0
-414 -345 0
-497 -416 -352 0
-517 -416 -352 0
-519 -416 -352 0
-521 -416 -352 0
-519 -423 -352 0
-524 -423 -352 0
-526 -423 -352 0
-527 -423 -352 0
-516 -424 -352 0
-521 -424 -352 0
-527 -424 -352 0
-518 -424 -352 0
-529 -424 -352 0
-50 -43 0
-53 -46 0
-54 -47 0
-55 -48 0
-56 -49 0
-434 -340 0
-445 -431 -348 0
-449 -431 -348 0
-454 -431 -348 0
-456 -432 -348 0
-450 -433 -348 0
-454 -433 -348 0
-456 -433 -348 0
-457 -433 -348 0
-426 -340 0
-456 -432 -350 0
-429 -340 0
-448 -430 -351 0
-450 -430 -351 0
-452 -430 -351 0
-450 -433 -351 0
-454 -433 -351 0
-456 -433 -351 0
-457 -433 -351 0
-445 -434 -351 0
-447 -435 -351 0
-452 -435 -351 0
-457 -435 -351 0
-449 -435 -351 0
-458 -435 -351 0
-426 -341 0
-459 -432 -350 0
-461 -432 -350 0
-460 -434 -350 0
-461 -434 -350 0
-462 -434 -350 0
-463 -434 -350 0
-433 -418 -351 0
-433 -419 -351 0
-433 -420 -351 0
-434 -408 -351 0
-434 -419 -351 0
-434 -421 -351 0
-435 -414 -351 0
-435 -420 -351 0
-435 -423 -351 0
-436 -364 -345 0
-436 -412 -345 0
-436 -416 -345 0
-435 -420 -345 0
-435 -422 -345 0
-435 -423 -345 0
-437 -416 -345 0
-437 -423 -345 0
-437 -424 -345 0
-79 -44 0
-312 -295 -292 0
-312 -300 -292 0
-344 -312 0
-362 -355 -314 0
-344 -313 0
-362 -356 -314 0
-362 -356 -316 0
-368 -356 -316 0
-370 -356 -316 0
-371 -356 -316 0
-359 -356 -318 0
-371 -356 -318 0
-360 -356 -318 0
-345 -329 0
-513 -349 -306 0
-512 -349 -324 0
-518 -349 -324 0
-522 -349 -324 0
-523 -349 -324 0
-524 -349 -324 0
-513 -349 -325 0
-523 -349 -325 0
-525 -349 -325 0
-526 -349 -325 0
-519 -349 -326 0
-524 -349 -326 0
-526 -349 -326 0
-527 -349 -326 0
-345 -306 0
-464 -351 -307 0
-513 -351 -307 0
-468 -351 -307 0
-513 -351 -325 0
-523 -351 -325 0
-525 -351 -325 0
-526 -351 -325 0
-447 -351 -328 0
-468 -351 -328 0
-525 -351 -328 0
-528 -351 -328 0
-512 -351 -328 0
-345 -315 0
-497 -352 -316 0
-517 -352 -316 0
-519 -352 -316 0
-521 -352 -316 0
-519 -352 -326 0
-524 -352 -326 0
-526 -352 -326 0
-527 -352 -326 0
-516 -352 -331 0
-521 -352 -331 0
-527 -352 -331 0
-518 -352 -331 0
-529 -352 -331 0
-418 -351 -325 0
-419 -351 -325 0
-420 -351 -325 0
-408 -351 -328 0
-419 -351 -328 0
-421 -351 -328 0
-414 -351 -329 0
-420 -351 -329 0
-423 -351 -329 0
-419 -340 -328 0
-421 -340 -328 0
-422 -340 -328 0
-421 -340 -334 0
-346 -313 0
-480 -356 -312 0
-394 -356 -314 0
-481 -356 -314 0
-480 -356 -318 0
-483 -356 -318 0
-346 -315 0
-476 -352 -326 0
-482 -352 -326 0
-486 -352 -326 0
-487 -352 -326 0
-488 -352 -326 0
-477 -352 -329 0
-487 -352 -329 0
-489 -352 -329 0
-490 -352 -329 0
-483 -352 -331 0
-488 -352 -331 0
-490 -352 -331 0
-491 -352 -331 0
-346 -316 0
-480 -357 -318 0
-483 -357 -318 0
-483 -357 -331 0
-488 -357 -331 0
-490 -357 -331 0
-491 -357 -331 0
-481 -357 -337 0
-491 -357 -337 0
-482 -357 -337 0
-389 -353 -276 0
-391 -389 -353 0
-389 -276 -271 0
-391 -389 -271 0
-303 -276 -271 0
-303 -271 -270 0
-303 -274 -271 0
-303 -277 -271 0
-391 -372 -271 0
-372 -277 -271 0
-372 -271 -267 0
-392 -372 -271 0
-389 -355 -271 0
-372 -355 -271 0
-372 -346 -271 0
-372 -356 -271 0
-372 -355 -304 0
-372 -356 -304 0
-386 -349 -304 0
-386 -351 -304 0
-386 -352 -304 0
-390 -356 -304 0
-390 -352 -304 0
-390 -357 -304 0
-303 -280 -264 0
-372 -280 -264 0
-461 -439 -426 0
-460 -440 -426 0
-461 -440 -426 0
-463 -440 -426 0
-353 -292 -276 0
-391 -353 -292 0
-393 -344 -287 0
-393 -355 -295 0
-393 -355 -300 0
-344 -271 0
-373 -355 -295 0
-373 -355 -300 0
-373 -346 -295 0
-373 -346 -330 0
-373 -346 -319 0
-373 -346 -336 0
-373 -356 -284 0
-373 -356 -300 0
-373 -356 -336 0
-373 -356 -287 0
-376 -373 -356 0
-413 -345 -304 0
-429 -407 -347 0
-429 -418 -347 0
-429 -419 -347 0
-429 -420 -347 0
-429 -408 -348 0
-429 -419 -348 0
-429 -421 -348 0
-429 -414 -349 0
-429 -420 -349 0
-429 -423 -349 0
-430 -364 -346 0
-430 -412 -346 0
-430 -416 -346 0
-430 -414 -349 0
-430 -420 -349 0
-430 -422 -349 0
-430 -423 -349 0
-430 -416 -352 0
-430 -423 -352 0
-430 -424 -352 0
-344 -304 0
-373 -312 -292 0
-373 -355 -313 0
-373 -355 -314 0
-373 -356 -312 0
-373 -356 -314 0
-373 -356 -316 0
-373 -356 -318 0
-345 -304 0
-430 -349 -306 0
-430 -349 -315 0
-430 -349 -324 0
-430 -349 -325 0
-430 -349 -326 0
-430 -351 -325 0
-430 -351 -328 0
-430 -351 -329 0
-430 -352 -316 0
-430 -352 -326 0
-430 -352 -329 0
-430 -352 -331 0
-346 -304 0
-436 -356 -312 0
-436 -356 -314 0
-436 -356 -316 0
-436 -356 -318 0
-436 -352 -316 0
-436 -352 -326 0
-436 -352 -329 0
-436 -352 -331 0
-436 -357 -313 0
-436 -357 -318 0
-436 -357 -331 0
-436 -357 -315 0
-436 -357 -337 0
-92 -50 0
-93 -51 0
-95 -53 0
-96 -54 0
-97 -55 0
-98 -56 0
-403 -374 -304 0
-412 -374 -304 0
-448 -412 -304 0
-448 -414 -304 0
-448 -416 -304 0
-448 -430 -364 0
-448 -430 -412 0
-448 -430 -416 0
-450 -430 -420 0
-450 -430 -422 0
-450 -430 -423 0
-452 -430 -416 0
-452 -430 -423 0
-452 -430 -424 0
-456 -434 0
-548 -454 -431 0
-551 -454 -431 0
-445 -434 0
-449 -434 0
-513 -450 -433 0
-546 -450 -433 0
-548 -450 -433 0
-550 -450 -433 0
-548 -454 -433 0
-551 -454 -433 0
-545 -457 -433 0
-550 -457 -433 0
-551 -457 -433 0
-547 -457 -433 0
-553 -457 -433 0
-445 -426 0
-471 -456 -432 0
-474 -456 -432 0
-447 -429 0
-430 -369 -307 0
-477 -430 -307 0
-448 -430 -369 0
-448 -430 -306 0
-504 -448 -430 0
-534 -448 -430 0
-535 -448 -430 0
-534 -450 -430 0
-477 -452 -430 0
-535 -452 -430 0
-537 -452 -430 0
-539 -452 -430 0
-449 -429 0
-530 -454 -433 0
-536 -454 -433 0
-540 -454 -433 0
-531 -456 -433 0
-541 -456 -433 0
-537 -457 -433 0
-540 -457 -433 0
-541 -457 -433 0
-542 -457 -433 0
-450 -429 0
-477 -452 -435 0
-535 -452 -435 0
-537 -452 -435 0
-539 -452 -435 0
-537 -457 -435 0
-540 -457 -435 0
-541 -457 -435 0
-542 -457 -435 0
-534 -458 -435 0
-539 -458 -435 0
-542 -458 -435 0
-536 -458 -435 0
-543 -458 -435 0
-57 -50 0
-58 -51 0
-60 -53 0
-61 -54 0
-62 -55 0
-63 -56 0
-462 -426 0
-471 -461 -432 0
-474 -461 -432 0
-459 -426 0
-468 -460 -434 0
-471 -460 -434 0
-473 -460 -434 0
-471 -461 -434 0
-474 -461 -434 0
-467 -463 -434 0
-473 -463 -434 0
-474 -463 -434 0
-469 -463 -434 0
-475 -463 -434 0
-461 -454 -434 0
-463 -450 -434 0
-463 -454 -434 0
-463 -457 -434 0
-464 -429 -307 0
-464 -448 -429 0
-464 -452 -429 0
-463 -454 -429 0
-463 -456 -429 0
-463 -457 -429 0
-459 -456 -429 0
-459 -445 -429 0
-466 -452 -429 0
-466 -457 -429 0
-466 -458 -429 0
-87 -52 0
-355 -293 -271 0
-364 -355 -271 0
-364 -346 -271 0
-364 -356 -271 0
-312 -293 -271 0
-364 -304 0
-373 -312 -293 0
-403 -373 -313 0
-403 -373 -314 0
-412 -373 -312 0
-412 -373 -314 0
-412 -373 -316 0
-412 -373 -318 0
-411 -304 0
-436 -412 -312 0
-436 -412 -314 0
-436 -412 -316 0
-436 -412 -318 0
-436 -414 -316 0
-436 -414 -326 0
-436 -414 -329 0
-436 -414 -331 0
-436 -416 -313 0
-436 -416 -318 0
-436 -416 -331 0
-436 -416 -315 0
-436 -416 -337 0
-429 -422 0
-467 -433 -407 0
-530 -433 -407 0
-531 -433 -407 0
-534 -433 -413 0
-530 -433 -418 0
-536 -433 -418 0
-540 -433 -418 0
-531 -433 -419 0
-541 -433 -419 0
-537 -433 -420 0
-540 -433 -420 0
-541 -433 -420 0
-542 -433 -420 0
-429 -407 0
-531 -434 -408 0
-531 -434 -419 0
-541 -434 -419 0
-467 -434 -421 0
-530 -434 -421 0
-429 -413 0
-477 -435 -414 0
-535 -435 -414 0
-537 -435 -414 0
-539 -435 -414 0
-537 -435 -420 0
-540 -435 -420 0
-541 -435 -420 0
-542 -435 -420 0
-534 -435 -423 0
-539 -435 -423 0
-542 -435 -423 0
-536 -435 -423 0
-543 -435 -423 0
-454 -434 -419 0
-450 -434 -422 0
-454 -434 -422 0
-457 -434 -422 0
-456 -426 -421 0
-363 -304 -266 0
-430 -411 0
-436 -399 -364 0
-497 -436 -364 0
-436 -412 -399 0
-436 -412 -363 0
-511 -436 -412 0
-516 -436 -412 0
-517 -436 -412 0
-497 -436 -416 0
-517 -436 -416 0
-519 -436 -416 0
-521 -436 -416 0
-430 -413 0
-512 -435 -420 0
-518 -435 -420 0
-522 -435 -420 0
-523 -435 -420 0
-524 -435 -420 0
-513 -435 -422 0
-523 -435 -422 0
-525 -435 -422 0
-526 -435 -422 0
-519 -435 -423 0
-524 -435 -423 0
-526 -435 -423 0
-527 -435 -423 0
-430 -414 0
-497 -437 -416 0
-517 -437 -416 0
-519 -437 -416 0
-521 -437 -416 0
-519 -437 -423 0
-524 -437 -423 0
-526 -437 -423 0
-527 -437 -423 0
-516 -437 -424 0
-521 -437 -424 0
-527 -437 -424 0
-518 -437 -424 0
-529 -437 -424 0
-303 -280 -273 0
-372 -280 -273 0
-341 -303 -280 0
-372 -341 -280 0
-405 -341 -303 0
-405 -383 -341 0
-405 -386 -341 0
-372 -341 -305 0
-386 -341 -305 0
-380 -341 -305 0
-390 -341 -305 0
-373 -341 -280 0
-373 -341 -305 0
-430 -341 -305 0
-436 -341 -305 0
-406 -373 -305 0
-436 -406 -305 0
-442 -433 -406 0
-442 -434 -406 0
-442 -435 -406 0
-444 -436 -406 0
-444 -435 -406 0
-444 -437 -406 0
-303 -273 -271 0
-372 -273 -271 0
-393 -354 -344 0
-393 -355 -354 0
-373 -355 -354 0
-373 -354 -346 0
-373 -356 -354 0
-429 -406 -347 0
-429 -406 -349 0
-341 -304 0
-373 -355 -309 0
-373 -346 -309 0
-373 -356 -309 0
-430 -346 -309 0
-430 -349 -309 0
-430 -351 -309 0
-430 -352 -309 0
-436 -344 -309 0
-436 -356 -309 0
-436 -352 -309 0
-436 -345 -309 0
-436 -357 -309 0
-459 -454 -431 0
-459 -450 -433 0
-459 -454 -433 0
-459 -457 -433 0
-460 -430 -307 0
-460 -448 -430 0
-460 -452 -430 0
-460 -454 -433 0
-460 -456 -433 0
-460 -457 -433 0
-460 -447 -435 0
-460 -452 -435 0
-460 -457 -435 0
-460 -458 -435 0
-364 -341 -271 0
-406 -304 0
-364 -309 -271 0
-403 -373 -309 0
-411 -373 -309 0
-412 -373 -309 0
-436 -364 -309 0
-436 -412 -309 0
-436 -414 -309 0
-436 -416 -309 0
-429 -406 0
-460 -433 -407 0
-460 -433 -413 0
-460 -433 -418 0
-460 -433 -419 0
-460 -433 -420 0
-460 -434 -408 0
-460 -434 -419 0
-460 -434 -421 0
-460 -434 -422 0
-460 -435 -414 0
-460 -435 -420 0
-460 -435 -422 0
-460 -435 -423 0
-430 -406 0
-464 -436 -364 0
-464 -436 -412 0
-464 -436 -414 0
-464 -436 -416 0
-464 -435 -414 0
-464 -435 -420 0
-464 -435 -422 0
-464 -435 -423 0
-464 -437 -411 0
-464 -437 -416 0
-464 -437 -423 0
-464 -437 -413 0
-464 -437 -424 0
-99 -57 0
-100 -58 0
-101 -59 0
-102 -60 0
-103 -61 0
-104 -62 0
-105 -63 0
-406 -374 -334 0
-448 -406 -334 0
-468 -448 -406 0
-468 -450 -406 0
-468 -452 -406 0
-468 -460 -307 0
-468 -460 -448 0
-468 -460 -452 0
-471 -460 -454 0
-471 -460 -456 0
-471 -460 -457 0
-473 -460 -452 0
-473 -460 -457 0
-473 -460 -458 0
-469 -462 0
-531 -471 -461 0
-555 -471 -461 0
-556 -471 -461 0
-558 -471 -461 0
-554 -474 -461 0
-558 -474 -461 0
-559 -474 -461 0
-467 -459 0
-460 -408 -328 0
-513 -460 -408 0
-468 -460 -328 0
-468 -460 -407 0
-492 -468 -460 0
-545 -468 -460 0
-546 -468 -460 0
-513 -473 -460 0
-546 -473 -460 0
-548 -473 -460 0
-550 -473 -460 0
-469 -459 0
-548 -474 -461 0
-471 -459 0
-513 -473 -463 0
-546 -473 -463 0
-548 -473 -463 0
-550 -473 -463 0
-548 -474 -463 0
-551 -474 -463 0
-545 -475 -463 0
-550 -475 -463 0
-551 -475 -463 0
-547 -475 -463 0
-553 -475 -463 0
-92 -57 0
-93 -58 0
-95 -60 0
-96 -61 0
-97 -62 0
-98 -63 0
-373 -341 -333 0
-373 -341 -307 0
-430 -341 -307 0
-436 -341 -307 0
-364 -341 -333 0
-406 -307 0
-364 -333 -309 0
-403 -374 -309 0
-411 -374 -309 0
-412 -374 -309 0
-448 -364 -309 0
-448 -412 -309 0
-448 -414 -309 0
-448 -416 -309 0
-460 -449 -413 0
-447 -406 0
-464 -448 -364 0
-464 -448 -412 0
-464 -448 -414 0
-464 -448 -416 0
-464 -450 -414 0
-464 -450 -420 0
-464 -450 -422 0
-464 -450 -423 0
-464 -452 -411 0
-464 -452 -416 0
-464 -452 -423 0
-464 -452 -413 0
-464 -452 -424 0
-459 -456 0
-548 -461 -454 0
-551 -461 -454 0
-459 -445 0
-459 -449 0
-513 -463 -450 0
-546 -463 -450 0
-548 -463 -450 0
-550 -463 -450 0
-548 -463 -454 0
-551 -463 -454 0
-545 -463 -457 0
-550 -463 -457 0
-551 -463 -457 0
-547 -463 -457 0
-553 -463 -457 0
-471 -462 -456 0
-474 -462 -456 0
-460 -447 0
-464 -369 -307 0
-477 -464 -307 0
-464 -448 -369 0
-464 -448 -306 0
-504 -464 -448 0
-534 -464 -448 0
-535 -464 -448 0
-477 -464 -452 0
-535 -464 -452 0
-537 -464 -452 0
-539 -464 -452 0
-460 -449 0
-530 -463 -454 0
-536 -463 -454 0
-531 -463 -456 0
-541 -463 -456 0
-537 -463 -457 0
-540 -463 -457 0
-541 -463 -457 0
-542 -463 -457 0
-460 -450 0
-477 -466 -452 0
-535 -466 -452 0
-537 -466 -452 0
-539 -466 -452 0
-537 -466 -457 0
-540 -466 -457 0
-541 -466 -457 0
-542 -466 -457 0
-534 -466 -458 0
-539 -466 -458 0
-542 -466 -458 0
-536 -466 -458 0
-543 -466 -458 0
-391 -332 -292 0
-391 -301 -292 0
-394 -366 -289 0
-394 -367 -289 0
-394 -368 -289 0
-394 -364 -290 0
-394 -367 -290 0
-394 -369 -290 0
-394 -362 -291 0
-394 -368 -291 0
-394 -371 -291 0
-367 -312 -290 0
-369 -312 -290 0
-370 -312 -290 0
-369 -312 -293 0
-374 -312 -293 0
-288 -284 0
-312 -290 -266 0
-312 -290 -287 0
-323 -312 -290 0
-327 -312 -290 0
-330 -312 -290 0
-327 -312 -293 0
-333 -312 -293 0
-319 -312 -293 0
-312 -295 -294 0
-330 -312 -294 0
-319 -312 -294 0
-336 -312 -294 0
-355 -327 -293 0
-355 -333 -293 0
-355 -319 -293 0
-393 -355 -333 0
-393 -355 -266 0
-113 -64 0
-114 -65 0
-115 -66 0
-116 -67 0
-117 -68 0
-118 -69 0
-119 -70 0
-364 -356 -284 0
-497 -367 -312 0
-497 -369 -312 0
-497 -370 -312 0
-412 -369 -312 0
-412 -374 -312 0
-507 -494 -395 0
-503 -400 0
-560 -499 -396 0
-564 -499 -396 0
-566 -499 -396 0
-561 -500 -396 0
-566 -500 -396 0
-567 -500 -396 0
-568 -500 -396 0
-568 -501 -396 0
-496 -400 0
-497 -397 -316 0
-497 -416 -397 0
-561 -497 -397 0
-535 -497 -397 0
-561 -500 -397 0
-566 -500 -397 0
-567 -500 -397 0
-568 -500 -397 0
-516 -502 -397 0
-535 -502 -397 0
-567 -502 -397 0
-570 -502 -397 0
-560 -502 -397 0
-494 -400 0
-568 -501 -398 0
-394 -313 0
-411 -356 -312 0
-477 -412 -312 0
-448 -412 -312 0
-496 -394 0
-500 -476 -397 0
-500 -482 -397 0
-500 -486 -397 0
-500 -487 -397 0
-500 -488 -397 0
-502 -477 -397 0
-502 -487 -397 0
-502 -489 -397 0
-502 -490 -397 0
-503 -483 -397 0
-503 -488 -397 0
-503 -490 -397 0
-503 -491 -397 0
-497 -394 0
-477 -412 -399 0
-448 -412 -399 0
-502 -477 -399 0
-502 -487 -399 0
-502 -489 -399 0
-502 -490 -399 0
-504 -411 -399 0
-504 -448 -399 0
-504 -489 -399 0
-504 -492 -399 0
-504 -476 -399 0
-494 -395 0
-571 -501 -398 0
-572 -503 -398 0
-573 -503 -398 0
-574 -503 -398 0
-575 -503 -398 0
-71 -64 0
-73 -66 0
-74 -67 0
-75 -68 0
-76 -69 0
-77 -70 0
-364 -355 -327 0
-364 -355 -333 0
-364 -355 -319 0
-373 -355 -333 0
-373 -355 -266 0
-477 -364 -312 0
-394 -370 0
-476 -397 -366 0
-482 -397 -366 0
-486 -397 -366 0
-487 -397 -366 0
-488 -397 -366 0
-477 -397 -367 0
-487 -397 -367 0
-489 -397 -367 0
-490 -397 -367 0
-483 -397 -368 0
-488 -397 -368 0
-490 -397 -368 0
-491 -397 -368 0
-394 -363 0
-477 -399 -364 0
-448 -399 -364 0
-477 -399 -367 0
-487 -399 -367 0
-489 -399 -367 0
-490 -399 -367 0
-411 -399 -369 0
-448 -399 -369 0
-489 -399 -369 0
-492 -399 -369 0
-476 -399 -369 0
-394 -360 0
-483 -400 -362 0
-483 -400 -368 0
-488 -400 -368 0
-490 -400 -368 0
-491 -400 -368 0
-481 -400 -371 0
-491 -400 -371 0
-482 -400 -371 0
-373 -355 -307 0
-363 -312 0
-399 -367 -306 0
-399 -367 -315 0
-399 -367 -324 0
-399 -367 -325 0
-399 -367 -326 0
-399 -369 -307 0
-399 -369 -325 0
-399 -369 -328 0
-399 -369 -329 0
-399 -370 -316 0
-399 -370 -326 0
-399 -370 -329 0
-399 -370 -331 0
-364 -312 0
-403 -373 -307 0
-403 -369 -307 0
-403 -369 -325 0
-403 -369 -328 0
-403 -369 -329 0
-403 -374 -328 0
-403 -374 -334 0
-403 -374 -306 0
-394 -360 -315 0
-402 -360 0
-499 -400 -368 0
-500 -400 -368 0
-501 -400 -368 0
-497 -400 -370 0
-500 -400 -370 0
-502 -400 -370 0
-501 -400 -371 0
-501 -395 -371 0
-503 -395 -371 0
-106 -64 0
-107 -65 0
-108 -66 0
-109 -67 0
-110 -68 0
-111 -69 0
-112 -70 0
-509 -395 0
-571 -506 -398 0
-573 -506 -398 0
-572 -507 -398 0
-573 -507 -398 0
-574 -507 -398 0
-575 -507 -398 0
-505 -395 0
-480 -400 -318 0
-572 -480 -400 0
-517 -480 -400 0
-572 -507 -400 0
-573 -507 -400 0
-574 -507 -400 0
-575 -507 -400 0
-508 -481 -400 0
-517 -508 -400 0
-574 -508 -400 0
-577 -508 -400 0
-571 -508 -400 0
-507 -499 -400 0
-507 -500 -400 0
-507 -501 -400 0
-508 -497 -400 0
-508 -500 -400 0
-508 -502 -400 0
-509 -501 -400 0
-412 -394 -314 0
-508 -500 -394 0
-508 -502 -394 0
-508 -503 -394 0
-511 -412 -394 0
-511 -502 -394 0
-511 -504 -394 0
-505 -503 -394 0
-505 -494 -394 0
-509 -503 -395 0
-332 -292 -276 0
-301 -292 -276 0
-344 -327 -293 0
-344 -333 -293 0
-344 -319 -293 0
-393 -344 -333 0
-398 -359 -297 0
-400 -359 -297 0
-372 -271 -269 0
-372 -274 -271 0
-363 -324 -323 0
-363 -325 -323 0
-363 -326 -323 0
-363 -327 -307 0
-363 -327 -325 0
-363 -328 -327 0
-363 -330 -316 0
-363 -330 -326 0
-363 -331 -330 0
-364 -327 -325 0
-364 -328 -327 0
-364 -329 -327 0
-364 -333 -328 0
-364 -334 -333 0
-344 -266 0
-364 -340 -327 0
-364 -345 -327 0
-364 -347 -327 0
-364 -348 -327 0
-364 -349 -327 0
-364 -348 -333 0
-364 -350 -333 0
-364 -351 -333 0
-364 -349 -319 0
-364 -351 -319 0
-364 -352 -319 0
-373 -348 -333 0
-373 -350 -333 0
-373 -351 -333 0
-373 -354 -350 0
-373 -354 -340 0
-496 -396 -360 0
-499 -396 -360 0
-500 -396 -360 0
-501 -396 -360 0
-497 -397 -360 0
-500 -397 -360 0
-502 -397 -360 0
-501 -398 -360 0
-501 -398 -362 0
-503 -398 -362 0
-395 -359 0
-505 -398 -362 0
-507 -398 -362 0
-480 -400 -362 0
-507 -400 -362 0
-508 -400 -362 0
-509 -400 -362 0
-122 -73 0
-123 -74 0
-124 -75 0
-125 -76 0
-126 -77 0
-436 -344 -307 0
-477 -364 -325 0
-477 -364 -328 0
-477 -364 -329 0
-448 -364 -328 0
-448 -364 -334 0
-500 -482 -360 0
-501 -483 -362 0
-503 -483 -362 0
-484 -370 0
-490 -370 0
-578 -486 -366 0
-583 -486 -366 0
-586 -486 -366 0
-579 -487 -366 0
-586 -487 -366 0
-587 -487 -366 0
-588 -487 -366 0
-584 -488 -366 0
-588 -488 -366 0
-476 -370 0
-477 -414 -367 0
-477 -452 -367 0
-579 -477 -367 0
-546 -477 -367 0
-579 -487 -367 0
-586 -487 -367 0
-587 -487 -367 0
-588 -487 -367 0
-534 -489 -367 0
-546 -489 -367 0
-587 -489 -367 0
-589 -489 -367 0
-578 -489 -367 0
-578 -490 -367 0
-482 -370 0
-572 -483 -368 0
-584 -483 -368 0
-584 -488 -368 0
-588 -488 -368 0
-582 -491 -368 0
-583 -491 -368 0
-411 -363 0
-447 -436 -364 0
-513 -448 -364 0
-468 -448 -364 0
-476 -363 0
-512 -487 -367 0
-518 -487 -367 0
-522 -487 -367 0
-523 -487 -367 0
-524 -487 -367 0
-513 -489 -367 0
-523 -489 -367 0
-525 -489 -367 0
-526 -489 -367 0
-519 -490 -367 0
-524 -490 -367 0
-526 -490 -367 0
-527 -490 -367 0
-477 -363 0
-513 -448 -369 0
-468 -448 -369 0
-513 -489 -369 0
-523 -489 -369 0
-525 -489 -369 0
-526 -489 -369 0
-492 -447 -369 0
-492 -468 -369 0
-525 -492 -369 0
-528 -492 -369 0
-512 -492 -369 0
-481 -360 0
-482 -360 0
-560 -488 -368 0
-564 -488 -368 0
-566 -488 -368 0
-561 -490 -368 0
-566 -490 -368 0
-567 -490 -368 0
-568 -490 -368 0
-568 -491 -368 0
-483 -360 0
-568 -491 -371 0
-79 -72 0
-344 -333 -304 0
-373 -348 -307 0
-373 -350 -307 0
-373 -351 -307 0
-373 -350 -309 0
-373 -340 -309 0
-363 -329 0
-513 -367 -306 0
-512 -367 -324 0
-518 -367 -324 0
-522 -367 -324 0
-523 -367 -324 0
-524 -367 -324 0
-513 -367 -325 0
-523 -367 -325 0
-525 -367 -325 0
-526 -367 -325 0
-519 -367 -326 0
-524 -367 -326 0
-526 -367 -326 0
-527 -367 -326 0
-363 -306 0
-513 -369 -307 0
-468 -369 -307 0
-513 -369 -325 0
-523 -369 -325 0
-525 -369 -325 0
-526 -369 -325 0
-447 -369 -328 0
-468 -369 -328 0
-525 -369 -328 0
-528 -369 -328 0
-512 -369 -328 0
-363 -315 0
-517 -370 -316 0
-519 -370 -316 0
-521 -370 -316 0
-519 -370 -326 0
-524 -370 -326 0
-526 -370 -326 0
-527 -370 -326 0
-516 -370 -331 0
-521 -370 -331 0
-527 -370 -331 0
-518 -370 -331 0
-529 -370 -331 0
-408 -373 -309 0
-364 -306 0
-407 -369 -325 0
-413 -369 -325 0
-418 -369 -325 0
-419 -369 -325 0
-420 -369 -325 0
-408 -369 -328 0
-419 -369 -328 0
-421 -369 -328 0
-422 -369 -328 0
-414 -369 -329 0
-420 -369 -329 0
-422 -369 -329 0
-423 -369 -329 0
-364 -307 0
-408 -374 -309 0
-408 -374 -328 0
-419 -374 -328 0
-421 -374 -328 0
-422 -374 -328 0
-421 -374 -334 0
-407 -374 -334 0
-486 -370 -326 0
-487 -370 -326 0
-488 -370 -326 0
-477 -370 -329 0
-487 -370 -329 0
-489 -370 -329 0
-483 -370 -331 0
-488 -370 -331 0
-491 -370 -331 0
-480 -360 -318 0
-488 -360 -331 0
-490 -360 -331 0
-491 -360 -331 0
-491 -360 -337 0
-113 -71 0
-115 -73 0
-116 -74 0
-117 -75 0
-118 -76 0
-119 -77 0
-493 -360 0
-503 -360 0
-560 -499 -368 0
-564 -499 -368 0
-566 -499 -368 0
-561 -500 -368 0
-566 -500 -368 0
-567 -500 -368 0
-568 -500 -368 0
-568 -501 -368 0
-496 -360 0
-497 -416 -370 0
-561 -497 -370 0
-535 -497 -370 0
-561 -500 -370 0
-566 -500 -370 0
-567 -500 -370 0
-568 -500 -370 0
-516 -502 -370 0
-535 -502 -370 0
-567 -502 -370 0
-570 -502 -370 0
-560 -502 -370 0
-494 -360 0
-568 -501 -371 0
-500 -486 -370 0
-500 -487 -370 0
-500 -488 -370 0
-502 -477 -370 0
-502 -487 -370 0
-502 -489 -370 0
-503 -483 -370 0
-503 -488 -370 0
-503 -491 -370 0
-448 -412 -363 0
-502 -487 -363 0
-502 -489 -363 0
-502 -490 -363 0
-504 -448 -363 0
-504 -489 -363 0
-504 -492 -363 0
-494 -362 0
-571 -501 -371 0
-573 -501 -371 0
-572 -503 -371 0
-573 -503 -371 0
-574 -503 -371 0
-575 -503 -371 0
-303 -271 -269 0
-312 -295 -286 0
-312 -295 -291 0
-312 -297 -295 0
-312 -300 -297 0
-312 -300 -285 0
-348 -333 -304 0
-350 -333 -304 0
-351 -333 -304 0
-354 -350 -304 0
-362 -312 -300 0
-368 -336 -313 0
-370 -336 -313 0
-371 -336 -313 0
-376 -371 -313 0
-382 -341 -305 0
-385 -341 -305 0
-355 -295 -288 0
-355 -300 -288 0
-418 -347 -306 0
-419 -347 -306 0
-420 -347 -306 0
-408 -348 -306 0
-419 -348 -306 0
-421 -348 -306 0
-414 -349 -306 0
-420 -349 -306 0
-423 -349 -306 0
-419 -348 -307 0
-421 -348 -307 0
-422 -348 -307 0
-421 -350 -307 0
-340 -304 0
-426 -348 -307 0
-429 -348 -307 0
-431 -348 -307 0
-432 -348 -307 0
-433 -348 -307 0
-432 -350 -307 0
-434 -350 -307 0
-433 -351 -307 0
-434 -351 -307 0
-435 -351 -307 0
-432 -350 -309 0
-434 -350 -309 0
-359 -312 0
-398 -362 -314 0
-400 -362 -314 0
-486 -366 -315 0
-487 -366 -315 0
-488 -366 -315 0
-477 -367 -315 0
-487 -367 -315 0
-489 -367 -315 0
-483 -368 -315 0
-488 -368 -315 0
-491 -368 -315 0
-480 -362 -316 0
-488 -368 -316 0
-490 -368 -316 0
-491 -368 -316 0
-491 -371 -316 0
-359 -313 0
-360 -313 0
-496 -368 -316 0
-494 -368 -316 0
-499 -368 -316 0
-500 -368 -316 0
-501 -368 -316 0
-500 -370 -316 0
-502 -370 -316 0
-503 -370 -316 0
-501 -371 -316 0
-503 -371 -316 0
-362 -313 0
-501 -371 -318 0
-503 -371 -318 0
-464 -408 -304 0
-513 -419 -307 0
-513 -421 -307 0
-513 -422 -307 0
-468 -421 -307 0
-517 -483 -313 0
-517 -480 -316 0
-519 -483 -316 0
-519 -488 -316 0
-519 -490 -316 0
-519 -491 -316 0
-521 -491 -316 0
-526 -329 0
-591 -512 -324 0
-590 -522 -324 0
-596 -522 -324 0
-591 -523 -324 0
-600 -523 -324 0
-597 -524 -324 0
-600 -524 -324 0
-512 -329 0
-513 -450 -325 0
-513 -473 -325 0
-591 -513 -325 0
-555 -513 -325 0
-591 -523 -325 0
-600 -523 -325 0
-545 -525 -325 0
-555 -525 -325 0
-590 -525 -325 0
-518 -329 0
-561 -519 -326 0
-595 -519 -326 0
-597 -519 -326 0
-599 -519 -326 0
-597 -524 -326 0
-600 -524 -326 0
-594 -527 -326 0
-599 -527 -326 0
-596 -527 -326 0
-447 -306 0
-467 -464 -307 0
-531 -468 -307 0
-512 -306 0
-530 -523 -325 0
-536 -523 -325 0
-540 -523 -325 0
-531 -525 -325 0
-541 -525 -325 0
-537 -526 -325 0
-540 -526 -325 0
-541 -526 -325 0
-542 -526 -325 0
-513 -306 0
-531 -468 -328 0
-531 -525 -328 0
-541 -525 -328 0
-528 -467 -328 0
-530 -528 -328 0
-541 -512 -328 0
-516 -315 0
-508 -497 -316 0
-572 -497 -316 0
-517 -508 -316 0
-517 -496 -316 0
-582 -517 -316 0
-572 -521 -316 0
-584 -521 -316 0
-518 -315 0
-578 -524 -326 0
-583 -524 -326 0
-586 -524 -326 0
-579 -526 -326 0
-586 -526 -326 0
-587 -526 -326 0
-588 -526 -326 0
-584 -527 -326 0
-588 -527 -326 0
-519 -315 0
-572 -521 -331 0
-584 -521 -331 0
-584 -527 -331 0
-588 -527 -331 0
-588 -518 -331 0
-582 -529 -331 0
-583 -529 -331 0
-86 -79 0
-432 -408 -309 0
-434 -408 -309 0
-422 -306 0
-530 -418 -325 0
-536 -418 -325 0
-540 -418 -325 0
-531 -419 -325 0
-541 -419 -325 0
-537 -420 -325 0
-540 -420 -325 0
-541 -420 -325 0
-542 -420 -325 0
-407 -306 0
-531 -408 -328 0
-531 -419 -328 0
-541 -419 -328 0
-467 -421 -328 0
-530 -421 -328 0
-413 -306 0
-535 -414 -329 0
-537 -414 -329 0
-539 -414 -329 0
-537 -420 -329 0
-540 -420 -329 0
-541 -420 -329 0
-542 -420 -329 0
-534 -423 -329 0
-539 -423 -329 0
-542 -423 -329 0
-536 -423 -329 0
-543 -423 -329 0
-407 -307 0
-445 -419 -328 0
-449 -419 -328 0
-454 -419 -328 0
-456 -421 -328 0
-450 -422 -328 0
-454 -422 -328 0
-456 -422 -328 0
-457 -422 -328 0
-408 -307 0
-456 -421 -334 0
-522 -420 -329 0
-523 -420 -329 0
-524 -420 -329 0
-513 -422 -329 0
-523 -422 -329 0
-525 -422 -329 0
-519 -423 -329 0
-524 -423 -329 0
-527 -423 -329 0
-497 -416 -315 0
-517 -416 -315 0
-521 -416 -315 0
-524 -423 -315 0
-526 -423 -315 0
-527 -423 -315 0
-521 -424 -315 0
-527 -424 -315 0
-529 -424 -315 0
-121 -79 0
-480 -362 -312 0
-480 -313 0
-481 -313 0
-501 -483 -318 0
-503 -483 -318 0
-490 -315 0
-578 -486 -326 0
-583 -486 -326 0
-586 -486 -326 0
-579 -487 -326 0
-586 -487 -326 0
-587 -487 -326 0
-588 -487 -326 0
-584 -488 -326 0
-588 -488 -326 0
-476 -315 0
-477 -452 -329 0
-579 -477 -329 0
-546 -477 -329 0
-579 -487 -329 0
-586 -487 -329 0
-587 -487 -329 0
-588 -487 -329 0
-534 -489 -329 0
-546 -489 -329 0
-587 -489 -329 0
-589 -489 -329 0
-578 -489 -329 0
-588 -490 -329 0
-583 -490 -329 0
-482 -315 0
-572 -483 -331 0
-584 -483 -331 0
-584 -488 -331 0
-588 -488 -331 0
-582 -491 -331 0
-583 -491 -331 0
-522 -487 -329 0
-523 -487 -329 0
-524 -487 -329 0
-513 -489 -329 0
-523 -489 -329 0
-525 -489 -329 0
-519 -490 -329 0
-524 -490 -329 0
-527 -490 -329 0
-468 -448 -306 0
-523 -489 -306 0
-525 -489 -306 0
-526 -489 -306 0
-492 -468 -306 0
-525 -492 -306 0
-528 -492 -306 0
-481 -316 0
-482 -316 0
-560 -488 -331 0
-564 -488 -331 0
-566 -488 -331 0
-561 -490 -331 0
-566 -490 -331 0
-567 -490 -331 0
-568 -490 -331 0
-568 -491 -331 0
-483 -316 0
-405 -382 -341 0
-405 -385 -341 0
-355 -295 -293 0
-355 -300 -293 0
-364 -355 -295 0
-364 -355 -300 0
-364 -346 -295 0
-364 -346 -330 0
-364 -346 -319 0
-364 -346 -336 0
-364 -356 -300 0
-364 -356 -336 0
-364 -356 -287 0
-376 -364 -356 0
-432 -406 -350 0
-434 -406 -350 0
-364 -355 -314 0
-364 -356 -314 0
-364 -356 -316 0
-364 -356 -318 0
-411 -356 -314 0
-411 -356 -318 0
-411 -352 -326 0
-411 -352 -329 0
-411 -352 -331 0
-411 -357 -318 0
-411 -357 -331 0
-411 -357 -337 0
-373 -346 -266 0
-373 -356 -266 0
-454 -431 -407 0
-450 -433 -407 0
-454 -433 -407 0
-457 -433 -407 0
-456 -432 -408 0
-426 -406 0
-459 -432 -408 0
-461 -432 -408 0
-461 -434 -408 0
-462 -434 -408 0
-463 -434 -408 0
-312 -295 -293 0
-312 -300 -293 0
-403 -362 -314 0
-364 -313 0
-412 -362 -314 0
-412 -362 -316 0
-412 -368 -316 0
-412 -370 -316 0
-412 -371 -316 0
-412 -359 -318 0
-412 -371 -318 0
-412 -360 -318 0
-522 -413 -324 0
-523 -413 -324 0
-524 -413 -324 0
-513 -413 -325 0
-523 -413 -325 0
-525 -413 -325 0
-519 -413 -326 0
-524 -413 -326 0
-527 -413 -326 0
-497 -414 -316 0
-517 -414 -316 0
-521 -414 -316 0
-524 -414 -326 0
-526 -414 -326 0
-527 -414 -326 0
-521 -414 -331 0
-527 -414 -331 0
-529 -414 -331 0
-411 -313 0
-480 -412 -312 0
-481 -412 -314 0
-480 -412 -318 0
-483 -412 -318 0
-411 -315 0
-476 -414 -326 0
-482 -414 -326 0
-486 -414 -326 0
-487 -414 -326 0
-488 -414 -326 0
-487 -414 -329 0
-489 -414 -329 0
-490 -414 -329 0
-483 -414 -331 0
-488 -414 -331 0
-490 -414 -331 0
-491 -414 -331 0
-411 -316 0
-480 -416 -318 0
-483 -416 -318 0
-483 -416 -331 0
-488 -416 -331 0
-490 -416 -331 0
-491 -416 -331 0
-481 -416 -337 0
-491 -416 -337 0
-482 -416 -337 0
-136 -87 0
-467 -445 -406 0
-531 -456 -408 0
-511 -504 -411 0
-517 -504 -411 0
-534 -519 -411 0
-535 -517 -411 0
-535 -519 -411 0
-535 -521 -411 0
-535 -497 -414 0
-535 -517 -414 0
-535 -521 -414 0
-537 -524 -414 0
-537 -526 -414 0
-537 -527 -414 0
-539 -521 -414 0
-539 -527 -414 0
-539 -529 -414 0
-541 -422 0
-606 -540 -418 0
-530 -422 0
-531 -471 -419 0
-536 -422 0
-579 -537 -420 0
-604 -537 -420 0
-606 -537 -420 0
-608 -537 -420 0
-606 -540 -420 0
-603 -542 -420 0
-608 -542 -420 0
-605 -542 -420 0
-467 -407 0
-530 -407 0
-548 -541 -419 0
-551 -541 -419 0
-531 -407 0
-534 -413 0
-502 -477 -414 0
-561 -477 -414 0
-535 -502 -414 0
-535 -476 -414 0
-577 -535 -414 0
-594 -535 -414 0
-595 -535 -414 0
-561 -539 -414 0
-595 -539 -414 0
-597 -539 -414 0
-599 -539 -414 0
-536 -413 0
-590 -540 -420 0
-596 -540 -420 0
-591 -541 -420 0
-600 -541 -420 0
-597 -542 -420 0
-537 -413 0
-561 -539 -423 0
-595 -539 -423 0
-597 -539 -423 0
-599 -539 -423 0
-597 -542 -423 0
-600 -542 -423 0
-594 -543 -423 0
-599 -543 -423 0
-596 -543 -423 0
-94 -87 0
-456 -407 0
-548 -454 -419 0
-551 -454 -419 0
-445 -407 0
-449 -407 0
-513 -450 -422 0
-546 -450 -422 0
-548 -450 -422 0
-550 -450 -422 0
-548 -454 -422 0
-551 -454 -422 0
-545 -457 -422 0
-550 -457 -422 0
-551 -457 -422 0
-547 -457 -422 0
-553 -457 -422 0
-445 -408 0
-471 -456 -421 0
-474 -456 -421 0
-540 -454 -422 0
-531 -456 -422 0
-537 -457 -422 0
-540 -457 -422 0
-542 -457 -422 0
-477 -452 -413 0
-535 -452 -413 0
-539 -452 -413 0
-537 -457 -413 0
-540 -457 -413 0
-541 -457 -413 0
-542 -457 -413 0
-530 -449 -413 0
-539 -458 -413 0
-542 -458 -413 0
-543 -458 -413 0
-399 -364 -314 0
-497 -364 -314 0
-497 -364 -316 0
-497 -364 -318 0
-480 -399 -364 0
-497 -411 0
-480 -412 -399 0
-511 -481 -412 0
-517 -480 -412 0
-517 -483 -412 0
-516 -411 0
-517 -480 -416 0
-517 -483 -416 0
-519 -483 -416 0
-519 -488 -416 0
-519 -490 -416 0
-519 -491 -416 0
-521 -481 -416 0
-521 -491 -416 0
-521 -482 -416 0
-526 -413 0
-590 -522 -420 0
-596 -522 -420 0
-591 -523 -420 0
-600 -523 -420 0
-597 -524 -420 0
-600 -524 -420 0
-512 -413 0
-513 -450 -422 0
-513 -473 -422 0
-591 -513 -422 0
-555 -513 -422 0
-591 -523 -422 0
-600 -523 -422 0
-545 -525 -422 0
-555 -525 -422 0
-590 -525 -422 0
-518 -413 0
-561 -519 -423 0
-595 -519 -423 0
-597 -519 -423 0
-599 -519 -423 0
-597 -524 -423 0
-600 -524 -423 0
-594 -527 -423 0
-599 -527 -423 0
-596 -527 -423 0
-540 -523 -422 0
-531 -525 -422 0
-537 -526 -422 0
-540 -526 -422 0
-542 -526 -422 0
-541 -525 -407 0
-516 -414 0
-508 -497 -416 0
-572 -497 -416 0
-517 -508 -416 0
-517 -496 -416 0
-582 -517 -416 0
-572 -521 -416 0
-584 -521 -416 0
-518 -414 0
-578 -524 -423 0
-583 -524 -423 0
-586 -524 -423 0
-579 -526 -423 0
-586 -526 -423 0
-587 -526 -423 0
-588 -526 -423 0
-584 -527 -423 0
-588 -527 -423 0
-519 -414 0
-572 -521 -424 0
-584 -521 -424 0
-584 -527 -424 0
-588 -527 -424 0
-582 -529 -424 0
-583 -529 -424 0
-373 -346 -333 0
-373 -356 -333 0
-373 -346 -307 0
-373 -356 -307 0
-430 -346 -307 0
-430 -349 -307 0
-430 -352 -307 0
-436 -356 -307 0
-436 -352 -307 0
-436 -345 -307 0
-436 -357 -307 0
-412 -373 -307 0
-436 -412 -307 0
-436 -414 -307 0
-436 -416 -307 0
-447 -436 -412 0
-447 -436 -416 0
-447 -435 -420 0
-447 -435 -422 0
-447 -435 -423 0
-447 -437 -416 0
-447 -437 -423 0
-447 -437 -424 0
-430 -340 -309 0
-436 -340 -309 0
-471 -461 -445 0
-474 -461 -445 0
-364 -346 -333 0
-364 -356 -333 0
-403 -374 -313 0
-403 -374 -314 0
-412 -374 -314 0
-412 -374 -316 0
-412 -374 -318 0
-411 -307 0
-448 -412 -314 0
-448 -412 -316 0
-448 -412 -318 0
-448 -414 -316 0
-448 -414 -326 0
-448 -414 -329 0
-448 -414 -331 0
-448 -416 -313 0
-448 -416 -318 0
-448 -416 -331 0
-448 -416 -315 0
-448 -416 -337 0
-540 -449 -418 0
-531 -449 -419 0
-537 -449 -420 0
-540 -449 -420 0
-542 -449 -420 0
-477 -450 -414 0
-535 -450 -414 0
-539 -450 -414 0
-540 -450 -420 0
-541 -450 -420 0
-542 -450 -420 0
-539 -450 -423 0
-542 -450 -423 0
-543 -450 -423 0
-447 -411 0
-497 -448 -364 0
-511 -448 -412 0
-516 -448 -412 0
-517 -448 -412 0
-497 -448 -416 0
-517 -448 -416 0
-519 -448 -416 0
-521 -448 -416 0
-447 -413 0
-512 -450 -420 0
-518 -450 -420 0
-522 -450 -420 0
-523 -450 -420 0
-524 -450 -420 0
-523 -450 -422 0
-525 -450 -422 0
-526 -450 -422 0
-519 -450 -423 0
-524 -450 -423 0
-526 -450 -423 0
-527 -450 -423 0
-447 -414 0
-497 -452 -416 0
-517 -452 -416 0
-519 -452 -416 0
-521 -452 -416 0
-519 -452 -423 0
-524 -452 -423 0
-526 -452 -423 0
-527 -452 -423 0
-516 -452 -424 0
-521 -452 -424 0
-527 -452 -424 0
-518 -452 -424 0
-529 -452 -424 0
-141 -92 0
-142 -93 0
-144 -95 0
-145 -96 0
-146 -97 0
-147 -98 0
-504 -492 -447 0
-535 -492 -447 0
-545 -537 -447 0
-546 -535 -447 0
-546 -537 -447 0
-546 -539 -447 0
-546 -477 -450 0
-546 -535 -450 0
-546 -539 -450 0
-548 -540 -450 0
-548 -541 -450 0
-548 -542 -450 0
-550 -539 -450 0
-550 -542 -450 0
-550 -543 -450 0
-547 -456 0
-591 -548 -454 0
-610 -548 -454 0
-611 -548 -454 0
-613 -548 -454 0
-609 -551 -454 0
-613 -551 -454 0
-545 -449 0
-513 -489 -450 0
-579 -513 -450 0
-546 -489 -450 0
-546 -512 -450 0
-570 -546 -450 0
-603 -546 -450 0
-604 -546 -450 0
-579 -550 -450 0
-604 -550 -450 0
-606 -550 -450 0
-608 -550 -450 0
-547 -449 0
-606 -551 -454 0
-548 -449 0
-579 -550 -457 0
-604 -550 -457 0
-606 -550 -457 0
-608 -550 -457 0
-606 -551 -457 0
-603 -553 -457 0
-608 -553 -457 0
-605 -553 -457 0
-99 -92 0
-100 -93 0
-102 -95 0
-103 -96 0
-104 -97 0
-105 -98 0
-469 -445 0
-531 -471 -456 0
-555 -471 -456 0
-556 -471 -456 0
-558 -471 -456 0
-554 -474 -456 0
-558 -474 -456 0
-548 -474 -456 0
-551 -474 -456 0
-513 -473 -449 0
-546 -473 -449 0
-550 -473 -449 0
-551 -474 -449 0
-550 -475 -449 0
-551 -475 -449 0
-553 -475 -449 0
-135 -93 0
-137 -95 0
-138 -96 0
-139 -97 0
-140 -98 0
-412 -369 -307 0
-477 -412 -307 0
-477 -414 -307 0
-477 -416 -307 0
-477 -447 -412 0
-477 -447 -416 0
-497 -369 -307 0
-477 -447 0
-497 -448 -369 0
-511 -504 -448 0
-516 -504 -448 0
-517 -504 -448 0
-535 -497 -448 0
-535 -517 -448 0
-535 -519 -448 0
-535 -521 -448 0
-534 -447 0
-535 -497 -452 0
-535 -517 -452 0
-535 -519 -452 0
-535 -521 -452 0
-537 -519 -452 0
-537 -524 -452 0
-537 -526 -452 0
-537 -527 -452 0
-539 -516 -452 0
-539 -521 -452 0
-539 -527 -452 0
-539 -518 -452 0
-539 -529 -452 0
-541 -449 0
-606 -540 -454 0
-530 -449 0
-536 -449 0
-579 -537 -457 0
-604 -537 -457 0
-606 -537 -457 0
-608 -537 -457 0
-606 -540 -457 0
-603 -542 -457 0
-608 -542 -457 0
-605 -542 -457 0
-548 -541 -456 0
-551 -541 -456 0
-534 -450 0
-502 -477 -452 0
-561 -477 -452 0
-535 -502 -452 0
-535 -476 -452 0
-577 -535 -452 0
-594 -535 -452 0
-595 -535 -452 0
-596 -537 -452 0
-597 -537 -452 0
-561 -539 -452 0
-595 -539 -452 0
-597 -539 -452 0
-599 -539 -452 0
-536 -450 0
-590 -540 -457 0
-596 -540 -457 0
-591 -541 -457 0
-600 -541 -457 0
-597 -542 -457 0
-600 -542 -457 0
-537 -450 0
-561 -539 -458 0
-595 -539 -458 0
-597 -539 -458 0
-599 -539 -458 0
-597 -542 -458 0
-600 -542 -458 0
-590 -536 -458 0
-594 -543 -458 0
-599 -543 -458 0
-596 -543 -458 0
-430 -350 -309 0
-436 -350 -309 0
-430 -408 -309 0
-436 -408 -309 0
-460 -430 -408 0
-460 -433 -408 0
-460 -435 -408 0
-464 -436 -408 0
-464 -435 -408 0
-464 -429 -408 0
-464 -437 -408 0
-448 -408 -309 0
-464 -448 -408 0
-464 -450 -408 0
-464 -452 -408 0
-467 -464 -448 0
-467 -464 -452 0
-467 -463 -454 0
-467 -463 -456 0
-467 -463 -457 0
-467 -466 -452 0
-467 -466 -457 0
-467 -466 -458 0
-430 -350 -307 0
-436 -350 -307 0
-411 -374 -334 0
-412 -374 -334 0
-448 -412 -334 0
-448 -414 -334 0
-448 -416 -334 0
-447 -408 0
-468 -448 -412 0
-468 -448 -414 0
-468 -448 -416 0
-468 -450 -414 0
-468 -450 -420 0
-468 -450 -422 0
-468 -450 -423 0
-468 -452 -411 0
-468 -452 -416 0
-468 -452 -423 0
-468 -452 -413 0
-468 -452 -424 0
-548 -467 -450 0
-548 -469 -454 0
-551 -469 -454 0
-472 -449 0
-513 -471 -450 0
-546 -471 -450 0
-550 -471 -450 0
-550 -471 -457 0
-551 -471 -457 0
-553 -471 -457 0
-467 -447 0
-477 -468 -307 0
-504 -468 -448 0
-534 -468 -448 0
-535 -468 -448 0
-477 -468 -452 0
-535 -468 -452 0
-537 -468 -452 0
-539 -468 -452 0
-467 -449 0
-530 -471 -454 0
-536 -471 -454 0
-540 -471 -454 0
-541 -471 -456 0
-537 -471 -457 0
-540 -471 -457 0
-541 -471 -457 0
-542 -471 -457 0
-467 -450 0
-477 -473 -452 0
-535 -473 -452 0
-537 -473 -452 0
-539 -473 -452 0
-537 -473 -457 0
-540 -473 -457 0
-541 -473 -457 0
-542 -473 -457 0
-534 -473 -458 0
-539 -473 -458 0
-542 -473 -458 0
-536 -473 -458 0
-543 -473 -458 0
-148 -99 0
-149 -100 0
-150 -101 0
-151 -102 0
-152 -103 0
-153 -104 0
-154 -105 0
-528 -492 -467 0
-546 -528 -467 0
-554 -547 -467 0
-555 -546 -467 0
-555 -548 -467 0
-555 -550 -467 0
-555 -513 -471 0
-555 -546 -471 0
-555 -550 -471 0
-556 -551 -471 0
-558 -550 -471 0
-558 -551 -471 0
-558 -553 -471 0
-554 -469 0
-531 -525 -471 0
-591 -531 -471 0
-555 -525 -471 0
-555 -530 -471 0
-589 -555 -471 0
-609 -555 -471 0
-610 -555 -471 0
-591 -558 -471 0
-610 -558 -471 0
-611 -558 -471 0
-613 -558 -471 0
-556 -469 0
-591 -558 -474 0
-610 -558 -474 0
-611 -558 -474 0
-613 -558 -474 0
-609 -559 -474 0
-613 -559 -474 0
-141 -99 0
-142 -100 0
-143 -101 0
-144 -102 0
-145 -103 0
-146 -104 0
-147 -105 0
-448 -408 -328 0
-513 -448 -408 0
-513 -450 -408 0
-513 -452 -408 0
-545 -467 -452 0
-545 -467 -458 0
-477 -408 -328 0
-513 -467 0
-477 -468 -328 0
-504 -492 -468 0
-534 -492 -468 0
-535 -492 -468 0
-546 -477 -468 0
-546 -535 -468 0
-546 -537 -468 0
-546 -539 -468 0
-548 -537 -471 0
-545 -467 0
-546 -477 -473 0
-546 -535 -473 0
-546 -537 -473 0
-546 -539 -473 0
-548 -537 -473 0
-548 -540 -473 0
-548 -541 -473 0
-548 -542 -473 0
-550 -534 -473 0
-550 -539 -473 0
-550 -542 -473 0
-550 -536 -473 0
-550 -543 -473 0
-547 -469 0
-591 -548 -474 0
-610 -548 -474 0
-611 -548 -474 0
-613 -548 -474 0
-609 -551 -474 0
-613 -551 -474 0
-545 -471 0
-513 -489 -473 0
-579 -513 -473 0
-546 -489 -473 0
-546 -512 -473 0
-570 -546 -473 0
-603 -546 -473 0
-604 -546 -473 0
-579 -550 -473 0
-604 -550 -473 0
-606 -550 -473 0
-608 -550 -473 0
-547 -471 0
-548 -471 0
-579 -550 -475 0
-604 -550 -475 0
-606 -550 -475 0
-608 -550 -475 0
-606 -551 -475 0
-603 -553 -475 0
-608 -553 -475 0
-605 -553 -475 0
-312 -300 -290 0
-312 -300 -294 0
-505 -499 -396 0
-505 -500 -396 0
-505 -501 -396 0
-505 -497 -397 0
-505 -500 -397 0
-505 -502 -397 0
-505 -501 -398 0
-498 -394 0
-500 -480 -397 0
-502 -480 -397 0
-503 -480 -397 0
-502 -480 -399 0
-504 -480 -399 0
-394 -359 0
-480 -397 -363 0
-480 -397 -360 0
-480 -397 -366 0
-480 -397 -367 0
-480 -397 -368 0
-480 -399 -367 0
-480 -399 -369 0
-480 -399 -370 0
-480 -400 -368 0
-480 -400 -370 0
-480 -400 -371 0
-399 -367 -314 0
-399 -369 -314 0
-399 -370 -314 0
-403 -369 -314 0
-403 -363 -314 0
-155 -106 0
-156 -107 0
-157 -108 0
-158 -109 0
-159 -110 0
-160 -111 0
-161 -112 0
-497 -359 -318 0
-572 -500 -480 0
-572 -502 -480 0
-572 -503 -480 0
-517 -502 -480 0
-517 -504 -480 0
-575 -509 0
-615 -573 -506 0
-618 -573 -506 0
-571 -509 0
-572 -507 -483 0
-572 -521 -507 0
-615 -572 -507 0
-595 -572 -507 0
-615 -573 -507 0
-618 -573 -507 0
-582 -574 -507 0
-595 -574 -507 0
-618 -574 -507 0
-619 -574 -507 0
-614 -574 -507 0
-505 -481 0
-516 -480 -318 0
-561 -517 -480 0
-535 -517 -480 0
-571 -505 0
-573 -560 -507 0
-573 -564 -507 0
-573 -566 -507 0
-574 -561 -507 0
-574 -566 -507 0
-574 -567 -507 0
-574 -568 -507 0
-575 -568 -507 0
-572 -505 0
-561 -517 -508 0
-535 -517 -508 0
-574 -561 -508 0
-574 -566 -508 0
-574 -567 -508 0
-574 -568 -508 0
-577 -516 -508 0
-577 -535 -508 0
-577 -567 -508 0
-577 -570 -508 0
-577 -560 -508 0
-113 -106 0
-114 -107 0
-115 -108 0
-116 -109 0
-117 -110 0
-118 -111 0
-119 -112 0
-497 -367 -314 0
-497 -369 -314 0
-497 -370 -314 0
-412 -369 -314 0
-412 -363 -314 0
-516 -480 -313 0
-505 -503 0
-560 -507 -499 0
-564 -507 -499 0
-566 -507 -499 0
-561 -507 -500 0
-566 -507 -500 0
-567 -507 -500 0
-568 -507 -500 0
-568 -507 -501 0
-505 -496 0
-561 -508 -497 0
-535 -508 -497 0
-561 -508 -500 0
-566 -508 -500 0
-567 -508 -500 0
-568 -508 -500 0
-516 -508 -502 0
-535 -508 -502 0
-567 -508 -502 0
-570 -508 -502 0
-560 -508 -502 0
-505 -494 0
-568 -509 -501 0
-477 -412 -314 0
-496 -480 0
-508 -500 -476 0
-508 -500 -482 0
-508 -500 -486 0
-508 -500 -487 0
-508 -500 -488 0
-508 -502 -477 0
-508 -502 -487 0
-508 -502 -489 0
-508 -502 -490 0
-508 -503 -483 0
-508 -503 -488 0
-508 -503 -490 0
-508 -503 -491 0
-497 -480 0
-511 -477 -412 0
-511 -502 -477 0
-511 -502 -487 0
-511 -502 -489 0
-511 -502 -490 0
-511 -504 -489 0
-511 -504 -492 0
-511 -504 -476 0
-505 -494 -482 0
-573 -509 -501 0
-572 -509 -503 0
-573 -509 -503 0
-574 -509 -503 0
-575 -509 -503 0
-312 -295 -290 0
-399 -367 -313 0
-399 -369 -313 0
-399 -370 -313 0
-403 -369 -313 0
-364 -356 -327 0
-364 -356 -319 0
-477 -364 -313 0
-496 -486 -366 0
-496 -487 -366 0
-496 -488 -366 0
-496 -477 -367 0
-496 -487 -367 0
-496 -489 -367 0
-496 -490 -367 0
-496 -483 -368 0
-496 -488 -368 0
-496 -491 -368 0
-497 -487 -367 0
-497 -489 -367 0
-497 -490 -367 0
-497 -489 -369 0
-497 -492 -369 0
-497 -476 -369 0
-363 -313 0
-497 -367 -306 0
-497 -367 -315 0
-497 -367 -324 0
-497 -367 -325 0
-497 -367 -326 0
-497 -369 -325 0
-497 -369 -328 0
-497 -369 -329 0
-497 -370 -326 0
-497 -370 -329 0
-497 -370 -331 0
-412 -369 -325 0
-412 -369 -328 0
-412 -369 -329 0
-412 -374 -328 0
-412 -374 -306 0
-573 -506 -494 0
-572 -507 -494 0
-573 -507 -494 0
-574 -507 -494 0
-162 -113 0
-163 -114 0
-164 -115 0
-165 -116 0
-166 -117 0
-167 -118 0
-168 -119 0
-477 -416 -313 0
-561 -497 -487 0
-561 -497 -489 0
-561 -497 -490 0
-535 -497 -489 0
-535 -497 -492 0
-568 -503 0
-621 -566 -499 0
-624 -566 -499 0
-560 -503 0
-561 -519 -500 0
-561 -539 -500 0
-621 -561 -500 0
-604 -561 -500 0
-621 -566 -500 0
-624 -566 -500 0
-594 -567 -500 0
-604 -567 -500 0
-624 -567 -500 0
-625 -567 -500 0
-620 -567 -500 0
-564 -503 0
-516 -496 0
-534 -497 -416 0
-579 -535 -497 0
-546 -535 -497 0
-560 -496 0
-578 -561 -500 0
-578 -566 -500 0
-583 -566 -500 0
-586 -566 -500 0
-579 -567 -500 0
-586 -567 -500 0
-587 -567 -500 0
-588 -567 -500 0
-584 -568 -500 0
-588 -568 -500 0
-561 -496 0
-579 -535 -502 0
-546 -535 -502 0
-579 -567 -502 0
-586 -567 -502 0
-587 -567 -502 0
-588 -567 -502 0
-570 -534 -502 0
-570 -546 -502 0
-587 -570 -502 0
-589 -570 -502 0
-578 -570 -502 0
-564 -494 0
-615 -568 -501 0
-618 -568 -501 0
-615 -568 -503 0
-122 -115 0
-123 -116 0
-124 -117 0
-125 -118 0
-126 -119 0
-497 -476 -324 0
-477 -412 -325 0
-477 -412 -328 0
-477 -412 -329 0
-448 -412 -328 0
-448 -412 -306 0
-579 -497 -477 0
-496 -490 0
-578 -500 -486 0
-583 -500 -486 0
-586 -500 -486 0
-579 -500 -487 0
-586 -500 -487 0
-587 -500 -487 0
-588 -500 -487 0
-584 -500 -488 0
-588 -500 -488 0
-496 -476 0
-579 -502 -477 0
-546 -502 -477 0
-579 -502 -487 0
-586 -502 -487 0
-587 -502 -487 0
-588 -502 -487 0
-534 -502 -489 0
-546 -502 -489 0
-587 -502 -489 0
-589 -502 -489 0
-578 -502 -489 0
-496 -482 0
-584 -503 -483 0
-584 -503 -488 0
-588 -503 -488 0
-582 -503 -491 0
-583 -503 -491 0
-513 -448 -412 0
-497 -476 0
-512 -502 -487 0
-518 -502 -487 0
-522 -502 -487 0
-523 -502 -487 0
-524 -502 -487 0
-513 -502 -489 0
-523 -502 -489 0
-525 -502 -489 0
-526 -502 -489 0
-519 -502 -490 0
-524 -502 -490 0
-526 -502 -490 0
-527 -502 -490 0
-497 -477 0
-513 -504 -448 0
-513 -504 -489 0
-523 -504 -489 0
-525 -504 -489 0
-526 -504 -489 0
-525 -504 -492 0
-528 -504 -492 0
-512 -504 -492 0
-566 -503 -488 0
-561 -503 -490 0
-566 -503 -490 0
-567 -503 -490 0
-568 -503 -490 0
-568 -494 -491 0
-155 -113 0
-156 -114 0
-157 -115 0
-158 -116 0
-159 -117 0
-160 -118 0
-161 -119 0
-575 -494 0
-615 -573 -501 0
-618 -573 -501 0
-571 -494 0
-572 -503 -483 0
-572 -521 -503 0
-615 -572 -503 0
-595 -572 -503 0
-615 -573 -503 0
-618 -573 -503 0
-582 -574 -503 0
-595 -574 -503 0
-618 -574 -503 0
-619 -574 -503 0
-614 -574 -503 0
-572 -561 -503 0
-573 -566 -503 0
-574 -561 -503 0
-574 -566 -503 0
-574 -567 -503 0
-535 -517 -496 0
-574 -566 -496 0
-574 -567 -496 0
-574 -568 -496 0
-577 -535 -496 0
-577 -567 -496 0
-577 -570 -496 0
-571 -568 -496 0
-364 -346 -327 0
-480 -398 -362 0
-411 -369 -325 0
-411 -369 -328 0
-411 -369 -329 0
-411 -374 -328 0
-501 -481 -371 0
-503 -481 -371 0
-436 -348 -307 0
-436 -351 -307 0
-394 -362 -314 0
-522 -476 -324 0
-523 -476 -324 0
-524 -476 -324 0
-513 -476 -325 0
-523 -476 -325 0
-525 -476 -325 0
-519 -476 -326 0
-524 -476 -326 0
-527 -476 -326 0
-523 -477 -325 0
-525 -477 -325 0
-526 -477 -325 0
-525 -477 -328 0
-528 -477 -328 0
-411 -306 0
-477 -407 -325 0
-477 -413 -325 0
-477 -418 -325 0
-477 -419 -325 0
-477 -420 -325 0
-477 -419 -328 0
-477 -421 -328 0
-477 -422 -328 0
-477 -420 -329 0
-477 -422 -329 0
-477 -423 -329 0
-448 -419 -328 0
-448 -421 -328 0
-448 -422 -328 0
-448 -421 -334 0
-448 -407 -334 0
-448 -407 -306 0
-566 -499 -482 0
-561 -500 -482 0
-566 -500 -482 0
-567 -500 -482 0
-568 -501 -483 0
-494 -481 0
-571 -501 -483 0
-573 -501 -483 0
-573 -503 -483 0
-574 -503 -483 0
-575 -503 -483 0
-171 -122 0
-172 -123 0
-173 -124 0
-174 -125 0
-175 -126 0
-534 -512 -411 0
-534 -513 -411 0
-513 -452 -411 0
-579 -523 -477 0
-579 -525 -477 0
-579 -526 -477 0
-546 -525 -477 0
-546 -528 -477 0
-583 -566 -482 0
-584 -568 -483 0
-588 -490 0
-578 -490 0
-579 -537 -487 0
-579 -550 -487 0
-628 -579 -487 0
-610 -579 -487 0
-628 -586 -487 0
-603 -587 -487 0
-610 -587 -487 0
-627 -587 -487 0
-583 -490 0
-615 -584 -488 0
-534 -476 0
-545 -477 -452 0
-591 -546 -477 0
-555 -546 -477 0
-578 -476 0
-590 -586 -487 0
-596 -586 -487 0
-591 -587 -487 0
-597 -588 -487 0
-600 -588 -487 0
-579 -476 0
-591 -546 -489 0
-555 -546 -489 0
-591 -587 -489 0
-600 -587 -489 0
-589 -545 -489 0
-589 -555 -489 0
-590 -589 -489 0
-600 -578 -489 0
-596 -578 -489 0
-582 -482 0
-583 -482 0
-621 -588 -488 0
-624 -588 -488 0
-584 -482 0
-127 -120 0
-513 -448 -419 0
-513 -448 -421 0
-513 -448 -422 0
-468 -448 -421 0
-468 -448 -407 0
-526 -476 0
-590 -522 -487 0
-596 -522 -487 0
-591 -523 -487 0
-600 -523 -487 0
-597 -524 -487 0
-600 -524 -487 0
-512 -476 0
-591 -513 -489 0
-555 -513 -489 0
-591 -523 -489 0
-545 -525 -489 0
-555 -525 -489 0
-590 -525 -489 0
-518 -476 0
-595 -519 -490 0
-597 -519 -490 0
-597 -524 -490 0
-600 -524 -490 0
-594 -527 -490 0
-599 -527 -490 0
-596 -527 -490 0
-531 -468 -448 0
-512 -477 0
-530 -523 -489 0
-536 -523 -489 0
-540 -523 -489 0
-531 -525 -489 0
-541 -525 -489 0
-537 -526 -489 0
-540 -526 -489 0
-541 -526 -489 0
-542 -526 -489 0
-513 -477 0
-531 -492 -468 0
-531 -525 -492 0
-541 -525 -492 0
-530 -528 -492 0
-586 -524 -490 0
-579 -526 -490 0
-586 -526 -490 0
-587 -526 -490 0
-588 -526 -490 0
-584 -527 -490 0
-572 -521 -482 0
-588 -527 -482 0
-164 -122 0
-165 -123 0
-166 -124 0
-167 -125 0
-168 -126 0
-568 -482 0
-621 -566 -488 0
-624 -566 -488 0
-560 -482 0
-561 -539 -490 0
-621 -561 -490 0
-604 -561 -490 0
-621 -566 -490 0
-624 -566 -490 0
-594 -567 -490 0
-604 -567 -490 0
-624 -567 -490 0
-625 -567 -490 0
-620 -567 -490 0
-564 -482 0
-586 -566 -490 0
-579 -567 -490 0
-586 -567 -490 0
-587 -567 -490 0
-584 -568 -490 0
-546 -535 -476 0
-586 -567 -476 0
-587 -567 -476 0
-588 -567 -476 0
-570 -546 -476 0
-587 -570 -476 0
-589 -570 -476 0
-588 -568 -482 0
-564 -483 0
-615 -568 -491 0
-618 -568 -491 0
-430 -348 -307 0
-430 -351 -307 0
-399 -362 -314 0
-497 -362 -314 0
-497 -362 -316 0
-497 -368 -316 0
-497 -371 -316 0
-497 -371 -318 0
-497 -360 -318 0
-447 -419 -328 0
-447 -421 -328 0
-447 -422 -328 0
-447 -421 -334 0
-497 -483 -318 0
-516 -488 -331 0
-516 -490 -331 0
-516 -491 -331 0
-516 -491 -337 0
-464 -432 -408 0
-464 -434 -408 0
-412 -363 -316 0
-412 -363 -318 0
-540 -512 -418 0
-531 -512 -419 0
-537 -512 -420 0
-540 -512 -420 0
-542 -512 -420 0
-541 -513 -419 0
-447 -407 0
-513 -445 -408 0
-513 -445 -419 0
-513 -449 -419 0
-513 -454 -419 0
-513 -456 -421 0
-513 -454 -422 0
-513 -456 -422 0
-513 -457 -422 0
-468 -456 -421 0
-480 -399 -362 0
-497 -481 0
-517 -501 -483 0
-517 -503 -483 0
-584 -518 -482 0
-586 -518 -486 0
-579 -518 -487 0
-586 -518 -487 0
-587 -518 -487 0
-584 -518 -488 0
-572 -519 -483 0
-588 -519 -488 0
-516 -481 0
-516 -482 0
-560 -519 -488 0
-564 -519 -488 0
-566 -519 -488 0
-566 -519 -490 0
-567 -519 -490 0
-568 -519 -490 0
-568 -519 -491 0
-516 -483 0
-568 -521 -491 0
-176 -127 0
-531 -473 -447 0
-591 -541 -513 0
-595 -584 -516 0
-595 -572 -519 0
-597 -588 -519 0
-600 -526 0
-590 -526 0
-591 -548 -523 0
-591 -558 -523 0
-596 -526 0
-621 -597 -524 0
-636 -597 -524 0
-545 -512 0
-554 -513 -473 0
-590 -512 0
-606 -600 -523 0
-591 -512 0
-605 -590 -525 0
-594 -518 0
-574 -561 -519 0
-615 -561 -519 0
-595 -574 -519 0
-595 -560 -519 0
-631 -595 -519 0
-615 -599 -519 0
-596 -518 0
-628 -600 -524 0
-597 -518 0
-615 -599 -527 0
-134 -127 0
-531 -468 -456 0
-541 -512 0
-606 -540 -523 0
-530 -512 0
-536 -512 0
-604 -537 -526 0
-606 -537 -526 0
-608 -537 -526 0
-606 -540 -526 0
-603 -542 -526 0
-608 -542 -526 0
-605 -542 -526 0
-530 -513 0
-548 -541 -525 0
-551 -541 -525 0
-531 -513 0
-591 -541 -526 0
-597 -542 -526 0
-561 -539 -518 0
-595 -539 -518 0
-599 -539 -518 0
-600 -542 -518 0
-600 -536 -518 0
-590 -536 -518 0
-599 -543 -518 0
-169 -127 0
-572 -497 -483 0
-572 -516 0
-582 -564 -517 0
-582 -516 0
-584 -568 -521 0
-588 -518 0
-628 -586 -524 0
-578 -518 0
-579 -550 -526 0
-628 -579 -526 0
-610 -579 -526 0
-628 -586 -526 0
-603 -587 -526 0
-610 -587 -526 0
-627 -587 -526 0
-583 -518 0
-615 -584 -527 0
-591 -587 -526 0
-597 -588 -526 0
-591 -546 -512 0
-555 -546 -512 0
-600 -587 -512 0
-589 -555 -512 0
-582 -519 0
-583 -519 0
-621 -588 -527 0
-624 -588 -527 0
-584 -519 0
-460 -432 -408 0
-411 -369 -316 0
-412 -369 -316 0
-412 -369 -318 0
-477 -412 -316 0
-477 -412 -318 0
-477 -414 -316 0
-477 -414 -326 0
-477 -414 -329 0
-477 -414 -331 0
-477 -416 -318 0
-477 -416 -331 0
-477 -416 -315 0
-477 -416 -337 0
-467 -456 -421 0
-517 -477 -412 0
-517 -477 -416 0
-519 -477 -416 0
-521 -477 -416 0
-534 -517 -416 0
-534 -521 -416 0
-534 -524 -423 0
-534 -526 -423 0
-534 -527 -423 0
-534 -521 -424 0
-534 -527 -424 0
-534 -529 -424 0
-448 -414 -306 0
-448 -416 -306 0
-548 -530 -454 0
-551 -530 -454 0
-467 -445 0
-531 -474 -456 0
-497 -369 -316 0
-497 -369 -318 0
-511 -504 -481 0
-516 -504 -481 0
-516 -504 -483 0
-517 -504 -483 0
-516 -477 0
-535 -517 -483 0
-535 -519 -483 0
-535 -519 -488 0
-535 -519 -490 0
-535 -519 -491 0
-535 -521 -481 0
-535 -521 -491 0
-535 -521 -482 0
-591 -536 -523 0
-597 -536 -524 0
-561 -537 -519 0
-595 -537 -519 0
-599 -537 -519 0
-600 -537 -524 0
-599 -537 -527 0
-534 -516 0
-572 -535 -497 0
-582 -535 -517 0
-584 -535 -521 0
-534 -518 0
-578 -537 -524 0
-583 -537 -524 0
-586 -537 -524 0
-586 -537 -526 0
-587 -537 -526 0
-588 -537 -526 0
-584 -537 -527 0
-588 -537 -527 0
-534 -519 0
-572 -539 -521 0
-584 -539 -521 0
-584 -539 -527 0
-588 -539 -527 0
-582 -539 -529 0
-583 -539 -529 0
-184 -135 0
-186 -137 0
-187 -138 0
-188 -139 0
-189 -140 0
-577 -570 -534 0
-595 -570 -534 0
-604 -595 -534 0
-604 -597 -534 0
-604 -599 -534 0
-604 -561 -537 0
-604 -595 -537 0
-604 -599 -537 0
-606 -600 -537 0
-608 -599 -537 0
-605 -541 0
-628 -606 -540 0
-639 -606 -540 0
-554 -530 0
-603 -536 0
-579 -567 -537 0
-621 -579 -537 0
-604 -567 -537 0
-604 -578 -537 0
-619 -604 -537 0
-635 -604 -537 0
-636 -604 -537 0
-621 -608 -537 0
-636 -608 -537 0
-605 -536 0
-606 -536 0
-621 -608 -542 0
-636 -608 -542 0
-142 -135 0
-144 -137 0
-145 -138 0
-146 -139 0
-147 -140 0
-547 -530 0
-610 -548 -541 0
-611 -548 -541 0
-613 -548 -541 0
-609 -551 -541 0
-613 -551 -541 0
-606 -551 -541 0
-579 -550 -536 0
-604 -550 -536 0
-608 -550 -536 0
-608 -553 -536 0
-177 -135 0
-179 -137 0
-180 -138 0
-181 -139 0
-182 -140 0
-517 -502 -477 0
-561 -517 -477 0
-561 -519 -477 0
-561 -521 -477 0
-572 -502 -477 0
-582 -561 -477 0
-561 -534 0
-572 -535 -502 0
-582 -577 -535 0
-595 -572 -535 0
-595 -584 -535 0
-594 -534 0
-595 -572 -539 0
-595 -584 -539 0
-597 -584 -539 0
-597 -588 -539 0
-599 -582 -539 0
-599 -583 -539 0
-600 -536 0
-590 -536 0
-591 -548 -541 0
-591 -558 -541 0
-596 -536 0
-621 -597 -542 0
-636 -597 -542 0
-606 -600 -541 0
-594 -537 0
-574 -561 -539 0
-615 -561 -539 0
-595 -574 -539 0
-595 -560 -539 0
-631 -595 -539 0
-615 -599 -539 0
-596 -537 0
-628 -600 -542 0
-597 -537 0
-615 -599 -543 0
-447 -437 -407 0
-448 -414 -328 0
-448 -416 -328 0
-513 -448 -414 0
-513 -448 -416 0
-513 -450 -414 0
-513 -450 -420 0
-513 -450 -423 0
-513 -452 -416 0
-513 -452 -423 0
-513 -452 -413 0
-513 -452 -424 0
-535 -513 -448 0
-535 -513 -452 0
-537 -513 -452 0
-539 -513 -452 0
-533 -450 0
-545 -535 -452 0
-545 -539 -452 0
-545 -540 -457 0
-545 -541 -457 0
-545 -542 -457 0
-545 -539 -458 0
-545 -542 -458 0
-545 -536 -458 0
-545 -543 -458 0
-468 -450 -407 0
-468 -452 -407 0
-477 -414 -328 0
-477 -416 -328 0
-516 -504 -492 0
-517 -504 -492 0
-535 -517 -492 0
-535 -519 -492 0
-535 -521 -492 0
-534 -513 0
-546 -535 -517 0
-546 -535 -519 0
-546 -535 -521 0
-546 -537 -519 0
-546 -537 -524 0
-546 -537 -526 0
-546 -537 -527 0
-546 -539 -516 0
-546 -539 -521 0
-546 -539 -527 0
-546 -539 -518 0
-546 -539 -529 0
-606 -547 -540 0
-579 -548 -537 0
-604 -548 -537 0
-606 -548 -537 0
-608 -548 -537 0
-608 -548 -542 0
-545 -534 0
-561 -546 -477 0
-577 -546 -535 0
-594 -546 -535 0
-595 -546 -535 0
-561 -546 -539 0
-595 -546 -539 0
-597 -546 -539 0
-599 -546 -539 0
-545 -536 0
-590 -548 -540 0
-596 -548 -540 0
-600 -548 -541 0
-597 -548 -542 0
-600 -548 -542 0
-545 -537 0
-561 -550 -539 0
-595 -550 -539 0
-597 -550 -539 0
-599 -550 -539 0
-597 -550 -542 0
-600 -550 -542 0
-594 -550 -543 0
-599 -550 -543 0
-596 -550 -543 0
-190 -141 0
-191 -142 0
-192 -143 0
-193 -144 0
-194 -145 0
-195 -146 0
-196 -147 0
-589 -570 -545 0
-604 -589 -545 0
-610 -604 -545 0
-610 -606 -545 0
-610 -608 -545 0
-610 -579 -548 0
-610 -604 -548 0
-610 -608 -548 0
-613 -608 -548 0
-609 -547 0
-591 -587 -548 0
-628 -591 -548 0
-610 -587 -548 0
-610 -590 -548 0
-625 -610 -548 0
-638 -610 -548 0
-639 -610 -548 0
-628 -613 -548 0
-639 -613 -548 0
-611 -547 0
-628 -613 -551 0
-639 -613 -551 0
-148 -141 0
-149 -142 0
-150 -143 0
-151 -144 0
-152 -145 0
-153 -146 0
-154 -147 0
-591 -558 -547 0
-610 -558 -547 0
-613 -558 -547 0
-613 -559 -547 0
-183 -141 0
-184 -142 0
-185 -143 0
-186 -144 0
-187 -145 0
-188 -146 0
-189 -147 0
-535 -513 -489 0
-579 -535 -513 0
-579 -537 -513 0
-579 -539 -513 0
-561 -513 -489 0
-579 -545 0
-561 -546 -489 0
-577 -570 -546 0
-594 -570 -546 0
-595 -570 -546 0
-604 -561 -546 0
-604 -595 -546 0
-604 -597 -546 0
-604 -599 -546 0
-603 -545 0
-604 -561 -550 0
-604 -595 -550 0
-604 -597 -550 0
-604 -599 -550 0
-606 -597 -550 0
-606 -600 -550 0
-608 -594 -550 0
-608 -599 -550 0
-608 -596 -550 0
-602 -547 0
-605 -547 0
-628 -606 -551 0
-639 -606 -551 0
-603 -548 0
-579 -567 -550 0
-621 -579 -550 0
-604 -567 -550 0
-604 -578 -550 0
-619 -604 -550 0
-635 -604 -550 0
-636 -604 -550 0
-621 -608 -550 0
-636 -608 -550 0
-605 -548 0
-606 -548 0
-621 -608 -553 0
-636 -608 -553 0
-468 -450 -421 0
-468 -452 -421 0
-531 -468 -450 0
-531 -468 -452 0
-531 -471 -450 0
-531 -471 -454 0
-531 -471 -457 0
-531 -473 -452 0
-531 -473 -457 0
-531 -473 -449 0
-531 -473 -458 0
-546 -531 -468 0
-546 -531 -473 0
-548 -531 -473 0
-550 -531 -473 0
-554 -546 -473 0
-554 -548 -473 0
-554 -550 -473 0
-554 -551 -474 0
-554 -550 -475 0
-554 -551 -475 0
-554 -553 -475 0
-513 -450 -421 0
-513 -452 -421 0
-545 -531 -452 0
-545 -531 -458 0
-534 -528 -492 0
-535 -528 -492 0
-546 -535 -528 0
-546 -537 -528 0
-546 -539 -528 0
-545 -531 0
-555 -546 -535 0
-555 -546 -537 0
-555 -546 -539 0
-555 -548 -537 0
-555 -548 -540 0
-555 -548 -541 0
-555 -548 -542 0
-555 -550 -534 0
-555 -550 -539 0
-555 -550 -542 0
-555 -550 -536 0
-555 -550 -543 0
-557 -547 0
-591 -556 -548 0
-610 -556 -548 0
-611 -556 -548 0
-613 -556 -548 0
-613 -556 -551 0
-554 -545 0
-579 -555 -513 0
-570 -555 -546 0
-603 -555 -546 0
-604 -555 -546 0
-579 -555 -550 0
-604 -555 -550 0
-606 -555 -550 0
-554 -547 0
-606 -556 -551 0
-554 -548 0
-579 -558 -550 0
-604 -558 -550 0
-606 -558 -550 0
-608 -558 -550 0
-606 -558 -551 0
-603 -558 -553 0
-608 -558 -553 0
-605 -558 -553 0
-190 -148 0
-191 -149 0
-192 -150 0
-193 -151 0
-194 -152 0
-195 -153 0
-196 -154 0
-546 -531 -525 0
-591 -546 -531 0
-591 -548 -531 0
-591 -550 -531 0
-579 -531 -525 0
-591 -554 0
-579 -555 -525 0
-589 -570 -555 0
-603 -589 -555 0
-604 -589 -555 0
-610 -579 -555 0
-610 -604 -555 0
-610 -606 -555 0
-610 -608 -555 0
-609 -554 0
-610 -579 -558 0
-610 -604 -558 0
-610 -606 -558 0
-610 -608 -558 0
-611 -606 -558 0
-613 -603 -558 0
-613 -608 -558 0
-613 -605 -558 0
-609 -556 0
-591 -587 -558 0
-628 -591 -558 0
-610 -587 -558 0
-610 -590 -558 0
-625 -610 -558 0
-638 -610 -558 0
-639 -610 -558 0
-628 -613 -558 0
-611 -556 0
-628 -613 -559 0
-639 -613 -559 0
-480 -397 -362 0
-508 -500 -481 0
-508 -502 -481 0
-508 -503 -481 0
-511 -502 -481 0
-497 -367 -318 0
-497 -370 -318 0
-571 -566 -499 0
-571 -561 -500 0
-571 -566 -500 0
-571 -567 -500 0
-565 -496 0
-572 -566 -500 0
-572 -567 -500 0
-572 -568 -500 0
-572 -567 -502 0
-572 -570 -502 0
-496 -481 0
-572 -500 -476 0
-572 -500 -482 0
-572 -500 -486 0
-572 -500 -487 0
-572 -500 -488 0
-572 -502 -487 0
-572 -502 -489 0
-572 -502 -490 0
-572 -503 -488 0
-572 -503 -490 0
-572 -503 -491 0
-517 -502 -487 0
-517 -502 -489 0
-517 -502 -490 0
-517 -504 -489 0
-517 -504 -476 0
-197 -155 0
-198 -156 0
-199 -157 0
-200 -158 0
-201 -159 0
-202 -160 0
-203 -161 0
-582 -561 -481 0
-561 -521 -481 0
-615 -572 -566 0
-615 -572 -567 0
-615 -572 -568 0
-595 -572 -567 0
-595 -572 -570 0
-614 -575 0
-615 -599 -573 0
-641 -615 -573 0
-636 -615 -573 0
-631 -618 -573 0
-636 -618 -573 0
-643 -618 -573 0
-582 -571 0
-594 -572 -521 0
-621 -595 -572 0
-604 -595 -572 0
-614 -571 0
-621 -618 -573 0
-624 -618 -573 0
-615 -571 0
-621 -595 -574 0
-604 -595 -574 0
-621 -618 -574 0
-624 -618 -574 0
-619 -594 -574 0
-619 -604 -574 0
-624 -619 -574 0
-625 -619 -574 0
-620 -619 -574 0
-616 -571 0
-162 -155 0
-163 -156 0
-164 -157 0
-165 -158 0
-166 -159 0
-167 -160 0
-168 -161 0
-561 -517 -487 0
-561 -517 -489 0
-561 -517 -490 0
-535 -517 -489 0
-535 -517 -476 0
-571 -568 0
-621 -573 -566 0
-624 -573 -566 0
-571 -560 0
-621 -574 -561 0
-604 -574 -561 0
-621 -574 -566 0
-624 -574 -566 0
-594 -574 -567 0
-604 -574 -567 0
-624 -574 -567 0
-625 -574 -567 0
-620 -574 -567 0
-571 -564 0
-579 -535 -517 0
-572 -560 0
-578 -574 -566 0
-583 -574 -566 0
-586 -574 -566 0
-579 -574 -567 0
-586 -574 -567 0
-587 -574 -567 0
-588 -574 -567 0
-584 -574 -568 0
-588 -574 -568 0
-572 -561 0
-579 -577 -535 0
-579 -577 -567 0
-586 -577 -567 0
-587 -577 -567 0
-588 -577 -567 0
-587 -577 -570 0
-589 -577 -570 0
-578 -577 -570 0
-615 -575 -568 0
-618 -575 -568 0
-497 -367 -316 0
-497 -370 -316 0
-516 -502 -487 0
-516 -502 -489 0
-516 -502 -490 0
-516 -504 -489 0
-477 -416 -325 0
-477 -416 -329 0
-586 -560 -486 0
-579 -560 -487 0
-586 -560 -487 0
-587 -560 -487 0
-584 -560 -488 0
-579 -561 -477 0
-586 -561 -487 0
-587 -561 -487 0
-588 -561 -487 0
-587 -561 -489 0
-589 -561 -489 0
-516 -476 0
-561 -512 -487 0
-561 -518 -487 0
-561 -522 -487 0
-561 -523 -487 0
-561 -524 -487 0
-561 -523 -489 0
-561 -525 -489 0
-561 -526 -489 0
-561 -524 -490 0
-561 -526 -490 0
-561 -527 -490 0
-535 -523 -489 0
-535 -525 -489 0
-535 -526 -489 0
-535 -525 -492 0
-535 -512 -492 0
-615 -573 -564 0
-618 -573 -564 0
-204 -162 0
-205 -163 0
-206 -164 0
-207 -165 0
-208 -166 0
-209 -167 0
-210 -168 0
-579 -539 -516 0
-621 -586 -561 0
-621 -587 -561 0
-621 -588 -561 0
-604 -587 -561 0
-604 -589 -561 0
-620 -568 0
-621 -597 -566 0
-621 -608 -566 0
-644 -621 -566 0
-639 -621 -566 0
-635 -624 -566 0
-639 -624 -566 0
-594 -560 0
-603 -561 -539 0
-621 -603 -561 0
-628 -621 -561 0
-628 -604 -561 0
-610 -604 -561 0
-620 -560 0
-628 -624 -566 0
-621 -560 0
-628 -604 -567 0
-610 -604 -567 0
-628 -624 -567 0
-625 -603 -567 0
-625 -610 -567 0
-627 -625 -567 0
-170 -163 0
-171 -164 0
-172 -165 0
-173 -166 0
-174 -167 0
-175 -168 0
-579 -535 -523 0
-579 -535 -525 0
-579 -535 -526 0
-546 -535 -525 0
-546 -535 -512 0
-588 -560 0
-628 -586 -566 0
-578 -560 0
-628 -579 -567 0
-610 -579 -567 0
-628 -586 -567 0
-603 -587 -567 0
-610 -587 -567 0
-627 -587 -567 0
-583 -560 0
-627 -588 -568 0
-591 -546 -535 0
-578 -561 0
-590 -586 -567 0
-596 -586 -567 0
-591 -587 -567 0
-600 -587 -567 0
-597 -588 -567 0
-600 -588 -567 0
-579 -561 0
-591 -570 -546 0
-591 -587 -570 0
-600 -587 -570 0
-590 -589 -570 0
-600 -578 -570 0
-590 -578 -570 0
-596 -578 -570 0
-621 -588 -568 0
-624 -588 -568 0
-197 -162 0
-198 -163 0
-199 -164 0
-200 -165 0
-201 -166 0
-202 -167 0
-203 -168 0
-614 -564 0
-615 -599 -568 0
-641 -615 -568 0
-636 -615 -568 0
-631 -618 -568 0
-636 -618 -568 0
-643 -618 -568 0
-621 -618 -568 0
-624 -618 -568 0
-604 -595 -560 0
-624 -618 -560 0
-619 -604 -560 0
-624 -619 -560 0
-625 -619 -560 0
-477 -414 -325 0
-477 -414 -329 0
-572 -501 -483 0
-534 -523 -489 0
-534 -525 -489 0
-534 -526 -489 0
-534 -525 -492 0
-582 -568 -491 0
-513 -452 -419 0
-513 -452 -422 0
-517 -496 -483 0
-591 -578 -512 0
-591 -578 -523 0
-597 -578 -524 0
-600 -579 -523 0
-534 -512 0
-579 -530 -523 0
-579 -536 -523 0
-579 -540 -523 0
-579 -541 -525 0
-579 -540 -526 0
-579 -541 -526 0
-579 -542 -526 0
-546 -541 -525 0
-546 -530 -528 0
-621 -583 -566 0
-624 -583 -566 0
-582 -564 0
-618 -584 -568 0
-212 -170 0
-213 -171 0
-214 -172 0
-215 -173 0
-216 -174 0
-217 -175 0
-591 -550 -534 0
-628 -600 -579 0
-627 -588 0
-628 -606 -586 0
-628 -613 -586 0
-603 -578 0
-609 -579 -550 0
-627 -578 0
-628 -578 0
-631 -583 0
-177 -170 0
-178 -171 0
-179 -172 0
-180 -173 0
-181 -174 0
-182 -175 0
-545 -530 -452 0
-591 -546 -541 0
-555 -546 -530 0
-600 -578 0
-590 -578 0
-596 -578 0
-590 -579 0
-606 -600 -587 0
-591 -579 0
-592 -579 0
-628 -600 -588 0
-615 -599 -583 0
-205 -170 0
-206 -171 0
-207 -172 0
-208 -173 0
-209 -174 0
-210 -175 0
-620 -583 0
-621 -608 -588 0
-644 -621 -588 0
-639 -621 -588 0
-635 -624 -588 0
-639 -624 -588 0
-628 -624 -588 0
-610 -604 -578 0
-625 -610 -578 0
-513 -450 -419 0
-517 -502 -483 0
-561 -517 -483 0
-561 -519 -483 0
-561 -519 -488 0
-561 -519 -490 0
-561 -519 -491 0
-561 -521 -491 0
-561 -521 -482 0
-545 -541 -525 0
-584 -561 -521 0
-594 -588 -527 0
-531 -473 -456 0
-535 -519 -476 0
-535 -521 -476 0
-606 -590 -540 0
-545 -530 0
-572 -502 -483 0
-582 -561 0
-595 -584 -568 0
-628 -596 -586 0
-615 -597 -584 0
-594 -582 0
-594 -583 0
-594 -584 0
-219 -177 0
-220 -178 0
-221 -179 0
-222 -180 0
-223 -181 0
-224 -182 0
-636 -615 -597 0
-609 -590 0
-635 -596 0
-621 -618 -597 0
-641 -621 -597 0
-636 -618 -597 0
-636 -620 -597 0
-184 -177 0
-185 -178 0
-186 -179 0
-187 -180 0
-188 -181 0
-189 -182 0
-605 -590 0
-639 -606 -600 0
-621 -608 -596 0
-636 -608 -596 0
-212 -177 0
-213 -178 0
-214 -179 0
-215 -180 0
-216 -181 0
-217 -182 0
-582 -560 -476 0
-615 -584 -561 0
-615 -594 0
-631 -594 0
-627 -596 0
-628 -606 -600 0
-628 -613 -600 0
-631 -597 0
-534 -512 -423 0
-535 -519 -489 0
-535 -521 -489 0
-579 -535 -519 0
-579 -535 -521 0
-579 -537 -519 0
-579 -537 -524 0
-579 -537 -527 0
-579 -539 -521 0
-579 -539 -527 0
-579 -539 -518 0
-579 -539 -529 0
-594 -579 -535 0
-595 -579 -535 0
-595 -579 -539 0
-597 -579 -539 0
-599 -579 -539 0
-603 -595 -539 0
-603 -599 -539 0
-603 -600 -542 0
-603 -599 -543 0
-546 -537 -512 0
-546 -539 -512 0
-561 -519 -489 0
-561 -521 -489 0
-582 -577 -570 0
-595 -584 -570 0
-598 -579 0
-594 -579 0
-604 -595 -584 0
-604 -597 -584 0
-604 -597 -588 0
-604 -599 -582 0
-604 -599 -583 0
-621 -606 -597 0
-636 -606 -597 0
-603 -594 0
-615 -604 -561 0
-631 -604 -595 0
-615 -604 -599 0
-603 -596 0
-603 -597 0
-615 -608 -599 0
-225 -183 0
-226 -184 0
-227 -185 0
-228 -186 0
-229 -187 0
-230 -188 0
-231 -189 0
-625 -619 -603 0
-636 -625 -603 0
-639 -636 -603 0
-639 -621 -606 0
-639 -636 -606 0
-638 -605 0
-628 -624 -606 0
-644 -628 -606 0
-639 -624 -606 0
-639 -627 -606 0
-643 -639 -606 0
-190 -183 0
-191 -184 0
-192 -185 0
-193 -186 0
-194 -187 0
-195 -188 0
-196 -189 0
-628 -613 -605 0
-639 -613 -605 0
-218 -183 0
-219 -184 0
-220 -185 0
-221 -186 0
-222 -187 0
-223 -188 0
-224 -189 0
-595 -579 -567 0
-621 -595 -579 0
-621 -597 -579 0
-621 -599 -579 0
-615 -579 -567 0
-621 -603 0
-615 -604 -567 0
-631 -619 -604 0
-636 -615 -604 0
-635 -603 0
-636 -615 -608 0
-635 -606 0
-621 -618 -608 0
-641 -621 -608 0
-636 -618 -608 0
-636 -620 -608 0
-545 -530 -458 0
-546 -537 -525 0
-546 -539 -525 0
-591 -546 -537 0
-591 -546 -539 0
-591 -548 -537 0
-591 -548 -540 0
-591 -548 -542 0
-591 -550 -539 0
-591 -550 -542 0
-591 -550 -536 0
-591 -550 -543 0
-604 -591 -546 0
-604 -591 -550 0
-606 -591 -550 0
-608 -591 -550 0
-609 -604 -550 0
-609 -608 -550 0
-609 -608 -553 0
-555 -548 -530 0
-555 -550 -530 0
-579 -537 -525 0
-579 -539 -525 0
-594 -589 -570 0
-595 -589 -570 0
-604 -595 -589 0
-604 -597 -589 0
-604 -599 -589 0
-603 -591 0
-610 -604 -595 0
-610 -604 -597 0
-610 -604 -599 0
-610 -606 -597 0
-610 -606 -600 0
-610 -608 -594 0
-610 -608 -596 0
-612 -605 0
-628 -611 -606 0
-639 -611 -606 0
-609 -603 0
-621 -610 -579 0
-619 -610 -604 0
-635 -610 -604 0
-636 -610 -604 0
-621 -610 -608 0
-636 -610 -608 0
-609 -605 0
-609 -606 0
-621 -613 -608 0
-636 -613 -608 0
-225 -190 0
-226 -191 0
-227 -192 0
-228 -193 0
-229 -194 0
-230 -195 0
-231 -196 0
-604 -591 -587 0
-628 -604 -591 0
-628 -606 -591 0
-628 -608 -591 0
-621 -591 -587 0
-628 -609 0
-621 -610 -587 0
-625 -619 -610 0
-635 -625 -610 0
-636 -625 -610 0
-639 -621 -610 0
-639 -636 -610 0
-638 -609 0
-639 -621 -613 0
-639 -636 -613 0
-638 -611 0
-644 -628 -613 0
-639 -624 -613 0
-639 -627 -613 0
-643 -639 -613 0
-572 -500 -483 0
-572 -503 -483 0
-582 -574 -566 0
-582 -574 -567 0
-582 -574 -568 0
-582 -577 -567 0
-561 -521 -487 0
-561 -521 -490 0
-621 -614 -566 0
-624 -614 -566 0
-617 -560 0
-624 -615 -566 0
-624 -615 -567 0
-625 -615 -567 0
-582 -560 0
-615 -578 -566 0
-615 -583 -566 0
-615 -586 -566 0
-615 -586 -567 0
-615 -587 -567 0
-615 -588 -567 0
-615 -584 -568 0
-615 -588 -568 0
-595 -586 -567 0
-595 -587 -567 0
-595 -588 -567 0
-595 -587 -570 0
-595 -578 -570 0
-232 -197 0
-233 -198 0
-234 -199 0
-235 -200 0
-236 -201 0
-237 -202 0
-238 -203 0
-621 -599 -582 0
-641 -624 -615 0
-636 -624 -615 0
-636 -625 -615 0
-631 -614 0
-635 -615 -599 0
-644 -636 -615 0
-639 -636 -615 0
-641 -614 0
-644 -636 -618 0
-639 -636 -618 0
-643 -635 -618 0
-643 -639 -618 0
-204 -197 0
-205 -198 0
-206 -199 0
-207 -200 0
-208 -201 0
-209 -202 0
-210 -203 0
-621 -595 -586 0
-621 -595 -587 0
-621 -595 -588 0
-604 -595 -587 0
-604 -595 -578 0
-644 -620 -615 0
-620 -614 0
-644 -621 -618 0
-639 -621 -618 0
-635 -624 -618 0
-639 -624 -618 0
-628 -604 -595 0
-620 -615 0
-628 -624 -618 0
-621 -615 0
-628 -619 -604 0
-628 -624 -619 0
-627 -625 -619 0
-561 -519 -487 0
-561 -519 -490 0
-594 -586 -567 0
-594 -587 -567 0
-594 -588 -567 0
-594 -587 -570 0
-579 -539 -523 0
-579 -539 -526 0
-628 -620 -586 0
-628 -621 -579 0
-594 -578 0
-621 -590 -586 0
-621 -596 -586 0
-621 -600 -587 0
-621 -600 -588 0
-604 -600 -587 0
-604 -590 -589 0
-239 -204 0
-240 -205 0
-241 -206 0
-242 -207 0
-243 -208 0
-244 -209 0
-245 -210 0
-635 -628 -594 0
-628 -608 -594 0
-635 -620 0
-638 -621 -608 0
-644 -620 0
-211 -204 0
-212 -205 0
-213 -206 0
-214 -207 0
-215 -208 0
-216 -209 0
-217 -210 0
-628 -604 -600 0
-610 -604 -590 0
-627 -620 0
-627 -621 0
-628 -621 0
-232 -204 0
-233 -205 0
-234 -206 0
-235 -207 0
-236 -208 0
-237 -209 0
-238 -210 0
-639 -636 -620 0
-643 -639 -620 0
-579 -537 -523 0
-579 -537 -526 0
-603 -600 -587 0
-591 -550 -541 0
-595 -584 -560 0
-603 -590 0
-628 -606 -600 0
-610 -605 -590 0
-246 -211 0
-247 -212 0
-248 -213 0
-249 -214 0
-250 -215 0
-251 -216 0
-252 -217 0
-638 -627 0
-218 -211 0
-219 -212 0
-220 -213 0
-221 -214 0
-222 -215 0
-223 -216 0
-224 -217 0
-634 -603 0
-239 -211 0
-240 -212 0
-241 -213 0
-242 -214 0
-243 -215 0
-244 -216 0
-245 -217 0
-595 -584 -567 0
-621 -595 -584 0
-621 -597 -584 0
-621 -597 -588 0
-621 -599 -583 0
-604 -597 -578 0
-604 -599 -578 0
-615 -584 -567 0
-631 -621 -583 0
-631 -621 0
-635 -631 0
-253 -218 0
-254 -219 0
-255 -220 0
-256 -221 0
-257 -222 0
-258 -223 0
-259 -224 0
-225 -218 0
-226 -219 0
-227 -220 0
-228 -221 0
-229 -222 0
-230 -223 0
-231 -224 0
-246 -218 0
-247 -219 0
-248 -220 0
-249 -221 0
-250 -222 0
-251 -223 0
-252 -224 0
-631 -620 -578 0
-641 -635 0
-604 -597 -587 0
-604 -599 -587 0
-628 -604 -597 0
-628 -604 -599 0
-628 -606 -597 0
-628 -608 -599 0
-628 -608 -596 0
-636 -628 -604 0
-636 -628 -608 0
-638 -636 -608 0
-610 -606 -590 0
-610 -608 -590 0
-621 -597 -587 0
-621 -599 -587 0
-631 -625 -619 0
-635 -628 0
-638 -635 0
-641 -639 -621 0
-253 -225 0
-254 -226 0
-255 -227 0
-256 -228 0
-257 -229 0
-258 -230 0
-259 -231 0
-636 -628 -624 0
-644 -636 -628 0
-641 -628 -624 0
-644 -638 0
-641 -639 -624 0
-615 -584 -566 0
-631 -624 -618 0
-631 -624 -619 0
-631 -620 -619 0
-621 -599 -586 0
-621 -599 -588 0
-642 -620 0
-631 -620 0
-636 -627 -625 0
-239 -232 0
-240 -233 0
-241 -234 0
-242 -235 0
-243 -236 0
-244 -237 0
-245 -238 0
-639 -636 -627 0
-644 -641 0
-621 -597 -586 0
-628 -608 -600 0
-635 -627 0
-246 -239 0
-247 -240 0
-248 -241 0
-249 -242 0
-250 -243 0
-251 -244 0
-252 -245 0
-253 -246 0
-254 -247 0
-255 -248 0
-256 -249 0
-257 -250 0
-258 -251 0
-259 -252 0
-663 -662 -658 -449 -418 0
-656 -648 -512 -418 -349 0
-669 -668 -648 -487 0
-677 -396 -360 -297 0
-396 -360 -300 -297 0
-656 -449 -349 -327 0
-657 -656 -349 -327 0
-656 -418 -349 -327 0
-424 -349 -327 -315 0
-666 -447 -334 -327 0
-666 -662 -512 -327 0
-666 -662 -418 -327 0
-682 -677 -396 -360 -337 0
-669 -668 -512 -487 -349 0
-657 -656 -553 -537 -349 0
-656 -512 -418 -349 0
-656 -522 -418 -349 0
-537 -424 -349 -315 0
-671 -655 -582 -577 -436 0
-447 -436 -341 -334 0
-666 -655 -436 -341 -334 0
-657 -656 -553 -537 -466 0
-656 -512 -466 -418 0
-656 -522 -466 -418 0
-674 -667 -661 -466 0
-667 -666 -466 -447 -334 0
-522 -466 -449 -418 0
-666 -655 -403 -349 -327 -315 0
-666 -655 -403 -334 0
-666 -662 -655 -403 0
-674 -655 -589 -512 -403 0
-677 -674 -667 -577 -396 0
-677 -582 -577 -396 0
-666 -662 -449 -418 0
-666 -662 -657 -418 0
-677 -577 -396 -360 0
-677 -577 -497 -396 -360 0
-669 -668 -487 -315 0
-669 -668 -488 -315 0
-667 -666 -487 -349 -327 -315 0
-656 -512 -418 -349 -315 0
-662 -657 -553 -418 0
-664 -662 -657 -553 -418 0
-656 -466 -447 -418 0
-667 -666 -577 -447 -334 0
-661 -656 -466 -447 -418 0
-674 -661 -466 -449 0
-664 -657 -625 -589 -553 0
-674 -667 -661 -577 0
-671 -667 -522 -487 0
-666 -656 -655 -349 -327 0
-666 -662 -655 -418 0
-674 -655 -589 -512 -418 0
-666 -655 -436 -349 -327 0
-674 -667 -664 -589 -487 0
-664 -589 -512 -487 0
-657 -553 -512 -418 0
-674 -667 -582 -577 0
-664 -635 -625 -589 0
-674 -667 -589 -577 0
-667 -577 -522 -487 0
-674 -657 -589 -512 -418 0
-664 -625 -605 -589 -553 0
-667 -582 -577 -487 0
-635 -625 -599 -582 0
-697 -696 -665 -500 0
-697 -696 -665 -277 0
-685 -684 -315 -277 0
-685 -684 -337 -277 0
-689 -688 -534 -423 0
-690 -689 -688 -674 -423 0
-707 -690 -689 -688 -423 0
-691 -690 -689 -688 -423 0
-690 -688 -674 -423 -323 -315 0
-707 -690 -688 -423 -323 -315 0
-696 -665 -372 -277 0
-690 -689 -688 -423 -381 0
-695 -665 -372 -277 0
-689 -688 -438 -423 -381 0
-688 -438 -423 -381 -323 -315 0
-712 -689 -688 -647 -423 0
-713 -712 -689 -666 -323 -306 0
-691 -690 -423 -323 -315 0
-689 -534 -423 -323 0
-691 -690 -689 -423 -323 0
-705 -693 -689 -674 -534 -423 0
-705 -693 -690 -689 -674 -423 0
-665 -372 -292 -277 0
-688 -423 -381 -340 -323 -315 0
-698 -685 -517 -500 -337 0
-689 -534 -489 -423 0
-696 -694 -665 -372 -277 0
-712 -711 -694 -372 -273 0
-534 -463 -457 -423 0
-707 -692 -463 -457 0
-714 -712 -711 -694 -381 0
-712 -694 -688 -647 -372 0
-689 -423 -323 -306 0
-691 -690 -529 -423 -315 0
-517 -412 -360 -337 0
-712 -694 -665 -372 -277 0
-534 -489 -457 -423 0
-534 -473 -457 -423 0
-712 -694 -666 -412 -306 0
-690 -674 -489 -423 -306 0
-685 -534 -529 -423 -337 0
-708 -690 -674 -423 -315 0
-708 -691 -674 -517 0
-691 -674 -517 -489 0
-698 -517 -500 -360 -337 0
-690 -674 -489 -423 -315 0
-707 -690 -610 -590 -534 0
-685 -534 -489 -423 -337 0
-691 -674 -529 -489 0
-698 -582 -568 -517 -500 0
-722 -489 -323 -306 0
-731 -722 -524 -420 -323 0
-734 -722 -516 -337 0
-715 -412 -390 -267 0
-736 -721 -720 -719 -712 -430 -268 0
-736 -721 -718 -430 -268 0
-731 -420 -323 -268 0
-716 -715 -412 -390 -376 -337 0
-715 -412 -399 -390 0
-720 -719 -718 -712 -430 -268 0
-731 -541 -420 -323 0
-731 -524 -420 -323 0
-734 -677 -577 -516 -337 0
-719 -440 -432 -340 -268 0
-720 -719 -430 -340 -268 0
-720 -719 -718 -430 -340 -268 0
-734 -731 -577 -516 -337 0
-731 -586 -524 -420 0
-736 -721 -718 -430 -306 0
-721 -661 -458 -430 -420 0
-715 -412 -399 -370 0
-721 -716 -715 -412 -376 -337 0
-721 -715 -412 -399 0
-727 -721 -661 -545 -458 -420 0
-719 -718 -712 -694 -268 0
-399 -370 -323 -306 0
-731 -420 -399 -370 -323 0
-734 -399 -370 -337 0
-734 -731 -420 -399 -370 0
-725 -724 -723 -489 -370 0
-489 -370 -323 -306 0
-731 -727 -489 -420 -370 -323 0
-734 -516 -370 -337 0
-731 -420 -323 -306 0
-734 -516 -412 -370 -337 0
-729 -608 -458 -420 0
-716 -712 -694 -376 0
-736 -721 -718 -430 -340 0
-736 -721 -718 -715 -340 0
-412 -399 -370 -340 -323 -268 0
-729 -691 -577 -458 0
-729 -636 -608 -458 0
-661 -524 -458 -420 0
-729 -691 -661 -516 0
-729 -691 -661 -577 0
-718 -716 -712 -694 0
-734 -716 -412 -399 -370 0
-736 -721 -718 -716 -715 -412 0
-729 -691 -677 -577 0
-725 -677 -586 -566 0
-718 -712 -694 -412 -306 0
-731 -412 -399 -370 -323 0
-727 -545 -528 -489 -419 0
-727 -545 -489 -458 -420 0
-729 -727 -489 -458 -420 0
-728 -705 -661 -545 -489 0
-736 -721 -719 -718 -430 -268 0
-545 -541 -458 -420 0
-545 -524 -458 -420 0
-661 -545 -541 -458 -420 0
-661 -528 -458 -420 0
-729 -691 -661 -528 0
-545 -528 -458 -420 0
-725 -586 -577 -566 0
-725 -677 -571 -566 0
-571 -566 -501 -488 0
-721 -715 -661 -528 -419 0
-725 -577 -516 -489 0
-730 -705 -691 -516 -489 0
-725 -691 -577 -516 -489 0
-545 -541 -528 -419 0
-661 -528 -458 -419 0
-545 -528 -458 -419 0
-726 -725 -577 -516 -337 0
-424 -357 -335 -315 -295 0
-357 -335 -315 -295 0
-424 -357 -335 -295 -270 0
-757 -753 -731 -674 -667 -650 -424 0
-534 -448 -424 -373 -357 -263 0
-731 -534 -448 -424 -373 -263 0
-760 -746 -697 -424 -357 0
-760 -367 -357 -315 0
-757 -753 -731 -719 -674 -424 0
-719 -695 -354 -348 -334 0
-747 -354 -334 -293 0
-373 -354 -334 -293 0
-448 -373 -334 -293 0
-448 -373 -306 -293 0
-661 -528 -448 -373 -293 0
-764 -759 -667 -367 -306 -293 0
-697 -696 -560 -486 0
-750 -697 -696 -486 0
-719 -435 -354 -348 -334 0
-748 -745 -716 -697 -696 -295 0
-424 -367 -357 -315 -295 0
-746 -697 -424 -357 -295 0
-367 -357 -315 -295 0
-757 -755 -753 -731 -674 -424 0
-755 -754 -753 -530 -418 0
-755 -662 -528 -467 0
-530 -528 -348 -334 0
-662 -528 -467 -348 0
-746 -697 -486 -424 -357 0
-746 -483 -424 -357 0
-667 -367 -357 -315 0
-749 -731 -674 -667 -534 -448 -424 0
-756 -731 -597 -424 0
-760 -748 -745 -696 -373 0
-760 -373 -357 -315 0
-534 -448 -424 -373 -357 -295 0
-754 -753 -719 -662 -528 -435 -418 0
-719 -662 -526 -435 -418 -348 0
-731 -534 -435 -424 0
-756 -731 -435 -424 0
-756 -731 -435 -424 -315 0
-760 -745 -373 -354 0
-760 -716 -373 -354 0
-760 -373 -357 -354 0
-534 -448 -424 -373 -357 -354 0
-731 -534 -448 -424 -373 -354 0
-746 -534 -448 -424 -373 -354 0
-662 -528 -467 -463 0
-373 -354 -348 -334 0
-448 -373 -348 -334 0
-448 -373 -348 -306 0
-755 -674 -589 -448 -367 -306 0
-755 -662 -528 -367 0
-755 -662 -526 -418 -367 0
-755 -528 -367 -348 -334 0
-661 -448 -367 -306 0
-756 -424 -367 -357 -315 0
-756 -731 -424 -367 -315 0
-756 -424 -367 -315 0
-674 -667 -661 -367 0
-674 -667 -534 -367 0
-674 -667 -589 -367 0
-750 -697 -625 -486 0
-755 -753 -731 -424 -306 0
-755 -753 -731 -424 -367 -306 0
-661 -528 -448 -306 0
-674 -589 -528 -448 -306 0
-674 -667 -367 -315 0
-756 -597 -424 -315 0
-749 -667 -560 -424 -367 -315 0
-746 -697 -560 -486 -424 0
-760 -448 -373 -357 -315 0
-746 -534 -448 -424 0
-761 -750 -625 -589 -550 0
-760 -448 -373 -357 -334 0
-534 -448 -424 -334 0
-731 -467 -463 -435 -424 0
-674 -589 -528 -467 0
-589 -550 -528 -467 0
-757 -756 -674 -661 -597 0
-760 -716 -448 -373 -306 0
-749 -677 -674 -667 -534 -448 0
-749 -677 -674 -667 -589 0
-750 -749 -677 -625 0
-763 -762 -719 -448 -348 -306 0
-719 -448 -435 -348 -334 0
-530 -528 -448 -334 0
-755 -753 -731 -448 -435 -306 0
-719 -448 -435 -348 -306 0
-661 -530 -528 -448 0
-750 -625 -589 -550 -486 0
-746 -697 -534 -486 -424 0
-746 -534 -483 -424 0
-534 -448 -424 -348 -334 0
-534 -528 -448 -334 0
-731 -528 -467 -463 -435 -315 0
-625 -589 -558 -550 0
-674 -661 -530 -528 0
-757 -746 -697 -674 -667 -424 0
-661 -550 -530 -528 0
-648 -424 -357 -320 0
-773 -767 -648 -424 -320 0
-773 -648 -407 -347 -320 0
-721 -374 -320 -293 0
-477 -374 -320 -293 0
-675 -668 -320 -315 0
-770 -721 -675 -374 -320 0
-374 -320 -293 -267 0
-320 -293 -271 -267 0
-779 -675 -320 -267 0
-675 -668 -320 -267 0
-770 -675 -374 -320 -267 0
-776 -774 -773 -721 -714 -444 -347 0
-778 -774 -714 -457 -413 -347 0
-648 -543 -524 -424 -357 0
-769 -721 -444 -380 0
-721 -444 -380 -374 -271 0
-457 -413 -381 -347 0
-773 -648 -543 -424 -357 0
-773 -767 -543 -424 0
-773 -648 -444 -424 -357 0
-773 -768 -767 -457 -444 0
-773 -767 -444 -424 0
-775 -774 -773 -444 -347 0
-773 -444 -407 -347 0
-769 -721 -444 -424 -357 0
-721 -444 -374 -293 -271 0
-769 -721 -444 -424 -374 -357 0
-770 -721 -444 -374 0
-648 -357 -320 -293 0
-773 -767 -648 -320 -293 0
-773 -648 -347 -320 -293 0
-767 -649 -648 -320 -293 0
-773 -771 -721 -444 -374 -347 0
-774 -773 -771 -767 -457 -347 0
-675 -668 -648 -543 -424 -357 0
-773 -648 -320 -293 -271 0
-784 -783 -770 -675 -668 -357 -315 0
-783 -770 -705 -675 -668 -357 -315 0
-773 -767 -551 -457 -347 0
-551 -457 -413 -347 0
-778 -729 -457 -413 -347 0
-773 -721 -648 -444 -374 -271 0
-779 -769 -668 -648 -357 0
-787 -769 -696 -668 -357 -315 0
-779 -769 -668 -357 -315 0
-772 -769 -675 -648 -357 -320 0
-772 -769 -675 -668 -357 -315 0
-769 -721 -357 -315 0
-773 -767 -460 -457 -444 0
-773 -460 -444 -407 -347 0
-770 -675 -668 -424 -357 -315 0
-770 -675 -668 -424 -315 0
-787 -785 -782 -619 -500 0
-774 -771 -413 -374 -347 0
-775 -711 -407 -374 0
-779 -600 -524 -500 -488 0
-543 -524 -424 -315 0
-773 -767 -457 -407 -347 0
-778 -729 -543 -457 -413 0
-778 -729 -570 -457 -413 0
-769 -668 -648 -374 -357 0
-769 -374 -357 -315 0
-773 -721 -668 -648 -444 -374 0
-638 -610 -545 -457 0
-778 -729 -600 -543 -524 -457 0
-778 -729 -570 -457 0
-782 -778 -729 -457 0
-769 -716 -711 -374 0
-769 -711 -374 -357 0
-778 -729 -619 -570 0
-782 -778 -729 -619 0
-774 -771 -769 -716 -374 0
-774 -771 -769 -374 -347 0
-785 -729 -619 -570 -500 0
-785 -619 -594 -570 -500 0
-785 -619 -594 -500 0
-785 -624 -619 -500 0
-775 -711 -477 -407 -374 0
-721 -714 -711 -444 -381 -374 0
-729 -619 -570 -543 -524 0
-619 -594 -543 -524 0
-769 -477 -374 -357 -315 0
-785 -782 -619 -543 0
-785 -729 -619 -570 -543 0
-785 -619 -594 -543 0
-767 -545 -543 -457 -424 0
-768 -545 -523 -457 0
-768 -545 -524 -457 0
-778 -777 -768 -545 -523 -457 0
-777 -729 -543 -524 0
-770 -769 -675 -668 -374 -357 0
-729 -619 -610 -570 0
-782 -729 -619 -610 0
-773 -689 -301 -270 0
-773 -689 -668 -301 -270 0
-797 -796 -792 -779 -722 -668 0
-799 -779 -722 -668 0
-663 -466 -433 -381 0
-722 -689 -668 -413 -270 0
-773 -433 -407 -270 0
-773 -689 -668 -315 -270 0
-789 -773 -689 -270 0
-722 -689 -668 -380 -270 0
-789 -689 -458 -433 -381 0
-468 -466 -433 -381 0
-466 -458 -433 -381 0
-458 -433 -413 -381 0
-773 -468 -433 -407 0
-792 -791 -790 -773 -477 0
-793 -792 -791 -790 -773 0
-789 -773 -689 -540 0
-789 -773 -689 -527 0
-722 -380 -336 -305 -270 0
-722 -668 -380 -305 -270 0
-790 -789 -527 -466 -458 0
-797 -796 -779 -722 -668 -477 -290 0
-663 -433 -381 -333 0
-789 -689 -663 -433 -381 -333 0
-797 -796 -792 -791 -779 -668 0
-793 -746 -521 -412 -344 0
-788 -775 -545 -468 -433 0
-789 -689 -540 -433 0
-789 -689 -545 -458 -433 0
-553 -466 -458 -433 0
-553 -458 -433 -413 0
-545 -468 -458 -406 0
-789 -689 -459 -458 -433 0
-459 -458 -433 -413 0
-792 -791 -790 -477 -466 0
-793 -792 -791 -790 -466 0
-789 -527 -466 -458 0
-805 -796 -775 -545 -468 0
-689 -668 -468 -433 -407 -315 0
-799 -779 -668 -315 0
-779 -668 -502 -477 -315 0
-788 -775 -468 -433 -406 0
-466 -458 -433 -407 0
-553 -540 -458 -413 0
-797 -793 -792 -584 -521 0
-789 -584 -527 -458 0
-789 -468 -466 -458 0
-789 -545 -468 -458 0
-799 -779 -523 -502 0
-609 -553 -540 -523 0
-468 -466 -458 -407 0
-789 -545 -540 -458 0
-789 -545 -527 -458 0
-468 -466 -433 -407 0
-791 -788 -775 -545 -468 -458 0
-799 -793 -779 -521 -502 0
-793 -584 -560 -521 -502 0
-359 -336 -335 -297 0
-769 -403 -335 -290 0
-403 -344 -335 -290 0
-811 -663 -459 -431 0
-811 -663 -431 -379 0
-380 -336 -335 -305 -270 0
-810 -380 -333 -305 -270 0
-792 -756 -729 -720 -437 0
-792 -729 -720 -603 -437 0
-792 -720 -477 -437 0
-792 -769 -477 -403 -290 0
-792 -769 -729 -589 -403 -290 0
-811 -663 -407 -333 0
-811 -663 -431 -333 0
-663 -431 -381 -333 0
-814 -792 -731 -477 -424 -329 0
-814 -792 -769 -731 -424 -329 0
-822 -815 -731 -523 -437 0
-822 -815 -731 -524 -437 0
-815 -814 -731 -477 -437 0
-731 -477 -437 -329 0
-792 -477 -437 -329 0
-792 -769 -729 -589 -523 -403 0
-792 -769 -729 -603 -589 -523 -403 -344 0
-815 -814 -813 -792 -731 -424 0
-814 -813 -792 -731 -437 -329 0
-583 -494 -491 -396 0
-582 -499 -491 -396 0
-785 -567 -499 -396 0
-785 -677 -614 -396 0
-810 -403 -344 -333 -290 0
-812 -772 -769 -344 -333 0
-792 -769 -477 -344 -329 0
-815 -814 -792 -731 -729 -437 0
-814 -756 -731 -424 -329 0
-814 -792 -731 -729 -437 -329 0
-582 -499 -491 -366 0
-468 -407 -347 -329 0
-756 -731 -424 -329 0
-792 -756 -731 -729 -437 -329 0
-812 -772 -769 -716 -333 0
-814 -792 -731 -705 -437 -329 0
-815 -496 -468 -407 -366 -347 0
-677 -582 -499 -491 0
-822 -815 -524 -496 -366 0
-496 -477 -366 -329 0
-785 -677 -567 -496 0
-822 -815 -814 -523 -477 0
-822 -815 -814 -524 -477 0
-815 -814 -731 -477 -424 0
-815 -814 -792 -731 -650 -477 -424 0
-477 -407 -347 -329 0
-731 -477 -424 -329 0
-792 -729 -589 -523 -477 0
-582 -517 -499 -491 0
-822 -815 -792 -731 -477 -437 0
-815 -517 -496 -407 -366 -347 0
-784 -729 -676 -664 -567 0
-517 -496 -366 -329 0
-815 -814 -792 -731 -477 -424 0
-792 -477 -424 -329 0
-817 -815 -814 -792 -731 -477 0
-603 -600 -589 -523 0
-729 -603 -600 -589 -523 0
-756 -729 -589 -523 0
-734 -722 -481 -337 0
-825 -773 -721 -661 -444 -347 0
-825 -656 -458 -347 0
-825 -661 -656 -458 -347 0
-827 -825 -656 -458 -347 0
-830 -482 -376 -337 0
-830 -734 -481 -337 0
-830 -734 -499 -366 0
-830 -828 -734 -499 0
-753 -662 -661 -528 -458 -347 0
-721 -715 -444 -356 -303 0
-773 -656 -534 -458 0
-822 -773 -656 -524 -418 0
-822 -773 -693 -524 -347 0
-773 -662 -528 -347 0
-827 -661 -656 -528 -458 -347 0
-773 -656 -458 -444 -424 0
-773 -656 -444 -418 0
-773 -662 -444 -347 0
-829 -721 -715 -444 0
-721 -715 -444 -424 0
-721 -661 -656 -458 -444 -418 0
-721 -661 -458 -444 -424 0
-721 -444 -374 -266 0
-721 -444 -403 -374 0
-827 -825 -717 -695 -354 0
-825 -810 -347 -329 -290 0
-734 -722 -337 -290 0
-734 -722 -366 -329 -290 0
-830 -722 -411 -356 -290 0
-830 -734 -722 -337 -290 0
-830 -734 -722 -366 -329 -290 0
-721 -374 -290 -266 0
-829 -356 -290 -287 0
-715 -424 -356 -290 -287 0
-820 -715 -661 -458 -403 -356 -290 0
-721 -403 -374 -290 0
-825 -717 -656 -354 -347 0
-825 -810 -347 -266 0
-830 -722 -356 -290 -266 0
-721 -661 -528 -374 -266 0
-825 -810 -347 -329 -290 -287 0
-403 -356 -290 -287 0
-403 -374 -290 -287 0
-829 -356 -337 -287 0
-715 -424 -356 -337 -287 0
-828 -499 -376 -337 0
-499 -482 -376 -337 0
-734 -508 -481 -337 0
-830 -734 -481 -356 -337 0
-830 -734 -366 -356 0
-830 -828 -734 -356 0
-828 -376 -356 -337 0
-482 -376 -356 -337 0
-829 -828 -356 -337 0
-829 -482 -356 -337 0
-828 -715 -424 -356 -337 0
-773 -674 -661 -656 -458 -347 0
-674 -661 -656 -458 -347 0
-656 -534 -458 -347 0
-662 -528 -467 -347 0
-773 -467 -444 -434 -406 -347 0
-773 -721 -661 -444 -434 -347 0
-773 -721 -444 -434 -374 -347 0
-829 -715 -482 -337 0
-715 -481 -424 -337 0
-674 -667 -661 -656 -458 0
-674 -667 -656 -534 -458 0
-403 -374 -356 -354 0
-411 -374 -356 -354 0
-773 -656 -444 -406 0
-773 -444 -406 -347 0
-829 -721 -715 -337 0
-721 -715 -424 -337 0
-721 -662 -661 -656 -458 -347 0
-721 -661 -458 -424 -337 0
-826 -662 -661 -656 -528 -458 0
-721 -715 -374 -356 -284 0
-411 -374 -356 -284 0
-825 -810 -403 -347 -290 0
-734 -722 -403 -337 -290 0
-835 -734 -722 -403 -290 0
-832 -671 -667 -662 -403 0
-734 -722 -394 -366 -290 0
-394 -374 -290 -266 0
-571 -508 -499 -394 0
-828 -571 -508 -499 -394 0
-508 -481 -396 -337 0
-721 -662 -661 -528 -418 -374 0
-828 -571 -499 -337 0
-721 -715 -374 -356 -266 0
-830 -734 -411 -356 -337 0
-411 -376 -356 -337 0
-829 -734 -499 -366 -337 0
-829 -828 -508 -396 -337 0
-829 -828 -499 -337 0
-829 -499 -482 -337 0
-721 -715 -376 -374 -356 0
-830 -403 -376 -374 -356 0
-830 -734 -403 -374 -356 0
-403 -374 -356 -287 0
-403 -376 -374 -356 0
-830 -734 -411 -374 -356 0
-411 -376 -374 -356 0
-591 -548 -528 -467 0
-662 -661 -656 -528 -458 -347 0
-832 -662 -661 -656 -458 -347 0
-832 -671 -667 -662 -528 0
-825 -810 -403 -356 -290 0
-820 -715 -662 -661 -528 -356 0
-721 -662 -661 -528 -434 -347 0
-828 -499 -481 -337 0
-830 -734 -403 -356 -290 0
-403 -376 -356 -290 0
-830 -810 -403 -356 -290 0
-829 -828 -671 -396 -337 0
-534 -481 -424 -337 0
-721 -715 -661 -528 -424 0
-661 -528 -458 -424 0
-832 -674 -667 -662 -534 -528 0
-508 -499 -481 -396 0
-508 -481 -396 -366 0
-828 -508 -481 -396 0
-721 -715 -662 -661 -528 -347 0
-820 -715 -662 -661 -528 -347 0
-591 -548 -534 -458 0
-829 -828 -671 -667 -337 0
-829 -671 -667 -482 -337 0
-832 -829 -671 -667 -337 0
-665 -502 -366 -330 0
-841 -729 -543 -448 -386 -304 0
-534 -448 -386 -304 0
-845 -844 -403 -393 -386 0
-845 -769 -424 -386 -357 0
-845 -769 -403 -386 0
-845 -769 -403 -288 0
-844 -769 -403 -288 0
-769 -448 -403 -288 0
-814 -665 -330 -329 -285 0
-665 -366 -330 -285 0
-832 -814 -675 -525 0
-675 -543 -424 -357 -330 0
-832 -814 -525 -327 0
-832 -814 -675 -330 0
-832 -814 -330 -329 0
-517 -357 -330 -313 0
-567 -502 -366 -330 0
-502 -366 -357 -330 0
-403 -393 -357 -330 -313 0
-534 -448 -424 -304 0
-814 -769 -675 -357 -330 0
-814 -769 -357 -330 -329 0
-769 -366 -357 -330 -329 0
-769 -366 -357 -330 0
-844 -403 -393 -313 0
-844 -769 -357 -330 0
-844 -769 -357 -330 -329 0
-729 -664 -475 -463 0
-664 -613 -475 -463 0
-583 -491 -396 -371 0
-567 -502 -396 -366 0
-814 -675 -543 -424 -357 -330 0
-843 -729 -567 -502 -366 0
-814 -675 -357 -330 -313 0
-366 -357 -330 -313 0
-543 -424 -357 -330 -329 0
-832 -814 -525 -329 0
-543 -424 -366 -357 -330 -329 0
-769 -675 -403 -357 -330 0
-769 -448 -357 -330 -329 0
-534 -448 -424 -357 -313 0
-664 -613 -475 -454 0
-843 -729 -664 -475 0
-664 -613 -605 -475 0
-613 -603 -559 -475 0
-505 -491 -396 -371 0
-505 -502 -396 -366 0
-832 -814 -525 -502 0
-832 -567 -525 -502 0
-843 -729 -567 -534 -502 0
-843 -729 -567 -543 -524 0
-534 -517 -424 -357 -313 0
-843 -785 -729 -567 -543 0
-843 -729 -664 -567 0
-832 -814 -517 -502 0
-832 -567 -517 -502 0
-843 -832 -729 -567 -534 -525 0
-436 -374 -320 -266 0
-492 -374 -320 -266 0
-851 -436 -374 -320 0
-851 -492 -374 -320 0
-734 -731 -329 -320 -289 0
-830 -779 -734 -731 -667 -329 0
-753 -731 -667 -534 -492 -424 0
-792 -753 -731 -667 -492 -424 0
-436 -386 -374 -266 0
-851 -436 -386 -374 0
-792 -436 -424 -386 0
-792 -534 -436 -424 -386 0
-792 -534 -436 -386 0
-792 -691 -436 -386 0
-436 -374 -354 -339 0
-534 -492 -424 -374 -354 -339 0
-851 -661 -555 -492 -374 0
-436 -374 -320 -289 -266 0
-775 -492 -374 -266 0
-830 -734 -399 -356 -289 0
-830 -809 -734 -395 -356 0
-779 -731 -667 -534 -492 -424 0
-731 -667 -567 -534 -492 -424 0
-851 -436 -399 -374 0
-792 -731 -436 -424 -329 0
-792 -543 -524 -436 -424 0
-792 -691 -517 -436 0
-436 -374 -356 -354 0
-731 -534 -492 -424 -374 -354 0
-851 -492 -399 -374 0
-851 -492 -399 -374 -266 0
-734 -731 -399 -360 -329 -289 0
-734 -731 -399 -329 -289 0
-775 -492 -419 -374 0
-802 -734 -724 -500 -360 0
-523 -419 -347 -329 0
-731 -534 -424 -329 0
-731 -691 -424 -329 0
-731 -543 -424 -329 0
-799 -779 -523 -329 0
-799 -779 -524 -329 0
-779 -667 -661 -492 -329 0
-779 -667 -534 -492 -329 0
-436 -374 -356 -266 0
-830 -734 -436 -374 -356 0
-851 -480 -399 -374 0
-792 -779 -731 -667 -424 -329 0
-792 -691 -517 -480 0
-792 -691 -661 -517 0
-480 -399 -360 -289 0
-799 -779 -667 -543 -524 0
-667 -661 -555 -492 0
-799 -779 -583 -524 -500 0
-792 -731 -492 -424 -329 0
-792 -543 -524 -492 -424 0
-792 -691 -517 -492 0
-792 -775 -492 -424 0
-775 -534 -492 -424 0
-792 -661 -555 -543 -492 -424 0
-792 -775 -492 -419 0
-799 -603 -567 -543 -524 0
-775 -534 -492 -419 0
-792 -779 -667 -492 -424 -329 0
-788 -381 -332 -268 0
-788 -718 -332 -268 0
-356 -332 -290 -287 0
-391 -356 -290 -287 0
-391 -376 -356 -286 0
-788 -421 -381 -268 0
-788 -422 -381 -268 0
-788 -718 -421 -268 0
-788 -718 -422 -268 0
-859 -731 -648 -522 0
-731 -648 -390 -329 0
-859 -731 -648 -390 0
-788 -467 -421 -381 0
-788 -457 -422 -381 0
-680 -665 -648 -390 -376 0
-788 -438 -421 -381 0
-788 -438 -422 -381 0
-863 -861 -661 -570 -492 0
-863 -861 -690 -570 -534 0
-863 -861 -691 -690 -570 0
-393 -381 -332 -268 0
-718 -663 -393 -374 -341 0
-788 -718 -393 -374 0
-416 -356 -290 -287 0
-534 -416 -356 -290 -287 0
-770 -492 -374 -290 0
-779 -500 -397 -329 -290 0
-393 -332 -268 -263 0
-731 -648 -329 -287 0
-779 -731 -648 -329 -287 0
-859 -731 -648 -287 0
-770 -374 -290 -287 0
-500 -397 -290 -287 0
-397 -368 -290 -287 0
-691 -529 -416 -356 -287 0
-788 -718 -467 -421 0
-788 -718 -457 -422 0
-663 -438 -381 -341 0
-770 -356 -290 -287 0
-397 -356 -290 -287 0
-859 -731 -590 -522 0
-680 -665 -648 -393 -390 0
-731 -648 -430 -390 -329 0
-430 -416 -390 -356 0
-534 -430 -416 -390 -356 0
-861 -661 -621 -570 -492 0
-861 -690 -596 -543 0
-680 -393 -391 -390 -356 -332 0
-788 -718 -421 -374 0
-788 -718 -422 -374 0
-779 -727 -596 -522 0
-859 -779 -590 -522 0
-859 -610 -590 -522 0
-680 -648 -393 -390 -332 0
-691 -583 -529 -416 0
-727 -596 -522 -422 0
-861 -661 -492 -457 -422 0
-534 -492 -416 -376 -374 -356 0
-770 -511 -481 -374 0
-690 -582 -543 -529 0
-861 -661 -570 -492 -457 0
-691 -690 -661 -529 0
-690 -661 -543 -529 0
-690 -661 -596 -543 0
-855 -788 -762 -718 -374 0
-770 -511 -492 -374 0
-779 -511 -500 -397 -329 0
-859 -779 -511 -500 -397 0
-859 -779 -590 -522 -500 0
-861 -727 -661 -492 -457 -422 0
-691 -570 -529 -492 0
-511 -500 -481 -397 0
-511 -500 -481 -397 -368 0
-691 -583 -570 -529 0
-691 -621 -583 -570 -529 0
-414 -357 -320 -287 0
-791 -543 -458 -357 -320 -287 0
-814 -718 -340 -329 -320 -268 0
-718 -662 -320 -268 0
-832 -814 -718 -320 -268 0
-814 -718 -329 -320 -268 0
-814 -718 -662 -320 -268 0
-851 -814 -492 -320 0
-851 -832 -814 -320 0
-851 -814 -329 -320 0
-851 -814 -662 -320 0
-851 -718 -662 -320 0
-773 -731 -414 -268 0
-718 -662 -421 -268 0
-814 -792 -753 -731 -492 -414 0
-814 -792 -791 -753 -731 -492 0
-792 -762 -414 -373 -303 0
-793 -792 -791 -773 -731 -414 0
-814 -792 -773 -731 -492 -414 0
-793 -792 -773 -731 -414 0
-814 -792 -791 -773 -731 -492 -414 0
-679 -378 -373 -280 0
-792 -773 -731 -440 -433 -414 0
-851 -814 -662 -421 0
-851 -718 -662 -421 0
-814 -792 -731 -686 -492 -414 0
-851 -814 -320 -287 0
-414 -357 -329 -287 0
-791 -536 -524 -458 -357 -287 0
-718 -662 -467 -421 0
-773 -433 -340 -268 0
-718 -662 -421 -340 0
-867 -814 -792 -731 -492 -414 0
-792 -773 -731 -492 -433 -414 0
-791 -586 -536 -524 -458 0
-814 -792 -791 -762 -731 -329 0
-814 -792 -762 -731 -414 -329 0
-867 -814 -777 -492 0
-867 -814 -792 -492 -414 0
-867 -832 -814 -586 0
-865 -663 -373 -340 -280 0
-845 -467 -464 -421 -373 0
-814 -777 -591 -492 0
-814 -662 -467 -421 0
-793 -792 -791 -731 -329 0
-814 -777 -492 -329 0
-832 -814 -586 -329 0
-536 -458 -414 -329 0
-814 -492 -414 -329 0
-832 -814 -414 -329 0
-793 -792 -497 -414 0
-793 -792 -521 -414 0
-536 -524 -458 -414 0
-543 -524 -458 -414 0
-849 -768 -604 -543 -524 0
-869 -867 -814 -718 -497 -340 0
-793 -792 -508 -497 0
-586 -536 -524 -458 0
-662 -492 -467 -421 0
-604 -543 -475 -458 0
-869 -814 -793 -792 -492 -329 0
-869 -793 -792 -662 -492 0
-867 -814 -508 -492 0
-867 -832 -814 -508 0
-867 -693 -686 -662 -497 0
-867 -814 -497 -492 0
-867 -832 -814 -497 0
-867 -814 -662 -497 0
-793 -792 -497 -492 0
-814 -792 -731 -492 -414 -329 0
-792 -791 -731 -492 -329 0
-792 -492 -414 -329 0
-793 -792 -521 -492 0
-792 -662 -492 -421 0
-793 -792 -777 -591 -492 0
-814 -792 -662 -492 -414 0
-792 -662 -492 -414 0
-814 -792 -731 -693 -492 -414 0
-392 -357 -337 -335 0
-392 -376 -337 -335 0
-376 -337 -335 -285 0
-871 -859 -815 -527 0
-871 -815 -814 -797 -792 -414 0
-376 -335 -285 -267 0
-791 -790 -386 -357 -267 0
-399 -392 -335 -288 0
-392 -368 -357 -337 0
-809 -392 -376 -368 0
-392 -376 -368 -337 0
-809 -679 -392 -376 0
-791 -790 -386 -376 -357 -313 0
-791 -790 -386 -357 -313 0
-815 -814 -791 -790 -731 -386 -328 0
-791 -790 -536 -458 -386 0
-791 -790 -399 -357 -313 0
-791 -790 -536 -523 -458 0
-791 -790 -743 -527 0
-392 -357 -335 -288 0
-392 -376 -335 -288 0
-376 -368 -337 -285 0
-815 -814 -792 -791 -771 -731 -414 0
-815 -814 -792 -791 -771 -731 0
-809 -787 -506 -376 -368 0
-508 -399 -357 -313 0
-679 -392 -376 -373 0
-826 -553 -475 -433 0
-826 -657 -553 -433 0
-826 -657 -536 -433 0
-791 -790 -536 -464 -458 0
-791 -790 -743 -464 0
-826 -555 -530 -475 0
-826 -657 -609 -553 0
-414 -399 -357 -313 0
-800 -787 -560 -368 0
-800 -787 -750 -368 0
-809 -376 -368 -313 0
-815 -814 -792 -731 -414 -328 0
-815 -814 -791 -790 -731 -467 -464 -328 0
-815 -814 -792 -791 -731 -328 0
-815 -814 -731 -476 -414 0
-859 -731 -527 -414 0
-814 -797 -792 -476 -414 0
-536 -523 -458 -414 0
-792 -791 -790 -467 -464 0
-791 -790 -467 -464 -458 0
-609 -555 -553 -467 0
-826 -657 -553 -469 0
-859 -815 -814 -527 -476 0
-809 -399 -376 -313 0
-814 -797 -792 -791 -731 -327 0
-814 -797 -792 -791 -731 -414 -327 0
-814 -797 -792 -731 -414 -327 0
-859 -815 -814 -797 -792 -743 -527 0
-555 -530 -475 -458 -414 0
-815 -814 -797 -792 -731 -414 0
-814 -797 -792 -774 -731 -414 0
-555 -530 -475 -458 0
-657 -555 -530 -475 0
-555 -553 -530 -475 0
-815 -814 -797 -792 -791 -731 -414 0
-747 -718 -689 -688 -418 0
-747 -718 -662 -418 0
-853 -773 -747 -732 -718 -351 0
-403 -313 -292 -276 0
-769 -682 -390 -337 0
-851 -769 -403 -390 -319 0
-769 -511 -403 -390 0
-875 -474 -463 -431 0
-853 -820 -793 -792 -773 0
-773 -718 -708 -662 -661 -351 0
-773 -689 -662 -513 -418 0
-859 -773 -689 -527 0
-390 -304 -292 -276 0
-851 -814 -662 -513 0
-851 -814 -662 -418 0
-851 -718 -689 -688 -418 0
-851 -718 -662 -418 0
-851 -792 -769 -661 -555 -403 0
-851 -814 -476 -319 0
-851 -814 -662 -319 0
-851 -814 -708 -705 -319 0
-851 -792 -769 -661 -403 -319 0
-732 -718 -689 -688 -458 0
-853 -820 -792 -773 -718 -688 0
-718 -662 -536 -418 0
-718 -662 -536 -458 -418 0
-718 -662 -657 -418 0
-403 -313 -300 -292 0
-853 -820 -792 -773 -351 0
-718 -662 -418 -351 0
-876 -701 -682 -368 -337 0
-732 -707 -689 -604 -458 0
-769 -682 -368 -337 0
-851 -769 -747 -403 -390 -273 0
-851 -769 -747 -682 -403 -273 0
-844 -769 -682 -300 0
-844 -769 -682 -337 0
-536 -463 -431 -418 0
-657 -536 -474 -463 0
-851 -814 -662 -403 0
-851 -718 -689 -688 -403 0
-851 -718 -662 -403 0
-792 -769 -661 -513 -403 0
-793 -792 -511 -397 0
-814 -662 -555 -513 0
-814 -662 -536 -418 0
-876 -800 -701 -560 -368 0
-793 -792 -511 -414 0
-707 -613 -536 -458 -418 0
-820 -817 -743 -661 -527 0
-793 -792 -661 -511 0
-851 -769 -682 -403 -300 0
-851 -403 -313 -300 0
-511 -397 -368 -337 0
-851 -814 -403 -313 0
-851 -403 -319 -313 0
-851 -718 -403 -313 0
-511 -397 -368 -313 0
-793 -511 -494 -397 -368 0
-851 -769 -718 -688 -403 -390 0
-814 -662 -513 -476 0
-851 -769 -682 -403 -319 0
-662 -536 -513 -418 0
-817 -792 -718 -708 -662 -661 -351 0
-707 -604 -536 -458 0
-793 -792 -661 -513 0
-661 -536 -513 -458 0
-750 -707 -618 -604 -587 0
-793 -792 -661 -555 0
-661 -555 -536 -458 0
-708 -662 -661 -657 -418 0
-662 -661 -513 -458 -418 0
-734 -665 -496 -366 0
-800 -734 -665 -366 0
-800 -665 -366 -289 0
-793 -698 -665 -399 -289 0
-749 -698 -665 -399 -289 0
-734 -665 -315 -277 0
-734 -665 -366 -277 0
-665 -366 -289 -277 0
-749 -734 -698 -672 -496 -399 -366 0
-800 -749 -734 -672 -366 0
-769 -682 -680 -263 0
-773 -536 -458 -437 0
-793 -773 -437 -416 0
-878 -853 -773 -732 -529 0
-878 -773 -732 -689 -529 0
-773 -727 -689 -522 0
-773 -727 -689 -513 -489 0
-859 -773 -689 -522 0
-769 -682 -680 -300 0
-769 -734 -682 -680 -672 -416 0
-769 -680 -416 -315 0
-496 -399 -366 -288 0
-734 -665 -366 -285 0
-727 -689 -489 -366 -323 -289 0
-859 -522 -366 -289 0
-800 -568 -366 -289 0
-727 -689 -489 -323 -289 0
-416 -399 -313 -289 0
-793 -416 -323 -315 0
-727 -689 -522 -323 0
-727 -689 -513 -489 -323 0
-859 -689 -522 -323 0
-859 -522 -366 -323 0
-800 -734 -568 -366 0
-843 -800 -749 -734 -366 0
-773 -458 -437 -351 0
-773 -721 -437 -374 -351 0
-773 -437 -416 -351 0
-878 -853 -773 -732 -351 0
-416 -351 -323 -315 0
-859 -522 -366 -351 -323 0
-878 -859 -366 -351 -323 0
-878 -732 -689 -594 -529 0
-769 -416 -366 -315 0
-878 -859 -522 -458 -437 0
-878 -529 -458 -437 0
-536 -522 -458 -437 0
-437 -416 -399 -313 0
-843 -793 -594 -437 -416 0
-769 -721 -416 -315 0
-773 -727 -721 -689 -437 0
-859 -773 -721 -689 -437 0
-878 -859 -721 -458 -437 0
-721 -437 -416 -313 0
-859 -399 -366 -289 0
-727 -689 -399 -323 -289 0
-859 -689 -399 -323 -289 0
-727 -689 -496 -399 -366 -323 0
-859 -496 -399 -366 0
-879 -749 -698 -489 -399 0
-813 -805 -727 -536 -522 0
-843 -793 -594 -416 -366 -315 0
-800 -568 -366 -315 0
-793 -698 -416 -315 0
-859 -610 -587 -522 0
-734 -682 -672 -496 -416 -366 0
-800 -734 -416 -366 -315 0
-800 -416 -366 -315 0
-793 -698 -496 -416 -399 0
-793 -698 -496 -416 0
-769 -682 -374 -300 0
-769 -416 -374 -315 0
-878 -594 -529 -458 0
-587 -536 -522 -458 0
-588 -536 -522 -458 0
-399 -313 -300 -289 0
-399 -366 -313 -289 0
-399 -323 -313 -289 0
-734 -399 -313 -289 0
-859 -522 -496 -366 0
-727 -536 -522 -489 0
-587 -536 -522 -489 0
-878 -594 -536 -529 -458 0
-856 -843 -804 -536 -458 0
-610 -587 -536 -522 0
-843 -800 -749 -594 -568 0
-884 -647 -457 -423 -323 -315 0
-883 -722 -340 -328 -323 -268 0
-722 -489 -340 -328 -323 -268 0
-886 -867 -376 -366 -357 -315 0
-886 -724 -376 -366 -357 -315 0
-773 -689 -423 -268 0
-885 -357 -323 -315 -268 0
-423 -323 -315 -268 0
-689 -423 -323 -268 0
-886 -679 -376 -371 0
-884 -769 -679 -357 -323 -315 0
-773 -689 -539 -423 0
-773 -689 -430 -305 0
-722 -366 -323 -294 0
-886 -846 -366 -357 -315 -284 0
-885 -539 -357 -323 -315 0
-539 -423 -323 -315 0
-689 -539 -423 -323 0
-773 -430 -340 -268 0
-491 -376 -371 -357 0
-782 -689 -539 -423 0
-689 -546 -539 -489 -423 0
-769 -376 -371 -357 0
-769 -366 -357 -315 0
-773 -689 -430 -423 0
-773 -689 -430 -423 -315 0
-466 -457 -430 -423 0
-466 -457 -430 -423 -315 0
-539 -466 -457 -423 0
-883 -792 -769 -364 -328 0
-724 -670 -567 -366 -315 0
-874 -769 -722 -364 -357 -323 0
-769 -376 -364 -357 0
-769 -364 -357 -315 0
-567 -546 -539 -489 -423 0
-430 -354 -340 -305 0
-882 -792 -546 -539 -491 -423 0
-782 -539 -457 -423 0
-883 -792 -539 -423 -315 0
-883 -882 -792 -539 -423 0
-539 -471 -457 -423 0
-883 -811 -792 -769 -328 0
-867 -497 -366 -315 0
-882 -867 -497 -366 0
-577 -567 -497 -489 0
-885 -883 -792 -328 0
-883 -792 -539 -423 -328 0
-882 -546 -539 -491 -423 0
-577 -567 -546 -489 0
-615 -567 -546 -489 0
-882 -792 -546 -539 -489 -423 0
-799 -779 -722 -323 0
-779 -722 -667 -492 -323 0
-811 -354 -334 -264 0
-830 -779 -722 -667 -323 0
-839 -715 -685 -671 -655 -577 0
-830 -779 -722 -390 -323 0
-830 -685 -390 -315 0
-830 -390 -376 -371 0
-839 -779 -715 -685 -390 -323 0
-715 -685 -390 -315 0
-830 -722 -680 -390 -323 0
-830 -680 -390 -376 0
-839 -715 -685 -680 -390 -323 0
-680 -389 -354 -264 0
-779 -722 -323 -294 0
-877 -512 -492 -420 -354 -334 0
-715 -685 -671 -655 -323 -315 0
-888 -799 -779 -589 -512 -323 0
-888 -779 -667 -589 -323 0
-779 -667 -661 -492 -323 0
-779 -667 -589 -492 -323 0
-779 -667 -492 -447 -323 0
-779 -667 -492 -447 -351 -323 0
-680 -390 -354 -264 0
-767 -589 -512 -420 0
-830 -680 -390 -354 0
-715 -685 -680 -390 -354 0
-767 -512 -466 -420 0
-671 -661 -655 -492 -466 0
-667 -661 -492 -466 0
-661 -512 -492 -466 0
-667 -492 -466 -447 0
-779 -667 -492 -466 -447 0
-667 -661 -492 -466 -447 0
-888 -867 -667 -589 0
-867 -667 -661 -492 0
-867 -667 -589 -492 0
-867 -667 -492 -447 0
-867 -671 -661 -655 -492 0
-655 -492 -364 -334 0
-662 -655 -492 -364 0
-655 -512 -492 -364 0
-779 -667 -628 -589 -492 0
-799 -779 -323 -315 0
-888 -779 -667 -323 -315 0
-779 -667 -492 -323 -315 0
-767 -685 -512 -420 -315 0
-715 -685 -655 -364 -315 0
-628 -589 -512 -420 0
-839 -779 -715 -685 -655 -323 0
-767 -685 -466 -447 -315 0
-767 -466 -447 -420 0
-671 -667 -492 -447 0
-667 -577 -492 -447 0
-661 -492 -466 -449 0
-767 -685 -466 -447 -334 0
-715 -685 -655 -492 -334 0
-885 -715 -655 -492 -334 0
-667 -661 -577 -492 0
-671 -655 -512 -492 0
-655 -512 -492 -420 0
-867 -799 -779 -497 0
-577 -560 -497 -488 0
-811 -680 -390 -354 -334 0
-849 -619 -560 -488 0
-863 -811 -466 -447 -381 -334 0
-715 -685 -655 -492 -315 0
-877 -863 -811 -466 -447 -334 0
-811 -767 -466 -447 -334 0
-811 -715 -655 -492 -334 0
-811 -715 -662 -655 -492 0
-888 -667 -589 -577 0
-667 -589 -577 -492 0
-888 -619 -589 -577 0
-849 -644 -619 -560 0
-885 -715 -655 -512 -492 0
-715 -685 -662 -655 -492 0
-888 -631 -619 -589 0
-894 -810 -416 -352 0
-767 -420 -352 -325 -277 0
-684 -682 -314 -277 0
-682 -336 -314 -277 0
-894 -504 -416 -352 0
-894 -691 -416 -352 0
-459 -442 -432 -380 0
-684 -682 -394 -314 0
-894 -810 -767 -712 -352 0
-896 -894 -877 -810 -712 0
-867 -815 -366 -325 -290 0
-867 -822 -815 -366 -290 0
-867 -482 -366 -290 0
-867 -486 -366 -290 0
-894 -810 -352 -266 0
-682 -394 -336 -314 0
-894 -815 -482 -366 -352 0
-894 -815 -486 -366 -352 0
-867 -504 -416 -352 0
-504 -476 -416 -352 0
-691 -594 -416 -352 0
-767 -476 -420 -352 -325 0
-822 -767 -486 -420 -352 0
-394 -373 -290 -266 0
-898 -767 -476 -420 -325 0
-867 -527 -482 -366 0
-504 -476 -416 -396 -366 0
-567 -476 -396 -366 0
-567 -486 -396 -366 0
-620 -567 -476 -366 0
-596 -527 -482 -366 0
-594 -527 -486 -366 0
-594 -567 -486 -366 0
-854 -684 -373 -352 -266 0
-394 -314 -290 -266 0
-867 -504 -482 -416 -366 0
-691 -594 -527 -486 -416 0
-898 -767 -447 -420 0
-898 -883 -767 -420 -325 0
-867 -822 -504 -486 -420 -366 0
-504 -476 -420 -325 0
-594 -567 -527 -486 0
-810 -682 -394 -336 -314 -290 0
-867 -815 -682 -504 -416 -366 0
-894 -854 -810 -712 -684 -373 0
-867 -815 -504 -416 -366 -325 0
-504 -476 -416 -325 0
-893 -815 -730 -705 -691 -416 -325 0
-773 -648 -347 -332 -319 0
-867 -665 -504 -289 0
-867 -725 -665 -289 0
-867 -814 -725 -665 -289 0
-665 -494 -396 -289 0
-725 -677 -665 -396 -289 0
-867 -745 -677 -665 -289 0
-769 -691 -648 -594 -416 -390 0
-899 -775 -773 -718 -648 -347 0
-899 -775 -773 -718 -587 -347 0
-769 -444 -416 -390 0
-789 -773 -656 -444 0
-773 -718 -444 -347 -307 0
-775 -773 -718 -444 -347 0
-789 -773 -656 -444 -347 0
-898 -789 -458 -444 0
-898 -536 -458 -444 0
-900 -736 -718 -656 -347 0
-867 -504 -416 -289 0
-867 -725 -566 -289 0
-899 -867 -814 -289 0
-697 -476 -396 -326 -289 0
-769 -648 -416 -390 -319 0
-789 -773 -656 -648 -347 -319 0
-835 -649 -648 -326 -319 0
-697 -396 -326 -319 -289 0
-718 -656 -458 -347 0
-718 -657 -656 -347 0
-648 -390 -344 -319 0
-898 -458 -444 -429 0
-899 -867 -814 -587 0
-899 -867 -814 -513 0
-725 -677 -566 -396 0
-898 -736 -718 -444 -429 -347 0
-826 -736 -718 -656 -347 0
-718 -429 -347 -307 0
-718 -656 -347 -307 0
-691 -529 -482 -416 0
-814 -718 -504 -416 -307 0
-814 -718 -504 -476 -416 -307 0
-856 -804 -691 -594 -458 0
-814 -718 -504 -476 -416 -350 0
-826 -657 -536 -471 0
-394 -319 -314 -289 0
-899 -814 -513 -504 0
-789 -504 -476 -326 0
-677 -572 -494 -396 0
-899 -814 -725 -627 -587 0
-789 -536 -476 -326 0
-814 -775 -718 -504 -416 0
-725 -677 -572 -566 0
-725 -677 -572 -476 0
-814 -504 -476 -416 -326 0
-504 -476 -416 -326 0
-619 -608 -594 -566 0
-844 -333 -332 -305 0
-779 -734 -665 -502 -326 0
-901 -665 -502 -289 0
-779 -734 -665 -392 -326 0
-901 -665 -392 -289 0
-901 -392 -289 -287 0
-779 -734 -672 -572 -502 -326 0
-844 -769 -716 -305 0
-844 -769 -416 -305 0
-844 -448 -416 -305 0
-903 -844 -663 -389 -333 0
-832 -779 -734 -326 -289 0
-734 -527 -326 -289 0
-746 -734 -527 -289 0
-901 -502 -448 -369 -289 0
-902 -901 -674 -502 -289 0
-901 -832 -779 -289 0
-716 -392 -312 -287 0
-901 -502 -289 -287 0
-901 -779 -289 -287 0
-902 -779 -734 -674 -502 -326 0
-846 -817 -416 -392 -345 -287 0
-846 -844 -769 -734 -672 0
-844 -769 -716 -312 0
-777 -674 -473 -460 0
-769 -716 -448 -312 0
-511 -502 -369 -312 0
-779 -511 -502 -312 0
-902 -901 -690 -674 -502 0
-901 -832 -779 -579 0
-881 -875 -844 -663 -333 0
-884 -693 -662 -407 -369 0
-884 -822 -789 -693 -369 0
-832 -779 -610 -579 0
-716 -665 -392 -312 -289 0
-832 -779 -579 -326 0
-572 -502 -448 -416 -369 0
-844 -769 -716 -333 0
-846 -769 -734 -716 -672 -448 -326 0
-511 -502 -448 -369 0
-572 -502 -448 -369 0
-902 -690 -674 -631 -595 0
-610 -553 -536 -454 0
-611 -553 -536 -454 0
-846 -844 -769 -663 -333 0
-832 -779 -511 -502 0
-779 -511 -502 -326 0
-875 -844 -769 -663 -333 0
-777 -674 -502 -448 -369 0
-674 -579 -502 -448 -369 0
-832 -779 -579 -502 0
-779 -527 -502 -326 0
-779 -527 -502 -482 -326 0
-902 -777 -674 -502 0
-832 -610 -579 -553 -536 0
-610 -579 -553 -536 0
-625 -610 -553 -536 0
-902 -777 -674 -595 0
-832 -779 -572 -502 0
-779 -572 -502 -482 -326 0
-832 -822 -789 -579 -536 0
-747 -435 -345 -327 0
-747 -345 -327 -264 0
-905 -894 -853 -789 -650 -536 -345 0
-905 -894 -691 -424 -357 0
-894 -815 -691 -424 -326 0
-894 -815 -516 -424 -326 0
-894 -815 -727 -525 0
-905 -853 -650 -516 -424 0
-907 -905 -879 -814 -345 -327 0
-905 -671 -577 -403 -357 -313 0
-904 -719 -657 -553 -435 0
-853 -650 -577 -516 -424 0
-875 -695 -663 -354 0
-905 -894 -424 -357 -327 0
-905 -894 -403 -357 -327 -313 0
-894 -788 -719 -407 -327 0
-904 -657 -435 -345 -327 0
-814 -788 -727 -407 -327 0
-814 -727 -525 -327 0
-894 -815 -345 -326 0
-894 -815 -727 -345 0
-905 -853 -650 -424 -345 0
-814 -727 -345 -327 0
-879 -814 -799 -345 -327 0
-695 -372 -354 -264 0
-372 -354 -305 -264 0
-905 -691 -435 -424 -357 0
-905 -460 -435 -424 -357 0
-905 -460 -435 -403 -357 -313 0
-788 -719 -460 -435 -407 0
-777 -729 -473 -460 0
-777 -525 -473 -460 -407 0
-691 -577 -500 -396 0
-619 -577 -500 -396 0
-577 -516 -500 -396 0
-691 -577 -500 -396 -370 0
-695 -663 -372 -354 0
-663 -372 -354 -305 0
-815 -727 -723 -525 -370 0
-815 -799 -727 -723 -370 0
-516 -424 -370 -326 0
-577 -516 -500 -370 0
-815 -814 -691 -424 -326 0
-907 -879 -814 -777 -473 0
-875 -663 -354 -305 0
-905 -894 -814 -357 -327 -313 0
-691 -577 -424 -326 0
-577 -516 -424 -326 0
-691 -577 -500 -424 0
-577 -516 -500 -424 0
-815 -814 -813 -671 -424 -326 0
-577 -509 -500 -396 0
-573 -509 -500 -396 0
-814 -813 -671 -577 -516 -313 0
-729 -691 -577 -500 0
-620 -619 -577 -500 0
-729 -691 -577 -516 -500 0
-777 -729 -691 -516 0
-777 -729 -691 -577 0
-729 -691 -579 -577 0
-729 -691 -579 -516 0
-777 -729 -691 -525 0
-729 -691 -579 -525 0
-844 -712 -327 -320 -304 0
-367 -327 -326 -320 0
-734 -697 -665 -491 0
-734 -697 -665 -500 0
-844 -712 -327 -304 -274 0
-367 -327 -326 -274 0
-367 -352 -327 -326 -274 0
-875 -858 -825 -475 -466 -431 0
-431 -407 -379 -350 0
-858 -431 -407 -379 -350 0
-769 -716 -372 -284 0
-769 -716 -376 -372 0
-875 -657 -475 -431 -418 0
-773 -689 -657 -542 -418 0
-773 -689 -512 -418 0
-773 -444 -352 -326 0
-773 -689 -444 -418 0
-773 -689 -444 -326 0
-767 -689 -466 -444 -418 0
-657 -475 -466 -444 -418 0
-844 -712 -444 -327 -304 0
-844 -770 -712 -444 -304 0
-858 -547 -475 -466 0
-862 -767 -740 -712 -689 -327 0
-367 -327 -320 -294 0
-665 -376 -313 -294 0
-734 -665 -326 -294 0
-734 -665 -352 -326 -294 0
-734 -697 -665 -294 0
-689 -418 -367 -327 -326 0
-875 -858 -466 -431 -350 0
-858 -466 -431 -407 -350 0
-462 -431 -407 -350 0
-734 -697 -491 -352 0
-697 -491 -352 -326 0
-773 -444 -352 -304 0
-773 -689 -444 -304 0
-844 -769 -716 -284 0
-844 -769 -716 -376 0
-657 -475 -462 -431 -418 0
-767 -689 -512 -466 -418 0
-657 -542 -475 -466 0
-770 -689 -418 -367 -326 0
-824 -767 -689 -662 -661 -466 -418 0
-689 -512 -418 -367 -326 0
-844 -825 -712 -350 -327 -304 0
-767 -689 -661 -512 -466 -448 -418 0
-657 -597 -542 -475 0
-697 -508 -491 -396 0
-697 -508 -500 -491 0
-657 -542 -512 -418 0
-610 -555 -547 -475 0
-657 -555 -512 -475 -418 0
-597 -578 -570 -539 0
-663 -385 -354 -353 0
-392 -363 -336 -289 0
-867 -392 -336 -289 0
-872 -832 -814 -686 -648 0
-392 -390 -355 -314 0
-872 -814 -686 -648 -390 0
-814 -648 -390 -349 -327 0
-648 -390 -349 -326 0
-680 -392 -390 -336 0
-680 -648 -390 -336 0
-872 -686 -680 -648 -390 -304 0
-535 -448 -444 -304 0
-867 -750 -725 -363 -289 0
-867 -750 -725 -289 0
-867 -832 -725 -289 0
-867 -832 -814 -289 0
-867 -785 -750 -677 -289 0
-832 -814 -686 -664 -589 0
-832 -814 -729 -686 -664 -589 0
-767 -424 -349 -327 0
-789 -767 -349 -327 0
-424 -349 -327 -326 0
-789 -349 -327 -326 0
-867 -677 -571 -363 -336 -289 0
-867 -725 -336 -289 0
-867 -677 -571 -336 -289 0
-392 -355 -336 -289 0
-392 -363 -355 -336 -289 0
-832 -814 -578 -349 -327 0
-767 -535 -424 -349 0
-767 -529 -424 -349 0
-789 -767 -540 -349 0
-535 -424 -349 -326 0
-529 -424 -349 -326 0
-789 -540 -349 -326 0
-392 -390 -355 -304 0
-392 -390 -336 -304 0
-648 -390 -349 -304 0
-648 -390 -336 -304 0
-829 -535 -448 -304 0
-535 -448 -424 -304 0
-680 -392 -390 -354 0
-680 -648 -390 -354 0
-392 -390 -354 -304 0
-648 -390 -354 -304 0
-460 -448 -444 -304 0
-867 -832 -725 -589 0
-867 -832 -725 -512 0
-867 -832 -814 -589 0
-867 -832 -814 -578 0
-680 -663 -385 -354 0
-363 -349 -327 -326 0
-867 -832 -725 -363 0
-663 -385 -354 -304 0
-597 -529 -424 -326 0
-829 -535 -448 -314 0
-535 -448 -424 -326 0
-535 -529 -448 -424 0
-664 -589 -475 -454 0
-609 -553 -540 -454 0
-664 -589 -553 -540 -454 0
-680 -663 -390 -354 0
-663 -390 -354 -304 0
-909 -757 -661 -529 -424 0
-782 -729 -661 -597 0
-782 -729 -664 -475 0
-664 -589 -512 -475 0
-832 -664 -589 -475 0
-785 -750 -677 -578 0
-750 -725 -677 -620 0
-832 -725 -677 -589 0
-867 -832 -814 -496 0
-785 -750 -677 -496 0
-832 -725 -664 -589 0
-828 -787 -677 -571 -483 0
-832 -750 -664 -589 -553 0
-782 -729 -664 -597 0
-832 -750 -664 -620 -589 0
-750 -725 -677 -571 0
-832 -730 -705 -535 -512 0
-729 -589 -535 -512 0
-782 -750 -742 -620 -597 -578 0
-782 -729 -597 -589 0
-782 -729 -664 -609 0
-851 -333 -320 -304 0
-852 -809 -496 -396 0
-851 -333 -320 -267 0
-877 -719 -657 -553 0
-877 -719 -657 -536 0
-895 -767 -719 -553 -349 0
-851 -444 -390 -333 -304 0
-851 -444 -333 -304 0
-881 -877 -657 -553 0
-881 -877 -664 -657 -553 -536 0
-809 -517 -496 -396 0
-460 -444 -333 -304 0
-809 -496 -396 -336 0
-797 -792 -489 -414 -349 0
-792 -691 -414 -349 0
-789 -767 -536 -349 0
-789 -536 -349 -326 0
-851 -363 -333 -304 0
-900 -680 -390 -320 -267 0
-867 -792 -671 -546 -412 0
-691 -517 -496 -396 0
-792 -691 -517 -496 -396 0
-867 -797 -671 -489 -363 0
-883 -792 -412 -363 0
-792 -546 -412 -363 0
-809 -496 -396 -362 0
-797 -792 -671 -517 -414 0
-792 -691 -517 -414 0
-792 -691 -594 -414 0
-792 -691 -517 -496 0
-883 -792 -517 -412 0
-883 -792 -685 -414 -326 0
-883 -792 -414 -326 0
-883 -792 -691 -517 0
-904 -895 -767 -553 -471 0
-904 -657 -553 -471 0
-797 -671 -525 -489 0
-517 -509 -496 -396 0
-883 -792 -775 -412 0
-792 -727 -546 -489 -412 0
-792 -546 -525 -412 0
-691 -594 -517 -496 0
-883 -792 -775 -407 0
-792 -546 -517 -412 0
-792 -691 -546 -517 0
-792 -691 -594 -546 0
-883 -792 -775 -414 0
-805 -797 -792 -775 -414 0
-797 -671 -517 -489 0
-805 -797 -792 -727 -489 -414 0
-797 -792 -727 -489 -414 0
-797 -792 -489 -414 -326 0
-792 -691 -546 -525 0
-750 -619 -594 -588 0
-875 -865 -663 -440 0
-734 -326 -320 -289 0
-734 -320 -289 -267 0
-912 -734 -684 -502 -363 -289 0
-845 -684 -352 -326 0
-912 -845 -734 -684 -326 0
-535 -412 -363 -289 0
-535 -502 -363 -289 0
-767 -755 -690 -689 -535 0
-767 -755 -690 -689 -535 -492 0
-767 -690 -535 -412 -363 -352 0
-767 -690 -535 -502 -352 0
-845 -684 -352 -304 0
-845 -684 -413 -352 -304 0
-912 -845 -684 -304 0
-767 -690 -535 -502 0
-845 -844 -839 -734 -684 -352 0
-845 -844 -734 -684 -352 0
-845 -684 -464 -413 -352 0
-535 -492 -464 -334 0
-412 -400 -363 -289 0
-502 -400 -363 -289 0
-875 -844 -663 -440 -333 0
-839 -734 -689 -413 -363 -289 0
-734 -363 -326 -289 0
-535 -492 -412 -363 0
-604 -589 -535 -412 -363 0
-604 -578 -535 -412 -363 0
-535 -502 -492 -363 0
-875 -663 -333 -304 0
-767 -690 -535 -413 -352 0
-767 -690 -535 -413 0
-845 -844 -684 -663 -333 0
-845 -844 -684 -352 -334 0
-845 -684 -464 -352 -334 0
-535 -492 -412 -334 0
-778 -690 -535 -502 0
-913 -816 -778 -604 -535 -502 0
-912 -734 -412 -363 -289 0
-783 -730 -728 -589 -502 0
-589 -535 -502 -492 0
-604 -589 -535 -502 0
-604 -578 -535 -502 0
-875 -845 -663 -333 -304 0
-619 -583 -566 -529 0
-619 -604 -583 -566 -529 0
-913 -816 -619 -604 0
-589 -535 -523 -492 0
-604 -589 -535 -523 0
-604 -578 -535 -523 0
-816 -604 -578 -566 0
-849 -816 -619 -566 0
-816 -619 -604 -566 0
-619 -604 -583 -566 0
-614 -604 -578 -566 0
-830 -734 -335 -326 0
-830 -734 -370 -335 0
-437 -413 -346 -270 0
-348 -334 -327 -270 0
-662 -348 -327 -270 0
-830 -779 -734 -667 -326 0
-830 -779 -734 -667 -492 -326 0
-901 -830 -734 -499 -370 0
-901 -830 -785 -734 -499 -370 0
-406 -385 -348 -334 0
-830 -779 -760 -734 -326 0
-830 -760 -734 -370 0
-845 -830 -760 -734 -326 0
-845 -793 -655 -516 -373 0
-845 -437 -413 -326 0
-778 -719 -656 -466 -440 0
-719 -712 -656 -348 -327 0
-884 -779 -413 -327 -326 0
-719 -656 -413 -348 -327 0
-406 -348 -334 -327 0
-662 -523 -348 -327 0
-888 -799 -779 -734 -326 0
-888 -779 -734 -667 -326 0
-793 -779 -734 -667 -595 -326 0
-830 -734 -346 -326 0
-830 -734 -370 -346 0
-437 -413 -346 -326 0
-830 -760 -376 -373 0
-830 -760 -734 -373 0
-760 -716 -376 -373 0
-760 -716 -373 -312 0
-373 -346 -327 -270 0
-830 -376 -373 -346 0
-830 -734 -373 -346 0
-799 -779 -437 -413 -326 0
-888 -779 -667 -437 -413 -326 0
-655 -492 -406 -334 0
-793 -667 -492 -406 -334 0
-895 -778 -539 -466 0
-895 -778 -542 -466 0
-712 -373 -348 -327 0
-885 -793 -734 -673 -516 -370 0
-885 -734 -673 -516 -370 0
-901 -499 -491 -370 0
-830 -802 -760 -734 -716 -312 0
-716 -376 -312 -285 0
-719 -656 -466 -348 -334 0
-719 -662 -656 -523 -413 -348 0
-799 -779 -523 -413 -326 0
-830 -760 -712 -373 -335 0
-830 -760 -712 -376 -373 0
-885 -793 -734 -673 -655 -370 0
-913 -778 -656 -551 -466 -449 0
-760 -716 -712 -373 -327 0
-760 -712 -373 -327 -270 0
-712 -373 -346 -327 0
-830 -760 -712 -647 -373 0
-793 -655 -516 -492 0
-793 -667 -516 -492 0
-793 -779 -667 -413 -326 0
-799 -793 -779 -667 -516 0
-610 -608 -595 -539 -516 0
-610 -608 -595 -539 0
-885 -793 -779 -667 -326 0
-888 -793 -667 -595 -578 0
-916 -832 -779 -750 -723 0
-908 -852 -392 -372 0
-716 -392 -372 -312 0
-769 -716 -372 -312 0
-905 -882 -789 -767 -491 0
-905 -789 -767 -522 0
-438 -422 -382 -348 0
-905 -882 -839 -703 -444 0
-905 -789 -767 -444 0
-789 -767 -466 -444 0
-789 -657 -475 -466 -444 0
-779 -755 -723 -662 -661 -492 0
-755 -662 -661 -492 -466 0
-905 -882 -839 -703 -346 0
-832 -789 -767 -578 -522 0
-789 -767 -578 -522 0
-905 -444 -346 -309 0
-789 -767 -522 -466 0
-885 -793 -792 -661 -466 0
-793 -792 -661 -466 0
-792 -661 -539 -466 0
-867 -779 -755 -662 -661 -492 0
-867 -832 -779 -522 0
-882 -867 -723 -703 -491 -370 0
-832 -779 -522 -329 0
-393 -392 -372 -266 0
-393 -372 -346 -266 0
-915 -896 -767 -466 -447 -422 0
-789 -767 -466 -447 0
-885 -882 -792 -772 -769 -736 -673 0
-792 -661 -597 -539 0
-792 -769 -716 -662 -492 0
-915 -792 -769 -662 -492 0
-662 -492 -447 -422 0
-885 -882 -792 -673 -492 0
-882 -789 -767 -661 -492 -466 0
-792 -662 -492 -422 0
-885 -792 -662 -492 0
-789 -767 -662 -661 -492 -466 0
-882 -734 -665 -518 -487 0
-882 -789 -734 -665 -518 -487 0
-828 -734 -665 -499 0
-665 -376 -313 -277 0
-882 -734 -665 -277 0
-734 -665 -370 -277 0
-828 -734 -665 -277 0
-905 -349 -325 -277 0
-828 -785 -734 -672 -499 0
-665 -376 -372 -277 0
-734 -665 -372 -277 0
-905 -487 -349 -325 0
-656 -463 -458 -442 0
-656 -463 -458 -442 -424 0
-882 -734 -370 -290 0
-770 -667 -487 -290 0
-736 -712 -309 -266 0
-656 -458 -418 -348 -325 0
-905 -817 -653 -518 -424 -349 0
-656 -535 -458 -424 -349 0
-789 -656 -518 -349 0
-518 -487 -349 -325 0
-905 -436 -349 -325 0
-817 -784 -667 -518 -487 -424 0
-667 -656 -535 -458 -424 0
-656 -625 -589 -545 -458 0
-905 -436 -349 -309 0
-656 -535 -463 -458 -424 0
-656 -545 -463 -458 0
-770 -667 -518 -487 0
-770 -667 -518 -487 -424 0
-882 -734 -518 -370 0
-882 -789 -734 -518 -487 -370 0
-805 -708 -661 -656 -458 -418 0
-828 -785 -619 -499 0
-656 -545 -458 -418 -325 0
-698 -667 -535 -458 -424 0
-667 -535 -487 -458 -424 0
-698 -667 -535 -518 -424 0
-698 -667 -518 -487 0
-785 -625 -619 -499 0
-828 -571 -499 -483 0
-828 -785 -499 -483 0
-535 -518 -487 -424 0
-545 -535 -458 -424 0
-625 -608 -589 -545 0
-625 -619 -589 -545 0
-882 -708 -661 -458 -424 0
-625 -589 -558 -545 0
-667 -535 -518 -487 0
-882 -828 -667 -535 -424 0
-882 -805 -708 -661 -458 -424 0
-882 -667 -535 -487 -424 0
-411 -357 -330 -320 0
-424 -357 -330 -320 0
-367 -330 -325 -320 0
-851 -411 -374 -320 0
-851 -845 -769 -374 -320 0
-898 -851 -845 -769 -374 -320 0
-851 -367 -325 -320 0
-392 -367 -357 -330 0
-825 -719 -656 -450 0
-825 -719 -657 -656 0
-679 -392 -376 -291 0
-845 -769 -357 -303 0
-845 -769 -518 -424 -357 0
-769 -679 -374 -354 -292 0
-769 -679 -411 -374 -354 -292 0
-851 -424 -367 -357 -330 0
-882 -851 -796 -725 -486 -424 0
-725 -367 -330 -291 0
-825 -719 -717 -656 -354 0
-518 -424 -357 -330 0
-797 -796 -535 -367 -330 0
-797 -796 -535 -411 -367 -330 0
-725 -486 -367 -330 0
-679 -404 -392 -292 0
-719 -656 -450 -351 0
-719 -657 -656 -351 0
-789 -719 -656 -351 0
-725 -367 -357 -330 0
-882 -828 -494 -424 -357 0
-882 -486 -424 -357 0
-518 -486 -424 -357 0
-788 -778 -777 -719 -656 -450 0
-769 -367 -357 -330 0
-882 -828 -769 -424 -357 0
-769 -374 -357 -354 0
-411 -374 -357 -354 0
-797 -796 -535 -518 -424 -367 0
-725 -518 -486 -367 0
-907 -784 -777 -725 -367 0
-411 -367 -357 -330 0
-769 -376 -374 -357 0
-769 -374 -357 -330 0
-882 -769 -424 -374 -357 0
-411 -376 -374 -357 0
-411 -374 -357 -330 0
-882 -797 -535 -424 -374 0
-789 -656 -518 -450 0
-789 -656 -468 -450 0
-825 -769 -717 -374 -354 -351 0
-828 -787 -677 -572 -494 0
-882 -828 -535 -494 -424 0
-882 -535 -486 -424 0
-535 -518 -486 -424 0
-828 -787 -677 -572 -482 0
-725 -677 -572 -486 0
-620 -619 -608 -599 0
-885 -769 -682 -390 -270 0
-885 -685 -437 -390 -270 0
-883 -374 -270 -266 0
-851 -390 -367 -270 -266 0
-390 -374 -270 -266 0
-685 -437 -390 -326 0
-883 -851 -528 -374 0
-885 -851 -685 -367 -326 0
-769 -722 -374 -291 -270 -266 0
-908 -685 -496 -367 -326 -291 0
-769 -390 -270 -266 0
-437 -390 -270 -266 0
-851 -367 -326 -266 0
-883 -528 -374 -266 0
-662 -656 -450 -418 -348 0
-662 -542 -522 -418 -348 0
-725 -685 -566 -367 -326 0
-885 -685 -529 -437 0
-769 -711 -374 -341 0
-711 -411 -374 -341 0
-511 -496 -367 -312 0
-711 -662 -656 -418 -374 -348 0
-883 -662 -528 -418 -374 0
-901 -832 -725 -512 -367 0
-885 -685 -535 -367 -326 0
-832 -725 -512 -367 0
-832 -725 -522 -367 0
-769 -682 -374 -266 0
-685 -437 -411 -326 0
-895 -729 -610 -542 -522 -418 0
-908 -769 -682 -374 0
-908 -685 -437 -411 -374 0
-885 -685 -535 -450 -437 0
-535 -450 -437 -411 0
-662 -656 -528 -450 -418 0
-656 -512 -450 -418 0
-656 -542 -522 -450 -418 0
-769 -711 -390 -374 -270 0
-769 -711 -682 -374 0
-769 -711 -682 -411 -374 0
-711 -685 -437 -411 -374 0
-511 -496 -367 -326 0
-769 -711 -374 -348 0
-711 -411 -374 -348 0
-885 -685 -535 -496 -367 -326 0
-711 -437 -411 -374 -348 0
-832 -597 -578 -542 -522 0
-597 -578 -542 -522 0
-782 -729 -610 -597 0
-792 -773 -729 -603 -437 0
-884 -883 -792 -773 -666 -437 0
-792 -773 -504 -437 0
-773 -504 -437 -411 0
-792 -773 -729 -543 -437 -411 0
-792 -773 -729 -603 -437 -411 0
-883 -844 -829 -792 -305 0
-368 -337 -330 -290 0
-829 -368 -337 -330 -290 0
-883 -666 -504 -403 -290 0
-883 -792 -504 -403 -290 0
-792 -504 -437 -403 -290 0
-561 -504 -403 -330 -290 0
-723 -669 -512 -330 -324 0
-481 -368 -337 -330 0
-829 -368 -356 -337 0
-792 -773 -437 -351 0
-773 -437 -411 -351 0
-792 -773 -437 -411 -351 0
-863 -773 -713 -512 -418 -351 0
-792 -729 -543 -518 -437 0
-561 -504 -437 -411 0
-543 -518 -459 -431 -418 -324 0
-394 -368 -330 -290 0
-508 -481 -368 -337 0
-664 -589 -512 -324 0
-832 -664 -589 -324 0
-832 -603 -589 -324 0
-792 -729 -543 -518 -411 0
-792 -729 -543 -518 -411 -324 0
-829 -499 -368 -337 0
-504 -450 -437 -411 0
-883 -829 -792 -337 0
-403 -356 -300 -290 0
-403 -356 -330 -290 0
-883 -666 -528 -504 0
-883 -792 -528 -504 0
-792 -729 -589 -528 -504 0
-792 -729 -589 -512 -504 0
-832 -729 -669 -589 -499 -324 0
-792 -729 -589 -528 -411 0
-792 -729 -589 -512 -411 0
-499 -481 -368 -337 0
-832 -589 -518 -324 0
-832 -586 -518 -324 0
-829 -504 -368 -337 0
-829 -666 -504 -337 0
-883 -829 -792 -528 0
-829 -792 -729 -589 -528 0
-729 -589 -543 -528 0
-603 -589 -543 -528 0
-620 -619 -586 -561 0
-729 -589 -543 -512 0
-664 -589 -553 -543 -512 0
-729 -589 -543 -518 0
-894 -789 -689 -320 0
-885 -848 -792 -769 -746 -679 -519 -378 0
-675 -370 -320 -267 0
-814 -675 -320 -267 0
-919 -894 -789 -650 -536 0
-886 -695 -679 -295 0
-844 -769 -682 -305 0
-844 -769 -411 -305 0
-919 -789 -720 -650 -536 0
-898 -793 -792 -720 0
-898 -720 -536 -458 0
-894 -351 -320 -288 0
-894 -689 -320 -288 0
-789 -729 -689 -579 -458 0
-907 -877 -789 -729 -689 -458 0
-844 -769 -682 -314 0
-885 -844 -792 -769 -746 0
-898 -885 -792 -519 0
-898 -793 -792 -698 0
-877 -657 -536 -463 0
-907 -901 -879 -814 -729 -675 0
-901 -793 -792 -729 -698 0
-901 -499 -486 -370 0
-901 -793 -792 -698 -370 0
-814 -789 -729 -693 -689 -458 0
-814 -789 -729 -689 -458 -329 0
-769 -682 -411 -314 0
-883 -844 -769 -682 -314 0
-898 -883 -789 -689 -458 -329 0
-885 -883 -792 -746 0
-885 -883 -792 -519 0
-793 -792 -729 -698 -579 0
-793 -792 -729 -698 -610 0
-749 -618 -560 -506 -499 0
-618 -560 -506 -499 0
-729 -579 -536 -458 0
-898 -883 -789 -513 -458 0
-898 -883 -536 -513 -458 0
-885 -883 -792 -513 0
-883 -793 -792 -513 0
-354 -332 -305 -269 0
-718 -347 -332 -269 0
-696 -668 -648 -360 -335 0
-668 -648 -335 -329 0
-718 -429 -347 -269 0
-718 -431 -347 -269 0
-648 -411 -386 -357 0
-668 -648 -386 -329 0
-429 -386 -347 -329 0
-861 -720 -452 -411 -386 0
-861 -789 -720 -457 -386 0
-648 -386 -357 -305 0
-668 -648 -386 -305 0
-429 -386 -347 -305 0
-698 -504 -411 -397 -290 0
-908 -749 -698 -397 -360 0
-814 -668 -648 -504 -357 -329 0
-698 -572 -504 -411 -357 0
-814 -769 -668 -648 -357 -329 0
-908 -769 -696 -397 -357 0
-861 -720 -452 -429 0
-861 -720 -452 -429 -411 0
-861 -720 -457 -429 0
-648 -386 -354 -305 0
-861 -749 -570 -504 -452 -411 0
-749 -698 -570 -397 0
-698 -570 -504 -397 0
-698 -504 -411 -397 0
-698 -504 -397 -360 0
-668 -648 -411 -357 -329 0
-698 -572 -504 -411 0
-386 -354 -305 -269 0
-769 -764 -696 -668 -648 -357 0
-908 -769 -764 -696 -357 0
-861 -743 -650 -519 -452 0
-749 -615 -570 -504 -452 -411 0
-698 -504 -452 -411 0
-550 -543 -519 -452 0
-698 -578 -570 -504 0
-578 -570 -523 -504 0
-625 -578 -570 -499 -486 0
-625 -578 -499 -486 0
-750 -625 -499 -486 0
-814 -504 -411 -329 0
-816 -625 -578 -486 0
-816 -750 -625 -486 0
-908 -696 -504 -411 -397 -357 0
-814 -718 -504 -411 -357 0
-749 -570 -550 -504 -452 -411 0
-816 -625 -578 -550 0
-698 -572 -570 -504 0
-578 -570 -530 -523 0
-883 -530 -528 -452 0
-908 -814 -504 -411 -357 0
-749 -625 -615 -570 0
-750 -749 -625 -615 0
-810 -775 -718 -525 0
-814 -810 -718 -420 -329 0
-894 -810 -731 -420 0
-882 -734 -722 -529 0
-814 -734 -731 -722 -487 -329 0
-734 -731 -722 -487 -329 0
-814 -722 -675 -487 0
-869 -722 -715 -675 -655 -399 0
-845 -386 -373 -356 -267 0
-845 -715 -386 -356 -267 0
-894 -882 -731 -529 0
-894 -810 -775 -718 -386 0
-894 -882 -734 -722 -386 0
-894 -731 -420 -386 0
-894 -882 -731 -386 0
-894 -810 -718 -405 -386 -340 0
-894 -731 -405 -386 0
-661 -464 -458 -405 0
-863 -732 -570 -534 -458 0
-869 -399 -373 -356 -288 0
-869 -655 -399 -373 -288 0
-814 -718 -458 -420 -329 0
-882 -734 -582 -529 0
-814 -734 -731 -566 -487 -329 0
-734 -731 -570 -487 -329 0
-734 -731 -566 -487 -329 0
-814 -718 -420 -340 -329 0
-731 -729 -570 -487 -329 0
-731 -625 -570 -487 -329 0
-882 -731 -582 -529 0
-894 -845 -734 -722 -386 -373 0
-869 -715 -582 -517 -356 0
-729 -458 -433 -420 0
-534 -458 -433 -420 0
-732 -644 -625 -570 -534 -458 0
-869 -845 -655 -464 -373 0
-661 -464 -458 -420 0
-729 -661 -464 -458 -420 0
-729 -691 -661 -464 0
-810 -775 -718 -675 -399 0
-734 -731 -722 -675 -420 -399 0
-814 -675 -487 -399 0
-734 -731 -487 -360 -329 0
-814 -729 -458 -420 -329 0
-729 -691 -458 -420 -329 0
-534 -458 -420 -329 0
-729 -661 -570 -487 -329 0
-570 -534 -487 -329 0
-882 -729 -669 -570 -487 0
-882 -669 -625 -570 -487 0
-729 -570 -458 -420 0
-570 -534 -458 -420 0
-869 -814 -718 -675 -399 -340 0
-729 -570 -487 -458 0
-570 -534 -487 -458 0
-845 -655 -467 -464 -373 0
-869 -845 -715 -467 -464 -356 0
-845 -715 -655 -467 -464 0
-729 -691 -661 -517 0
-729 -691 -661 -529 0
-814 -675 -480 -399 0
-691 -570 -517 -480 0
-869 -810 -718 -675 -399 -356 0
-869 -814 -718 -675 -399 -356 0
-729 -570 -500 -487 0
-625 -570 -500 -487 0
-570 -534 -500 -487 0
-729 -661 -570 -555 -458 0
-729 -691 -661 -555 0
-729 -661 -570 -555 0
-691 -570 -517 -487 0
-661 -555 -525 -458 -420 0
-691 -570 -529 -487 0
-716 -392 -320 -318 -287 0
-851 -490 -367 -320 0
-851 -718 -320 -307 0
-851 -775 -718 -320 0
-725 -696 -669 -668 -665 0
-882 -868 -696 -665 -490 0
-901 -725 -696 -665 0
-352 -320 -287 -274 0
-901 -696 -665 -392 0
-851 -813 -392 -320 -287 0
-696 -679 -665 -392 0
-851 -679 -392 -320 -287 0
-716 -392 -390 -318 0
-882 -668 -390 -352 0
-668 -390 -367 -352 0
-669 -668 -390 -352 0
-716 -680 -679 -392 -318 0
-680 -679 -392 -287 0
-696 -680 -665 -392 -390 0
-680 -392 -390 -284 0
-680 -668 -390 -352 0
-898 -841 -720 -512 -492 0
-851 -718 -468 -307 0
-851 -775 -718 -468 0
-851 -775 -718 -419 0
-725 -696 -668 -570 -367 0
-725 -696 -669 -668 -570 0
-901 -725 -696 -570 0
-696 -665 -392 -284 0
-851 -367 -320 -287 0
-716 -665 -392 -318 -287 0
-901 -696 -665 -367 -287 0
-716 -392 -318 -287 0
-885 -791 -352 -318 -287 0
-725 -668 -570 -539 -367 0
-725 -669 -668 -587 -570 0
-882 -668 -491 -352 0
-725 -668 -570 -367 -352 0
-822 -669 -668 -512 -420 -352 0
-725 -669 -668 -570 -352 0
-885 -791 -516 -352 0
-679 -665 -393 -392 0
-679 -393 -392 -287 0
-680 -665 -393 -392 -390 0
-898 -720 -468 -429 -307 0
-898 -841 -720 -492 -429 -307 0
-898 -885 -791 -516 0
-901 -725 -570 -539 0
-901 -725 -587 -570 0
-901 -725 -587 -570 -367 0
-725 -570 -492 -468 -367 0
-725 -570 -550 -539 -367 0
-725 -587 -570 -367 0
-915 -862 -753 -718 -419 -307 0
-512 -492 -419 -307 0
-512 -492 -420 -307 0
-885 -570 -539 -492 -307 0
-898 -885 -791 -468 0
-570 -539 -492 -468 -307 0
-570 -539 -492 -468 0
-901 -725 -570 -508 0
-901 -725 -570 -508 -367 0
-725 -570 -550 -539 0
-512 -492 -445 -419 0
-657 -512 -492 -420 0
-822 -669 -587 -512 -490 -420 0
-725 -570 -539 -490 0
-725 -587 -570 -490 0
-631 -619 -570 -539 0
-885 -570 -539 -492 -318 0
-619 -570 -550 -539 0
-609 -570 -550 -539 0
-920 -885 -841 -512 -492 0
-898 -791 -775 -468 -419 0
-775 -570 -539 -492 -419 0
-631 -619 -587 -570 0
-908 -852 -392 -360 0
-894 -815 -777 -492 -325 0
-894 -815 -492 -447 -325 0
-894 -815 -792 -492 -437 -325 0
-894 -815 -524 -326 0
-894 -822 -815 -524 0
-877 -858 -420 -383 0
-420 -383 -348 -325 0
-721 -374 -305 -266 0
-885 -792 -721 -305 0
-853 -815 -792 -492 -437 -325 0
-793 -792 -502 -363 -289 0
-492 -374 -325 -266 0
-908 -852 -392 -360 -346 0
-885 -792 -746 -437 -346 0
-761 -420 -348 -325 0
-852 -679 -393 -392 0
-793 -792 -502 -437 0
-770 -721 -502 -437 -374 0
-776 -770 -759 -721 -363 0
-885 -792 -746 -721 0
-894 -810 -679 -393 -266 0
-776 -770 -759 -721 -447 0
-492 -420 -374 -325 0
-793 -792 -502 -492 -363 0
-908 -746 -488 -360 0
-761 -707 -420 -325 0
-761 -707 -539 -420 -325 0
-777 -492 -473 -325 0
-492 -473 -447 -325 0
-746 -619 -566 -488 0
-679 -393 -392 -266 0
-679 -393 -392 -346 -266 0
-716 -679 -393 -266 0
-761 -707 -603 -420 0
-835 -649 -447 -437 -326 0
-782 -761 -707 -619 0
-792 -777 -539 -492 -473 0
-857 -777 -603 -473 0
-857 -782 -777 -473 0
-777 -770 -502 -492 -374 0
-603 -539 -516 -502 0
-793 -792 -777 -502 -492 0
-761 -492 -420 -325 0
-631 -619 -566 -488 0
-885 -793 -746 -502 -363 0
-492 -447 -420 -325 0
-885 -746 -516 -488 0
-885 -746 -566 -539 -488 0
-770 -516 -502 -492 -374 0
-885 -792 -746 -492 0
-782 -707 -619 -566 0
-792 -492 -420 -325 0
-707 -603 -587 -539 -516 0
-603 -587 -539 -516 0
-885 -792 -492 -325 0
-844 -694 -389 -333 -262 0
-694 -389 -364 -333 -262 0
-832 -779 -675 -320 0
-779 -675 -325 -320 0
-779 -675 -326 -320 0
-675 -397 -392 -320 -287 0
-397 -392 -291 -287 0
-448 -437 -345 -268 0
-690 -437 -345 -268 0
-773 -448 -437 -268 0
-773 -690 -437 -268 0
-904 -853 -773 -454 -268 0
-773 -690 -437 -345 -268 0
-773 -504 -448 -437 0
-773 -691 -690 -437 0
-773 -690 -543 -437 0
-844 -448 -437 -345 -305 0
-844 -694 -389 -333 -268 0
-694 -663 -389 -364 -333 0
-779 -724 -675 -529 -499 -482 0
-832 -779 -675 -525 0
-779 -675 -525 -325 0
-779 -675 -529 -482 -326 0
-904 -853 -773 -345 -333 -268 0
-437 -345 -333 -268 0
-773 -437 -333 -268 0
-904 -858 -773 -333 -268 0
-858 -773 -434 -333 -268 0
-853 -773 -732 -333 -268 0
-779 -675 -320 -287 0
-832 -779 -750 -734 -326 0
-853 -773 -732 -420 -345 0
-448 -437 -364 -345 0
-504 -448 -437 -345 0
-504 -448 -437 -364 -345 0
-691 -690 -437 -345 0
-690 -543 -437 -345 0
-904 -858 -454 -434 0
-788 -454 -434 -420 -325 0
-561 -504 -448 -437 0
-691 -690 -529 -437 0
-691 -690 -561 -437 0
-690 -543 -529 -437 0
-869 -844 -694 -318 0
-844 -773 -694 -333 -268 0
-773 -694 -364 -333 -268 0
-832 -779 -675 -397 0
-779 -675 -482 -397 -326 0
-853 -844 -773 -345 -333 -268 0
-364 -345 -333 -268 0
-546 -525 -448 -364 0
-844 -773 -333 -305 -268 0
-869 -504 -448 -318 0
-691 -690 -574 -561 0
-546 -525 -504 -448 0
-574 -561 -499 -482 0
-691 -574 -529 -499 -482 0
-561 -546 -504 -448 0
-691 -690 -546 -529 0
-691 -690 -561 -546 0
-690 -546 -543 -529 0
-603 -546 -543 -529 0
-603 -546 -543 -529 -482 0
-750 -625 -603 -553 0
-804 -691 -690 -603 -561 -553 0
-546 -525 -454 -420 -325 0
-750 -625 -603 -588 0
-691 -561 -529 -482 0
-691 -690 -546 -525 0
-690 -546 -543 -525 0
-603 -546 -543 -525 0
-769 -747 -390 -345 -268 0
-915 -755 -747 -713 -268 0
-915 -771 -755 -747 -420 0
-915 -771 -755 -747 -713 0
-722 -570 -504 -364 -290 0
-392 -359 -336 -318 0
-769 -764 -390 -345 -268 0
-662 -523 -348 -268 0
-662 -523 -420 -348 -268 0
-755 -662 -513 -268 0
-755 -662 -523 -268 0
-755 -662 -523 -420 -268 0
-915 -755 -420 -268 0
-392 -390 -336 -318 0
-769 -390 -364 -290 0
-869 -769 -390 -318 0
-779 -755 -390 -345 -268 0
-722 -336 -318 -290 0
-504 -476 -364 -290 0
-769 -722 -364 -336 -290 0
-722 -504 -364 -336 -290 0
-755 -662 -513 -473 0
-755 -662 -540 -523 0
-915 -755 -540 -420 0
-755 -662 -345 -268 0
-779 -755 -476 -345 -268 0
-779 -755 -345 -326 -268 0
-769 -390 -364 -345 0
-869 -769 -390 -345 0
-662 -540 -523 -348 0
-858 -461 -445 -429 0
-662 -523 -429 -348 0
-861 -761 -594 -543 0
-504 -476 -364 -326 0
-761 -594 -543 -420 0
-761 -636 -594 -543 0
-861 -761 -543 -473 0
-869 -779 -755 -504 -476 -348 0
-869 -504 -476 -326 0
-504 -476 -420 -326 0
-779 -755 -662 -513 -476 0
-779 -755 -662 -523 -476 0
-523 -476 -420 -326 0
-869 -771 -764 -755 -318 0
-869 -504 -476 -318 0
-915 -662 -513 -452 -420 0
-743 -691 -570 -476 -326 0
-408 -309 -280 -264 0
-719 -657 -656 -268 0
-789 -719 -656 -268 0
-789 -731 -323 -268 0
-731 -657 -656 -323 -268 0
-831 -731 -650 -323 -268 0
-390 -366 -345 -323 0
-789 -753 -731 -719 -543 0
-719 -657 -656 -547 0
-789 -719 -656 -543 0
-865 -712 -694 -344 -280 0
-789 -731 -720 -656 -543 0
-789 -720 -656 -543 0
-789 -720 -656 -518 0
-719 -712 -656 -647 -268 0
-720 -719 -712 -656 -647 -268 0
-518 -336 -331 -289 0
-770 -412 -363 -336 -289 0
-412 -363 -336 -289 0
-800 -366 -336 -289 0
-800 -366 -336 -331 0
-789 -731 -536 -323 0
-789 -731 -543 -323 0
-831 -731 -691 -650 -323 0
-366 -345 -331 -323 0
-831 -731 -691 -650 -561 0
-820 -653 -452 -429 -390 -345 0
-719 -712 -694 -647 -268 0
-719 -694 -412 -363 -323 -268 0
-831 -770 -731 -650 -363 -323 -289 0
-770 -731 -657 -656 -363 -323 0
-712 -694 -647 -344 -268 0
-363 -336 -331 -289 0
-789 -731 -363 -323 0
-789 -731 -656 -363 -323 0
-731 -363 -331 -323 0
-907 -902 -789 -729 -619 -543 -518 0
-820 -789 -650 -518 -452 0
-729 -691 -561 -452 0
-729 -543 -518 -452 0
-770 -738 -731 -656 -363 -323 0
-712 -694 -647 -412 -345 -268 0
-412 -363 -336 -331 -289 0
-719 -656 -412 -363 -323 -289 -268 0
-719 -656 -412 -363 -323 -268 0
-753 -719 -429 -412 -363 -323 0
-731 -412 -363 -323 0
-591 -528 -489 -328 0
-692 -664 -657 -591 -547 -536 0
-561 -528 -489 -328 0
-729 -691 -664 -561 0
-907 -902 -729 -664 -619 0
-729 -691 -664 -591 0
-785 -677 -665 -397 -294 0
-696 -665 -501 -371 0
-871 -829 -691 -357 -330 -313 0
-884 -871 -369 -333 -304 -270 0
-884 -871 -779 -727 -270 0
-829 -357 -330 -270 0
-357 -330 -313 -270 0
-769 -372 -357 -330 0
-877 -858 -788 -407 -383 0
-877 -858 -657 -383 0
-845 -829 -769 -511 0
-877 -858 -789 -657 -536 0
-877 -858 -789 -657 -543 0
-877 -858 -657 -553 0
-357 -330 -313 -294 0
-829 -769 -511 -397 -294 0
-829 -511 -397 -313 -294 0
-511 -397 -313 -294 0
-785 -696 -677 -619 -397 0
-829 -511 -357 -330 0
-511 -357 -330 -313 0
-884 -879 -871 -839 -779 -357 -330 0
-829 -511 -397 -357 0
-511 -397 -357 -313 0
-877 -788 -657 -553 0
-769 -697 -696 -357 -330 0
-877 -657 -604 -553 -543 0
-372 -333 -304 -273 0
-845 -829 -769 -464 0
-464 -369 -333 -304 0
-923 -883 -730 -691 -464 0
-884 -871 -829 -764 -369 -357 -330 0
-829 -691 -561 -511 -397 0
-785 -677 -619 -561 -397 0
-788 -727 -489 -407 -369 0
-785 -696 -677 -397 -371 0
-696 -371 -357 -330 -313 0
-829 -697 -696 -357 -330 -313 0
-877 -788 -657 -407 0
-789 -619 -604 -543 0
-769 -764 -696 -357 -330 0
-849 -789 -657 -604 -543 -518 0
-849 -657 -604 -553 -543 0
-812 -769 -764 -357 -330 0
-785 -677 -619 -604 0
-696 -511 -397 -371 -313 0
-829 -691 -561 -489 -313 0
-604 -561 -543 -518 0
-619 -604 -543 -518 0
-769 -764 -369 -357 -330 0
-785 -619 -604 -543 0
-883 -788 -775 -464 -452 -407 0
-883 -775 -452 -407 0
-619 -604 -553 -543 0
-883 -877 -788 -775 -452 0
-716 -391 -313 -283 0
-867 -814 -723 -722 -477 0
-894 -719 -656 -530 -454 0
-716 -391 -372 -313 0
-769 -734 -372 -357 0
-920 -905 -769 -691 -519 -357 0
-719 -707 -656 -458 0
-719 -656 -530 -454 0
-789 -719 -707 -656 -458 0
-905 -845 -357 -313 0
-920 -845 -769 -691 -519 0
-719 -656 -458 -442 0
-719 -656 -454 -442 0
-719 -656 -442 -413 0
-789 -719 -656 -442 0
-883 -775 -464 -442 -348 0
-883 -674 -464 -442 0
-867 -814 -723 -722 -324 -319 0
-905 -894 -769 -403 -357 -319 0
-905 -894 -357 -319 -313 0
-894 -789 -719 -656 -458 -319 0
-894 -775 -719 -348 -319 0
-867 -814 -734 -723 -674 -477 0
-719 -656 -458 -348 0
-719 -656 -454 -348 0
-867 -814 -734 -723 -477 -357 0
-899 -867 -814 -734 -723 -357 0
-867 -734 -725 -370 -357 0
-716 -391 -372 -304 0
-905 -894 -845 -319 -304 0
-905 -845 -357 -304 0
-712 -403 -354 -304 0
-769 -734 -724 -723 -357 0
-769 -734 -370 -357 0
-867 -769 -734 -370 -357 0
-656 -596 -540 -454 0
-391 -372 -354 -304 0
-716 -712 -403 -354 0
-769 -712 -403 -357 -354 0
-712 -403 -354 -313 0
-920 -845 -769 -691 -464 0
-845 -769 -464 -403 0
-883 -691 -674 -464 0
-920 -899 -775 -769 -674 -579 -403 0
-835 -799 -789 -734 -370 -324 0
-867 -799 -725 -370 0
-867 -725 -574 -568 -370 0
-820 -814 -674 -656 -652 -477 -458 -413 0
-814 -707 -458 -413 -324 0
-814 -789 -540 -324 0
-814 -789 -707 -458 -324 0
-867 -734 -723 -357 -313 0
-734 -370 -357 -313 0
-656 -530 -454 -413 0
-656 -540 -454 -413 0
-769 -734 -712 -403 -357 0
-734 -712 -403 -357 -313 0
-899 -820 -814 -725 -674 -652 -458 0
-883 -691 -674 -519 0
-814 -477 -413 -324 0
-814 -789 -477 -324 0
-691 -674 -579 -519 0
-920 -899 -691 -674 -519 0
-899 -691 -674 -519 0
-898 -896 -720 -718 -717 -347 0
-655 -403 -335 -288 0
-810 -718 -413 -347 0
-810 -727 -718 -525 -347 0
-905 -810 -767 -761 -270 0
-905 -810 -706 -655 -357 -270 0
-810 -718 -307 -270 0
-810 -727 -718 -347 -270 0
-905 -859 -835 -767 -270 0
-905 -767 -413 -270 0
-905 -357 -313 -270 0
-905 -859 -835 -799 -767 0
-898 -896 -883 -767 -730 -655 -570 0
-905 -720 -706 -655 -477 -357 0
-904 -720 -540 -454 0
-767 -761 -720 -540 0
-844 -655 -403 -288 0
-883 -655 -403 -288 0
-655 -477 -403 -288 0
-905 -810 -767 -712 -270 0
-896 -767 -718 -712 -347 0
-898 -896 -720 -718 -712 -347 0
-718 -712 -413 -347 0
-905 -810 -712 -271 -270 0
-898 -896 -883 -767 -718 -347 0
-898 -896 -883 -720 -718 -347 0
-767 -761 -718 -413 -347 0
-859 -799 -668 -578 0
-879 -857 -779 -668 -570 0
-879 -779 -691 -668 -570 -519 0
-874 -867 -783 -730 -668 -655 -370 -357 0
-879 -874 -779 -668 -357 0
-874 -800 -779 -668 -357 0
-716 -712 -403 -271 0
-712 -403 -313 -271 0
-859 -835 -799 -767 -578 0
-844 -712 -403 -313 0
-844 -716 -655 -403 -376 0
-904 -857 -761 -570 -550 0
-905 -810 -712 -403 -357 -270 0
-811 -718 -712 -403 0
-718 -712 -403 -347 0
-867 -779 -727 -525 0
-810 -712 -372 -271 -270 0
-883 -867 -783 -730 -655 -370 0
-879 -857 -779 -570 -550 0
-716 -403 -376 -288 0
-896 -767 -718 -347 -307 0
-718 -413 -347 -307 0
-874 -668 -370 -357 -313 0
-874 -779 -668 -357 -313 0
-716 -403 -376 -285 0
-727 -525 -413 -347 0
-799 -727 -578 -413 -347 0
-767 -761 -540 -413 0
-716 -712 -403 -376 0
-712 -403 -376 -313 0
-898 -883 -767 -413 -307 0
-898 -883 -767 -413 -347 -307 0
-874 -706 -668 -655 -370 -357 0
-883 -730 -728 -691 -519 0
-718 -716 -712 -403 0
-718 -712 -403 -313 0
-810 -712 -403 -357 -313 -270 0
-874 -779 -706 -668 -655 -477 -357 0
-857 -578 -570 -550 0
-800 -799 -578 -574 0
-691 -578 -570 -519 0
-883 -374 -332 -328 -271 0
-374 -332 -328 -271 0
-719 -435 -332 -268 0
-731 -332 -323 -268 0
-731 -719 -435 -424 -268 0
-719 -447 -435 -268 0
-898 -792 -719 -435 -268 0
-731 -424 -323 -268 0
-792 -731 -424 -323 -268 0
-908 -869 -694 -389 -318 0
-905 -792 -731 -504 -363 -323 0
-905 -731 -516 -424 0
-905 -731 -527 -424 0
-905 -859 -731 -527 0
-905 -859 -799 -731 0
-792 -753 -731 -719 -504 -424 0
-895 -753 -731 -719 -553 -424 -323 0
-895 -731 -719 -553 -435 -424 0
-719 -447 -435 -328 0
-898 -778 -719 -553 -435 0
-898 -792 -730 -719 -435 0
-916 -908 -516 -318 -289 0
-792 -504 -363 -289 0
-859 -799 -731 -323 -289 0
-883 -867 -504 -374 -289 0
-867 -792 -504 -289 0
-867 -516 -504 -289 0
-867 -725 -490 -289 0
-867 -799 -725 -289 0
-884 -792 -731 -730 -424 -323 0
-374 -350 -328 -271 0
-792 -731 -504 -424 -323 0
-731 -516 -424 -323 0
-731 -527 -424 -323 0
-859 -731 -527 -323 0
-916 -908 -730 -504 -363 -289 0
-867 -792 -731 -504 -424 0
-731 -595 -516 -424 0
-867 -731 -516 -504 -424 0
-731 -516 -504 -424 -374 -271 0
-792 -731 -504 -435 -424 0
-895 -731 -553 -536 -435 -424 0
-731 -516 -435 -424 0
-731 -527 -435 -424 0
-859 -731 -527 -435 0
-898 -883 -504 -435 -374 0
-898 -778 -553 -536 -435 0
-898 -792 -504 -435 0
-908 -900 -869 -694 -318 0
-898 -883 -867 -792 -504 0
-898 -792 -527 -424 0
-898 -792 -504 -363 0
-898 -867 -792 -504 0
-463 -447 -435 -328 0
-536 -463 -456 -418 0
-694 -374 -350 -328 0
-883 -867 -777 -504 -374 0
-883 -867 -792 -777 -504 0
-907 -867 -730 -579 -504 0
-867 -725 -527 -490 0
-525 -418 -374 -328 0
-754 -753 -418 -363 -323 0
-731 -424 -363 -323 0
-859 -731 -363 -323 0
-867 -725 -490 -363 0
-867 -799 -725 -363 0
-883 -792 -504 -363 0
-867 -504 -360 -289 0
-867 -725 -360 -289 0
-536 -525 -418 -328 0
-507 -398 -360 -318 0
-859 -778 -777 -754 -525 -418 0
-631 -595 -516 -424 0
-816 -553 -536 -418 0
-869 -694 -374 -318 0
-869 -504 -374 -318 0
-516 -504 -374 -318 0
-859 -731 -516 -504 -424 -374 0
-731 -447 -435 -424 0
-859 -731 -447 -435 0
-898 -778 -553 -536 -447 0
-859 -792 -731 -697 -491 -424 0
-859 -799 -792 -731 -424 0
-792 -527 -490 -424 0
-792 -527 -491 -424 0
-553 -536 -456 -418 0
-447 -435 -350 -328 0
-883 -516 -504 -374 0
-883 -859 -792 -731 -424 0
-883 -792 -527 -424 0
-924 -816 -625 -553 0
-869 -694 -374 -328 0
-869 -504 -374 -328 0
-869 -731 -504 -363 -323 0
-525 -504 -374 -328 0
-883 -792 -525 -504 -328 0
-883 -792 -777 -525 -504 0
-905 -447 -435 -346 -328 0
-859 -777 -754 -525 -490 -418 0
-869 -504 -363 -318 0
-553 -536 -525 -418 0
-869 -504 -360 -318 0
-859 -792 -731 -697 -504 -424 0
-816 -625 -553 -536 0
-516 -504 -374 -328 0
-731 -447 -435 -328 0
-898 -883 -731 -435 -328 0
-883 -792 -424 -328 0
-884 -867 -805 -792 -504 -424 -328 0
-816 -627 -625 -553 0
-816 -643 -625 -553 0
-895 -778 -777 -516 -424 0
-908 -869 -867 -504 -318 -289 0
-579 -536 -525 -418 0
-810 -718 -447 -334 0
-810 -788 -718 -422 0
-852 -506 -396 -291 0
-437 -390 -349 -267 0
-685 -437 -390 -267 0
-792 -437 -412 -390 -267 0
-437 -390 -349 -324 0
-685 -437 -390 -337 0
-788 -718 -712 -422 0
-877 -788 -718 -712 0
-810 -718 -334 -290 0
-718 -369 -334 -290 0
-792 -437 -412 -369 -290 0
-422 -349 -330 -290 0
-349 -330 -324 -290 0
-685 -337 -330 -290 0
-697 -490 -396 -291 0
-800 -697 -396 -291 0
-573 -506 -396 -291 0
-490 -349 -330 -324 0
-799 -349 -330 -324 0
-685 -516 -337 -330 0
-685 -529 -337 -330 0
-792 -437 -412 -369 -349 0
-793 -792 -437 -349 0
-793 -792 -667 -437 -349 0
-789 -543 -349 -324 0
-799 -587 -349 -324 0
-712 -412 -369 -355 -271 0
-490 -437 -349 -324 0
-799 -437 -349 -324 0
-685 -516 -437 -337 0
-685 -529 -437 -337 0
-867 -792 -437 -412 -369 0
-792 -511 -437 -412 0
-793 -792 -511 -437 0
-721 -437 -349 -324 0
-721 -685 -437 -337 0
-792 -721 -685 -437 -337 0
-792 -721 -511 -412 0
-793 -792 -721 -511 0
-412 -369 -355 -330 -290 0
-718 -412 -369 -355 0
-867 -793 -792 -667 -546 0
-867 -792 -546 -412 -369 0
-718 -447 -369 -334 0
-788 -718 -422 -369 0
-792 -591 -546 -412 -369 0
-789 -594 -543 -324 0
-799 -591 -587 -324 0
-516 -412 -362 -337 0
-789 -619 -594 -543 0
-447 -437 -422 -349 0
-447 -437 -349 -324 0
-685 -447 -437 -337 0
-792 -490 -437 -349 -324 0
-721 -437 -349 -334 0
-721 -685 -437 -334 0
-792 -721 -412 -334 0
-447 -437 -349 -334 0
-685 -447 -437 -334 0
-792 -708 -546 -412 -334 0
-718 -412 -369 -334 0
-867 -718 -511 -369 -334 0
-664 -591 -587 -475 0
-857 -664 -587 -475 0
-793 -792 -546 -511 0
-792 -546 -511 -412 0
-697 -505 -490 -396 0
-800 -697 -505 -396 0
-685 -412 -369 -330 -290 0
-788 -718 -412 -369 0
-877 -788 -721 -718 -334 0
-788 -718 -447 -422 -334 0
-877 -788 -718 -447 -334 0
-516 -412 -369 -337 0
-857 -799 -789 -587 -543 -324 0
-792 -718 -685 -437 -412 -369 0
-664 -591 -547 -475 0
-793 -792 -591 -546 -412 0
-793 -792 -591 -546 0
-792 -788 -721 -718 -422 -334 0
-788 -721 -718 -437 -334 0
-788 -718 -447 -437 -334 0
-788 -718 -447 -437 -422 -334 0
-788 -721 -718 -447 -437 -334 0
-619 -606 -594 -543 0
-747 -719 -718 -656 -351 0
-747 -718 -351 -264 0
-719 -661 -656 -492 -466 0
-393 -392 -387 -355 0
-656 -466 -454 -444 -419 0
-792 -661 -466 -444 -424 0
-805 -763 -661 -656 -492 -466 0
-747 -718 -393 -351 0
-925 -691 -668 -650 -599 -424 0
-719 -656 -454 -351 0
-719 -656 -466 -447 -351 0
-404 -393 -392 -355 0
-665 -393 -392 -355 0
-393 -392 -355 -287 0
-792 -770 -769 -661 -466 -364 0
-792 -691 -661 -466 0
-661 -550 -542 -466 0
-579 -492 -466 -447 0
-747 -718 -393 -355 0
-575 -499 -398 -368 0
-792 -769 -579 -523 -492 -364 0
-805 -661 -656 -492 -466 -454 0
-888 -725 -490 -368 0
-725 -577 -516 -490 -368 0
-925 -691 -668 -650 -424 -329 0
-925 -668 -650 -516 -424 -329 0
-392 -364 -355 -287 0
-770 -511 -364 -318 0
-725 -691 -577 -490 -424 0
-661 -550 -542 -447 0
-792 -691 -661 -577 -424 0
-792 -691 -661 -577 0
-792 -691 -661 -599 0
-792 -691 -661 -599 -492 -424 0
-492 -471 -466 -447 0
-888 -725 -579 -577 -511 0
-725 -577 -511 -490 0
-792 -691 -577 -511 -492 0
-505 -490 -398 -368 0
-888 -857 -725 -550 0
-888 -725 -579 -550 0
-579 -523 -492 -445 -419 0
-528 -492 -454 -419 0
-888 -857 -725 -490 0
-888 -725 -579 -490 0
-888 -857 -725 -579 -490 0
-888 -725 -586 -490 0
-528 -471 -454 -419 0
-912 -792 -492 -424 -318 0
-792 -746 -492 -424 0
-792 -661 -528 -424 0
-792 -691 -661 -528 0
-661 -550 -542 -528 0
-792 -528 -492 -424 0
-792 -691 -528 -492 0
-888 -725 -579 -577 0
-888 -725 -586 -577 0
-792 -691 -579 -577 -492 0
-792 -528 -492 -419 0
-792 -661 -528 -419 0
-725 -577 -516 -490 0
-661 -528 -454 -419 0
-661 -656 -528 -466 -419 0
-792 -579 -523 -492 -424 0
-393 -372 -305 -262 0
-718 -393 -374 -262 0
-734 -665 -499 -366 0
-718 -662 -422 -268 0
-832 -718 -662 -522 -268 0
-648 -517 -412 -357 0
-885 -648 -517 -357 0
-718 -662 -422 -385 -268 0
-718 -662 -422 -385 -350 0
-898 -843 -841 -729 -720 0
-898 -720 -542 -458 0
-718 -662 -422 -393 -374 0
-718 -393 -374 -350 0
-412 -357 -290 -287 0
-885 -357 -290 -287 0
-919 -689 -648 -329 -287 0
-517 -412 -357 -287 0
-885 -746 -357 -287 0
-885 -517 -357 -287 0
-832 -718 -662 -542 -522 0
-734 -499 -366 -357 0
-517 -508 -412 -357 0
-885 -746 -482 -357 0
-885 -746 -499 -482 -366 -357 0
-885 -517 -508 -357 0
-919 -720 -648 -430 -412 -357 0
-919 -720 -648 -430 -412 -357 -287 0
-898 -841 -492 -430 -412 -374 0
-898 -878 -458 -430 0
-898 -542 -458 -430 0
-919 -720 -689 -460 -422 0
-898 -878 -746 -482 -458 0
-517 -508 -412 -394 0
-885 -517 -508 -396 0
-718 -662 -422 -374 0
-662 -492 -422 -374 0
-734 -412 -366 -357 0
-832 -662 -542 -522 -422 0
-412 -374 -357 -287 0
-734 -412 -374 -357 0
-843 -729 -599 -458 0
-843 -729 -567 -458 0
-729 -608 -599 -458 0
-667 -567 -534 -492 -458 0
-729 -608 -599 -534 -458 0
-608 -599 -542 -458 0
-718 -412 -374 -350 0
-843 -729 -475 -458 0
-729 -608 -475 -458 0
-667 -534 -492 -475 -458 0
-608 -542 -475 -458 0
-700 -699 -625 -608 -567 0
-718 -662 -412 -374 0
-662 -492 -412 -374 0
-777 -667 -591 -492 0
-832 -667 -542 -522 0
-517 -508 -494 -396 0
-832 -608 -542 -522 0
-878 -746 -534 -482 -458 0
-843 -729 -599 -534 0
-729 -608 -599 -534 0
-625 -608 -567 -542 0
-718 -412 -374 -357 0
-517 -492 -412 -374 0
-671 -667 -517 -492 0
-843 -777 -729 -599 0
-777 -729 -608 -599 0
-832 -671 -667 -517 0
-517 -508 -499 -396 -366 -329 0
-517 -508 -396 -366 -329 0
-777 -667 -591 -567 -492 0
-662 -534 -492 -422 0
-878 -662 -534 -492 -458 0
-843 -777 -729 -591 0
-777 -729 -608 -591 0
-843 -599 -588 -567 0
-811 -747 -718 -431 0
-773 -747 -718 -430 -347 0
-747 -718 -418 -347 0
-747 -718 -431 -347 0
-851 -811 -747 -718 -431 0
-862 -853 -792 -791 -773 -753 -492 0
-773 -747 -718 -442 -347 -273 0
-811 -431 -382 -273 0
-908 -665 -392 -362 0
-908 -681 -396 -392 -357 0
-908 -392 -362 -357 0
-811 -449 -431 -382 0
-829 -773 -671 -648 -357 0
-773 -525 -418 -347 0
-829 -773 -648 -442 -357 0
-773 -442 -418 -347 0
-898 -473 -449 -442 -430 0
-898 -792 -442 -430 0
-851 -811 -718 -431 -418 0
-851 -718 -418 -347 0
-799 -723 -669 -578 0
-829 -671 -399 -392 -357 -287 0
-811 -718 -449 -431 0
-811 -718 -449 -431 -418 0
-898 -792 -773 -718 -430 -347 0
-718 -445 -431 -347 0
-811 -473 -449 -431 0
-908 -681 -496 -396 -357 0
-853 -792 -791 -773 -492 -347 0
-829 -773 -648 -430 -357 0
-829 -773 -648 -430 -357 -287 0
-773 -718 -430 -347 -334 0
-773 -430 -418 -347 0
-898 -473 -449 -430 -418 0
-898 -829 -792 -430 0
-898 -829 -792 -671 -399 0
-851 -718 -694 -364 -347 0
-851 -718 -399 -334 0
-851 -718 -399 -347 -329 0
-725 -723 -669 -570 -396 0
-785 -677 -568 -496 -396 0
-785 -725 -677 -570 -396 0
-725 -677 -570 -396 0
-862 -851 -773 -753 -430 -364 0
-851 -718 -364 -334 0
-851 -718 -364 -340 0
-851 -811 -718 -364 0
-851 -718 -364 -347 0
-792 -762 -694 -492 -364 -334 0
-908 -681 -496 -396 -362 0
-908 -681 -677 -396 -362 0
-922 -857 -799 -669 -578 -570 0
-922 -857 -725 -669 -570 0
-811 -449 -431 -334 0
-525 -418 -347 -329 0
-835 -792 -791 -492 -334 0
-835 -792 -791 -789 -492 -334 0
-898 -792 -773 -492 -430 -347 -334 0
-829 -792 -492 -334 0
-898 -895 -791 -537 -473 0
-898 -829 -792 -671 -473 0
-525 -473 -449 -418 0
-857 -725 -677 -570 0
-799 -723 -669 -496 -396 0
-785 -677 -568 -496 0
-525 -492 -449 -418 0
-898 -792 -554 -492 -473 0
-898 -811 -792 -492 -430 -334 0
-811 -792 -791 -492 -334 0
-829 -792 -525 -492 0
-811 -792 -492 -431 -334 0
-870 -756 -578 -570 -519 0
-716 -391 -318 -283 0
-716 -696 -391 -336 -318 0
-716 -391 -371 -318 0
-716 -696 -391 -371 -318 0
-894 -862 -693 -662 -513 0
-760 -745 -371 -336 0
-760 -716 -696 -371 -336 -318 0
-905 -888 -814 -731 -725 -329 0
-905 -715 -444 -411 0
-905 -789 -731 -444 0
-905 -731 -444 -329 0
-776 -729 -728 -721 -537 -444 0
-729 -721 -661 -537 -444 0
-756 -729 -721 -661 -444 0
-867 -725 -486 -290 0
-867 -814 -662 -290 0
-894 -862 -771 -374 -351 -271 0
-905 -894 -715 -411 -351 0
-896 -894 -877 -449 -351 0
-905 -894 -444 -406 -351 0
-905 -715 -444 -406 0
-905 -731 -444 -406 0
-905 -731 -721 -715 -329 0
-867 -814 -662 -513 0
-760 -716 -715 -411 -318 0
-905 -731 -715 -411 -329 0
-757 -756 -715 -519 -411 0
-888 -843 -789 -729 -578 -537 0
-760 -716 -715 -411 -374 -318 0
-905 -848 -731 -715 -411 -374 0
-843 -729 -661 -577 0
-843 -756 -677 -577 -519 0
-843 -729 -677 -577 0
-867 -814 -662 -513 -496 0
-888 -843 -677 -577 -496 0
-888 -843 -577 -496 0
-843 -756 -577 -519 -496 0
-843 -729 -577 -496 0
-888 -843 -729 -725 -537 0
-894 -862 -771 -411 -374 -351 0
-894 -862 -771 -731 -411 -374 0
-771 -662 -658 -411 -374 0
-843 -729 -577 -537 0
-888 -843 -729 -578 -537 0
-814 -725 -662 -577 -513 0
-843 -729 -725 -577 -568 -486 0
-905 -894 -771 -721 -658 -444 -374 0
-888 -843 -578 -577 0
-843 -756 -725 -577 -519 -486 0
-888 -843 -756 -578 -519 0
-844 -353 -340 -334 -280 0
-915 -871 -753 -512 -419 0
-915 -871 -768 -753 -542 0
-716 -694 -389 -295 0
-898 -878 -690 -435 -386 0
-915 -768 -719 -542 0
-844 -716 -694 -280 0
-915 -719 -442 -419 0
-915 -768 -719 -442 0
-919 -878 -685 -442 -435 0
-898 -690 -442 -435 0
-340 -334 -327 -290 0
-899 -666 -327 -290 0
-666 -334 -327 -290 0
-867 -504 -411 -290 0
-867 -723 -715 -690 -504 -411 0
-809 -701 -665 -295 0
-528 -340 -334 -327 0
-899 -666 -528 -327 0
-899 -666 -512 -327 0
-666 -528 -334 -327 0
-528 -419 -340 -334 0
-915 -768 -603 -542 0
-809 -716 -694 -665 -295 0
-878 -799 -715 -690 -518 -324 0
-867 -715 -504 -411 -370 0
-915 -719 -528 -435 -419 0
-915 -719 -518 -435 -324 0
-844 -716 -694 -295 0
-844 -716 -694 -318 0
-898 -878 -715 -685 -518 0
-898 -867 -715 -504 -411 0
-898 -878 -690 -518 0
-844 -694 -340 -334 0
-899 -884 -867 -666 -528 0
-867 -723 -703 -512 -324 0
-867 -715 -690 -546 -504 -411 0
-723 -703 -512 -370 -324 0
-867 -504 -411 -370 0
-664 -546 -512 -324 0
-768 -603 -542 -324 0
-561 -521 -504 -411 0
-554 -475 -454 -419 0
-768 -625 -603 -542 0
-854 -844 -715 -340 -334 0
-768 -603 -542 -454 0
-899 -664 -546 -475 -454 0
-816 -664 -475 -454 0
-854 -844 -715 -685 -334 0
-666 -504 -411 -334 0
-664 -546 -512 -475 0
-816 -664 -625 -475 0
-899 -666 -528 -504 0
-899 -666 -512 -504 0
-666 -528 -504 -334 0
-715 -690 -546 -528 -411 0
-715 -690 -546 -512 -411 0
-528 -475 -454 -419 0
-768 -542 -512 -324 0
-644 -625 -603 -542 0
-666 -561 -521 -504 -318 0
-878 -690 -546 -518 0
-603 -546 -542 -528 0
-800 -749 -561 -518 -488 0
-546 -528 -454 -419 0
-546 -512 -454 -419 0
-878 -690 -546 -512 0
-690 -546 -528 -419 0
-690 -546 -512 -419 0
-895 -863 -803 -435 -424 -386 0
-863 -803 -719 -657 -547 -435 0
-844 -655 -411 -305 0
-718 -369 -334 -293 0
-718 -369 -340 -293 0
-811 -718 -369 -293 0
-715 -424 -362 -356 -337 0
-844 -715 -655 -424 -337 0
-411 -369 -356 -284 0
-811 -718 -419 -369 0
-499 -482 -362 -337 0
-785 -499 -482 -337 0
-718 -411 -369 -340 0
-715 -655 -424 -362 -337 0
-657 -603 -587 -542 0
-844 -715 -655 -424 -334 0
-844 -655 -411 -334 0
-718 -411 -369 -334 0
-657 -603 -542 -475 0
-718 -411 -369 -356 0
-910 -813 -693 -411 -369 -356 0
-785 -782 -619 -499 0
-785 -631 -619 -499 0
-811 -718 -411 -369 0
-669 -587 -512 -499 -482 -324 0
-785 -619 -499 -482 0
-785 -619 -529 -499 -482 0
-715 -655 -424 -369 -337 0
-715 -655 -518 -424 -369 -324 0
-657 -603 -547 -542 0
-546 -512 -445 -419 0
-393 -278 -270 -266 0
-871 -815 -523 -325 0
-871 -815 -731 -535 -414 0
-871 -815 -325 -270 0
-871 -859 -815 -270 0
-871 -815 -731 -414 -270 0
-773 -731 -414 -270 0
-773 -731 -420 -270 0
-859 -773 -731 -270 0
-867 -851 -500 -482 -270 -266 0
-731 -420 -330 -270 0
-859 -731 -330 -270 0
-815 -773 -731 -523 -325 0
-773 -731 -535 -414 0
-773 -731 -523 -420 0
-858 -773 -731 -707 -690 -414 0
-773 -393 -270 -266 0
-871 -851 -731 -420 -330 0
-867 -500 -363 -330 -291 0
-773 -429 -270 -266 0
-773 -731 -270 -266 0
-899 -731 -420 -330 -325 0
-731 -523 -420 -330 0
-859 -799 -731 -330 0
-843 -815 -731 -535 -414 0
-859 -799 -731 -578 0
-811 -429 -408 -381 0
-773 -731 -429 -414 0
-773 -731 -429 -420 0
-679 -393 -270 -266 0
-867 -529 -500 -482 0
-679 -393 -276 -266 0
-871 -851 -815 -363 -325 0
-923 -899 -851 -813 -363 -325 0
-731 -420 -363 -330 0
-859 -731 -363 -330 0
-867 -500 -482 -363 0
-815 -731 -535 -414 -325 0
-828 -787 -571 -500 -337 0
-886 -679 -393 -266 0
-679 -393 -356 -266 0
-899 -815 -731 -414 -325 0
-893 -815 -799 -731 -414 0
-859 -799 -731 -414 0
-815 -731 -715 -448 -414 -325 0
-859 -731 -715 -448 -414 0
-815 -731 -448 -414 -325 0
-859 -731 -448 -414 0
-707 -664 -606 -475 0
-857 -843 -664 -475 0
-867 -511 -500 -482 0
-597 -529 -500 -482 0
-661 -545 -535 -448 0
-690 -661 -545 -535 0
-857 -843 -664 -661 -545 -535 0
-861 -690 -545 -535 -475 0
-867 -511 -500 -481 0
-685 -648 -337 -320 0
-859 -668 -648 -320 0
-685 -668 -648 -337 -320 0
-685 -648 -481 -337 0
-859 -668 -648 -522 0
-760 -715 -685 -668 -367 0
-760 -682 -482 -337 0
-858 -467 -466 -381 0
-648 -346 -320 -288 0
-685 -648 -320 -288 0
-668 -648 -320 -288 0
-685 -668 -648 -320 -288 0
-915 -718 -712 -662 -420 0
-718 -712 -662 -512 -420 0
-811 -718 -712 -426 0
-682 -482 -337 -295 0
-915 -761 -718 -662 -420 0
-859 -668 -578 -522 0
-859 -668 -648 -346 0
-668 -648 -367 -346 0
-682 -500 -482 -337 0
-682 -501 -482 -337 0
-858 -466 -426 -381 0
-811 -662 -512 -429 -381 0
-715 -682 -482 -337 0
-715 -685 -481 -337 0
-844 -760 -694 -682 -337 0
-915 -862 -753 -718 -712 -694 0
-915 -718 -712 -694 -662 0
-811 -718 -712 -694 0
-844 -811 -718 -694 -307 0
-770 -718 -712 -662 -512 0
-859 -770 -668 -420 -367 0
-770 -685 -668 -414 -367 0
-859 -668 -527 -367 0
-859 -668 -522 -367 0
-859 -668 -512 -420 -367 0
-685 -668 -535 -414 -367 0
-685 -668 -511 -481 -367 -337 0
-527 -500 -482 -367 0
-811 -718 -426 -307 0
-859 -625 -608 -578 -522 0
-859 -685 -668 -527 -414 0
-685 -481 -414 -337 0
-761 -608 -550 -420 0
-844 -760 -694 -346 -307 0
-770 -718 -712 -662 -511 0
-797 -770 -708 -511 0
-859 -770 -668 -511 -367 0
-770 -511 -500 -482 -367 0
-760 -718 -712 -694 -346 0
-844 -760 -718 -712 -694 -346 0
-761 -550 -512 -420 0
-685 -535 -481 -414 -337 0
-760 -718 -712 -694 -682 0
-797 -770 -511 -481 0
-625 -608 -578 -550 0
-770 -511 -481 -367 0
-797 -708 -662 -535 -512 0
-625 -613 -608 -578 0
-825 -811 -747 -426 0
-825 -747 -719 -429 0
-885 -760 -706 -360 -331 0
-909 -885 -790 -690 -386 0
-915 -719 -543 -518 -420 0
-925 -919 -546 -512 -420 0
-844 -825 -719 -711 -695 0
-518 -360 -331 -289 0
-885 -793 -698 -360 -331 -289 0
-832 -667 -367 -289 0
-500 -486 -367 -289 0
-825 -811 -747 -271 0
-825 -747 -719 -271 0
-825 -719 -711 -466 -429 0
-825 -811 -662 -512 -327 0
-915 -719 -429 -420 0
-909 -690 -543 -518 -486 0
-921 -885 -793 -667 -518 -367 -331 0
-518 -486 -360 -331 0
-885 -793 -667 -518 -367 -331 0
-825 -719 -711 -429 -307 0
-750 -518 -486 -331 0
-885 -793 -698 -500 -331 0
-885 -793 -561 -500 -331 0
-925 -690 -650 -603 -546 -420 0
-497 -367 -327 -307 0
-885 -793 -698 -690 -500 0
-750 -690 -543 -518 -486 0
-925 -919 -790 -467 -466 -420 0
-885 -793 -698 -518 -331 0
-885 -793 -497 -360 -331 0
-885 -793 -561 -518 -331 0
-885 -793 -690 -561 -546 0
-690 -546 -543 -518 0
-885 -793 -667 -360 -331 0
-885 -690 -546 -512 0
-690 -546 -543 -512 0
-885 -832 -793 -667 -662 -561 0
-690 -546 -512 -420 0
-880 -682 -391 -336 -285 0
-851 -814 -747 -727 -323 -274 0
-468 -466 -429 -381 0
-471 -466 -429 -381 0
-778 -466 -429 -381 0
-858 -468 -466 -381 0
-858 -778 -466 -381 0
-769 -680 -346 -336 0
-769 -682 -680 -336 0
-466 -441 -429 -381 0
-905 -885 -685 -444 0
-905 -746 -685 -444 0
-788 -727 -444 -429 -381 0
-899 -858 -775 -468 -466 0
-858 -546 -468 -466 0
-858 -778 -546 -466 0
-851 -814 -727 -420 0
-859 -851 -420 -366 -323 0
-885 -746 -682 -482 -336 0
-899 -814 -546 -323 0
-814 -727 -518 -420 -323 0
-859 -512 -420 -366 -323 0
-769 -403 -363 -346 0
-885 -746 -682 -499 -482 0
-885 -769 -746 -682 -482 0
-788 -775 -468 -429 -381 0
-788 -727 -512 -429 -381 0
-468 -466 -429 -307 0
-546 -468 -466 -429 0
-471 -466 -454 -429 0
-778 -761 -466 -429 0
-778 -546 -466 -429 0
-769 -680 -354 -346 0
-769 -682 -680 -354 0
-899 -814 -546 -468 -466 0
-603 -546 -468 -466 0
-518 -471 -466 -454 -420 0
-778 -761 -512 -466 -420 0
-778 -761 -543 -466 0
-778 -546 -512 -466 0
-403 -393 -354 -307 0
-775 -736 -403 -393 -354 0
-899 -851 -814 -775 -403 0
-851 -814 -727 -403 0
-769 -680 -403 -354 -307 0
-899 -814 -775 -504 -403 0
-814 -727 -504 -403 0
-814 -727 -543 -518 -420 0
-859 -546 -512 -420 -366 0
-761 -603 -543 -420 0
-778 -546 -512 -420 0
-851 -769 -747 -682 -672 -403 -363 0
-899 -814 -546 -504 -468 0
-603 -546 -543 -468 0
-543 -518 -471 -454 -420 0
-880 -769 -753 -403 -363 -323 0
-814 -727 -504 -420 0
-851 -769 -403 -346 -323 0
-899 -727 -546 -518 -420 0
-851 -769 -682 -403 -336 0
-899 -814 -561 -546 -504 0
-851 -769 -682 -403 -323 0
-769 -682 -403 -363 -323 0
-546 -512 -454 -420 0
-761 -546 -512 -420 0
-899 -778 -761 -727 -546 -543 -512 0
-857 -849 -619 -603 0
-899 -778 -761 -727 -685 -650 -546 -512 0
-894 -862 -788 -693 -407 -383 0
-679 -393 -392 -387 0
-779 -675 -468 -407 -325 0
-923 -899 -736 -407 -333 -325 0
-734 -568 -486 -326 0
-679 -404 -393 -392 0
-905 -691 -435 -416 -346 0
-905 -707 -690 -603 -435 -416 -346 0
-853 -735 -690 -534 -435 -416 0
-853 -735 -690 -534 -435 0
-905 -858 -690 -459 -435 -416 -346 0
-779 -770 -675 -407 -325 0
-779 -770 -502 -407 -325 0
-878 -779 -770 -502 -326 0
-779 -675 -486 -397 0
-899 -779 -675 -397 -325 0
-779 -502 -486 -397 0
-899 -779 -502 -397 -325 0
-785 -677 -568 -397 0
-862 -822 -693 -675 -363 0
-555 -468 -407 -325 0
-679 -393 -392 -333 0
-779 -502 -468 -407 -325 0
-899 -779 -674 -534 -502 -325 0
-878 -779 -690 -534 -502 -326 0
-847 -783 -674 -534 -502 0
-878 -690 -534 -526 -326 0
-878 -690 -534 -486 -326 0
-878 -690 -674 -534 -526 -326 0
-899 -674 -534 -526 -325 0
-643 -625 -613 -603 0
-899 -691 -674 -526 -325 0
-814 -750 -725 -648 -349 -306 0
-815 -814 -705 -684 -648 -349 0
-924 -858 -826 -553 0
-872 -815 -814 -476 -289 0
-878 -529 -368 -326 -289 0
-476 -368 -326 -289 0
-374 -349 -306 -271 0
-872 -815 -814 -648 -346 0
-878 -815 -529 -349 -326 0
-768 -656 -523 -349 0
-878 -529 -349 -326 0
-769 -684 -648 -368 -349 -326 0
-924 -826 -553 -431 0
-399 -368 -326 -289 0
-814 -725 -577 -508 -399 -306 0
-775 -774 -771 -408 -374 0
-656 -374 -349 -306 0
-878 -814 -690 -546 -476 -326 0
-656 -449 -349 -306 0
-768 -656 -349 -306 0
-878 -582 -529 -326 0
-924 -826 -553 -449 0
-878 -690 -582 -529 0
-769 -374 -349 -306 0
-774 -771 -769 -374 -346 0
-769 -374 -346 -306 0
-814 -750 -725 -588 -476 0
-878 -529 -476 -326 0
-750 -725 -588 -476 0
-810 -771 -769 -648 -374 -346 0
-769 -682 -374 -306 0
-769 -416 -374 -306 0
-878 -582 -537 -529 0
-872 -771 -769 -648 -374 -346 0
-774 -771 -769 -682 -374 0
-750 -725 -588 -577 0
-609 -604 -553 -537 0
-664 -609 -604 -546 0
-750 -725 -582 -577 0
-865 -444 -380 -269 0
-718 -334 -332 -269 0
-718 -332 -306 -269 0
-718 -406 -334 -269 0
-718 -421 -334 -269 0
-718 -433 -349 -306 -269 0
-734 -648 -476 -326 0
-695 -648 -373 -346 -278 0
-718 -380 -334 -269 0
-718 -380 -306 -269 0
-865 -695 -380 -269 0
-910 -895 -815 -789 -780 -729 -326 0
-734 -570 -476 -326 0
-895 -815 -789 -782 -729 -326 0
-734 -648 -346 -326 0
-734 -648 -360 -346 0
-828 -734 -648 -346 0
-525 -433 -418 -349 0
-879 -789 -754 -729 -570 -537 0
-760 -745 -716 -373 -284 0
-760 -716 -373 -284 0
-734 -648 -373 -346 0
-716 -412 -373 -284 0
-895 -789 -729 -433 -349 -326 0
-895 -815 -814 -813 -789 -326 0
-921 -879 -778 -729 -570 0
-921 -879 -729 -570 -537 0
-734 -476 -360 -326 0
-815 -814 -789 -754 -537 0
-895 -815 -814 -789 -754 -729 0
-433 -418 -349 -306 0
-815 -814 -754 -418 -306 0
-729 -570 -476 -326 0
-621 -570 -476 -326 0
-879 -799 -789 -729 -570 -537 0
-729 -570 -476 -452 0
-778 -729 -570 -476 0
-814 -718 -525 -476 -421 -334 0
-729 -570 -537 -476 0
-913 -879 -799 -778 -729 -570 -452 0
-789 -773 -689 -543 0
-773 -689 -668 -444 -331 0
-789 -773 -689 -444 0
-844 -694 -334 -292 0
-789 -782 -689 -543 0
-789 -689 -594 -543 0
-885 -715 -490 -331 0
-789 -689 -543 -433 0
-789 -689 -657 -547 -433 0
-773 -444 -433 -406 0
-773 -444 -406 -351 0
-773 -689 -444 -406 0
-773 -689 -668 -444 -406 -331 0
-513 -452 -406 -334 0
-490 -400 -371 -331 0
-835 -789 -668 -536 -329 0
-789 -689 -543 -329 0
-869 -844 -694 -334 0
-899 -777 -570 -473 0
-899 -570 -513 -473 0
-899 -797 -536 -523 0
-885 -715 -513 -452 0
-899 -594 -570 -513 0
-789 -782 -657 -547 -543 0
-899 -777 -594 -570 0
-899 -570 -536 -523 0
-920 -899 -885 -797 -523 0
-899 -594 -570 -523 0
-879 -814 -668 -665 -329 -289 0
-894 -537 -424 -352 0
-894 -689 -523 -433 -419 0
-809 -716 -679 -376 0
-716 -679 -376 -360 0
-898 -715 -444 -380 0
-898 -835 -715 -668 -649 -444 -329 0
-898 -715 -444 -424 0
-655 -492 -373 -334 -292 0
-814 -655 -492 -403 -327 -292 0
-396 -376 -360 -286 0
-814 -668 -492 -329 -289 0
-814 -689 -668 -492 -329 -289 0
-809 -574 -508 -396 0
-876 -809 -574 -396 0
-894 -424 -352 -327 0
-894 -715 -655 -352 -327 0
-894 -713 -689 -454 -327 0
-424 -352 -329 -327 0
-689 -454 -433 -329 -327 0
-689 -433 -419 -329 -327 0
-814 -492 -447 -327 0
-665 -509 -396 -376 -289 0
-809 -508 -396 -376 0
-876 -809 -396 -376 0
-809 -508 -396 -376 -360 0
-508 -396 -376 -360 0
-509 -396 -376 -360 0
-726 -686 -668 -583 -486 0
-716 -665 -396 -376 -289 0
-809 -716 -396 -376 0
-716 -396 -376 -360 0
-894 -814 -492 -352 -327 0
-814 -492 -352 -329 0
-716 -679 -376 -373 0
-716 -403 -376 -373 0
-904 -492 -473 -447 -433 0
-655 -492 -373 -341 -334 0
-715 -655 -492 -341 -334 0
-898 -814 -715 -655 -492 -329 0
-814 -655 -492 -403 -329 0
-655 -492 -403 -334 0
-655 -578 -570 -523 -492 -403 0
-619 -574 -508 -396 0
-614 -574 -508 -396 0
-876 -582 -574 -396 0
-876 -574 -396 -360 -289 0
-574 -508 -396 -360 0
-508 -497 -396 -360 0
-876 -574 -396 -360 0
-814 -492 -473 -447 0
-537 -424 -352 -329 0
-793 -715 -655 -352 -329 0
-689 -523 -433 -419 -329 0
-814 -492 -447 -329 0
-879 -814 -750 -578 -329 0
-809 -716 -403 -376 0
-716 -403 -376 -360 0
-904 -554 -473 -454 -419 0
-726 -715 -686 -668 -655 -352 0
-814 -715 -655 -352 -329 0
-898 -715 -447 -424 0
-793 -570 -492 -447 0
-912 -898 -715 -447 -334 0
-715 -655 -492 -352 -334 0
-912 -715 -655 -492 -334 0
-715 -655 -492 -424 -334 0
-898 -715 -537 -473 -424 0
-570 -492 -473 -447 0
-619 -574 -570 -508 0
-793 -570 -508 -497 0
-876 -599 -582 -574 0
-655 -578 -570 -523 -492 -419 0
-793 -570 -497 -492 0
-793 -578 -570 -497 0
-554 -492 -473 -447 0
-619 -599 -583 -486 0
-814 -715 -655 -492 -352 -327 0
-715 -655 -492 -352 -329 0
-746 -715 -655 -492 -424 0
-912 -814 -715 -655 -492 -376 0
-793 -578 -570 -523 0
-635 -599 -582 -574 0
-857 -619 -574 -570 0
-619 -599 -583 -574 0
-814 -715 -689 -655 -492 -329 0
-814 -715 -655 -492 -424 -329 0
-619 -599 -583 -570 0
-845 -829 -715 -386 0
-464 -405 -340 -334 0
-666 -655 -464 -405 -334 0
-473 -464 -457 -405 0
-845 -829 -715 -521 0
-845 -715 -675 -666 -655 -464 -327 0
-827 -825 -457 -433 -327 0
-689 -418 -329 -327 0
-789 -689 -329 -327 0
-689 -433 -418 -329 -327 0
-464 -340 -334 -327 0
-666 -464 -334 -327 0
-827 -825 -432 -340 0
-827 -825 -433 -340 0
-829 -715 -584 -521 0
-845 -829 -715 -464 0
-473 -464 -457 -418 0
-675 -399 -340 -334 -327 0
-689 -525 -418 -329 0
-789 -689 -527 -329 0
-874 -836 -715 -411 -330 -329 0
-816 -664 -473 -457 -418 0
-845 -715 -464 -340 -334 0
-666 -655 -411 -334 0
-829 -666 -655 -334 0
-525 -473 -457 -418 0
-789 -527 -473 -457 0
-729 -664 -534 -473 0
-756 -729 -664 -473 0
-729 -664 -570 -473 0
-816 -729 -725 -638 -570 0
-729 -725 -664 -570 0
-832 -729 -725 -664 -570 0
-784 -729 -725 -676 -664 0
-666 -655 -411 -329 -327 0
-715 -666 -655 -411 -329 -327 0
-816 -729 -725 -570 -486 0
-729 -725 -570 -527 -486 0
-785 -729 -725 -614 -570 0
-756 -729 -570 -521 -481 0
-816 -785 -729 -725 -570 0
-756 -725 -570 -527 -486 0
-832 -822 -789 -756 -570 -527 0
-584 -560 -527 -486 0
-725 -570 -534 -527 -486 0
-832 -822 -789 -570 -534 0
-832 -570 -534 -525 0
-832 -822 -789 -729 -570 -534 0
-832 -756 -729 -570 -521 0
-832 -822 -789 -729 -570 -457 0
-894 -747 -731 -656 -327 0
-791 -747 -731 -329 -327 0
-747 -731 -656 -329 -327 0
-779 -675 -665 -500 -330 0
-779 -665 -500 -330 -329 0
-665 -500 -368 -330 0
-894 -789 -731 -527 0
-894 -789 -731 -522 0
-894 -829 -792 -791 -731 -521 0
-894 -789 -731 -386 0
-779 -675 -522 -486 0
-779 -727 -675 -522 0
-894 -789 -731 -327 0
-894 -792 -791 -731 -327 0
-894 -731 -656 -449 -327 0
-779 -675 -527 -486 -327 0
-789 -731 -329 -327 0
-792 -791 -731 -329 -327 0
-731 -656 -449 -329 -327 0
-779 -522 -486 -329 -327 0
-779 -675 -486 -330 0
-779 -486 -330 -329 0
-779 -500 -486 -330 -329 0
-789 -731 -527 -330 0
-789 -731 -522 -330 0
-829 -792 -791 -731 -521 -330 0
-779 -731 -486 -330 -329 0
-746 -521 -368 -330 0
-746 -527 -368 -330 0
-500 -486 -368 -330 0
-829 -746 -521 -368 -356 0
-789 -731 -599 -527 0
-789 -731 -590 -522 0
-789 -656 -599 -527 0
-789 -656 -590 -522 0
-829 -721 -521 -373 -356 0
-792 -791 -789 -731 -721 -527 0
-792 -791 -789 -731 -721 -522 0
-792 -791 -731 -721 -329 0
-829 -792 -721 -521 0
-779 -675 -486 -399 0
-779 -727 -675 -399 0
-789 -731 -675 -399 -330 0
-746 -675 -399 -368 -330 0
-785 -500 -398 -368 0
-785 -614 -500 -368 0
-779 -590 -522 -486 0
-789 -731 -527 -329 0
-789 -731 -522 -329 0
-792 -791 -731 -534 -329 0
-779 -527 -486 -329 0
-779 -522 -486 -329 0
-792 -791 -731 -411 -329 0
-789 -621 -599 -527 0
-804 -803 -656 -550 -449 0
-829 -792 -721 -468 0
-792 -721 -534 -468 0
-785 -614 -507 -500 0
-599 -527 -500 -486 0
-590 -522 -500 -486 0
-833 -785 -621 -500 0
-746 -521 -500 -481 -368 0
-829 -792 -534 -521 0
-621 -599 -570 -534 0
-797 -792 -791 -779 -731 -329 0
-621 -570 -550 -534 0
-849 -816 -621 -550 0
-792 -721 -531 -468 0
-836 -745 -685 -375 -360 -330 0
-894 -386 -360 -330 -318 0
-775 -468 -348 -327 0
-775 -525 -348 -327 0
-832 -779 -330 -329 0
-521 -360 -330 -318 0
-775 -525 -449 -418 -348 0
-775 -657 -525 -418 -348 0
-779 -715 -685 -500 -330 -329 0
-656 -555 -525 -449 -418 0
-721 -715 -685 -330 -329 0
-826 -729 -676 -656 -458 0
-775 -692 -656 -525 -458 -418 0
-696 -506 -398 -360 -330 -318 0
-506 -398 -360 -318 0
-832 -779 -525 -329 0
-715 -685 -411 -330 -329 0
-555 -525 -449 -418 0
-826 -729 -656 -469 -458 0
-832 -667 -555 -525 0
-864 -771 -715 -655 -411 -329 -327 0
-729 -656 -525 -458 -418 0
-656 -534 -525 -458 -418 0
-775 -721 -715 -468 -348 0
-775 -721 -715 -685 -468 0
-832 -567 -555 -525 0
-832 -779 -667 -577 -525 0
-832 -667 -577 -525 0
-832 -667 -577 -567 -525 0
-832 -577 -567 -525 0
-832 -667 -577 -521 0
-832 -779 -577 -521 -500 0
-832 -667 -577 -567 -521 0
-894 -878 -746 -731 -521 0
-894 -878 -731 -386 0
-894 -814 -662 -386 -327 0
-894 -815 -814 -662 -386 0
-894 -878 -731 -327 0
-878 -731 -329 -327 0
-814 -662 -528 -327 0
-878 -661 -464 -458 0
-661 -536 -464 -458 0
-814 -662 -528 -467 0
-729 -578 -570 -458 0
-661 -536 -522 -458 0
-729 -570 -475 -458 0
-570 -534 -475 -458 0
-730 -655 -625 -578 -570 -522 -411 -373 0
-730 -655 -625 -578 -570 -522 -411 0
-730 -655 -578 -570 -522 -411 0
-746 -571 -521 -500 -488 0
-729 -570 -536 -458 0
-878 -661 -528 -458 0
-661 -536 -528 -458 0
-729 -661 -591 -570 -528 0
-661 -591 -536 -528 -458 0
-810 -768 -755 -727 0
-894 -810 -768 -689 0
-722 -675 -482 -366 0
-725 -722 -675 -570 -366 0
-679 -378 -356 -336 0
-898 -720 -458 -424 -386 -267 0
-720 -433 -386 -348 -267 0
-720 -689 -433 -386 -267 0
-894 -768 -689 -524 0
-894 -727 -689 -525 0
-894 -799 -727 -689 -524 0
-898 -720 -433 -382 -348 0
-460 -433 -382 -348 0
-894 -768 -689 -386 0
-894 -727 -689 -386 0
-898 -720 -715 -411 -386 0
-898 -720 -715 -424 -386 0
-898 -720 -458 -424 -386 0
-768 -720 -689 -433 -386 0
-727 -720 -689 -433 -386 0
-894 -689 -386 -305 0
-894 -755 -386 -305 0
-894 -755 -386 -348 -305 0
-411 -374 -305 -271 0
-727 -720 -689 -525 -433 0
-725 -722 -675 -366 -336 0
-912 -746 -482 -336 0
-722 -675 -366 -356 -336 0
-722 -675 -399 -356 -336 0
-468 -460 -421 -348 0
-468 -460 -433 -348 0
-695 -679 -356 -271 0
-894 -386 -305 -271 0
-411 -374 -356 -271 0
-912 -746 -715 -482 0
-898 -720 -548 -458 -433 0
-898 -720 -707 -458 -433 0
-460 -433 -421 -348 0
-768 -689 -524 -460 -433 0
-675 -482 -399 -366 0
-799 -725 -675 -399 -366 0
-755 -727 -675 -399 0
-725 -570 -534 -366 0
-768 -689 -524 -329 0
-799 -725 -524 -366 -329 0
-912 -746 -715 -411 0
-411 -374 -356 -336 0
-912 -797 -746 -570 -534 -424 -374 0
-797 -746 -570 -534 -424 -374 0
-725 -570 -534 -458 0
-619 -570 -534 -458 0
-898 -715 -468 -411 0
-898 -715 -468 -424 0
-898 -468 -458 -424 0
-725 -677 -570 -534 0
-725 -570 -482 -366 0
-619 -599 -570 -534 0
-570 -548 -534 -458 0
-898 -715 -468 -421 0
-898 -468 -458 -421 0
-725 -677 -572 -570 0
-677 -572 -499 -482 0
-797 -708 -570 -534 -525 0
-799 -727 -725 -570 -534 -424 0
-406 -353 -305 -263 0
-380 -354 -353 -305 0
-381 -353 -268 -266 0
-916 -802 -392 -366 -336 0
-916 -828 -802 -392 -336 0
-698 -648 -504 -416 -346 0
-788 -718 -380 -268 0
-380 -374 -354 -305 0
-694 -380 -374 -354 -305 0
-718 -380 -305 -268 0
-720 -468 -433 -407 0
-899 -674 -504 -374 -290 -266 0
-674 -604 -578 -504 -374 -290 -266 0
-432 -381 -268 -266 0
-433 -381 -268 -266 0
-788 -381 -268 -266 0
-674 -604 -578 -523 -504 -374 -266 0
-862 -789 -754 -753 -718 -458 0
-791 -536 -523 -458 -416 -346 0
-380 -354 -305 -268 0
-504 -416 -374 -354 -346 0
-909 -799 -791 -536 -523 -458 0
-788 -718 -694 -374 0
-725 -566 -396 -366 0
-902 -725 -674 -396 -366 0
-788 -718 -432 -374 0
-788 -718 -433 -374 0
-799 -725 -523 -366 -329 0
-902 -725 -674 -534 -366 -329 0
-791 -698 -504 -458 -416 0
-902 -725 -674 -534 -458 0
-899 -674 -604 -536 -523 -458 0
-902 -698 -674 -534 0
-698 -674 -604 -578 -504 0
-799 -725 -698 -523 0
-899 -674 -523 -504 0
-674 -604 -578 -523 -504 0
-828 -496 -483 -396 0
-902 -698 -674 -496 0
-718 -504 -416 -374 -346 0
-899 -553 -536 -523 0
-611 -553 -536 -523 0
-789 -534 -527 -458 0
-912 -718 -504 -416 -374 0
-788 -718 -504 -416 -374 0
-899 -674 -536 -523 -458 0
-639 -604 -578 -566 0
-899 -674 -534 -523 0
-810 -718 -406 -334 0
-810 -788 -718 -418 0
-810 -712 -680 -436 -386 -354 0
-407 -354 -334 -264 0
-788 -719 -442 -407 0
-788 -719 -442 -418 0
-708 -589 -512 -442 -406 -334 0
-708 -603 -589 -442 -406 -334 0
-718 -442 -406 -334 0
-712 -407 -354 -334 0
-718 -712 -406 -334 0
-788 -718 -712 -418 0
-788 -718 -712 -432 0
-432 -407 -354 -334 0
-788 -718 -657 -418 0
-376 -355 -313 -286 0
-919 -732 -657 -512 -418 -352 0
-919 -878 -732 -539 -516 -352 0
-788 -657 -475 -432 -418 0
-878 -732 -725 -570 -539 0
-680 -436 -354 -352 0
-442 -436 -406 -386 0
-442 -406 -386 -352 0
-788 -719 -442 -406 0
-708 -603 -589 -539 -406 -334 0
-718 -406 -369 -334 0
-516 -397 -368 -337 0
-725 -698 -570 -397 0
-725 -698 -560 -397 0
-788 -718 -712 -512 -418 -369 0
-718 -708 -589 -512 -369 -334 0
-788 -718 -418 -369 0
-788 -718 -512 -418 -369 -324 0
-708 -657 -589 -512 -418 -334 0
-570 -539 -518 -324 0
-829 -725 -698 -397 -368 -337 0
-878 -725 -570 -539 -486 0
-913 -707 -603 -475 -450 0
-913 -707 -603 -475 0
-725 -698 -589 -570 0
-725 -698 -518 -486 0
-725 -570 -539 -518 0
-725 -707 -570 -539 -486 0
-619 -570 -539 -518 0
-708 -603 -589 -539 -407 -334 0
-878 -732 -657 -603 -547 -539 0
-829 -776 -738 -708 -337 0
-829 -776 -738 -708 -516 0
-603 -589 -539 -516 0
-589 -560 -512 -486 -324 0
-570 -539 -518 -486 0
-589 -570 -539 -518 0
-811 -747 -663 -407 0
-811 -747 -663 -431 0
-871 -814 -588 -487 -327 0
-916 -867 -829 -723 -672 -511 0
-679 -356 -336 -297 0
-811 -663 -407 -385 0
-811 -663 -431 -385 0
-407 -385 -341 -334 0
-773 -690 -656 -535 -423 0
-773 -756 -690 -656 -423 0
-829 -773 -511 -352 -337 -336 0
-773 -690 -535 -423 -352 0
-680 -679 -356 -336 0
-680 -436 -356 -336 0
-680 -436 -352 -336 0
-773 -656 -444 -423 0
-773 -444 -352 -337 -336 0
-773 -444 -423 -352 0
-898 -450 -444 -423 0
-898 -690 -444 -423 0
-898 -690 -535 -444 0
-898 -756 -690 -444 0
-829 -444 -436 -356 0
-444 -436 -423 -352 0
-858 -656 -550 -450 0
-858 -690 -656 -535 -423 0
-858 -756 -690 -656 -423 0
-747 -663 -341 -293 0
-811 -747 -663 -293 0
-814 -727 -327 -293 0
-867 -829 -723 -690 -535 -511 0
-916 -867 -814 -723 -487 -336 0
-431 -407 -341 -334 0
-916 -867 -723 -363 -356 -336 0
-359 -356 -336 -297 0
-829 -511 -352 -337 -336 0
-436 -359 -356 -336 -297 0
-436 -356 -337 -336 0
-829 -436 -356 -337 0
-829 -511 -436 -356 0
-436 -352 -337 -336 0
-764 -762 -436 -363 -293 0
-898 -829 -690 -535 -436 -337 0
-898 -829 -594 -535 -436 -356 0
-899 -867 -814 -777 0
-867 -814 -588 -487 0
-462 -431 -407 -334 0
-899 -777 -550 -512 -450 0
-899 -867 -814 -511 0
-867 -814 -727 -511 0
-867 -814 -727 -511 -496 0
-899 -867 -814 -496 0
-867 -814 -496 -487 0
-867 -783 -730 -535 -496 0
-829 -535 -511 -496 0
-923 -899 -730 -535 -512 0
-899 -777 -727 -690 -550 -535 -512 0
-865 -858 -383 -269 0
-682 -392 -335 -314 0
-682 -392 -337 -335 0
-392 -335 -314 -284 0
-734 -337 -335 -291 0
-734 -366 -335 -291 0
-828 -734 -335 -291 0
-396 -366 -335 -291 0
-828 -396 -335 -291 0
-721 -444 -383 -269 0
-444 -383 -304 -269 0
-858 -461 -383 -269 0
-858 -656 -383 -269 0
-396 -392 -335 -291 0
-828 -734 -682 -392 -337 0
-828 -682 -392 -337 0
-828 -682 -396 -392 -337 0
-894 -539 -416 -352 0
-899 -894 -814 -777 -327 0
-855 -721 -682 -680 -655 -263 0
-679 -392 -335 -291 0
-894 -416 -383 -352 0
-721 -444 -407 -383 -334 0
-721 -655 -444 -383 0
-858 -656 -450 -383 0
-682 -680 -679 -392 -314 0
-721 -655 -444 -416 0
-721 -674 -655 -539 -444 0
-770 -721 -655 -444 0
-894 -363 -352 -327 -293 0
-894 -352 -327 -293 0
-814 -327 -324 -293 0
-770 -721 -655 -334 -293 0
-770 -734 -502 -366 -337 -293 0
-770 -502 -366 -324 -293 0
-814 -770 -324 -293 0
-734 -486 -366 -291 0
-734 -502 -366 -291 0
-486 -396 -366 -291 0
-502 -396 -366 -291 0
-811 -721 -680 -334 -263 0
-392 -335 -291 -284 0
-828 -682 -392 -337 -284 0
-894 -416 -352 -327 0
-894 -655 -416 -352 -327 0
-814 -518 -327 -324 0
-814 -522 -327 -324 0
-734 -568 -486 -366 0
-899 -894 -814 -352 -327 0
-894 -814 -486 -352 -327 -324 0
-734 -529 -352 -337 0
-734 -486 -366 -352 0
-734 -512 -366 -352 -324 0
-529 -416 -352 -337 0
-539 -518 -416 -352 0
-539 -529 -416 -352 0
-770 -655 -416 -363 -352 0
-894 -444 -383 -352 -304 0
-894 -721 -444 -383 -352 -304 0
-721 -655 -416 -304 0
-855 -828 -682 -396 -337 0
-721 -682 -655 -416 -314 0
-721 -655 -416 -337 0
-721 -655 -539 -518 -416 0
-721 -674 -655 -539 -518 0
-721 -674 -655 -539 -518 -324 0
-770 -721 -655 -363 0
-811 -721 -680 -679 -334 0
-899 -770 -674 -655 -512 0
-899 -814 -770 -587 -522 0
-814 -770 -518 -324 0
-814 -770 -522 -324 0
-568 -486 -396 -366 0
-899 -770 -674 -655 -363 0
-814 -539 -518 -324 0
-587 -522 -486 -366 0
-587 -512 -366 -324 0
-587 -522 -366 -324 0
-899 -814 -627 -587 -324 0
-899 -627 -587 -512 -324 0
-627 -587 -512 -324 0
-782 -539 -518 -324 0
-603 -587 -522 -324 0
-734 -502 -416 -366 -352 0
-734 -502 -416 -366 -337 0
-539 -518 -486 -416 0
-734 -655 -416 -366 -352 0
-828 -734 -655 -416 -352 0
-828 -655 -416 -337 0
-721 -655 -416 -334 0
-878 -721 -674 -655 -539 -334 0
-770 -682 -655 -416 -363 -314 0
-721 -655 -407 -334 0
-899 -814 -777 -502 0
-899 -814 -587 -502 0
-814 -518 -502 -324 0
-814 -522 -502 -324 0
-734 -529 -502 -366 -337 0
-522 -502 -486 -366 0
-512 -502 -366 -324 0
-522 -502 -366 -324 0
-899 -814 -587 -518 -324 0
-782 -619 -539 -518 0
-613 -603 -587 -522 0
-811 -721 -444 -383 -334 0
-802 -770 -734 -682 -655 -416 -337 0
-802 -770 -734 -655 -416 -337 0
-568 -539 -518 -486 0
-674 -539 -518 -486 -324 0
-674 -539 -518 -486 0
-899 -814 -674 -572 -502 0
-777 -674 -539 -518 0
-777 -674 -539 -529 0
-899 -814 -572 -502 0
-572 -502 -486 -366 0
-572 -568 -502 -486 -366 0
-814 -770 -655 -416 -324 0
-814 -770 -734 -655 -416 -352 0
-814 -770 -655 -416 -337 0
-899 -674 -539 -512 0
-899 -674 -539 -518 0
-782 -707 -619 -613 0
-603 -587 -539 -522 0
-707 -603 -587 -539 -529 0
-680 -389 -309 -262 0
-345 -327 -283 -277 0
-403 -344 -320 -277 0
-769 -403 -344 -320 -277 0
-435 -345 -327 -269 0
-884 -805 -327 -320 -277 0
-494 -396 -320 -289 -277 0
-389 -344 -320 -277 0
-389 -387 -344 -277 0
-769 -448 -339 -309 0
-905 -444 -403 -344 -277 0
-769 -448 -403 -363 -289 0
-560 -502 -363 -289 0
-494 -491 -396 -289 0
-697 -486 -396 -289 0
-861 -761 -435 -345 -327 0
-344 -327 -320 -277 0
-344 -320 -289 -277 0
-815 -740 -719 -435 -345 -326 0
-861 -761 -536 -435 0
-769 -680 -403 -309 0
-769 -448 -344 -309 0
-769 -448 -403 -309 0
-769 -448 -403 -344 -309 0
-909 -817 -486 -424 -326 0
-697 -560 -486 -396 0
-884 -815 -813 -769 -738 -344 0
-884 -813 -776 -448 -363 -327 0
-769 -448 -403 -363 0
-560 -502 -486 -363 0
-527 -491 -424 -316 0
-527 -494 -491 -424 -316 0
-527 -486 -424 -316 0
-560 -527 -486 -424 0
-861 -761 -536 -473 0
-560 -527 -502 -486 0
-830 -403 -363 -356 -335 0
-905 -830 -815 -366 -349 -335 0
-747 -349 -327 -264 0
-335 -300 -285 -267 0
-912 -905 -830 -518 -424 0
-905 -715 -518 -424 0
-905 -859 -815 -488 -349 0
-905 -832 -815 -726 -349 0
-905 -845 -363 -349 -327 0
-845 -715 -518 -424 0
-403 -363 -327 -292 0
-859 -675 -529 -488 -366 0
-859 -815 -675 -518 0
-859 -815 -675 -518 -488 0
-902 -809 -671 -502 -396 -366 0
-905 -715 -448 -349 -327 0
-905 -715 -424 -349 -327 0
-859 -815 -518 -349 0
-859 -815 -522 -349 0
-859 -815 -529 -488 -349 0
-905 -845 -830 -356 -304 0
-912 -905 -845 -830 -304 0
-905 -845 -349 -304 0
-715 -518 -488 -424 0
-905 -845 -844 -349 -327 0
-845 -844 -715 -356 -300 0
-845 -715 -464 -424 0
-715 -464 -448 -403 -356 0
-715 -464 -448 -424 0
-403 -363 -349 -327 0
-832 -813 -805 -536 -522 0
-828 -566 -488 -396 0
-859 -815 -675 -363 0
-715 -448 -403 -363 -356 0
-518 -488 -424 -316 0
-529 -488 -424 -316 0
-566 -518 -488 -424 0
-595 -572 -529 -424 0
-715 -518 -448 -424 0
-715 -529 -448 -424 0
-895 -861 -729 -579 -473 0
-403 -363 -356 -300 0
-403 -363 -356 -327 0
-529 -502 -488 -366 0
-859 -522 -502 -366 0
-403 -363 -356 -316 0
-859 -832 -726 -579 -518 0
-895 -861 -729 -554 -473 0
-572 -502 -488 -366 0
-832 -579 -536 -522 0
-832 -729 -579 -536 -522 0
-871 -755 -468 -328 0
-871 -805 -755 -468 -328 0
-871 -754 -753 -512 -418 0
-711 -512 -418 -328 -269 0
-711 -380 -328 -269 0
-830 -682 -390 -337 0
-755 -437 -390 -349 -328 0
-882 -668 -437 -390 -349 0
-869 -792 -682 -504 -437 -390 -337 0
-852 -830 -695 -390 -373 0
-468 -442 -406 -328 0
-882 -871 -851 -789 -668 0
-851 -792 -437 -349 -319 0
-851 -755 -468 -328 0
-851 -792 -755 -437 -349 0
-882 -828 -696 -567 -486 0
-882 -696 -668 -567 -486 0
-871 -789 -754 -753 -319 0
-851 -832 -813 -805 -319 0
-437 -411 -349 -319 0
-870 -792 -755 -437 -349 0
-828 -682 -503 -337 0
-755 -468 -349 -328 0
-792 -504 -437 -349 0
-792 -539 -437 -349 0
-504 -437 -411 -349 0
-792 -539 -437 -411 -349 0
-882 -668 -486 -437 -349 0
-792 -577 -504 -437 0
-792 -539 -518 -437 0
-577 -504 -437 -411 0
-826 -558 -471 -431 0
-826 -778 -707 -457 -431 0
-755 -721 -437 -349 -328 0
-805 -755 -721 -437 -349 0
-882 -721 -668 -437 -349 0
-792 -721 -539 -518 0
-882 -828 -567 -486 -398 0
-882 -668 -486 -370 0
-792 -755 -437 -349 -328 0
-512 -445 -431 -418 -328 0
-512 -457 -418 -328 0
-755 -437 -411 -349 -328 0
-792 -539 -518 -411 0
-826 -471 -445 -431 0
-870 -792 -539 -518 -486 0
-792 -721 -504 -468 0
-792 -721 -539 -468 0
-832 -577 -567 -512 -504 0
-882 -828 -567 -503 -486 0
-567 -539 -518 -486 0
-721 -468 -437 -349 -328 0
-832 -589 -577 -567 0
-832 -577 -567 -512 0
-577 -567 -518 -486 0
-832 -603 -589 -567 0
-870 -728 -589 -539 -518 0
-810 -655 -390 -373 -270 0
-722 -674 -655 -373 -270 -266 0
-722 -696 -487 -366 0
-810 -712 -411 -373 -270 0
-722 -696 -366 -329 -270 0
-829 -390 -357 -270 0
-390 -373 -270 -266 0
-721 -373 -270 -266 0
-674 -655 -534 -373 -270 -266 0
-829 -357 -287 -270 0
-829 -655 -373 -357 -263 0
-411 -373 -357 -263 0
-380 -357 -287 -270 0
-829 -655 -511 -390 -373 0
-829 -511 -390 -357 0
-896 -767 -690 -674 -667 0
-777 -674 -468 -442 -406 0
-790 -767 -756 -690 -521 0
-790 -767 -727 -525 -420 0
-867 -696 -674 -667 -366 0
-696 -566 -487 -366 -329 0
-390 -357 -270 -266 0
-722 -696 -366 -287 0
-810 -712 -373 -287 -270 0
-829 -511 -357 -287 0
-829 -521 -357 -287 0
-867 -829 -511 -503 -366 -357 0
-829 -584 -521 -357 0
-722 -696 -390 -373 -270 0
-390 -376 -373 -357 0
-829 -655 -373 -357 -287 0
-829 -655 -511 -373 -312 0
-411 -376 -373 -357 0
-867 -767 -690 -674 -667 0
-767 -749 -690 -674 -667 0
-390 -373 -354 -270 0
-390 -373 -357 -354 0
-829 -655 -373 -357 -354 0
-411 -373 -357 -354 0
-777 -690 -674 -468 -406 0
-790 -767 -721 -420 -329 0
-790 -767 -727 -721 -420 0
-829 -721 -655 -511 0
-829 -721 -655 -521 0
-904 -767 -690 -674 -667 0
-884 -867 -815 -727 -525 0
-867 -674 -667 -534 0
-867 -777 -674 -667 0
-867 -815 -727 -525 -366 0
-810 -712 -380 -373 -270 0
-810 -712 -373 -357 -287 -270 0
-663 -373 -354 -348 0
-815 -777 -727 -525 -366 0
-867 -690 -674 -667 -366 0
-867 -674 -667 -534 -366 0
-867 -777 -674 -667 -366 0
-777 -727 -525 -487 -366 0
-690 -674 -667 -487 -366 0
-674 -667 -534 -487 -366 0
-767 -690 -534 -420 -329 0
-674 -667 -534 -487 -329 0
-390 -373 -357 -266 0
-756 -674 -655 -604 -527 -411 0
-767 -690 -674 -667 -420 0
-722 -712 -390 -373 -270 0
-727 -531 -525 -449 -420 0
-663 -390 -373 -354 0
-790 -767 -721 -468 -420 0
-829 -721 -655 -468 0
-721 -674 -655 -534 -468 0
-867 -667 -511 -487 0
-867 -511 -487 -366 0
-721 -655 -531 -468 0
-777 -674 -667 -590 -525 0
-566 -503 -487 -366 0
-810 -712 -672 -411 -373 -357 0
-829 -674 -655 -534 -521 0
-756 -690 -674 -521 -481 0
-756 -674 -604 -521 -481 0
-777 -756 -674 -604 -527 0
-867 -667 -511 -481 0
-867 -511 -481 -366 0
-884 -867 -829 -815 -511 -357 0
-867 -829 -815 -511 -366 -357 0
-777 -727 -690 -674 -525 -420 0
-777 -674 -604 -590 -525 0
-390 -357 -301 -270 0
-770 -374 -301 -290 0
-814 -770 -301 -290 0
-397 -368 -301 -290 0
-908 -745 -701 -404 -368 0
-770 -769 -390 -374 -270 0
-390 -357 -314 -295 -270 0
-817 -690 -534 -390 -357 -270 0
-663 -432 -379 -348 0
-770 -769 -390 -374 -290 0
-908 -745 -390 -368 -357 0
-908 -390 -368 -357 0
-790 -770 -721 -698 -374 0
-770 -721 -374 -290 0
-770 -411 -374 -290 0
-814 -770 -487 -290 0
-814 -770 -329 -290 0
-814 -770 -727 -290 0
-411 -374 -357 -271 0
-908 -769 -368 -357 0
-770 -721 -468 -374 0
-814 -770 -420 -329 0
-814 -770 -727 -525 0
-814 -770 -727 -420 0
-411 -357 -314 -295 0
-908 -411 -368 -357 0
-770 -698 -517 -411 -374 0
-908 -769 -374 -357 0
-411 -374 -357 -295 0
-908 -411 -374 -357 0
-812 -769 -658 -374 -348 0
-812 -658 -411 -374 -348 0
-812 -769 -721 -658 -374 -357 0
-814 -770 -727 -698 -517 0
-390 -344 -301 -270 0
-404 -391 -376 -291 0
-871 -668 -331 -270 0
-871 -859 -668 -270 0
-871 -851 -333 -309 -270 0
-920 -769 -535 -390 -270 0
-458 -437 -420 -390 -270 0
-825 -458 -420 -347 0
-825 -454 -420 -347 0
-825 -445 -431 -347 0
-825 -454 -431 -347 0
-825 -454 -420 -347 -329 0
-871 -668 -380 -331 -270 0
-871 -851 -814 -390 -270 0
-458 -437 -420 -390 -329 0
-859 -458 -437 -420 -390 0
-871 -859 -851 -668 -420 0
-851 -814 -754 -693 -420 0
-859 -851 -814 -527 -487 0
-851 -814 -420 -329 0
-825 -420 -347 -333 0
-825 -431 -347 -333 0
-668 -596 -527 -331 0
-859 -668 -594 -527 0
-404 -391 -376 -344 0
-871 -851 -390 -344 -270 0
-859 -458 -437 -420 -390 -344 0
-871 -769 -668 -390 -344 -270 0
-859 -756 -527 -420 -347 0
-707 -458 -420 -347 0
-859 -527 -458 -437 -420 0
-594 -535 -437 -411 0
-851 -399 -333 -309 0
-535 -466 -437 -411 0
-756 -707 -466 -458 0
-871 -851 -668 -399 -331 0
-851 -814 -487 -399 0
-851 -814 -399 -329 0
-814 -813 -458 -420 -329 0
-814 -813 -454 -420 -329 0
-859 -814 -756 -527 -487 0
-814 -707 -458 -420 -329 0
-896 -853 -437 -411 -347 -329 0
-594 -535 -527 -411 0
-851 -399 -333 -314 0
-756 -707 -594 -458 0
-851 -814 -399 -314 0
-851 -814 -487 -399 -314 0
-859 -594 -527 -487 0
-399 -376 -314 -291 0
-851 -399 -376 -314 0
-756 -707 -664 -594 0
-767 -755 -747 -689 -329 -268 0
-767 -755 -747 -689 -268 0
-851 -767 -755 -747 -689 0
-755 -528 -328 -268 0
-767 -755 -689 -452 -268 0
-767 -761 -755 -689 -268 0
-755 -386 -328 -268 0
-755 -386 -329 -268 0
-755 -727 -386 -268 0
-747 -339 -273 -266 0
-851 -755 -528 -328 0
-851 -767 -761 -755 -689 0
-851 -813 -805 -727 -422 0
-747 -350 -273 -266 0
-851 -747 -350 -273 -266 0
-885 -519 -357 -287 0
-767 -755 -689 -545 -452 0
-767 -761 -755 -689 -543 0
-885 -793 -511 -496 -357 0
-793 -655 -511 -373 -312 0
-908 -411 -373 -357 0
-767 -761 -590 -540 0
-511 -496 -366 -312 0
-900 -747 -386 -373 -268 0
-386 -373 -268 -266 0
-767 -755 -689 -452 -328 0
-767 -761 -689 -543 -329 0
-588 -567 -489 -329 0
-908 -828 -411 -357 0
-793 -655 -511 -411 0
-767 -755 -689 -452 -411 -328 0
-767 -689 -452 -411 -329 0
-767 -727 -689 -452 -411 0
-767 -689 -545 -452 -422 0
-767 -761 -689 -543 -422 0
-908 -828 -655 -411 -357 0
-767 -689 -489 -452 -329 0
-767 -727 -689 -489 -452 0
-761 -610 -590 -540 0
-761 -590 -540 -475 0
-867 -800 -567 -511 -489 -366 0
-511 -496 -366 -329 0
-800 -573 -567 -507 0
-496 -489 -366 -329 0
-843 -793 -567 -511 -496 0
-851 -813 -755 -655 -411 -329 0
-851 -813 -755 -727 -655 -411 0
-813 -805 -727 -655 -411 0
-545 -528 -452 -411 0
-767 -727 -689 -545 -489 -452 0
-761 -545 -543 -475 0
-761 -545 -540 -475 0
-761 -545 -543 -528 -475 0
-788 -688 -332 -327 0
-689 -688 -332 -327 0
-367 -332 -327 -315 0
-712 -373 -332 -305 0
-712 -689 -688 -332 -327 0
-770 -712 -689 -668 -367 -332 0
-775 -736 -712 -327 -270 0
-367 -327 -315 -270 0
-789 -689 -688 -537 0
-788 -688 -407 -383 0
-789 -689 -688 -383 0
-689 -668 -435 -424 -383 -315 0
-789 -689 -435 -383 0
-464 -448 -435 -383 0
-463 -454 -435 -383 0
-689 -464 -435 -305 0
-689 -668 -464 -435 -305 0
-775 -736 -712 -407 0
-712 -689 -688 -435 -327 0
-712 -688 -647 -373 -305 -263 0
-712 -373 -332 -270 -263 0
-788 -688 -407 -327 0
-789 -689 -688 -327 0
-424 -367 -327 -315 0
-582 -517 -357 -313 0
-828 -488 -357 -337 0
-517 -496 -357 -337 0
-907 -895 -832 -789 -729 -689 0
-869 -770 -712 -373 -313 0
-789 -689 -537 -435 0
-832 -822 -689 -512 -435 0
-689 -668 -464 -435 -315 0
-689 -668 -464 -435 -424 -315 0
-789 -689 -464 -435 0
-822 -689 -464 -435 0
-895 -789 -729 -689 -463 -435 0
-777 -729 -473 -463 0
-907 -777 -473 -463 0
-712 -679 -373 -327 -270 0
-712 -688 -679 -373 -327 0
-789 -770 -689 -668 -367 0
-770 -424 -367 -315 0
-712 -689 -688 -373 -327 0
-832 -822 -689 -668 -512 -367 0
-907 -832 -822 -777 -689 -668 -367 0
-537 -424 -367 -315 0
-901 -517 -507 -496 -367 -337 0
-517 -496 -424 -337 0
-907 -832 -789 -729 -670 -537 0
-907 -895 -832 -789 -729 -670 0
-689 -668 -464 -448 -435 -315 0
-736 -689 -668 -464 -448 -435 0
-777 -729 -537 -473 0
-907 -902 -777 -473 0
-869 -770 -689 -668 -367 0
-869 -770 -367 -313 0
-832 -822 -689 -668 -496 -367 0
-902 -770 -759 -567 -496 -367 0
-775 -736 -448 -407 0
-832 -822 -789 -537 -512 0
-895 -832 -822 -789 -537 -512 0
-517 -496 -367 -337 -327 0
-895 -832 -822 -789 -729 -567 0
-517 -496 -367 -337 0
-907 -832 -729 -537 -512 0
-666 -477 -333 -320 -274 0
-894 -815 -366 -320 -315 0
-882 -734 -320 -289 0
-885 -734 -357 -320 -289 0
-734 -357 -320 -289 -274 0
-386 -373 -305 -274 0
-790 -767 -386 -274 0
-373 -333 -305 -274 0
-775 -666 -333 -274 0
-894 -882 -815 -524 -366 0
-894 -882 -815 -386 -366 -347 0
-894 -815 -386 -366 -315 0
-655 -477 -386 -373 -305 0
-790 -767 -413 -386 0
-846 -734 -725 -672 -366 0
-846 -734 -480 -399 -357 -289 0
-846 -734 -671 -399 -357 -289 0
-386 -333 -305 -274 0
-894 -386 -347 -305 0
-894 -815 -386 -305 0
-333 -320 -288 -274 0
-894 -347 -320 -288 0
-894 -815 -320 -288 0
-671 -655 -399 -373 -288 0
-671 -666 -655 -399 -288 0
-882 -524 -366 -289 0
-725 -570 -366 -289 0
-882 -734 -529 -289 0
-882 -734 -524 -289 0
-885 -734 -517 -357 -289 0
-885 -734 -529 -357 -289 0
-366 -357 -315 -295 0
-734 -725 -570 -366 0
-833 -785 -734 -725 -366 0
-734 -671 -655 -399 -357 -289 0
-734 -725 -366 -357 0
-885 -517 -480 -357 0
-885 -583 -529 -357 0
-503 -366 -357 -315 0
-725 -366 -357 -315 0
-550 -457 -413 -347 0
-457 -434 -413 -347 0
-768 -767 -583 -524 -457 0
-655 -477 -464 -373 -305 0
-790 -767 -464 -413 0
-883 -671 -655 -464 0
-679 -373 -333 -274 0
-882 -399 -366 -289 0
-882 -734 -399 -289 0
-885 -734 -399 -357 -289 0
-899 -671 -666 -655 -399 0
-775 -671 -666 -655 -399 0
-883 -671 -655 -399 0
-386 -373 -333 -274 0
-899 -768 -666 -523 -457 0
-882 -595 -529 -366 0
-882 -600 -524 -366 0
-899 -777 -725 -570 -366 0
-885 -734 -517 -357 -315 0
-885 -517 -357 -315 0
-885 -529 -357 -315 0
-725 -570 -366 -315 0
-725 -570 -477 -366 -315 0
-885 -690 -583 -529 0
-883 -671 -655 -517 0
-655 -467 -464 -373 -305 0
-790 -767 -690 -467 -464 0
-790 -767 -467 -464 -457 0
-826 -550 -469 -457 0
-480 -399 -366 -289 0
-595 -570 -517 -480 0
-899 -768 -666 -655 -523 0
-725 -570 -477 -413 -366 -315 0
-595 -570 -517 -477 0
-595 -570 -529 -477 0
-899 -777 -621 -570 -550 0
-899 -621 -595 -570 -517 0
-899 -595 -570 -529 0
-899 -595 -570 -523 0
-899 -621 -600 -570 -523 0
-621 -595 -583 -529 0
-392 -357 -335 -315 0
-648 -357 -335 -313 0
-773 -648 -347 -335 -324 0
-668 -648 -335 -324 0
-668 -648 -368 -335 0
-908 -392 -368 -357 0
-392 -368 -357 -315 0
-648 -517 -357 -313 0
-878 -773 -767 -648 -529 0
-773 -648 -486 -347 -324 0
-668 -648 -468 -407 -347 -324 0
-668 -648 -525 -407 -347 -324 0
-668 -648 -486 -324 0
-767 -690 -413 -381 -347 0
-878 -773 -767 -542 0
-878 -773 -767 -529 0
-773 -468 -407 -347 0
-773 -525 -407 -347 0
-898 -845 -773 -767 -347 -324 0
-898 -845 -767 -413 -324 0
-442 -413 -381 -347 0
-442 -413 -381 -347 -324 0
-773 -767 -690 -442 0
-878 -773 -767 -442 0
-773 -442 -407 -347 0
-668 -648 -413 -335 -324 -290 0
-908 -496 -368 -297 0
-496 -398 -368 -297 0
-468 -407 -309 -271 0
-392 -335 -290 -284 0
-898 -753 -668 -468 -407 -347 0
-898 -668 -468 -407 -347 -324 0
-750 -668 -625 -486 -324 0
-908 -901 -725 -368 -357 0
-908 -496 -368 -357 0
-901 -725 -368 -357 -315 0
-773 -767 -707 -690 -347 0
-767 -707 -690 -413 -347 0
-898 -773 -767 -486 -347 -324 0
-898 -767 -486 -413 -324 0
-898 -878 -767 -529 0
-898 -878 -690 -529 0
-517 -496 -398 -368 0
-901 -725 -625 -570 0
-901 -750 -725 -625 0
-468 -407 -374 -309 0
-750 -668 -486 -368 -324 0
-901 -725 -570 -368 0
-901 -750 -725 -368 0
-901 -750 -725 -698 -368 0
-468 -432 -407 -309 0
-668 -648 -368 -357 -313 0
-908 -368 -357 -313 0
-753 -668 -468 -407 -347 -315 0
-753 -668 -525 -407 -347 -315 0
-901 -725 -486 -368 -315 0
-773 -767 -690 -407 -347 0
-767 -707 -690 -542 -413 0
-869 -694 -374 -313 0
-477 -468 -374 -309 -271 0
-477 -468 -374 -309 0
-898 -767 -468 -413 0
-898 -878 -767 -468 0
-668 -496 -468 -407 -368 -347 -324 0
-869 -694 -477 -374 -313 0
-901 -698 -517 -368 -313 0
-668 -525 -496 -407 -368 -347 -324 0
-668 -496 -486 -368 -324 0
-869 -694 -517 -496 -477 -374 0
-750 -741 -707 -625 -578 -486 0
-869 -694 -517 -477 -374 0
-725 -698 -570 -517 -477 0
-898 -767 -468 -407 0
-898 -690 -468 -407 0
-898 -468 -432 -407 0
-741 -707 -664 -625 -578 0
-725 -698 -517 -486 0
-668 -517 -496 -368 -324 0
-865 -663 -439 -381 0
-810 -755 -528 -328 0
-810 -755 -656 -458 -349 0
-723 -722 -669 -487 0
-867 -723 -722 -674 -504 0
-734 -722 -316 -277 0
-746 -734 -722 -277 0
-867 -723 -722 -363 -277 0
-375 -355 -303 -300 -277 0
-734 -722 -303 -277 0
-898 -458 -436 -424 -303 0
-883 -762 -680 -674 -534 -424 -303 0
-788 -656 -458 -422 -381 0
-898 -656 -458 -444 -422 0
-898 -458 -444 -424 0
-869 -684 -682 -444 -436 0
-810 -755 -712 -656 -349 0
-723 -669 -586 -487 0
-867 -723 -674 -604 -504 0
-755 -591 -528 -328 0
-867 -734 -723 -674 -504 0
-755 -528 -349 -328 0
-898 -883 -755 -349 -328 0
-528 -422 -349 -328 0
-727 -524 -487 -422 -349 0
-656 -534 -458 -349 0
-898 -458 -436 -424 -316 0
-898 -883 -674 -656 -604 -458 0
-856 -804 -656 -604 -458 0
-656 -604 -534 -458 0
-898 -883 -674 -577 -504 0
-867 -734 -723 -363 -316 0
-883 -674 -504 -363 0
-755 -656 -458 -349 -328 0
-656 -458 -422 -328 0
-734 -723 -669 -487 -316 0
-867 -734 -723 -504 -316 0
-867 -734 -723 -496 -316 0
-656 -534 -458 -422 0
-898 -883 -674 -635 -604 -458 0
-888 -604 -534 -487 -458 0
-635 -604 -534 -458 0
-674 -635 -604 -534 -458 0
-898 -883 -458 -424 -316 0
-604 -534 -475 -458 0
-615 -577 -507 -496 0
-883 -674 -528 -504 0
-867 -723 -669 -496 -487 0
-888 -867 -847 -783 -496 0
-888 -604 -586 -524 -488 0
-746 -534 -488 -424 0
-746 -534 -524 -488 -424 0
-746 -534 -488 -458 -424 0
-898 -883 -458 -424 -328 0
-898 -883 -528 -458 -424 0
-883 -674 -534 -528 0
-674 -615 -604 -577 -504 0
-883 -674 -604 -591 -528 0
-865 -858 -827 -711 -348 0
-696 -371 -335 -330 0
-882 -731 -335 -330 0
-830 -682 -335 -313 0
-871 -791 -731 -504 -416 -330 0
-905 -791 -504 -476 -416 0
-905 -882 -731 -519 0
-858 -661 -550 -466 0
-865 -711 -393 -348 0
-711 -393 -374 -348 0
-393 -374 -348 -306 0
-830 -682 -335 -313 -290 0
-871 -791 -753 -731 -416 -290 0
-882 -871 -753 -731 -290 0
-830 -682 -330 -313 -290 0
-731 -420 -330 -290 0
-791 -731 -416 -330 -290 0
-882 -731 -330 -290 0
-882 -731 -519 -330 0
-791 -731 -504 -476 -416 0
-905 -830 -682 -430 -313 0
-905 -731 -430 -420 0
-905 -882 -731 -430 0
-721 -661 -550 -543 -430 0
-721 -430 -374 -306 0
-721 -504 -430 -374 0
-858 -827 -466 -430 -348 -306 0
-761 -661 -550 -466 -430 -420 0
-466 -449 -430 -420 0
-886 -865 -679 -393 0
-661 -550 -543 -466 0
-661 -606 -550 -466 0
-761 -590 -589 -550 -420 0
-791 -731 -504 -416 -374 -330 0
-661 -550 -466 -449 0
-856 -843 -761 -567 -543 0
-886 -711 -679 -393 -374 0
-905 -830 -721 -711 -430 -374 0
-905 -731 -721 -711 -430 -374 0
-869 -711 -682 -504 -374 0
-661 -550 -543 -519 0
-858 -827 -721 -711 -374 -348 0
-721 -711 -430 -374 -348 0
-711 -504 -416 -374 -348 0
-814 -774 -504 -476 -416 -348 0
-832 -589 -567 -550 0
-814 -775 -774 -504 -416 0
-814 -774 -682 -504 -476 -416 0
-832 -589 -574 -567 0
-814 -791 -731 -504 -416 -330 0
-519 -504 -476 -416 0
-814 -519 -504 -476 -416 0
-882 -814 -791 -731 -504 -416 0
-882 -814 -519 -504 -416 0
-589 -550 -543 -519 0
-832 -814 -519 -504 -416 0
-832 -589 -550 -543 -519 0
-590 -589 -550 -543 0
-606 -590 -589 -550 0
-718 -350 -332 -268 0
-867 -366 -332 -290 -267 0
-718 -406 -350 -268 0
-867 -830 -829 -734 -511 -366 0
-830 -734 -476 -366 0
-718 -380 -350 -268 0
-881 -708 -661 -450 -433 0
-814 -718 -476 -332 -290 -268 0
-867 -814 -306 -290 0
-867 -814 -797 -448 -290 0
-734 -535 -476 -366 0
-734 -476 -366 -352 0
-829 -511 -352 -316 0
-797 -708 -661 -450 -433 0
-729 -661 -450 -433 0
-904 -657 -547 -433 0
-657 -547 -433 -420 0
-718 -406 -350 -306 0
-829 -511 -394 -316 0
-829 -535 -511 -394 0
-867 -814 -661 -448 -306 0
-867 -814 -797 -661 -448 0
-718 -448 -373 -350 -306 0
-814 -661 -555 -448 -306 0
-814 -797 -708 -661 -450 0
-729 -535 -476 -366 0
-814 -797 -708 -525 -306 0
-734 -476 -366 -316 0
-829 -535 -511 -448 0
-797 -708 -661 -535 -450 0
-729 -661 -535 -450 0
-729 -661 -603 -450 0
-782 -729 -661 -450 0
-729 -661 -535 -476 0
-867 -814 -511 -306 0
-829 -535 -511 -476 0
-535 -503 -476 -366 0
-729 -603 -535 -476 0
-661 -555 -535 -448 0
-729 -661 -555 -535 0
-729 -661 -603 -555 0
-782 -729 -661 -555 0
-867 -829 -734 -511 -366 -352 0
-867 -829 -814 -511 -316 0
-867 -829 -511 -366 -316 0
-716 -679 -313 -276 0
-829 -716 -695 -679 -336 -313 0
-504 -448 -403 -290 0
-504 -476 -403 -290 0
-696 -674 -504 -476 -366 0
-829 -715 -696 -504 -476 -366 0
-696 -476 -366 -336 0
-696 -499 -366 -336 0
-701 -696 -499 -336 0
-696 -476 -366 -352 -336 0
-757 -743 -715 -519 -352 0
-829 -715 -504 -476 -352 0
-695 -679 -276 -271 0
-865 -695 -679 -276 0
-865 -695 -679 -663 0
-814 -662 -504 -403 0
-882 -504 -476 -403 -366 0
-890 -674 -504 -476 -366 0
-882 -595 -519 -366 0
-696 -366 -336 -313 0
-701 -696 -336 -313 0
-915 -718 -688 -420 -306 0
-696 -403 -336 -313 0
-846 -716 -715 -448 -313 0
-829 -715 -448 -313 0
-925 -882 -519 -450 -420 0
-814 -718 -716 -504 -403 0
-829 -814 -718 -716 -504 0
-915 -814 -662 -504 -420 0
-814 -662 -528 -504 0
-736 -718 -662 -528 -504 -448 0
-882 -743 -504 -476 -366 0
-882 -519 -476 -366 0
-403 -336 -313 -290 0
-715 -448 -352 -306 0
-829 -715 -448 -306 0
-736 -718 -715 -448 -352 0
-814 -718 -715 -504 -448 -352 0
-829 -814 -662 -504 0
-882 -829 -504 -476 -366 0
-750 -749 -603 -587 0
-603 -595 -543 -519 0
-882 -757 -743 -705 -674 -366 0
-750 -749 -595 -587 0
-603 -587 -543 -519 0
-865 -720 -386 -333 -268 0
-347 -333 -306 -264 0
-666 -662 -347 -333 -264 0
-429 -386 -347 -267 0
-662 -386 -347 -268 0
-666 -662 -386 -333 -268 0
-662 -429 -386 -347 0
-845 -844 -386 -333 -306 0
-884 -720 -666 -386 -333 -304 0
-659 -647 -429 -347 -333 0
-431 -347 -333 -268 0
-904 -720 -386 -333 -268 0
-431 -347 -333 -306 0
-845 -844 -429 -386 -333 0
-666 -662 -429 -347 -333 0
-666 -662 -528 -408 -333 0
-412 -399 -357 -330 0
-521 -357 -330 -318 0
-521 -482 -357 -318 0
-845 -844 -386 -333 -264 0
-386 -347 -304 -268 0
-904 -778 -720 -452 -429 0
-904 -761 -720 -429 0
-662 -528 -429 -347 0
-904 -763 -761 -707 -431 0
-904 -761 -756 -707 -594 0
-793 -570 -476 -412 -399 0
-845 -844 -386 -333 -267 0
-659 -647 -347 -333 -304 0
-347 -333 -304 -268 0
-844 -347 -333 -304 -268 0
-521 -500 -482 -318 0
-521 -482 -412 -318 0
-793 -521 -482 -412 0
-761 -756 -707 -594 -423 0
-386 -333 -304 -268 0
-778 -761 -756 -707 -594 0
-778 -756 -707 -594 0
-832 -793 -662 -570 -412 0
-832 -779 -588 -522 -500 0
-832 -779 -594 -570 -500 0
-746 -697 -594 -521 -500 0
-625 -570 -500 -476 0
-659 -647 -386 -333 -304 0
-793 -521 -500 -482 0
-832 -793 -662 -570 -528 0
-832 -662 -594 -570 -528 0
-832 -793 -570 -522 0
-793 -570 -521 -476 0
-793 -570 -521 -482 0
-832 -793 -570 -521 0
-832 -594 -570 -521 0
-832 -594 -588 -570 -522 0
-394 -376 -375 -314 0
-871 -755 -661 -492 -306 0
-747 -711 -341 -274 0
-830 -394 -376 -314 0
-830 -779 -723 -502 -330 0
-830 -390 -376 -314 0
-830 -779 -723 -390 -330 0
-904 -720 -657 -541 0
-789 -767 -720 -657 -541 0
-747 -711 -393 -341 0
-871 -755 -306 -290 0
-871 -755 -727 -290 0
-907 -902 -779 -729 -723 -502 0
-723 -697 -482 -330 0
-755 -661 -555 -492 -306 0
-830 -390 -376 -344 0
-830 -390 -344 -330 0
-830 -393 -390 -375 -344 0
-830 -748 -393 -390 -344 0
-830 -430 -390 -376 -314 0
-904 -789 -720 -657 -430 0
-767 -755 -689 -661 -492 -306 0
-747 -679 -393 -274 0
-871 -755 -394 -306 -290 0
-747 -711 -393 -344 0
-747 -393 -344 -274 0
-789 -755 -689 -306 0
-789 -755 -689 -518 -306 0
-767 -755 -689 -450 -306 0
-661 -492 -450 -306 0
-661 -555 -492 -306 0
-830 -747 -393 -390 -344 0
-756 -729 -661 -450 0
-907 -902 -729 -661 -450 0
-854 -844 -830 -711 -390 0
-902 -671 -661 -655 -595 -492 0
-779 -755 -661 -502 -492 -306 0
-756 -729 -661 -595 0
-907 -902 -729 -661 -502 0
-904 -657 -541 -471 0
-394 -330 -314 -290 0
-779 -727 -671 -502 -419 0
-767 -755 -689 -655 -492 -306 0
-394 -376 -314 -290 0
-655 -492 -416 -306 0
-779 -755 -572 -502 -492 -306 0
-756 -729 -595 -572 0
-756 -729 -661 -555 0
-756 -729 -595 -579 0
-810 -768 -689 -688 0
-793 -769 -738 -648 -595 -390 0
-648 -492 -323 -306 0
-779 -648 -486 -323 0
-779 -648 -500 -482 -323 0
-648 -390 -323 -306 0
-779 -648 -390 -323 0
-769 -416 -390 -318 0
-497 -403 -390 -344 0
-877 -811 -463 -450 -419 -381 0
-882 -750 -673 -649 -518 -486 0
-767 -689 -688 -438 -381 0
-877 -689 -688 -438 -381 0
-811 -438 -408 -381 0
-811 -438 -419 -381 0
-492 -323 -306 -289 0
-779 -486 -323 -289 0
-779 -500 -482 -323 -289 0
-779 -500 -486 -323 -289 0
-884 -779 -543 -518 -486 0
-810 -767 -689 -688 -333 0
-579 -492 -323 -306 0
-898 -841 -492 -323 -306 0
-768 -689 -523 -323 0
-779 -518 -486 -323 0
-907 -879 -779 -579 -323 0
-648 -390 -344 -323 0
-497 -403 -344 -318 0
-769 -416 -344 -318 0
-430 -403 -390 -344 0
-898 -841 -793 -757 -430 0
-898 -841 -492 -430 -306 0
-900 -864 -769 -738 -648 -390 -323 0
-779 -500 -400 -323 -289 0
-811 -688 -419 -381 -323 -306 0
-768 -689 -323 -306 0
-877 -689 -419 -323 -306 0
-579 -523 -492 -306 0
-898 -841 -492 -450 -306 0
-884 -769 -648 -403 -390 -323 0
-908 -828 -482 -416 -318 0
-793 -698 -500 -482 -416 0
-898 -841 -729 -543 -450 0
-793 -757 -729 -698 -579 0
-757 -729 -579 -497 -416 0
-841 -793 -757 -497 -492 0
-908 -828 -497 -318 0
-729 -579 -543 -518 0
-841 -767 -757 -689 -492 -323 -306 0
-729 -579 -543 -523 0
-747 -435 -345 -268 0
-449 -435 -345 -268 0
-898 -448 -435 -345 -268 0
-905 -839 -779 -489 -323 0
-747 -345 -271 -268 0
-844 -448 -350 -328 -271 0
-779 -489 -468 -328 -323 0
-898 -841 -797 -779 -489 -323 0
-904 -875 -763 -431 -350 0
-875 -449 -431 -350 0
-862 -774 -345 -328 -268 0
-779 -489 -345 -323 0
-449 -435 -418 -345 0
-882 -491 -424 -357 0
-905 -537 -435 -424 -357 0
-896 -789 -754 -537 -435 0
-522 -449 -435 -418 0
-578 -522 -449 -435 -418 0
-898 -489 -468 -435 -328 0
-898 -797 -793 -595 -448 0
-595 -574 -499 -396 0
-499 -491 -396 -370 0
-905 -839 -779 -357 -323 -313 0
-898 -468 -449 -435 -328 0
-882 -789 -625 -578 -522 0
-595 -574 -516 -424 0
-898 -817 -733 -448 -357 -313 0
-898 -896 -882 -789 -754 -448 -435 0
-797 -793 -516 -448 0
-898 -448 -435 -350 -328 0
-898 -468 -449 -435 -418 0
-797 -793 -468 -448 0
-574 -509 -499 -396 0
-782 -595 -574 -499 0
-777 -591 -489 -468 -328 0
-898 -448 -435 -345 -328 0
-882 -516 -491 -424 0
-595 -537 -516 -424 0
-789 -578 -537 -522 0
-789 -625 -578 -537 -522 0
-782 -707 -595 -537 0
-782 -750 -707 -625 -578 -537 0
-782 -707 -595 -574 0
-782 -625 -595 -574 0
-797 -793 -516 -489 0
-797 -793 -578 -516 -489 0
-595 -574 -516 -499 -491 0
-797 -793 -595 -578 -489 0
-782 -625 -595 -578 0
-767 -747 -718 -349 -325 0
-356 -336 -335 -314 0
-747 -718 -349 -325 -264 0
-788 -747 -718 -264 0
-680 -393 -303 -266 0
-898 -767 -444 -349 -303 0
-898 -767 -719 -674 -448 -349 0
-898 -767 -444 -349 -325 0
-898 -448 -444 -416 0
-898 -690 -444 -416 0
-747 -718 -393 -349 -325 0
-788 -747 -718 -393 0
-767 -718 -690 -349 -325 0
-916 -723 -502 -397 -336 0
-921 -916 -723 -502 -336 0
-916 -723 -397 -356 -336 0
-767 -690 -534 -349 0
-528 -407 -349 -325 0
-832 -578 -349 -325 0
-921 -882 -669 -595 -529 0
-832 -783 -770 -705 -363 0
-747 -680 -663 -393 -303 0
-591 -528 -407 -325 0
-882 -595 -574 -529 0
-882 -625 -578 -524 0
-767 -690 -407 -349 -325 0
-898 -767 -448 -349 -325 0
-448 -416 -356 -314 0
-882 -578 -524 -482 0
-595 -574 -529 -482 0
-625 -608 -578 -524 0
-392 -346 -336 -298 -297 0
-815 -765 -685 -684 -392 -326 -298 0
-392 -336 -298 -297 0
-815 -722 -697 -675 -482 -326 0
-815 -722 -675 -482 -326 0
-909 -770 -722 -675 -655 0
-770 -722 -675 -655 -416 0
-697 -685 -684 -392 -326 0
-746 -697 -685 -684 -392 0
-392 -359 -336 -297 0
-697 -685 -392 -336 -326 0
-815 -688 -685 -534 -416 -326 0
-736 -380 -354 -328 -269 0
-393 -380 -354 -305 0
-800 -697 -685 -684 -326 0
-380 -354 -305 -269 0
-406 -393 -305 -263 0
-393 -380 -354 -269 0
-896 -810 -688 -393 -266 0
-393 -379 -269 -266 0
-815 -685 -675 -534 -416 -326 0
-815 -675 -527 -326 0
-896 -877 -810 -688 -266 0
-770 -722 -675 -667 -336 0
-800 -746 -697 -685 -336 0
-722 -675 -363 -346 -336 0
-359 -346 -336 -297 0
-770 -655 -416 -363 -346 0
-800 -697 -685 -567 -326 0
-904 -761 -550 -534 -435 0
-527 -435 -420 -326 0
-761 -550 -534 -435 -420 0
-736 -685 -655 -416 -354 0
-805 -770 -708 -667 -468 -328 0
-815 -675 -482 -397 -326 0
-667 -577 -567 -511 -397 0
-577 -567 -511 -397 0
-722 -685 -675 -363 -336 -326 0
-815 -675 -363 -326 0
-822 -815 -675 -363 0
-815 -770 -675 -363 -326 0
-815 -675 -397 -363 -326 0
-800 -697 -685 -416 -326 0
-697 -685 -655 -416 -326 0
-746 -697 -685 -655 -416 0
-736 -685 -655 -416 -326 0
-815 -736 -685 -655 -416 -326 0
-746 -736 -685 -655 -416 0
-805 -667 -577 -468 -328 0
-815 -770 -675 -511 -326 0
-770 -736 -708 -655 -511 0
-800 -697 -567 -482 0
-800 -697 -567 -482 -326 0
-800 -746 -697 -567 -482 0
-685 -534 -527 -416 -326 0
-746 -685 -534 -527 -416 0
-736 -655 -416 -328 0
-736 -708 -655 -416 -328 0
-811 -736 -706 -655 -328 0
-682 -416 -320 -295 -277 0
-905 -894 -791 -416 -320 0
-894 -755 -369 -320 -307 0
-905 -791 -416 -337 -277 0
-682 -337 -295 -277 0
-530 -426 -421 -381 0
-469 -463 -429 -381 0
-467 -463 -431 -381 0
-467 -431 -421 -381 0
-905 -791 -517 -416 0
-679 -373 -354 -265 0
-905 -894 -845 -755 -369 0
-905 -845 -791 -743 -337 0
-905 -894 -845 -755 -369 -345 0
-320 -295 -288 -277 0
-894 -755 -320 -288 0
-813 -712 -667 -476 -420 -326 0
-852 -809 -368 -295 0
-682 -368 -337 -295 0
-905 -791 -743 -345 -277 0
-894 -755 -369 -345 -307 0
-894 -832 -805 -755 -345 0
-905 -791 -458 -420 -345 0
-905 -791 -416 -345 0
-905 -791 -743 -345 0
-905 -845 -813 -762 -736 -429 -345 0
-905 -845 -373 -354 -345 0
-517 -397 -368 -337 0
-517 -416 -397 -368 -337 0
-476 -397 -368 -326 0
-476 -420 -369 -326 0
-800 -787 -567 -368 0
-667 -567 -476 -368 -326 0
-567 -476 -368 -326 0
-905 -894 -791 -755 -369 -307 0
-869 -682 -397 -368 -337 0
-707 -606 -458 -420 0
-905 -845 -373 -345 -307 0
-905 -845 -762 -736 -345 -307 0
-905 -791 -757 -720 -467 -463 0
-905 -720 -467 -463 -421 -345 0
-791 -546 -517 -458 -416 0
-897 -757 -546 -517 -416 0
-546 -539 -517 -416 0
-467 -463 -431 -421 0
-690 -688 -674 -437 -345 -323 0
-690 -688 -550 -437 -345 -323 0
-721 -661 -444 -429 -381 0
-474 -463 -429 -381 0
-877 -811 -657 -419 -381 0
-811 -541 -419 -381 0
-721 -680 -437 -345 -323 0
-684 -444 -437 -412 -344 -277 0
-878 -690 -444 -437 0
-688 -426 -381 -363 -323 -293 0
-721 -694 -680 -307 -293 0
-811 -770 -688 -381 -363 -323 -293 0
-705 -686 -683 -674 -661 -323 0
-690 -674 -489 -437 -345 -323 0
-843 -690 -674 -437 -345 -323 0
-665 -376 -344 -277 0
-665 -344 -285 -277 0
-822 -686 -669 -345 -323 0
-868 -684 -672 -437 -345 -331 0
-878 -690 -437 -345 0
-811 -429 -419 -381 0
-721 -690 -661 -444 -429 0
-721 -674 -661 -444 -429 0
-721 -661 -550 -444 -429 0
-721 -444 -429 -307 0
-878 -690 -524 -437 0
-725 -690 -674 -577 -489 -437 0
-843 -690 -674 -577 -437 0
-925 -919 -822 -721 -437 0
-528 -467 -463 -419 0
-694 -688 -412 -381 -363 -323 0
-725 -677 -577 -489 -397 0
-843 -677 -674 -577 -397 0
-725 -677 -489 -397 0
-705 -686 -683 -489 -363 -323 0
-725 -677 -489 -397 -363 0
-721 -661 -528 -419 -307 0
-665 -344 -293 -277 0
-505 -412 -397 -363 0
-925 -919 -721 -437 -307 0
-721 -437 -345 -307 0
-843 -690 -677 -674 -577 0
-688 -426 -412 -381 -363 -323 0
-877 -467 -463 -419 0
-877 -467 -463 -420 0
-878 -690 -661 -524 0
-725 -674 -661 -577 -489 0
-725 -677 -674 -661 -489 0
-843 -674 -661 -577 0
-843 -674 -661 -599 0
-725 -677 -534 -489 0
-725 -677 -587 -489 0
-725 -550 -534 -489 0
-609 -550 -534 -489 0
-878 -690 -534 -524 0
-725 -577 -534 -489 0
-725 -560 -534 -489 0
-843 -674 -577 -534 0
-843 -674 -599 -534 0
-725 -587 -577 -489 0
-725 -587 -577 -560 -489 0
-725 -587 -560 -489 0
-690 -661 -528 -419 0
-661 -550 -541 -528 -419 0
-635 -624 -599 -587 0
-844 -711 -393 -262 0
-844 -393 -307 -262 0
-345 -323 -283 -277 0
-689 -422 -323 -320 0
-727 -689 -323 -320 0
-779 -727 -323 -320 0
-779 -667 -492 -323 -320 0
-779 -667 -492 -323 -320 -307 0
-412 -344 -320 -277 0
-779 -323 -320 -277 0
-779 -345 -323 -277 0
-905 -767 -727 -689 -422 -277 0
-905 -767 -727 -689 -277 0
-905 -715 -412 -363 0
-865 -679 -393 -265 0
-865 -393 -344 -265 0
-905 -845 -767 -727 -689 0
-905 -845 -779 -345 -323 0
-905 -845 -779 -667 -345 -323 0
-845 -715 -412 -363 0
-412 -397 -363 -291 0
-698 -667 -397 -291 0
-767 -690 -689 -534 -323 0
-779 -667 -534 -492 -323 0
-344 -323 -320 -277 0
-825 -711 -383 -345 -307 0
-825 -774 -727 -383 -345 0
-905 -715 -412 -345 0
-779 -486 -345 -323 0
-779 -727 -345 -323 0
-779 -667 -492 -345 -323 0
-767 -690 -689 -667 -534 -492 0
-715 -412 -397 -363 0
-767 -728 -698 -690 -667 -652 -492 0
-865 -393 -344 -277 0
-905 -845 -844 -345 -323 0
-845 -715 -690 -534 -464 0
-845 -715 -464 -412 0
-534 -492 -464 -307 0
-770 -667 -492 -464 -307 0
-904 -816 -664 -625 -473 0
-844 -825 -711 -679 -393 0
-770 -767 -690 -689 -363 -323 0
-908 -529 -397 -331 -291 0
-779 -723 -486 -397 0
-779 -723 -667 -492 -397 0
-698 -667 -492 -397 0
-865 -711 -393 -344 0
-689 -422 -363 -323 0
-768 -689 -363 -323 0
-727 -689 -363 -323 0
-770 -667 -492 -363 0
-715 -690 -534 -412 -363 0
-595 -560 -529 -331 0
-767 -690 -689 -534 -422 0
-905 -845 -844 -767 -689 -307 0
-905 -845 -844 -345 -307 0
-845 -844 -715 -412 -307 0
-904 -816 -664 -473 -454 0
-667 -492 -473 -464 -307 0
-904 -767 -690 -534 -473 0
-664 -605 -553 -473 0
-698 -667 -534 -492 0
-689 -412 -363 -323 0
-848 -723 -673 -412 -397 -363 -331 0
-767 -727 -690 -689 -534 -492 0
-636 -625 -595 -560 0
-804 -690 -664 -591 -534 0
-816 -625 -605 -553 0
-664 -605 -591 -553 0
-595 -560 -526 -486 0
-658 -647 -406 -334 -269 0
-919 -894 -792 -477 -437 0
-919 -894 -793 -792 -437 0
-894 -755 -727 -526 0
-894 -799 -669 -668 -526 0
-719 -442 -431 -407 0
-878 -719 -689 -668 -442 -331 0
-919 -797 -792 -755 -689 -437 0
-799 -727 -689 -668 -588 0
-894 -719 -431 -407 -345 0
-894 -755 -727 -345 0
-894 -805 -797 -755 -477 -345 0
-894 -668 -345 -331 0
-894 -668 -370 -345 -331 0
-792 -437 -412 -345 0
-792 -477 -437 -345 0
-793 -792 -437 -345 0
-919 -799 -727 -689 -437 0
-843 -793 -792 -599 -437 0
-894 -719 -442 -406 -345 0
-719 -442 -431 -406 0
-805 -797 -658 -477 -406 -334 0
-799 -696 -669 -668 -400 0
-696 -669 -668 -499 -400 0
-867 -793 -792 -783 -412 -370 0
-867 -797 -783 -477 -370 0
-669 -668 -564 -499 -331 0
-894 -812 -764 -755 -647 -412 -345 0
-805 -797 -727 -526 -477 0
-843 -625 -589 -561 0
-805 -797 -792 -755 -689 -437 0
-805 -797 -792 -727 -689 -437 0
-769 -390 -355 -267 0
-869 -769 -390 -267 0
-904 -788 -775 -740 -534 -492 -458 0
-769 -390 -355 -288 0
-869 -769 -517 -390 0
-924 -904 -433 -381 0
-904 -458 -433 -381 0
-904 -788 -458 -433 -381 0
-769 -390 -355 -305 0
-869 -769 -390 -305 0
-769 -411 -355 -288 0
-828 -696 -560 -499 0
-828 -696 -560 -499 -486 0
-828 -696 -494 -336 0
-828 -696 -499 -336 0
-828 -494 -336 -331 0
-828 -499 -486 -336 -331 0
-867 -667 -370 -336 0
-904 -534 -458 -433 -349 0
-904 -553 -458 -433 0
-904 -534 -458 -433 0
-904 -534 -492 -458 -433 0
-792 -769 -534 -464 -390 -305 0
-924 -904 -608 -553 0
-904 -608 -553 -458 0
-904 -605 -553 -458 0
-904 -667 -534 -492 -458 0
-769 -411 -369 -355 -333 0
-867 -667 -534 -492 0
-867 -792 -667 -534 -492 0
-867 -667 -492 -370 0
-867 -749 -667 -560 -370 0
-828 -560 -499 -331 0
-924 -904 -433 -407 0
-904 -458 -433 -407 0
-749 -667 -534 -492 -458 0
-904 -553 -471 -458 0
-904 -534 -471 -458 0
-792 -788 -775 -769 -492 0
-869 -792 -769 -534 -517 0
-789 -534 -526 -458 0
-749 -667 -560 -534 -492 0
-869 -792 -769 -517 -492 0
-792 -788 -775 -492 -433 0
-843 -749 -625 -560 0
-833 -749 -625 -560 0
-788 -775 -534 -492 -458 -433 0
-817 -792 -788 -775 -492 0
-788 -775 -650 -534 -492 -458 0
-871 -832 -779 -755 -589 0
-871 -800 -779 -755 -518 -488 0
-878 -871 -668 -529 -331 0
-871 -689 -668 -512 -418 0
-871 -832 -779 -668 -512 0
-912 -871 -715 -668 -452 -331 -268 0
-878 -871 -668 -331 -268 0
-755 -689 -418 -268 0
-755 -689 -452 -435 -268 0
-912 -905 -715 -518 -331 0
-905 -689 -668 -488 -435 -331 0
-912 -871 -851 -715 -668 -452 -331 0
-878 -871 -851 -668 -331 0
-851 -755 -689 -418 0
-851 -755 -689 -452 -435 0
-851 -832 -779 -755 -522 0
-832 -823 -779 -603 -589 0
-851 -824 -776 -764 -328 -319 0
-755 -689 -542 -522 -418 0
-755 -729 -689 -452 -435 0
-832 -779 -755 -542 -522 0
-689 -668 -589 -512 -418 0
-832 -779 -668 -589 0
-912 -832 -779 -715 -668 -331 0
-912 -715 -488 -331 0
-689 -668 -529 -435 -331 0
-689 -512 -435 -418 0
-689 -522 -435 -418 0
-504 -452 -435 -411 0
-729 -603 -452 -435 0
-782 -729 -452 -435 0
-912 -721 -715 -318 0
-912 -721 -715 -331 0
-869 -776 -764 -721 -318 0
-721 -689 -668 -452 -435 -331 0
-851 -764 -755 -689 -435 0
-832 -779 -603 -589 0
-755 -689 -456 -418 -328 0
-755 -689 -452 -435 -328 0
-512 -456 -418 -328 0
-912 -715 -411 -318 0
-912 -715 -411 -331 0
-912 -715 -452 -411 -331 0
-689 -668 -452 -435 -411 -331 0
-603 -542 -522 -418 0
-912 -715 -518 -452 -331 0
-912 -715 -529 -452 -331 0
-561 -504 -452 -411 0
-782 -729 -619 -561 -452 0
-869 -824 -812 -764 -328 0
-869 -851 -764 -755 -689 0
-832 -603 -542 -522 0
-869 -504 -371 -318 0
-643 -639 -603 -542 0
-871 -869 -851 -764 -668 -318 0
-869 -851 -764 -755 -318 0
-480 -397 -371 -318 0
-603 -589 -542 -522 0
-810 -512 -333 -328 0
-810 -755 -447 -328 0
-899 -755 -648 -349 -328 0
-899 -755 -367 -328 -289 0
-674 -504 -367 -289 0
-500 -488 -367 -289 0
-785 -750 -500 -367 -289 0
-500 -488 -396 -289 0
-828 -488 -396 -289 0
-512 -418 -333 -328 0
-789 -650 -649 -648 -319 0
-899 -674 -504 -367 -319 0
-500 -488 -367 -319 0
-755 -473 -447 -328 0
-908 -828 -785 -500 -396 0
-755 -447 -349 -328 0
-899 -777 -755 -349 -328 0
-777 -473 -449 -431 0
-558 -473 -449 -431 0
-473 -462 -449 -431 0
-755 -504 -403 -367 -328 0
-447 -436 -403 -344 0
-447 -436 -344 -328 0
-755 -447 -367 -328 0
-899 -777 -755 -367 -328 0
-777 -674 -504 -367 0
-785 -750 -578 -512 -500 -367 0
-908 -828 -488 -316 0
-504 -447 -436 -403 -344 0
-777 -674 -504 -473 -447 0
-777 -674 -473 -449 0
-899 -777 -473 -449 0
-558 -551 -473 -449 0
-447 -436 -350 -328 0
-777 -674 -504 -473 0
-843 -777 -674 -473 0
-899 -777 -512 -473 -328 0
-899 -777 -512 -473 0
-876 -785 -750 -625 0
-876 -785 -750 -625 -578 0
-899 -674 -512 -504 0
-785 -750 -625 -500 0
-785 -750 -578 -500 0
-908 -829 -828 -504 -316 0
-599 -537 -521 -424 0
-829 -755 -504 -367 -328 0
-829 -777 -674 -521 -504 0
-816 -785 -750 -625 -578 0
-829 -504 -367 -316 0
-899 -757 -674 -512 -424 0
-899 -757 -674 -512 -418 0
-843 -625 -599 -578 0
-354 -334 -332 -269 0
-393 -354 -334 -332 0
-407 -354 -334 -269 0
-894 -528 -407 -347 0
-894 -518 -347 -324 0
-894 -731 -543 -424 0
-894 -731 -512 -324 0
-905 -894 -792 -729 -603 -436 0
-905 -894 -829 -817 -733 -511 0
-905 -894 -731 -543 -424 0
-905 -894 -486 -347 -324 0
-905 -731 -512 -324 0
-905 -731 -486 -324 0
-826 -475 -440 -431 0
-817 -739 -725 -518 -486 -424 0
-393 -379 -332 -269 0
-811 -393 -354 -334 0
-894 -347 -330 -324 -294 0
-731 -330 -324 -294 0
-393 -332 -269 -263 0
-811 -431 -354 -334 0
-431 -407 -354 -334 0
-894 -486 -347 -330 -324 0
-731 -512 -330 -324 0
-731 -486 -330 -324 0
-829 -792 -436 -345 0
-792 -436 -424 -345 0
-826 -811 -475 -431 -407 0
-826 -811 -475 -431 0
-905 -894 -792 -730 -436 -347 0
-905 -894 -792 -729 -436 -347 0
-792 -730 -518 -424 -347 -324 0
-543 -518 -347 -324 0
-867 -792 -783 -731 -730 -424 0
-731 -587 -512 -324 0
-905 -894 -436 -407 -347 -334 0
-905 -894 -436 -347 -324 0
-905 -731 -436 -324 0
-829 -792 -436 -313 0
-829 -792 -511 -436 0
-792 -731 -436 -424 -324 0
-792 -518 -436 -424 0
-826 -554 -475 -431 0
-826 -664 -475 -431 0
-898 -829 -817 -733 -511 0
-898 -829 -792 -511 0
-898 -792 -518 -424 0
-826 -664 -613 -475 0
-867 -725 -518 -486 0
-826 -431 -407 -334 0
-905 -894 -792 -436 -407 -347 0
-826 -475 -431 -407 0
-817 -792 -731 -486 -424 -324 0
-792 -731 -486 -424 -324 0
-792 -518 -486 -424 0
-792 -776 -731 -726 -424 -324 0
-867 -725 -511 -486 0
-783 -725 -543 -518 -486 0
-867 -511 -369 -313 0
-867 -829 -511 -369 -313 0
-731 -543 -512 -424 -324 0
-899 -603 -587 -543 -528 0
-725 -677 -571 -561 0
-725 -561 -518 -486 0
-788 -747 -718 -421 0
-788 -747 -718 -433 0
-779 -723 -330 -325 -320 0
-349 -330 -325 -320 0
-685 -416 -330 -320 0
-882 -685 -330 -320 0
-747 -354 -304 -274 0
-747 -718 -325 -274 0
-747 -718 -349 -325 -274 0
-788 -747 -718 -274 0
-349 -330 -320 -274 0
-685 -330 -320 -274 0
-882 -830 -685 -490 0
-830 -779 -723 -667 -330 0
-769 -716 -680 -263 0
-769 -685 -680 -416 -263 0
-905 -779 -490 -349 -325 0
-905 -799 -779 -349 -325 0
-905 -685 -517 -416 0
-905 -882 -685 -529 0
-905 -882 -685 -524 0
-905 -882 -685 -490 0
-716 -680 -679 -313 0
-769 -716 -680 -284 0
-769 -685 -680 -416 -330 0
-788 -459 -442 -433 -421 0
-788 -442 -433 -421 0
-349 -330 -325 -294 0
-685 -416 -330 -313 -294 0
-882 -685 -330 -294 0
-698 -667 -397 -294 0
-507 -499 -397 -294 0
-799 -779 -723 -587 0
-799 -779 -723 -330 0
-779 -490 -349 -330 -325 0
-799 -779 -349 -330 -325 0
-685 -517 -416 -330 0
-882 -685 -529 -330 0
-882 -685 -524 -330 0
-882 -685 -490 -330 0
-924 -826 -761 -536 -433 -349 0
-779 -524 -490 -349 -325 0
-882 -799 -685 -587 -524 0
-716 -680 -679 -304 0
-779 -769 -723 -685 -416 -330 0
-716 -680 -679 -354 0
-769 -716 -680 -354 0
-769 -685 -680 -416 -354 0
-799 -779 -723 -397 0
-799 -779 -723 -524 -397 0
-507 -499 -490 -397 0
-813 -812 -447 -369 -354 -304 0
-788 -421 -369 -325 0
-813 -812 -667 -447 -369 -354 -304 0
-799 -779 -591 -587 0
-779 -723 -685 -416 -330 -313 0
-779 -723 -691 -685 -416 -330 -325 0
-799 -779 -591 -587 -325 0
-882 -785 -619 -594 -529 0
-882 -799 -685 -524 -416 0
-882 -685 -490 -416 0
-882 -691 -529 -490 -416 0
-785 -619 -594 -499 0
-882 -594 -529 -490 0
-799 -779 -698 -667 -517 0
-785 -619 -608 -594 0
-812 -772 -769 -718 -416 -325 0
-641 -619 -608 -594 0
-778 -761 -591 -546 -536 0
-882 -731 -648 -335 0
-814 -648 -335 -323 0
-734 -648 -337 -335 0
-882 -734 -648 -335 0
-734 -648 -360 -335 0
-810 -731 -414 -323 0
-810 -789 -731 -323 0
-810 -731 -323 -274 0
-882 -734 -731 -648 -529 0
-789 -731 -648 -526 0
-882 -731 -648 -529 0
-814 -648 -477 -323 0
-734 -648 -529 -337 0
-882 -734 -648 -529 0
-882 -789 -734 -648 -526 0
-789 -734 -731 -648 -526 0
-773 -734 -731 -529 -337 0
-882 -773 -734 -731 -529 0
-882 -789 -773 -731 -529 0
-789 -773 -731 -540 0
-789 -773 -731 -526 0
-882 -773 -731 -529 0
-814 -792 -731 -649 -477 -323 0
-773 -731 -442 -414 0
-789 -773 -731 -442 0
-464 -442 -374 -304 0
-464 -442 -374 -334 0
-464 -442 -348 -334 0
-393 -374 -348 -334 0
-731 -648 -335 -288 0
-648 -335 -323 -288 0
-734 -648 -335 -288 0
-817 -792 -649 -648 -477 -323 0
-817 -792 -731 -649 -477 -323 0
-731 -477 -414 -323 0
-789 -731 -540 -323 0
-789 -731 -526 -323 0
-882 -731 -529 -323 0
-814 -477 -414 -323 0
-814 -727 -525 -323 0
-814 -727 -526 -323 0
-814 -799 -727 -588 -323 0
-814 -797 -792 -414 -323 0
-829 -360 -356 -337 0
-882 -731 -594 -529 0
-797 -594 -570 -529 -374 -304 0
-477 -414 -374 -304 0
-797 -594 -570 -464 -374 -304 0
-477 -464 -374 -304 0
-797 -594 -570 -464 -374 -334 0
-477 -464 -374 -334 0
-814 -792 -731 -477 -414 -323 0
-814 -727 -555 -525 0
-814 -727 -540 -526 0
-812 -658 -374 -348 -304 0
-734 -731 -529 -414 -337 0
-734 -731 -529 -414 -360 -337 0
-882 -731 -529 -414 0
-594 -570 -477 -414 0
-855 -829 -772 -374 -337 0
-882 -797 -594 -570 -529 -374 0
-731 -477 -414 -374 -323 0
-829 -792 -477 -314 0
-829 -814 -792 -477 -356 -323 0
-814 -789 -731 -477 -323 0
-814 -727 -525 -477 0
-814 -727 -526 -477 0
-734 -731 -477 -414 -360 0
-829 -792 -477 -337 0
-594 -570 -529 -477 0
-829 -814 -792 -731 -477 -323 0
-814 -792 -731 -650 -477 -323 0
-814 -797 -792 -727 -414 0
-814 -797 -792 -727 -526 -414 0
-817 -814 -792 -731 -477 -323 0
-865 -663 -429 -348 0
-865 -663 -431 -348 0
-875 -865 -663 -431 0
-663 -463 -429 -348 0
-663 -463 -431 -348 0
-875 -663 -463 -431 0
-916 -901 -868 -830 -697 -496 0
-386 -348 -325 -268 0
-386 -325 -323 -268 0
-429 -386 -348 -325 0
-875 -467 -463 -431 0
-732 -712 -689 -666 -325 0
-483 -318 -300 -285 0
-875 -865 -663 -280 0
-914 -885 -715 -679 -654 -344 -331 0
-720 -469 -463 -429 -386 -348 0
-469 -463 -429 -348 0
-467 -463 -431 -348 0
-528 -467 -463 -431 0
-399 -325 -323 -289 0
-732 -689 -666 -657 -325 0
-885 -715 -697 -655 -331 0
-885 -697 -655 -535 -331 0
-885 -715 -518 -452 -331 0
-885 -535 -518 -452 -331 0
-902 -698 -535 -452 0
-604 -599 -535 -452 0
-849 -707 -657 -604 -542 0
-901 -697 -496 -483 -331 0
-902 -698 -535 -496 0
-907 -902 -698 -496 0
-666 -655 -411 -325 0
-707 -604 -599 -542 -518 0
-901 -885 -697 -535 -496 -331 0
-885 -715 -666 -655 -331 0
-885 -666 -655 -535 -331 0
-707 -664 -604 -599 0
-715 -689 -666 -655 -325 0
-885 -666 -655 -535 -325 0
-747 -663 -429 -348 0
-747 -426 -348 -268 0
-898 -747 -720 -386 -268 0
-898 -747 -720 -719 -268 0
-767 -747 -720 -719 -268 0
-898 -767 -747 -720 -719 -268 0
-716 -391 -376 -360 0
-898 -720 -719 -663 -348 0
-898 -720 -448 -386 -268 0
-767 -720 -457 -386 -268 0
-767 -720 -719 -457 -268 0
-895 -767 -720 -719 -268 0
-767 -720 -719 -424 -268 0
-424 -323 -315 -268 0
-760 -716 -376 -360 0
-760 -376 -359 -357 0
-386 -323 -315 -268 0
-767 -720 -457 -418 -386 0
-767 -720 -424 -386 0
-898 -720 -719 -666 -448 0
-898 -720 -719 -674 -448 0
-767 -720 -719 -551 -457 0
-898 -720 -667 -666 -448 0
-767 -720 -691 -424 0
-747 -663 -348 -293 0
-747 -348 -293 -268 0
-747 -323 -315 -293 -268 0
-859 -770 -667 -487 -293 0
-770 -666 -448 -309 -293 0
-859 -770 -667 -666 -487 -293 0
-828 -696 -588 -488 0
-696 -506 -398 -376 -360 0
-506 -398 -376 -360 0
-691 -424 -323 -315 0
-537 -424 -323 -315 0
-716 -696 -398 -376 -360 0
-901 -716 -696 -376 -360 0
-716 -398 -376 -360 0
-898 -778 -720 -719 -348 0
-898 -720 -719 -448 -348 0
-767 -720 -719 -457 -348 0
-747 -344 -293 -264 0
-716 -694 -376 -360 0
-898 -895 -778 -720 -719 -429 0
-898 -778 -720 -457 -429 0
-898 -720 -448 -429 0
-767 -691 -577 -424 0
-691 -674 -448 -424 -309 0
-898 -778 -512 -457 -418 0
-898 -667 -666 -577 -448 0
-898 -691 -674 -577 -448 0
-898 -674 -667 -577 -448 0
-747 -391 -344 -293 0
-747 -694 -386 -293 -268 0
-899 -770 -666 -512 0
-747 -663 -344 -293 0
-747 -344 -293 -268 0
-747 -386 -344 -293 -268 0
-691 -577 -424 -315 0
-760 -694 -376 -357 -293 0
-760 -694 -357 -323 -315 -293 0
-716 -694 -376 -293 0
-770 -666 -497 -448 0
-691 -674 -448 -424 -315 0
-691 -674 -577 -497 -448 0
-609 -555 -551 -467 0
-895 -778 -691 -577 -424 0
-747 -716 -694 -293 -268 0
-828 -696 -505 -488 -398 0
-899 -770 -666 -497 0
-551 -512 -457 -418 0
-537 -512 -457 -418 0
-898 -767 -666 -448 -424 -376 -357 0
-667 -588 -577 -487 0
-899 -674 -512 -457 -418 0
-691 -674 -667 -487 -424 -315 0
-899 -691 -674 -424 -315 0
-816 -750 -625 -588 0
-750 -635 -625 -588 0
-899 -691 -674 -512 0
-750 -667 -625 -615 -577 -487 0
-859 -691 -667 -577 -487 -424 0
-404 -398 -376 -291 0
-844 -810 -712 -386 -305 0
-865 -731 -712 -369 -323 -264 0
-829 -792 -436 -386 0
-797 -792 -436 -386 -369 0
-792 -539 -436 -386 0
-829 -820 -792 -790 -386 0
-820 -797 -792 -790 -386 -369 0
-826 -656 -456 -413 -381 -347 0
-844 -760 -436 -355 -305 0
-844 -712 -305 -266 0
-760 -436 -355 -305 0
-829 -820 -792 -790 -497 0
-820 -797 -792 -790 -369 -323 0
-797 -792 -790 -436 -369 -323 0
-810 -731 -712 -656 -323 -315 0
-810 -712 -656 -347 -323 0
-810 -731 -712 -656 -323 0
-731 -712 -656 -369 -323 -315 0
-712 -656 -369 -347 -323 0
-731 -712 -656 -369 -323 0
-901 -800 -368 -291 0
-882 -524 -487 -368 -291 0
-844 -810 -712 -334 -266 0
-844 -712 -334 -266 0
-882 -731 -524 -323 0
-797 -792 -661 -369 -323 0
-907 -797 -625 -603 -369 -323 0
-882 -731 -586 -524 0
-829 -792 -497 -436 0
-924 -826 -603 -553 0
-844 -760 -712 -436 -355 -266 0
-844 -760 -436 -355 -334 0
-398 -376 -359 -291 0
-882 -586 -524 -368 0
-797 -792 -369 -323 -315 0
-907 -797 -369 -323 -315 0
-901 -800 -487 -368 -315 0
-882 -625 -586 -524 0
-882 -731 -524 -413 0
-924 -826 -553 -456 0
-844 -829 -792 -436 -334 0
-829 -792 -661 -497 0
-797 -792 -671 -661 -577 0
-843 -792 -661 -577 -539 0
-924 -625 -603 -553 0
-497 -369 -323 -315 0
-882 -731 -497 -369 -323 0
-844 -811 -436 -334 0
-797 -792 -436 -369 -347 -323 0
-797 -792 -731 -436 -369 -323 0
-625 -603 -586 -487 0
-625 -603 -586 -524 0
-844 -792 -539 -513 -436 -334 0
-829 -792 -661 -513 0
-792 -661 -539 -513 0
-625 -603 -586 -553 0
-644 -625 -603 -553 0
-829 -731 -497 -369 -323 0
-829 -797 -792 -369 -347 -323 0
-829 -797 -792 -731 -369 -323 0
-843 -625 -586 -577 0
-797 -792 -731 -656 -369 -323 0
-912 -829 -497 -369 -323 0
-912 -829 -797 -792 -369 -323 0
-810 -513 -334 -333 0
-844 -810 -436 -386 -333 0
-665 -376 -337 -277 0
-665 -376 -359 -277 0
-696 -668 -665 -315 -277 0
-909 -661 -458 -436 -413 -386 0
-458 -413 -381 -347 0
-656 -458 -381 -347 0
-656 -454 -381 -347 0
-920 -909 -790 -671 -497 0
-920 -909 -867 -790 -671 0
-403 -369 -333 -292 0
-707 -458 -413 -347 0
-707 -656 -458 -347 0
-661 -656 -513 -458 -347 0
-844 -386 -333 -305 -264 0
-920 -909 -671 -497 -436 -403 0
-707 -656 -604 -458 0
-884 -693 -662 -403 -369 0
-403 -369 -334 -333 0
-797 -708 -403 -369 -334 0
-797 -708 -662 -403 -369 0
-884 -867 -693 -662 -513 0
-867 -797 -708 -661 -369 0
-920 -909 -867 -671 -661 0
-884 -789 -754 -693 -369 0
-513 -369 -334 -333 0
-662 -513 -413 -347 0
-754 -693 -662 -656 -513 -413 0
-754 -708 -693 -662 -656 -513 -413 0
-707 -604 -458 -413 0
-844 -386 -333 -305 -277 0
-497 -369 -334 -333 0
-920 -909 -671 -661 -497 0
-884 -867 -693 -662 -497 0
-884 -693 -662 -497 -369 0
-604 -589 -535 -497 0
-662 -656 -513 -458 -347 0
-662 -656 -513 -454 -347 0
-661 -513 -458 -413 0
-789 -661 -513 -458 0
-604 -589 -535 -513 0
-722 -675 -674 -655 -369 0
-722 -675 -674 -667 -369 0
-722 -675 -667 -487 -369 0
-437 -413 -390 -270 0
-861 -825 -475 -437 -413 -347 0
-826 -825 -475 -431 -347 0
-830 -722 -675 -655 -369 0
-830 -722 -675 -667 -369 0
-830 -722 -679 -675 -356 0
-727 -437 -413 -390 -347 0
-437 -413 -390 -326 0
-680 -679 -356 -287 0
-722 -680 -675 -390 -270 0
-830 -722 -680 -675 -390 0
-680 -390 -356 -284 0
-680 -353 -309 -293 -263 0
-883 -655 -369 -309 -293 0
-667 -487 -369 -326 -293 0
-727 -667 -487 -369 -293 0
-675 -674 -655 -589 -369 0
-675 -674 -667 -589 -369 0
-680 -340 -309 -263 0
-826 -825 -711 -431 -347 0
-722 -675 -369 -287 0
-883 -513 -421 -340 -309 0
-921 -830 -722 -675 -356 0
-727 -487 -437 -413 -347 0
-487 -437 -413 -326 0
-555 -475 -449 -431 0
-913 -475 -449 -431 0
-826 -555 -475 -431 0
-913 -826 -475 -449 -431 0
-680 -679 -356 -309 0
-680 -437 -413 -390 -309 0
-680 -390 -356 -309 0
-861 -831 -650 -595 -539 0
-913 -826 -816 -475 0
-680 -679 -340 -309 0
-571 -508 -501 -394 0
-680 -382 -340 -309 0
-815 -789 -675 -369 -326 0
-883 -655 -513 -369 0
-667 -487 -413 -369 -326 0
-789 -667 -487 -369 -326 0
-674 -667 -487 -368 -326 0
-825 -711 -437 -413 -347 -309 0
-825 -711 -431 -347 -309 0
-674 -667 -539 -487 -326 0
-674 -667 -589 -487 -326 0
-475 -449 -431 -421 0
-826 -475 -431 -421 0
-680 -390 -340 -309 0
-555 -513 -475 -449 0
-883 -793 -655 -516 0
-628 -589 -555 -475 0
-913 -816 -782 -475 0
-913 -816 -628 -475 0
-674 -667 -589 -555 0
-825 -711 -680 -390 -309 0
-674 -667 -628 -589 -487 0
-513 -449 -431 -421 0
-883 -793 -655 -513 0
-793 -667 -487 -413 -326 0
-793 -667 -516 -487 0
-793 -674 -595 -589 0
-674 -595 -589 -539 0
-810 -755 -420 -349 0
-810 -792 -755 -437 -349 0
-810 -755 -458 -437 -349 0
-915 -810 -755 -420 0
-810 -755 -349 -274 0
-825 -719 -458 -420 -349 0
-825 -792 -719 -437 -349 0
-825 -719 -458 -437 -349 0
-915 -825 -719 -458 -420 0
-825 -755 -458 -420 -349 0
-825 -792 -755 -437 -349 0
-825 -755 -458 -437 -349 0
-915 -825 -755 -458 -420 0
-792 -730 -719 -437 -349 0
-719 -548 -458 -437 -349 0
-719 -442 -420 -349 0
-719 -458 -442 -437 -349 0
-915 -719 -442 -420 0
-810 -755 -753 -349 -315 -290 0
-810 -755 -349 -315 -290 0
-809 -734 -730 -671 -502 -366 0
-809 -749 -734 -502 -366 0
-809 -749 -502 -396 -366 0
-809 -800 -749 -396 -366 0
-755 -548 -458 -437 -349 0
-792 -734 -502 -477 -366 0
-829 -521 -491 -356 0
-792 -477 -437 -349 0
-829 -792 -671 -502 -437 0
-829 -792 -521 -437 0
-792 -730 -671 -502 -437 0
-792 -730 -671 -502 -437 -366 0
-792 -502 -477 -437 0
-820 -792 -502 -477 -366 0
-829 -792 -671 -502 -396 -366 0
-792 -730 -671 -502 -396 -366 0
-792 -502 -477 -396 -366 0
-502 -477 -366 -315 0
-829 -792 -521 -477 0
-756 -604 -596 -586 -527 0
-877 -827 -747 -711 -348 0
-830 -675 -668 -363 -352 -335 0
-830 -669 -668 -352 -335 0
-747 -711 -348 -264 0
-827 -747 -711 -348 -264 0
-830 -669 -668 -499 -352 0
-877 -858 -457 -383 0
-877 -827 -778 -707 -457 0
-844 -715 -448 -356 -280 0
-844 -715 -448 -352 -280 0
-877 -858 -778 -546 -457 0
-747 -711 -348 -293 0
-844 -747 -711 -304 -293 0
-877 -827 -457 -348 0
-669 -668 -487 -352 0
-903 -880 -844 -448 -356 -304 0
-829 -797 -671 -448 -304 0
-912 -829 -797 -671 -448 -304 0
-844 -829 -797 -671 -448 -304 0
-715 -669 -668 -499 -352 0
-844 -715 -448 -356 -284 0
-844 -715 -668 -448 -352 0
-546 -539 -464 -448 -304 0
-715 -464 -448 -413 -352 0
-829 -715 -464 -448 0
-797 -671 -464 -448 0
-546 -539 -464 -448 0
-797 -796 -715 -448 -413 -352 0
-901 -582 -499 -491 0
-844 -711 -432 -348 0
-755 -727 -675 -363 0
-675 -668 -363 -352 -316 0
-797 -796 -675 -448 -363 0
-844 -711 -348 -304 0
-912 -829 -796 -675 -671 -496 -363 -316 0
-797 -715 -671 -448 -413 -352 0
-778 -546 -539 -457 -413 0
-778 -707 -539 -457 -413 0
-715 -675 -668 -448 -363 -352 0
-715 -669 -668 -448 -352 0
-829 -797 -671 -448 -316 0
-844 -715 -711 -448 -356 0
-844 -715 -711 -448 -352 0
-912 -844 -715 -711 -448 0
-888 -857 -778 -546 -487 0
-583 -507 -494 -491 0
-901 -669 -496 -487 0
-888 -857 -603 -487 0
-844 -715 -711 -448 -348 0
-797 -671 -582 -577 -491 0
-582 -577 -499 -491 0
-912 -829 -796 -675 -671 -668 0
-825 -387 -382 -354 -340 0
-387 -382 -354 -340 0
-886 -809 -376 -298 0
-886 -376 -360 -298 0
-825 -747 -423 -347 -323 -315 0
-825 -747 -656 -347 0
-858 -827 -825 -747 -656 0
-862 -690 -674 -423 -323 -315 0
-886 -809 -396 -376 0
-886 -396 -376 -360 0
-862 -825 -690 -423 -323 -315 0
-825 -690 -423 -347 -323 -315 0
-825 -656 -468 -466 -347 0
-826 -825 -656 -469 -347 0
-825 -690 -656 -423 -347 0
-916 -830 -828 -809 -488 0
-859 -830 -685 -487 -423 0
-825 -656 -466 -382 -347 0
-886 -760 -376 -360 0
-830 -809 -760 -396 -376 0
-830 -760 -376 -359 0
-747 -354 -339 -293 0
-903 -886 -809 -760 -376 0
-858 -656 -534 -423 0
-858 -690 -674 -656 -423 0
-858 -856 -690 -656 -423 0
-825 -747 -347 -293 0
-825 -747 -347 -323 -306 -293 0
-764 -666 -306 -293 0
-809 -505 -396 -376 0
-809 -506 -396 -376 0
-506 -396 -376 -360 0
-685 -542 -423 -323 -315 0
-542 -423 -323 -315 0
-886 -809 -376 -355 0
-886 -376 -360 -355 0
-862 -825 -423 -340 -323 -315 0
-858 -827 -825 -466 -340 0
-690 -674 -423 -347 -323 -315 0
-656 -534 -423 -347 0
-656 -542 -423 -347 0
-690 -674 -656 -423 -347 0
-856 -690 -656 -423 -347 0
-859 -750 -685 -487 -423 0
-859 -685 -564 -488 -423 0
-830 -760 -685 -436 -315 0
-656 -604 -534 -423 0
-747 -355 -354 -293 0
-656 -534 -466 -423 0
-656 -542 -466 -423 0
-825 -747 -355 -293 0
-764 -666 -656 -347 -306 0
-828 -588 -488 -396 0
-747 -355 -293 -276 0
-809 -396 -376 -359 0
-656 -423 -347 -323 -306 0
-656 -423 -347 -306 0
-886 -376 -355 -293 0
-635 -604 -534 -423 0
-886 -747 -355 -293 0
-830 -760 -747 -355 -293 0
-656 -534 -449 -423 0
-656 -542 -449 -423 0
-859 -750 -690 -487 -423 0
-656 -468 -466 -347 -306 0
-656 -468 -466 -423 0
-656 -468 -466 -423 -315 0
-656 -468 -466 -449 -423 0
-826 -690 -674 -656 -469 -423 0
-723 -705 -666 -505 -396 -347 -323 -306 0
-828 -505 -488 -396 0
-825 -760 -747 -355 -293 0
-826 -776 -666 -656 -347 -306 0
-859 -534 -487 -423 0
-859 -534 -488 -423 0
-859 -690 -674 -487 -423 0
-656 -468 -466 -421 0
-468 -466 -449 -421 0
-722 -337 -336 -270 0
-773 -433 -420 -352 -270 0
-668 -368 -352 -337 -270 0
-412 -390 -373 -270 0
-773 -433 -420 -270 0
-718 -713 -663 -662 -523 -420 -379 0
-722 -668 -390 -368 -270 0
-412 -399 -390 -373 0
-517 -412 -390 -373 0
-390 -352 -337 -336 0
-390 -368 -352 -336 0
-668 -390 -368 -352 0
-773 -523 -433 -420 0
-390 -373 -280 -270 0
-390 -373 -352 -280 0
-716 -412 -373 -280 0
-468 -466 -440 -433 0
-466 -452 -440 -433 0
-412 -399 -373 -288 0
-851 -814 -662 -523 0
-851 -718 -662 -523 0
-668 -517 -508 -368 -337 0
-814 -718 -663 -662 -523 -420 -340 0
-718 -662 -523 -420 -340 0
-517 -352 -337 -336 0
-722 -668 -390 -373 -270 0
-390 -373 -352 -336 0
-668 -390 -373 -352 0
-745 -716 -412 -373 -336 0
-777 -674 -468 -466 -433 0
-674 -466 -452 -433 0
-550 -466 -452 -433 0
-530 -523 -433 -420 0
-721 -412 -399 -373 0
-721 -517 -412 -373 0
-523 -466 -433 -420 0
-777 -674 -604 -468 -466 0
-691 -674 -466 -452 0
-674 -604 -466 -452 0
-604 -550 -466 -452 0
-851 -814 -476 -399 0
-851 -814 -662 -399 0
-851 -718 -662 -399 0
-517 -508 -368 -337 0
-814 -725 -527 -486 -306 0
-517 -412 -368 -337 0
-851 -747 -745 -716 -412 -399 0
-851 -718 -412 -399 -340 0
-691 -674 -517 -452 0
-691 -674 -604 -517 -452 0
-721 -468 -412 -373 0
-468 -466 -433 -420 0
-468 -466 -452 -433 -420 0
-691 -674 -468 -452 0
-777 -691 -674 -468 0
-851 -718 -716 -412 -399 0
-691 -674 -517 -508 0
-691 -604 -517 -508 0
-814 -662 -523 -476 0
-777 -691 -674 -517 0
-777 -691 -604 -550 -517 0
-784 -725 -676 -604 -560 0
-746 -685 -648 -521 0
-746 -685 -648 -521 -481 0
-845 -769 -746 -685 -684 0
-851 -845 -769 -374 -319 0
-845 -829 -769 -314 0
-845 -829 -769 -521 0
-769 -711 -679 -378 -374 0
-919 -851 -732 -657 -648 -319 0
-746 -521 -368 -289 0
-901 -502 -487 -289 0
-901 -800 -487 -289 0
-901 -746 -521 -368 -289 0
-746 -685 -648 -319 0
-769 -684 -648 -411 -319 0
-829 -769 -684 -648 -319 0
-919 -648 -435 -420 -319 0
-851 -411 -374 -319 0
-851 -769 -411 -374 -319 0
-746 -368 -319 -289 0
-901 -502 -487 -319 -289 0
-908 -901 -749 -502 -368 0
-908 -901 -800 -749 -368 0
-769 -684 -648 -344 -319 0
-829 -769 -344 -314 0
-829 -769 -746 -521 -344 0
-871 -851 -813 -769 -684 -648 0
-851 -813 -769 -684 -648 -319 0
-829 -769 -746 -521 -368 0
-919 -746 -685 -521 -435 0
-861 -690 -534 -435 0
-871 -851 -769 -679 -648 -374 -319 0
-769 -684 -648 -374 -319 0
-908 -769 -685 -684 -374 0
-848 -769 -685 -684 -374 0
-769 -746 -685 -684 -374 0
-829 -769 -374 -314 0
-829 -769 -746 -521 -374 0
-908 -769 -685 -684 -411 -374 0
-769 -711 -684 -648 -374 0
-708 -674 -534 -468 0
-851 -769 -685 -648 -374 -319 0
-901 -746 -521 -502 -368 0
-851 -769 -685 -684 -374 -319 0
-851 -813 -769 -685 -684 -374 -319 0
-590 -589 -558 -550 0
-851 -747 -656 -363 -349 -330 0
-851 -755 -747 -656 -349 0
-403 -390 -363 -356 0
-536 -431 -418 -381 0
-858 -761 -656 -381 0
-403 -393 -356 -280 0
-858 -536 -431 -418 0
-858 -761 -656 -551 0
-858 -761 -656 -543 0
-858 -656 -530 -418 0
-851 -761 -656 -363 -349 -330 0
-851 -761 -755 -656 -349 0
-851 -755 -656 -418 -349 0
-560 -502 -363 -330 0
-793 -757 -502 -424 -363 -330 0
-518 -424 -360 -337 -330 0
-859 -799 -366 -330 0
-516 -502 -366 -330 0
-761 -755 -656 -551 -349 0
-543 -424 -360 -349 -337 -330 0
-761 -656 -543 -349 0
-761 -656 -543 -518 -349 0
-656 -530 -418 -349 0
-429 -424 -360 -349 -337 -330 0
-761 -551 -536 -431 -418 0
-551 -536 -431 -418 0
-782 -761 -656 -543 0
-656 -555 -530 -418 0
-858 -761 -656 -459 0
-536 -459 -431 -418 0
-851 -755 -403 -349 0
-851 -755 -403 -363 -349 0
-403 -363 -349 -330 0
-516 -502 -396 -366 0
-749 -618 -502 -396 -366 0
-656 -418 -363 -349 -330 0
-516 -502 -424 -366 0
-555 -530 -468 -307 0
-793 -757 -560 -502 -424 0
-851 -755 -403 -356 0
-403 -363 -356 -330 0
-761 -650 -536 -516 -502 -424 0
-793 -757 -518 -502 -424 0
-555 -530 -492 -468 0
-859 -799 -782 -625 -543 -518 0
-761 -656 -551 -530 -418 0
-579 -555 -492 -468 0
-778 -761 -555 -536 0
-859 -516 -502 -366 0
-778 -761 -555 -530 0
-516 -502 -366 -337 0
-905 -755 -689 -435 -306 -270 0
-905 -885 -685 -270 0
-905 -878 -685 -270 0
-905 -746 -685 -270 0
-905 -832 -822 -689 -435 0
-905 -885 -685 -517 0
-905 -878 -685 -524 0
-904 -858 -692 -550 0
-725 -698 -399 -366 -288 0
-851 -832 -822 -755 -689 -666 -525 0
-851 -775 -666 -468 0
-851 -775 -666 -525 0
-851 -775 -666 -468 -333 0
-775 -755 -666 -590 -525 0
-905 -746 -685 -436 0
-885 -792 -746 -436 0
-885 -792 -517 -436 0
-746 -685 -436 -414 0
-905 -885 -756 -685 -435 0
-905 -878 -756 -685 -435 0
-822 -689 -583 -524 -435 0
-832 -822 -689 -525 -435 0
-851 -775 -666 -399 0
-832 -725 -698 -399 0
-792 -755 -689 -666 -435 -414 0
-775 -666 -590 -540 -525 0
-621 -570 -476 -366 0
-832 -822 -725 -583 -524 -366 0
-755 -689 -435 -414 -306 0
-885 -792 -517 -480 0
-904 -692 -550 -449 0
-851 -666 -480 -399 0
-832 -725 -698 -525 0
-570 -503 -476 -366 0
-864 -762 -755 -666 -436 -414 -306 0
-864 -762 -666 -436 -414 -306 0
-832 -570 -531 -525 0
-832 -822 -621 -583 -570 -524 0
-925 -919 -894 -878 -810 0
-734 -352 -337 -277 0
-734 -360 -352 -277 0
-828 -734 -352 -277 0
-360 -319 -289 -277 0
-894 -872 -829 -734 -504 -337 0
-925 -919 -894 -878 -519 0
-894 -829 -734 -383 -352 -337 0
-858 -466 -447 -383 0
-760 -734 -680 -352 -277 0
-760 -680 -319 -277 0
-858 -466 -447 -328 0
-519 -360 -337 -289 0
-829 -734 -698 -504 -337 -289 0
-829 -817 -760 -653 -319 -277 0
-360 -337 -319 -289 0
-760 -694 -319 -292 -277 0
-810 -760 -694 -319 -292 -277 0
-829 -734 -698 -504 -352 -337 0
-760 -680 -352 -304 -277 0
-878 -841 -721 -690 -304 0
-858 -466 -447 -434 0
-814 -466 -447 -328 0
-471 -466 -447 -328 0
-813 -736 -721 -504 -447 0
-814 -504 -447 -328 0
-814 -476 -447 -328 0
-870 -690 -570 -500 -476 0
-826 -713 -537 -471 -420 0
-832 -822 -814 -504 -420 0
-832 -822 -570 -504 -420 0
-870 -690 -570 -537 -476 0
-829 -504 -360 -337 0
-829 -828 -504 -337 0
-870 -749 -690 -570 -537 0
-829 -813 -734 -504 -337 -289 0
-829 -814 -504 -328 0
-913 -610 -590 -551 0
-832 -829 -822 -570 -504 0
-829 -504 -476 -337 0
-829 -814 -504 -337 0
-832 -829 -570 -504 -337 0
-392 -357 -330 -298 -290 0
-770 -392 -357 -330 -290 0
-696 -398 -392 -357 -330 0
-839 -814 -703 -492 -452 -324 0
-392 -389 -344 -298 0
-778 -452 -439 -431 -413 -347 0
-863 -814 -767 -492 -452 0
-767 -649 -413 -357 -330 -290 0
-411 -357 -330 -290 0
-814 -770 -492 -290 0
-814 -770 -476 -290 0
-814 -770 -324 -290 0
-799 -767 -649 -413 -357 -324 0
-492 -452 -413 -347 0
-768 -541 -347 -324 0
-769 -696 -398 -357 -330 0
-814 -767 -492 -452 -324 0
-799 -767 -588 -413 -324 0
-772 -769 -696 -357 -330 0
-814 -770 -413 -324 0
-814 -770 -768 -324 0
-814 -778 -558 -492 -452 0
-814 -492 -452 -413 0
-814 -768 -541 -324 0
-814 -778 -492 -452 -324 0
-799 -588 -413 -324 0
-570 -492 -452 -413 0
-778 -558 -551 -541 -452 -413 0
-799 -452 -413 -324 0
-691 -570 -517 -492 -452 0
-691 -599 -570 -492 -452 0
-863 -826 -767 -545 -469 -452 0
-814 -768 -761 -492 -324 0
-768 -541 -476 -324 0
-492 -452 -413 -324 0
-882 -743 -691 -570 -492 0
-691 -570 -517 -492 0
-691 -570 -519 -492 0
-775 -492 -452 -413 0
-691 -570 -517 -476 0
-571 -570 -500 -476 0
-814 -768 -492 -452 -324 0
-691 -570 -519 -476 0
-691 -570 -519 -491 0
-768 -691 -570 -476 -324 0
-680 -393 -309 -262 0
-877 -719 -461 -445 -268 0
-719 -689 -413 -268 0
-856 -719 -690 -689 -437 -413 0
-830 -760 -393 -387 -344 0
-852 -830 -760 -680 -300 0
-830 -760 -682 -680 -300 0
-760 -682 -680 -300 0
-863 -861 -690 -667 -535 0
-680 -393 -350 -309 0
-867 -667 -535 -289 0
-867 -749 -667 -566 -289 0
-385 -350 -319 -309 -268 0
-719 -689 -326 -319 -268 0
-867 -779 -326 -319 -289 0
-867 -822 -779 -319 -289 0
-736 -718 -385 -339 -309 -268 0
-852 -830 -760 -344 -300 0
-852 -830 -760 -680 -393 0
-867 -690 -667 -535 -437 0
-690 -535 -476 -437 0
-867 -667 -535 -437 -411 0
-760 -682 -680 -309 0
-680 -403 -393 -309 0
-736 -655 -403 -309 0
-736 -655 -411 -309 0
-861 -779 -667 -535 -437 -411 0
-867 -861 -690 -667 -535 0
-861 -779 -690 -667 -535 0
-861 -749 -690 -667 -535 0
-861 -690 -535 -476 0
-655 -535 -476 -403 -326 0
-680 -385 -350 -309 0
-875 -680 -350 -309 0
-863 -736 -719 -718 -309 -268 0
-779 -690 -535 -476 -326 0
-690 -535 -476 -326 0
-604 -535 -476 -326 0
-867 -667 -535 -511 -411 0
-690 -535 -437 -413 0
-861 -535 -475 -449 -437 -411 0
-760 -680 -350 -309 0
-861 -604 -535 -475 -437 -411 0
-861 -690 -667 -535 -475 0
-655 -535 -511 -476 -403 0
-867 -779 -511 -326 0
-867 -822 -779 -511 0
-736 -718 -662 -655 -411 0
-779 -667 -535 -411 -326 0
-822 -779 -667 -535 -411 0
-749 -667 -583 -566 -476 0
-604 -587 -535 -476 0
-610 -604 -535 -476 0
-830 -736 -718 -655 -649 -437 -411 0
-861 -690 -554 -535 -475 0
-749 -742 -610 -604 0
-779 -667 -535 -413 -326 0
-894 -767 -747 -352 -327 0
-497 -403 -335 -288 0
-858 -431 -383 -274 0
-403 -393 -387 -314 -263 0
-894 -789 -767 -383 -352 0
-904 -858 -767 -413 -383 -352 0
-904 -858 -767 -413 -383 0
-858 -445 -431 -383 0
-858 -431 -418 -383 0
-894 -767 -438 -383 -352 0
-858 -596 -522 -431 -418 0
-894 -747 -393 -352 -327 0
-747 -393 -383 -274 0
-398 -376 -360 -286 0
-779 -723 -661 -513 -489 0
-747 -393 -274 -263 0
-904 -894 -767 -449 -352 -327 0
-894 -789 -767 -352 -327 0
-894 -789 -352 -327 -326 0
-779 -734 -723 -489 -352 0
-867 -779 -734 -723 -489 -352 0
-779 -489 -413 -352 -326 0
-789 -767 -522 -352 0
-779 -489 -352 -326 0
-789 -522 -352 -326 0
-403 -393 -376 -314 0
-885 -797 -793 -448 -304 0
-789 -767 -590 -522 0
-844 -513 -448 -403 -393 0
-867 -779 -513 -489 0
-867 -789 -779 -522 -326 0
-867 -734 -723 -497 -360 0
-789 -779 -590 -522 -326 0
-398 -376 -360 -314 0
-789 -590 -522 -326 0
-403 -376 -360 -314 0
-779 -513 -489 -413 -326 0
-789 -610 -590 -522 0
-747 -403 -393 -376 -314 0
-844 -497 -448 -403 -393 0
-596 -522 -449 -418 0
-797 -793 -661 -595 -448 0
-867 -779 -497 -314 0
-867 -779 -497 -489 0
-867 -779 -497 -326 0
-793 -595 -567 -497 -489 0
-797 -708 -662 -449 -418 0
-662 -513 -448 -418 0
-662 -596 -522 -489 -418 0
-497 -376 -360 -314 0
-662 -513 -449 -418 0
-595 -567 -513 -489 0
-595 -567 -539 -513 -489 0
-797 -793 -779 -489 -413 -326 0
-797 -793 -662 -489 -418 0
-724 -677 -670 -571 -567 0
-885 -797 -793 -708 -662 0
-885 -797 -793 -779 -489 -326 0
-773 -731 -301 -270 0
-789 -773 -731 -270 0
-773 -731 -315 -270 0
-789 -773 -731 -527 0
-792 -791 -773 -731 -477 0
-792 -791 -773 -731 -691 0
-899 -770 -667 -290 0
-770 -722 -667 -336 -290 0
-503 -366 -336 -315 0
-815 -792 -791 -731 -667 -477 0
-792 -791 -731 -667 -577 -477 0
-792 -791 -731 -691 -577 0
-829 -769 -511 -394 0
-778 -546 -457 -433 0
-778 -546 -457 -433 -413 0
-899 -826 -778 -546 -457 0
-829 -792 -511 -394 0
-667 -577 -511 -394 0
-792 -691 -577 -511 -394 0
-899 -770 -667 -523 0
-876 -785 -503 -398 0
-792 -769 -477 -344 -328 0
-789 -731 -527 -315 0
-503 -483 -366 -315 0
-792 -791 -731 -477 -413 0
-778 -546 -477 -457 -413 0
-778 -667 -546 -477 -457 0
-899 -778 -667 -546 -457 0
-778 -604 -546 -457 0
-792 -769 -477 -350 -328 0
-778 -667 -567 -546 -477 0
-899 -778 -667 -567 -546 0
-778 -604 -567 -546 0
-899 -770 -667 -511 0
-829 -691 -604 -546 -511 0
-829 -792 -511 -477 0
-829 -792 -546 -511 0
-667 -577 -511 -477 0
-899 -667 -577 -511 0
-876 -785 -604 -567 0
-876 -785 -567 -503 0
-899 -778 -558 -546 -523 0
-792 -791 -731 -477 -315 0
-792 -791 -731 -477 -328 0
-829 -792 -477 -328 0
-792 -691 -577 -546 0
-667 -577 -546 -477 0
-667 -577 -567 -546 -477 0
-899 -667 -577 -546 0
-691 -604 -577 -546 0
-604 -577 -567 -546 0
-778 -604 -558 -546 0
-899 -829 -792 -546 -523 0
-899 -667 -577 -523 0
-785 -639 -604 -567 0
-785 -639 -624 -567 0
-899 -792 -691 -546 -523 0
-899 -691 -604 -546 -523 0
-811 -663 -353 -333 0
-663 -379 -353 -333 0
-689 -666 -353 -333 -325 0
-810 -708 -666 -661 -466 -333 0
-666 -333 -325 -274 0
-734 -648 -481 -337 0
-773 -767 -689 -513 -325 0
-773 -689 -513 -325 0
-878 -859 -773 -689 -537 0
-769 -682 -680 -679 -337 0
-769 -734 -684 -680 -648 0
-769 -734 -680 -648 -346 0
-769 -682 -680 -314 0
-769 -682 -680 -337 0
-773 -734 -648 -444 -337 0
-773 -767 -689 -444 -325 0
-773 -767 -444 -414 0
-878 -773 -767 -444 0
-773 -689 -444 -325 0
-859 -773 -689 -444 0
-767 -689 -466 -444 -325 0
-767 -466 -444 -414 0
-878 -767 -466 -444 0
-661 -466 -440 -429 0
-666 -333 -325 -293 0
-812 -767 -689 -666 -466 -325 0
-561 -504 -363 -289 0
-734 -481 -337 -289 0
-867 -708 -666 -504 -289 0
-867 -500 -487 -289 0
-888 -867 -749 -500 -289 0
-811 -663 -419 -333 0
-773 -689 -666 -429 -333 -325 0
-767 -689 -666 -333 -325 0
-666 -419 -333 -325 0
-867 -749 -734 -618 -500 -289 0
-734 -648 -346 -337 0
-909 -878 -859 -769 -690 -346 0
-867 -734 -682 -504 -337 -289 0
-867 -734 -682 -500 -337 -289 0
-773 -689 -429 -419 -325 0
-878 -859 -773 -689 -429 0
-690 -661 -466 -429 0
-661 -513 -466 -429 0
-767 -689 -661 -513 -325 0
-888 -878 -859 -767 -589 -487 0
-767 -689 -513 -466 -325 0
-690 -661 -537 -466 0
-708 -666 -661 -504 -466 0
-708 -666 -661 -466 -325 0
-504 -400 -363 -289 0
-888 -867 -589 -513 -500 -487 0
-734 -363 -337 -289 0
-867 -500 -487 -363 0
-867 -500 -487 -363 -325 0
-561 -504 -487 -363 0
-767 -690 -689 -666 -325 0
-708 -666 -590 -589 -325 0
-590 -589 -513 -325 0
-888 -878 -859 -843 -599 -487 0
-878 -859 -690 -661 -487 0
-708 -666 -661 -561 -504 0
-661 -561 -513 -487 -325 0
-708 -666 -590 -589 -504 0
-767 -689 -666 -504 -414 -325 0
-666 -504 -419 -325 0
-561 -504 -487 -419 -325 0
-888 -589 -500 -487 0
-888 -749 -589 -500 0
-812 -772 -769 -666 -346 -325 0
-590 -589 -513 -487 -325 0
-767 -690 -689 -513 -325 0
-878 -767 -661 -513 -466 0
-878 -690 -661 -513 0
-690 -661 -537 -513 0
-561 -513 -487 -325 0
-909 -769 -682 -661 -513 -325 0
-708 -666 -589 -561 -504 0
-878 -859 -561 -537 -487 0
-767 -689 -661 -513 -466 -419 0
-690 -661 -513 -419 0
-690 -661 -513 -419 -325 0
-888 -843 -599 -583 0
-788 -747 -711 -433 -328 0
-885 -685 -648 -516 0
-779 -685 -648 -489 -326 0
-697 -685 -648 -491 -326 0
-885 -685 -648 -386 0
-685 -648 -386 -326 0
-685 -648 -413 -386 -326 0
-898 -885 -690 -436 -386 0
-779 -685 -684 -489 -326 0
-920 -885 -867 -723 -685 -671 0
-788 -433 -413 -328 -327 0
-523 -489 -328 -327 0
-888 -779 -685 -489 -326 0
-684 -682 -436 -313 0
-685 -684 -436 -326 0
-898 -885 -690 -516 -436 0
-904 -692 -550 -433 0
-904 -657 -542 -433 0
-844 -684 -682 -436 -300 0
-898 -885 -733 -710 -516 0
-898 -885 -690 -516 0
-867 -779 -523 -489 0
-867 -797 -671 -578 -489 0
-844 -788 -711 -433 -328 0
-867 -797 -671 -489 -370 0
-885 -685 -516 -370 -326 0
-888 -857 -779 -550 -489 0
-904 -788 -692 -433 -328 0
-888 -779 -624 -489 -326 0
-779 -523 -489 -413 -326 0
-844 -711 -436 -340 0
-844 -711 -648 -436 -386 0
-844 -788 -711 -436 -328 0
-885 -779 -685 -516 -489 -326 0
-885 -697 -685 -516 -491 -326 0
-857 -782 -635 -550 0
-888 -857 -578 -550 -489 0
-888 -857 -578 -550 0
-920 -885 -797 -708 -516 0
-920 -797 -779 -489 -413 -326 0
-888 -779 -571 -500 -489 0
-920 -885 -797 -516 -489 0
-844 -811 -712 -711 -353 0
-811 -712 -711 -353 0
-832 -734 -731 -722 -413 -324 0
-734 -731 -722 -486 -413 -324 0
-734 -731 -722 -476 -324 0
-832 -734 -731 -722 -324 0
-734 -731 -722 -486 -324 0
-734 -722 -697 -486 0
-723 -722 -697 -486 0
-734 -723 -682 -397 -392 -337 0
-734 -697 -682 -392 -337 0
-682 -392 -360 -337 0
-468 -340 -328 -268 0
-845 -731 -437 -303 0
-845 -437 -413 -303 0
-896 -731 -570 -504 -437 -411 0
-845 -734 -731 -437 -360 0
-845 -734 -731 -697 -437 0
-845 -731 -437 -324 0
-845 -437 -413 -324 0
-720 -504 -437 -411 0
-844 -711 -694 -292 0
-723 -697 -586 -486 0
-340 -328 -319 -268 0
-734 -731 -570 -504 -476 -324 0
-734 -731 -570 -476 -324 0
-832 -734 -731 -570 -324 0
-734 -731 -568 -486 -324 0
-734 -723 -682 -505 -397 -337 0
-731 -619 -570 -504 -437 -411 0
-832 -814 -731 -586 -324 0
-870 -831 -735 -731 -570 -476 -324 0
-897 -870 -731 -570 -476 -324 0
-832 -731 -586 -324 0
-731 -586 -486 -324 0
-832 -731 -437 -413 -324 0
-731 -476 -437 -324 0
-832 -731 -437 -324 0
-731 -486 -437 -324 0
-789 -476 -458 -437 -324 0
-832 -789 -458 -437 -324 0
-920 -909 -504 -476 -437 0
-832 -437 -413 -324 0
-832 -570 -437 -413 -324 0
-486 -437 -413 -324 0
-845 -844 -734 -731 -437 0
-909 -814 -731 -705 -437 -324 0
-909 -814 -705 -437 -413 -324 0
-909 -897 -832 -458 -413 -324 0
-909 -897 -486 -458 -413 -324 0
-720 -548 -463 -458 -437 0
-811 -712 -711 -694 -328 0
-811 -712 -711 -694 0
-844 -711 -694 -340 0
-844 -811 -711 -694 0
-723 -697 -486 -397 0
-519 -397 -360 -337 0
-832 -734 -731 -413 -360 -324 0
-734 -731 -476 -360 -324 0
-832 -734 -731 -360 -324 0
-734 -731 -486 -360 -324 0
-832 -814 -596 -586 0
-814 -530 -418 -324 0
-814 -548 -504 -458 -437 -411 0
-845 -844 -711 -340 -303 0
-832 -596 -586 -324 0
-734 -731 -437 -411 -337 0
-734 -731 -437 -411 -360 0
-731 -437 -411 -324 0
-832 -586 -413 -324 0
-586 -486 -413 -324 0
-897 -870 -570 -458 -413 0
-845 -844 -711 -437 -340 0
-619 -570 -504 -458 -437 -411 0
-586 -486 -458 -413 -324 0
-897 -870 -570 -476 -458 0
-845 -844 -731 -711 -437 0
-814 -504 -468 -328 0
-814 -476 -468 -328 0
-897 -832 -570 -458 -413 -324 0
-783 -548 -504 -458 -437 -411 0
-814 -504 -413 -324 0
-814 -504 -418 -324 0
-814 -789 -504 -324 0
-832 -731 -570 -504 -413 -324 0
-832 -570 -504 -413 -324 0
-832 -789 -570 -504 -324 0
-814 -504 -476 -418 -324 0
-504 -476 -418 -324 0
-789 -504 -476 -324 0
-814 -504 -411 -328 0
-814 -504 -411 -324 0
-530 -476 -418 -324 0
-832 -608 -596 -586 0
-570 -548 -504 -458 -437 -411 0
-920 -814 -731 -504 -437 -324 0
-920 -870 -570 -476 -418 -324 0
-920 -870 -789 -570 -476 -324 0
-920 -870 -832 -789 -570 -324 0
-586 -574 -568 -486 0
-832 -596 -586 -570 0
-870 -789 -570 -476 -458 -324 0
-867 -665 -497 -289 0
-867 -671 -665 -655 -289 0
-883 -844 -447 -380 -305 -268 0
-844 -655 -380 -305 -268 0
-844 -393 -380 -305 0
-883 -844 -447 -380 -305 0
-844 -655 -380 -305 0
-658 -647 -380 -305 -268 0
-844 -393 -305 -266 0
-867 -674 -671 -655 -289 0
-883 -867 -671 -655 -289 0
-883 -844 -447 -393 -266 0
-832 -815 -731 -726 -579 0
-859 -815 -731 -697 -491 -437 0
-859 -731 -697 -491 -437 -420 0
-832 -815 -731 -726 -437 -329 0
-859 -731 -697 -491 -437 0
-884 -883 -867 -666 -447 0
-867 -497 -360 -289 0
-902 -867 -671 -360 -289 0
-867 -671 -655 -360 -289 0
-884 -883 -815 -666 -447 -329 0
-832 -815 -726 -579 -329 0
-731 -447 -437 -420 0
-731 -447 -437 -329 0
-859 -731 -447 -437 0
-909 -885 -883 -706 -447 0
-883 -674 -539 -447 0
-909 -883 -731 -437 -329 0
-883 -859 -731 -447 -437 0
-902 -883 -674 -671 -497 0
-884 -867 -859 -815 -497 0
-884 -867 -859 -815 -731 -497 0
-902 -674 -631 -619 -539 0
-909 -731 -666 -658 -655 -437 0
-909 -883 -731 -666 -658 -437 0
-909 -883 -731 -666 -658 -655 -437 0
-902 -857 -674 -631 -619 0
-648 -349 -335 -325 0
-685 -648 -335 -316 0
-899 -648 -349 -325 0
-648 -487 -349 -325 0
-685 -648 -521 -316 0
-436 -374 -303 -266 0
-436 -403 -374 -303 0
-719 -657 -656 -541 0
-804 -803 -729 -719 -656 0
-719 -442 -421 -348 0
-719 -442 -423 -349 0
-719 -657 -656 -348 0
-657 -656 -541 -349 0
-588 -487 -349 -325 0
-522 -487 -349 -325 0
-684 -648 -436 -349 -325 0
-804 -803 -729 -656 -570 0
-684 -436 -392 -374 -284 0
-901 -800 -594 -570 -487 0
-901 -793 -757 -729 -698 0
-793 -698 -521 -496 -316 0
-541 -522 -487 -325 0
-684 -436 -392 -374 -266 0
-685 -684 -436 -374 -266 0
-684 -668 -648 -436 -374 0
-685 -684 -668 -436 -374 0
-685 -684 -447 -436 -423 0
-803 -650 -545 -475 -447 -423 0
-849 -816 -729 -664 -475 0
-729 -664 -570 -475 0
-901 -793 -698 -570 -496 0
-793 -698 -570 -496 0
-816 -800 -729 -570 -487 0
-851 -716 -403 -392 -335 0
-729 -664 -570 -487 0
-816 -664 -657 -541 -475 0
-657 -545 -541 -475 0
-570 -541 -522 -487 0
-729 -664 -609 -570 0
-899 -793 -570 -521 0
-899 -756 -729 -570 -521 0
-899 -594 -570 -521 0
-793 -570 -521 -487 0
-594 -570 -521 -487 0
-594 -588 -570 -487 0
-594 -570 -522 -487 0
-901 -375 -289 -287 0
-894 -810 -408 -347 -328 0
-919 -894 -885 -810 -437 -357 0
-736 -419 -354 -328 -269 0
-894 -668 -512 -324 0
-894 -697 -668 -390 -345 0
-736 -393 -354 -347 -328 0
-772 -736 -393 -347 -328 0
-668 -512 -324 -289 0
-832 -668 -324 -289 0
-901 -808 -577 -516 -289 0
-901 -808 -577 -570 -289 0
-901 -503 -289 -287 0
-901 -697 -289 -287 0
-832 -668 -570 -539 -324 0
-894 -668 -345 -324 0
-919 -894 -721 -437 -347 -328 0
-679 -393 -354 -269 0
-668 -394 -324 -289 0
-697 -668 -394 -289 0
-901 -808 -577 -570 -539 0
-832 -570 -504 -364 -324 0
-885 -539 -450 -437 -357 0
-736 -721 -512 -450 -437 -328 0
-668 -394 -314 -289 0
-832 -768 -570 -504 -324 0
-901 -808 -577 -516 -503 0
-901 -808 -577 -570 -503 0
-901 -808 -785 -614 -503 0
-736 -721 -437 -345 -328 0
-736 -721 -437 -357 -328 0
-878 -761 -577 -548 -539 -516 0
-878 -761 -570 -548 -539 0
-736 -721 -437 -347 -328 0
-920 -885 -832 -570 -504 -324 0
-885 -832 -570 -539 -324 0
-832 -768 -570 -539 -324 0
-878 -832 -570 -539 -324 0
-680 -389 -304 -262 0
-810 -755 -529 -482 -366 -324 0
-810 -789 -755 -324 0
-830 -682 -390 -313 0
-816 -660 -656 -550 -450 0
-680 -389 -355 -313 0
-725 -696 -561 -366 0
-789 -755 -540 -324 0
-755 -529 -482 -366 -351 -324 0
-789 -755 -351 -324 0
-830 -682 -390 -304 0
-680 -389 -355 -304 0
-792 -721 -414 -304 0
-869 -793 -792 -721 -304 0
-900 -852 -830 -680 -390 0
-869 -793 -792 -721 -313 0
-826 -816 -656 -550 -450 0
-789 -770 -755 -666 -324 0
-770 -666 -662 -512 0
-499 -482 -395 -371 0
-826 -811 -431 -408 0
-832 -820 -792 -789 -650 -324 0
-789 -656 -540 -450 0
-882 -789 -661 -656 -482 -450 0
-869 -770 -666 -662 0
-869 -770 -666 -313 0
-725 -561 -482 -366 0
-789 -540 -512 -324 0
-832 -789 -540 -512 -324 0
-832 -725 -561 -512 0
-746 -734 -722 -483 0
-814 -722 -675 -477 0
-899 -814 -722 -675 0
-830 -769 -764 -722 -319 -293 0
-901 -830 -800 -722 -675 0
-830 -746 -734 -483 0
-898 -845 -792 -691 -386 0
-898 -845 -458 -413 -386 0
-845 -769 -764 -386 -293 0
-869 -845 -769 -386 0
-881 -875 -467 -463 0
-845 -769 -764 -370 -319 -293 0
-845 -792 -769 -691 -519 0
-881 -528 -467 -463 0
-830 -722 -682 -319 -293 0
-845 -844 -764 -304 -293 0
-883 -844 -764 -528 -293 0
-844 -764 -304 -293 0
-898 -814 -792 -675 -477 0
-899 -814 -675 -528 0
-814 -727 -675 -522 0
-830 -722 -682 -319 -313 0
-839 -722 -689 -413 -319 0
-844 -764 -319 -304 -293 0
-814 -675 -477 -319 0
-899 -814 -675 -319 0
-814 -727 -675 -319 0
-898 -845 -458 -413 -304 0
-898 -878 -845 -458 -304 0
-869 -844 -764 -304 0
-901 -830 -802 -769 -734 -682 0
-830 -769 -734 -682 -370 0
-844 -830 -769 -734 -682 0
-869 -844 -764 -313 0
-898 -792 -691 -519 0
-898 -878 -519 -458 0
-899 -528 -467 -463 0
-746 -734 -483 -370 0
-899 -814 -528 -467 0
-830 -734 -682 -370 -313 0
-830 -769 -764 -734 -682 -293 0
-727 -689 -522 -413 0
-899 -727 -689 -579 -413 0
-859 -689 -522 -413 0
-830 -802 -769 -764 -734 -682 0
-898 -883 -878 -859 -458 0
-883 -792 -691 -519 0
-877 -689 -467 -463 -413 0
-899 -579 -528 -467 0
-883 -869 -844 -769 -682 -528 0
-898 -883 -869 -792 -769 -528 0
-814 -727 -689 -477 -413 0
-814 -727 -522 -477 0
-769 -764 -682 -319 -293 0
-898 -883 -528 -458 -413 0
-883 -792 -691 -528 0
-883 -792 -530 -528 0
-877 -381 -347 -269 0
-399 -390 -344 -293 0
-877 -456 -381 -347 0
-877 -457 -381 -347 0
-773 -661 -492 -347 -306 0
-790 -773 -492 -347 -306 0
-430 -390 -344 -293 0
-694 -655 -492 -306 -293 0
-829 -671 -399 -368 -330 -316 0
-399 -344 -314 -293 0
-829 -694 -655 -344 -316 0
-877 -545 -457 -347 0
-877 -553 -457 -347 0
-664 -661 -609 -492 -347 -306 0
-773 -430 -347 -306 0
-773 -492 -430 -347 -306 0
-430 -390 -344 -309 0
-773 -430 -347 -309 0
-694 -655 -492 -347 -306 0
-671 -655 -492 -399 0
-694 -655 -492 -344 -306 0
-814 -664 -661 -609 -492 0
-814 -664 -661 -609 -492 -306 0
-909 -790 -773 -655 -347 -306 0
-877 -456 -347 -306 0
-877 -457 -347 -306 0
-773 -711 -430 -309 -269 0
-829 -655 -368 -316 0
-711 -430 -392 -390 -309 0
-814 -725 -661 -574 -492 0
-829 -655 -492 -314 0
-829 -535 -492 -314 0
-829 -535 -476 -314 0
-877 -655 -492 -347 -306 0
-814 -725 -664 -661 -492 0
-829 -814 -655 -492 -306 0
-829 -655 -492 -306 0
-829 -701 -671 -368 -316 0
-829 -655 -492 -316 0
-814 -725 -582 -574 -492 0
-725 -604 -574 -535 -476 0
-725 -583 -574 -486 0
-829 -814 -655 -492 -316 0
-725 -582 -574 -476 0
-725 -582 -574 -486 0
-825 -747 -432 -350 0
-825 -788 -747 -432 0
-871 -721 -661 -374 -327 0
-374 -327 -304 -274 0
-769 -680 -355 -263 0
-825 -438 -432 -383 -350 0
-871 -839 -352 -336 -313 -290 0
-825 -775 -350 -327 -290 0
-721 -374 -327 -290 0
-374 -327 -304 -290 0
-355 -336 -313 -297 0
-871 -839 -721 -374 -352 -327 0
-517 -352 -336 -313 0
-859 -697 -482 -423 -352 0
-721 -661 -450 -423 -304 0
-869 -769 -721 -517 0
-826 -589 -550 -475 0
-769 -374 -355 -327 0
-800 -750 -677 -397 0
-800 -750 -697 -625 0
-871 -839 -374 -352 -327 -304 0
-825 -374 -350 -327 -304 0
-825 -788 -374 -327 -304 0
-825 -788 -721 -374 -327 -304 0
-769 -684 -374 -327 -274 0
-589 -550 -512 -450 0
-859 -697 -661 -482 -450 -423 0
-859 -697 -661 -501 -482 -450 -423 0
-589 -550 -512 -475 0
-832 -589 -550 -475 0
-625 -589 -550 -475 0
-800 -750 -677 -625 0
-800 -750 -677 -578 0
-825 -788 -769 -374 -327 0
-800 -750 -697 -482 0
-885 -800 -746 -697 -517 0
-769 -684 -374 -352 -327 0
-885 -746 -535 -482 0
-825 -769 -684 -374 -327 0
-913 -832 -750 -589 -550 0
-404 -396 -376 -366 -357 -315 0
-885 -648 -357 -320 0
-791 -648 -458 -413 -357 -320 0
-648 -357 -320 -313 0
-851 -374 -328 -320 0
-851 -797 -708 -374 -320 0
-851 -814 -328 -320 0
-851 -374 -320 -267 0
-851 -814 -320 -267 0
-734 -392 -366 -357 0
-392 -366 -357 -315 0
-648 -511 -357 -313 0
-885 -773 -756 -648 -357 0
-773 -768 -689 -523 0
-773 -768 -689 -442 0
-773 -732 -689 -458 -442 0
-734 -648 -366 -320 -294 0
-851 -648 -374 -357 -320 -271 0
-851 -773 -648 -374 -320 -271 0
-876 -396 -376 -366 -357 -315 0
-851 -797 -648 -374 -357 -320 0
-734 -496 -366 -357 0
-906 -706 -396 -366 -357 -315 0
-876 -833 -785 -396 0
-734 -366 -357 -313 0
-885 -756 -527 -357 -315 0
-791 -511 -458 -413 -357 -313 0
-546 -477 -458 -413 0
-703 -689 -511 -496 -413 -396 -366 0
-791 -546 -477 -458 -357 -313 0
-756 -620 -595 -567 -527 0
-906 -864 -814 -797 -706 -477 -357 -315 0
-768 -732 -546 -523 -458 0
-666 -334 -327 -320 0
-899 -666 -327 -320 -293 0
-746 -734 -665 -527 -490 0
-734 -697 -665 -490 0
-800 -734 -697 -665 0
-734 -697 -665 -392 0
-788 -688 -327 -320 -293 0
-788 -688 -647 -363 -327 -293 0
-788 -688 -327 -293 0
-666 -334 -327 -293 0
-694 -666 -655 -334 -293 0
-666 -406 -334 -327 0
-437 -413 -346 -324 0
-885 -746 -734 -731 -516 -437 0
-490 -437 -413 -324 0
-666 -655 -406 -334 0
-761 -707 -539 -475 -466 0
-761 -540 -475 -466 0
-511 -397 -360 -318 0
-527 -490 -413 -324 0
-885 -674 -655 -539 -359 -318 0
-674 -655 -539 -527 -490 0
-761 -707 -610 -587 -475 0
-885 -746 -697 -516 -490 0
-674 -539 -527 -490 0
-777 -674 -539 -527 0
-777 -674 -595 -539 0
-777 -707 -610 -539 -516 0
-800 -749 -595 -516 -490 0
-624 -610 -606 -587 0
-707 -610 -595 -539 0
-800 -749 -595 -527 -490 0
-636 -624 -595 -587 0
-830 -685 -335 -315 0
-810 -788 -755 -407 0
-905 -894 -885 -810 -685 0
-894 -885 -810 -685 -668 0
-775 -711 -407 -269 0
-905 -894 -885 -793 -685 0
-905 -894 -885 -792 -685 -477 0
-894 -859 -668 -526 0
-894 -885 -685 -668 -529 0
-905 -894 -755 -666 -477 0
-905 -894 -792 -776 -755 -666 0
-905 -894 -859 -668 -526 0
-905 -859 -685 -668 -526 0
-905 -878 -685 -529 0
-905 -894 -776 -755 -666 -653 0
-885 -793 -685 -668 -561 0
-905 -894 -859 -668 -430 0
-905 -859 -685 -668 -430 0
-905 -885 -685 -430 0
-905 -885 -793 -685 -430 0
-905 -878 -685 -430 0
-793 -667 -511 -394 0
-793 -792 -511 -394 0
-793 -561 -511 -394 0
-793 -561 -511 -500 -394 0
-832 -770 -667 -526 0
-696 -668 -481 -371 -315 0
-885 -793 -685 -561 -315 0
-885 -685 -529 -315 0
-878 -685 -529 -315 0
-770 -511 -481 -364 0
-885 -792 -711 -685 -666 -477 0
-832 -770 -667 -511 0
-775 -770 -666 -511 0
-832 -793 -667 -511 0
-770 -511 -481 -371 0
-885 -792 -685 -477 -315 0
-885 -792 -529 -477 0
-770 -666 -511 -481 0
-770 -667 -511 -481 0
-832 -793 -667 -526 0
-832 -667 -561 -526 0
-859 -697 -561 -526 -500 0
-885 -793 -697 -685 -668 -667 0
-885 -792 -788 -776 -755 -666 0
-404 -392 -389 -344 0
-905 -884 -770 -715 -655 -411 -367 0
-905 -668 -488 -349 -331 0
-719 -464 -429 -349 -305 0
-464 -429 -349 -305 0
-457 -440 -431 -418 0
-770 -655 -411 -367 -289 0
-750 -725 -367 -289 0
-832 -725 -367 -289 0
-668 -488 -331 -289 0
-859 -668 -488 -289 0
-905 -715 -411 -349 -319 0
-905 -829 -715 -349 -319 0
-719 -431 -418 -349 -319 0
-770 -655 -411 -367 -319 0
-832 -725 -367 -319 0
-750 -725 -668 -620 -367 0
-924 -811 -457 -431 -418 0
-905 -770 -715 -655 -349 0
-878 -859 -719 -668 -440 -429 -349 0
-878 -668 -429 -349 -331 0
-878 -859 -668 -429 -349 0
-553 -540 -431 -418 0
-553 -457 -431 -418 0
-668 -464 -429 -349 -331 0
-859 -668 -464 -429 -349 0
-878 -770 -668 -367 -331 0
-878 -859 -770 -668 -367 0
-725 -400 -367 -289 0
-828 -809 -518 -488 -400 -331 0
-832 -725 -579 -367 0
-750 -725 -668 -367 -331 0
-905 -715 -668 -411 -349 -331 0
-836 -715 -673 -411 -331 0
-611 -553 -457 -418 0
-555 -530 -457 -418 0
-832 -725 -698 -579 0
-864 -824 -655 -411 -328 0
-553 -530 -457 -418 0
-894 -878 -810 -731 0
-894 -810 -731 -656 -449 0
-894 -810 -731 -657 -656 0
-894 -810 -731 -656 -418 0
-894 -878 -756 -731 0
-894 -859 -731 -526 0
-900 -694 -680 -356 -303 0
-694 -680 -356 -303 0
-905 -878 -859 -731 -526 0
-905 -859 -731 -526 0
-894 -810 -731 -266 0
-905 -894 -810 -430 -266 0
-878 -756 -731 -594 0
-905 -874 -859 -848 -430 0
-905 -878 -731 -430 0
-905 -859 -731 -430 0
-466 -449 -430 -418 0
-526 -466 -449 -418 0
-900 -711 -694 -348 0
-711 -694 -374 -348 0
-814 -675 -477 -399 0
-810 -675 -399 -314 -266 0
-694 -374 -356 -266 0
-694 -374 -356 -314 0
-885 -792 -517 -508 0
-814 -797 -792 -675 -508 -399 0
-878 -756 -731 -656 -449 0
-900 -711 -694 -356 0
-711 -694 -374 -356 0
-814 -675 -399 -314 0
-792 -706 -477 -356 -314 0
-885 -756 -594 -517 -508 0
-885 -756 -594 -570 -517 -508 0
-749 -570 -508 -500 0
-750 -749 -508 -500 0
-857 -749 -742 -500 0
-749 -594 -570 -500 0
-857 -749 -570 -500 0
-750 -749 -588 -500 0
-878 -859 -756 -594 -526 0
-878 -859 -756 -594 -570 -526 0
-885 -792 -517 -477 0
-857 -749 -570 -550 0
-857 -749 -742 -550 0
-857 -750 -742 -588 -550 0
-894 -731 -691 -424 0
-894 -731 -516 -424 0
-894 -731 -527 -424 0
-760 -682 -370 -336 0
-894 -731 -424 -383 0
-894 -731 -656 -449 -383 0
-894 -731 -656 -418 -383 0
-875 -788 -475 -449 -418 0
-436 -354 -339 -307 0
-874 -731 -722 -413 -319 0
-894 -731 -424 -319 0
-894 -731 -656 -418 -319 0
-875 -788 -449 -426 -418 0
-760 -682 -436 -370 -336 0
-782 -731 -691 -656 -424 0
-796 -731 -656 -516 -504 -424 0
-760 -682 -436 -354 -307 0
-883 -666 -504 -464 0
-666 -504 -464 -307 0
-764 -666 -413 -325 0
-764 -666 -418 -325 0
-760 -682 -436 -307 0
-760 -682 -464 -436 -307 0
-666 -516 -504 -307 0
-731 -691 -656 -449 -424 0
-731 -656 -516 -504 -449 -424 0
-913 -610 -475 -449 0
-913 -611 -475 -449 0
-883 -666 -516 -504 0
-913 -610 -590 -475 0
-913 -625 -610 -475 0
-855 -788 -764 -666 -325 0
-666 -504 -413 -325 0
-666 -504 -418 -325 0
-883 -731 -666 -656 -464 -413 -325 0
-746 -666 -516 -504 -424 0
-855 -764 -682 -666 -325 0
-808 -796 -594 -574 -516 -504 0
-666 -516 -504 -325 0
-731 -648 -332 -319 0
-788 -736 -712 -658 -332 0
-736 -712 -332 -309 0
-788 -660 -658 -657 -656 -647 0
-878 -871 -731 -648 -542 0
-912 -800 -745 -734 -366 0
-878 -731 -648 -519 0
-800 -799 -734 -648 -366 0
-845 -734 -731 -437 -316 0
-845 -734 -731 -437 -413 -316 0
-845 -437 -413 -325 0
-878 -871 -753 -731 -319 0
-871 -788 -753 -660 -325 -319 0
-731 -648 -413 -319 0
-878 -731 -648 -319 0
-731 -656 -648 -413 -319 0
-867 -734 -570 -504 -366 0
-749 -731 -570 -504 -448 -437 0
-878 -731 -519 -437 0
-867 -504 -448 -437 0
-845 -760 -344 -309 0
-845 -760 -716 -309 0
-845 -731 -437 -309 0
-845 -437 -413 -309 0
-731 -448 -437 -309 0
-731 -448 -437 -413 -309 0
-448 -437 -413 -309 0
-504 -448 -403 -309 0
-878 -731 -656 -542 -463 0
-657 -656 -541 -463 0
-657 -656 -542 -463 0
-867 -578 -570 -504 0
-800 -799 -578 -366 0
-867 -734 -504 -366 -316 0
-800 -734 -366 -316 0
-912 -800 -734 -366 -316 0
-657 -656 -541 -413 -325 0
-504 -448 -437 -413 0
-657 -656 -541 -413 0
-657 -656 -542 -413 0
-734 -731 -448 -437 -316 0
-746 -734 -731 -448 -437 0
-878 -746 -731 -448 -437 0
-734 -731 -448 -437 -413 -316 0
-734 -731 -448 -437 -413 -371 0
-448 -437 -413 -325 0
-845 -437 -350 -309 0
-448 -437 -350 -309 0
-736 -734 -731 -448 -437 0
-800 -799 -677 -578 0
-813 -805 -504 -413 -325 0
-788 -736 -658 -448 -407 0
-448 -407 -350 -309 0
-736 -731 -658 -448 -437 0
-800 -799 -677 -572 0
-828 -809 -760 -682 -336 0
-853 -749 -570 -504 -437 -411 0
-828 -809 -749 -677 -503 0
-525 -418 -333 -328 0
-828 -809 -503 -336 0
-755 -590 -525 -328 0
-672 -649 -437 -411 -344 -336 0
-809 -760 -694 -682 -336 0
-792 -504 -476 -437 0
-792 -539 -521 -437 0
-749 -677 -570 -504 -437 -411 0
-832 -822 -689 -437 -413 0
-832 -779 -437 -413 -326 0
-904 -832 -777 -761 -550 -525 0
-749 -677 -570 -397 0
-749 -677 -566 -397 0
-832 -779 -777 -550 -525 0
-832 -779 -570 -550 -539 0
-792 -755 -689 -437 -413 -328 0
-525 -449 -418 -328 0
-832 -779 -570 -539 -326 0
-570 -539 -476 -326 0
-792 -539 -521 -411 0
-755 -689 -468 -413 -328 0
-755 -689 -525 -413 -328 0
-792 -504 -437 -413 0
-792 -539 -437 -413 0
-844 -760 -694 -663 -333 0
-777 -550 -539 -468 0
-779 -755 -504 -476 -468 -328 0
-749 -677 -570 -539 0
-832 -570 -525 -504 0
-689 -504 -476 -418 -326 0
-749 -677 -570 -503 0
-749 -677 -566 -503 0
-779 -755 -525 -476 -328 0
-822 -779 -525 -476 -418 0
-570 -550 -539 -476 0
-749 -570 -550 -539 0
-777 -550 -539 -521 0
-570 -539 -521 -476 0
-777 -550 -525 -449 -418 0
-777 -550 -539 -525 0
-832 -570 -539 -525 0
-832 -570 -539 -521 0
-777 -761 -550 -525 -418 0
-777 -606 -590 -550 -525 0
-675 -370 -335 -327 -270 0
-666 -335 -327 -270 0
-666 -448 -327 -270 0
-666 -448 -327 -304 -270 0
-666 -489 -327 -270 0
-907 -874 -731 -489 -413 -324 0
-907 -874 -731 -489 -324 0
-769 -680 -357 -263 0
-747 -666 -489 -327 -324 -293 0
-747 -350 -293 -273 0
-666 -448 -327 -304 -293 0
-666 -489 -327 -324 -293 0
-770 -666 -658 -350 -293 0
-770 -666 -448 -304 -293 0
-770 -666 -489 -324 -293 0
-862 -765 -726 -413 -327 -324 0
-666 -464 -448 -327 0
-666 -489 -413 -327 -324 0
-666 -489 -418 -327 -324 0
-789 -666 -489 -327 -324 0
-829 -770 -675 -511 -370 -357 0
-731 -546 -489 -324 0
-829 -769 -464 -448 0
-770 -731 -666 -489 -413 -324 0
-770 -666 -489 -413 -324 0
-770 -666 -489 -418 -324 0
-789 -770 -666 -489 -324 0
-788 -666 -658 -449 -418 0
-666 -658 -448 -350 -304 0
-778 -546 -489 -324 0
-610 -546 -489 -324 0
-848 -746 -731 -519 -413 0
-546 -489 -413 -324 0
-789 -610 -546 -489 -324 0
-874 -848 -769 -746 -448 -357 0
-829 -769 -511 -448 0
-770 -666 -511 -448 0
-789 -656 -543 -449 0
-907 -843 -778 -636 -546 0
-778 -725 -546 -489 0
-770 -666 -511 -489 0
-841 -829 -757 -546 -511 0
-725 -577 -511 -489 0
-770 -675 -511 -370 -313 0
-770 -666 -511 -313 0
-725 -610 -546 -489 0
-789 -731 -543 -489 -324 0
-789 -543 -489 -324 0
-610 -590 -546 -489 0
-596 -586 -543 -519 0
-769 -666 -448 -357 -327 0
-907 -843 -577 -546 0
-725 -577 -546 -489 0
-725 -560 -546 -489 0
-769 -666 -658 -448 -357 0
-796 -725 -722 -675 -560 0
-915 -825 -774 -422 -383 0
-874 -848 -769 -684 -680 0
-769 -684 -680 -352 -319 0
-825 -811 -426 -333 0
-874 -769 -722 -684 -403 -319 0
-796 -675 -666 -334 -319 0
-829 -769 -684 -352 -319 0
-915 -789 -774 -729 -537 -324 0
-902 -895 -789 -729 -656 -535 0
-895 -789 -782 -729 -656 0
-656 -525 -466 -422 0
-789 -656 -537 -466 0
-895 -789 -729 -656 -535 -466 0
-789 -656 -527 -466 0
-796 -666 -466 -447 -334 0
-769 -721 -403 -334 0
-769 -721 -447 -403 0
-900 -825 -680 -383 -333 0
-825 -811 -333 -304 0
-825 -383 -333 -304 0
-789 -782 -729 -537 -324 0
-829 -769 -721 -447 0
-656 -466 -447 -422 0
-789 -656 -466 -447 0
-769 -721 -684 -352 -334 0
-769 -721 -716 -334 0
-829 -769 -721 -334 0
-919 -656 -466 -447 -352 -334 0
-915 -656 -466 -447 -334 0
-900 -811 -769 -680 -334 -333 0
-811 -769 -721 -334 0
-829 -535 -476 -313 0
-915 -774 -721 -666 -656 -334 0
-525 -476 -422 -324 0
-789 -537 -476 -324 0
-789 -540 -476 -324 0
-789 -527 -476 -324 0
-750 -725 -587 -476 0
-750 -725 -587 -525 -476 0
-777 -729 -535 -476 0
-782 -729 -595 -537 0
-895 -789 -729 -560 -476 -324 0
-782 -729 -595 -560 0
-811 -656 -466 -447 -334 0
-902 -777 -729 -595 -535 0
-777 -729 -595 -535 0
-777 -729 -537 -527 0
-782 -777 -729 -595 0
-829 -535 -476 -324 0
-535 -476 -422 -324 0
-789 -535 -476 -324 0
-777 -729 -537 -525 0
-696 -665 -476 -366 0
-696 -667 -665 -476 -366 0
-719 -431 -407 -268 0
-767 -719 -689 -450 -268 0
-767 -719 -689 -414 -268 0
-448 -414 -373 -303 0
-898 -767 -689 -444 -303 0
-767 -719 -689 -546 -450 0
-767 -719 -691 -690 -689 0
-760 -373 -357 -280 0
-448 -414 -373 -357 -280 0
-770 -712 -444 -373 -303 0
-898 -691 -690 -444 0
-898 -829 -691 -690 -444 0
-712 -444 -406 -373 -303 0
-675 -527 -482 -366 0
-696 -567 -476 -366 0
-675 -482 -366 -319 0
-848 -782 -742 -567 -476 -366 0
-572 -511 -357 -313 0
-782 -767 -691 -690 -689 0
-760 -391 -373 -300 0
-770 -712 -511 -373 -313 0
-829 -770 -712 -511 -373 -313 0
-448 -414 -373 -357 -313 0
-767 -730 -691 -690 -667 -567 0
-898 -841 -767 -730 -691 -594 0
-444 -406 -373 -303 0
-448 -444 -406 -373 -303 0
-898 -767 -689 -476 -325 0
-898 -829 -691 -690 -511 0
-624 -567 -476 -366 0
-600 -542 -527 -482 -366 0
-444 -406 -350 -303 0
-767 -689 -546 -450 -325 0
-767 -690 -689 -546 -325 0
-848 -746 -618 -567 -476 -366 0
-767 -689 -450 -407 -325 0
-767 -690 -689 -407 -325 0
-511 -414 -357 -313 0
-767 -689 -476 -414 -325 0
-730 -691 -690 -667 -476 -414 0
-898 -767 -689 -448 -325 0
-448 -414 -357 -313 0
-767 -689 -448 -414 -325 0
-898 -841 -730 -691 -450 0
-898 -841 -730 -667 -450 0
-770 -675 -511 -482 -366 0
-770 -667 -511 -476 0
-770 -675 -511 -366 -313 0
-829 -770 -675 -511 -366 -313 0
-829 -799 -691 -594 -567 -313 0
-528 -476 -407 -325 0
-618 -594 -567 -527 0
-594 -567 -542 -527 0
-691 -690 -546 -528 0
-770 -667 -572 -567 -511 0
-799 -594 -567 -527 0
-886 -682 -375 -360 -337 0
-886 -682 -397 -375 -360 -337 0
-858 -663 -461 -381 0
-898 -767 -663 -413 -381 -347 0
-461 -449 -439 -381 0
-858 -461 -445 -381 0
-438 -413 -381 -347 0
-767 -438 -413 -381 -347 0
-438 -418 -381 -347 0
-475 -461 -449 -439 0
-902 -696 -619 -504 -363 -330 0
-663 -438 -381 -354 0
-663 -439 -381 -354 0
-858 -663 -381 -354 0
-767 -663 -413 -381 -354 -347 0
-767 -663 -413 -381 -354 -347 -324 0
-439 -381 -354 -340 0
-858 -381 -354 -340 0
-886 -682 -360 -337 -284 0
-828 -696 -516 -337 -330 0
-674 -504 -363 -330 0
-902 -619 -594 -504 -363 -330 0
-529 -360 -337 -330 0
-594 -529 -360 -337 -330 0
-663 -381 -354 -339 0
-461 -439 -381 -340 0
-684 -682 -436 -314 0
-684 -682 -436 -337 0
-902 -808 -767 -516 -504 -424 0
-898 -767 -516 -424 0
-898 -767 -529 -424 0
-674 -504 -397 -363 0
-529 -397 -360 -337 0
-594 -529 -397 -360 -337 0
-674 -589 -504 -363 0
-895 -767 -542 -413 0
-666 -516 -504 -334 0
-774 -666 -504 -413 -347 0
-674 -590 -589 -504 0
-828 -516 -504 -337 0
-666 -516 -504 -337 0
-902 -674 -590 -589 0
-774 -666 -516 -504 -424 -347 0
-902 -674 -619 -594 -589 0
-731 -648 -413 -320 0
-731 -648 -424 -320 0
-859 -731 -648 -320 0
-360 -320 -289 -267 0
-731 -648 -535 -497 -424 0
-859 -731 -648 -487 0
-859 -731 -648 -488 0
-773 -731 -535 -424 0
-773 -756 -731 -424 0
-773 -731 -535 -424 -315 0
-859 -773 -731 -523 -487 0
-858 -731 -656 -535 -424 0
-858 -731 -656 -535 -424 -315 0
-731 -648 -320 -288 0
-869 -497 -369 -355 -288 0
-869 -497 -369 -355 -333 -288 0
-901 -698 -535 -497 -289 0
-531 -468 -333 -309 0
-531 -468 -348 -333 -309 0
-843 -731 -656 -535 -424 0
-843 -756 -731 -656 -424 0
-843 -731 -656 -535 -424 -315 0
-843 -756 -731 -656 -424 -315 0
-497 -369 -333 -309 0
-648 -355 -320 -288 0
-869 -497 -369 -355 -333 0
-468 -369 -333 -309 0
-755 -662 -523 -369 0
-901 -698 -497 -360 -289 0
-731 -535 -497 -424 -315 0
-535 -497 -424 -315 0
-859 -731 -523 -487 -413 0
-859 -731 -564 -488 -424 0
-869 -682 -497 -369 -333 0
-731 -656 -535 -449 -424 0
-756 -731 -656 -449 -424 0
-731 -656 -535 -449 -424 -315 0
-776 -757 -730 -424 -360 -315 0
-869 -755 -497 -369 -348 0
-755 -662 -497 -369 0
-436 -348 -333 -309 0
-589 -550 -523 -487 0
-908 -869 -682 -497 -360 0
-908 -869 -682 -497 -369 0
-859 -731 -535 -487 -424 0
-859 -731 -535 -488 -424 0
-869 -755 -682 -497 -369 0
-387 -383 -340 -273 0
-363 -330 -293 -262 0
-770 -363 -330 -293 -262 0
-767 -747 -718 -689 -325 0
-877 -747 -718 -689 -325 0
-747 -718 -413 -325 0
-830 -375 -363 -330 0
-718 -383 -340 -325 -270 0
-383 -340 -334 -270 0
-360 -337 -330 -270 0
-424 -360 -337 -330 -270 0
-830 -770 -675 -655 -330 0
-830 -679 -675 -356 -330 0
-830 -696 -679 -356 -330 0
-464 -383 -340 -334 0
-747 -718 -334 -293 0
-747 -718 -325 -293 0
-844 -770 -655 -334 -293 0
-787 -725 -696 -677 -566 0
-924 -803 -767 -718 -689 -413 -325 0
-767 -718 -689 -543 -424 -325 0
-718 -457 -413 -325 0
-787 -696 -669 -490 -330 0
-543 -524 -424 -360 -337 -330 0
-718 -413 -340 -325 0
-830 -770 -675 -356 -330 0
-830 -787 -696 -356 -330 0
-830 -363 -356 -330 0
-830 -436 -363 -356 -330 0
-770 -655 -436 -363 0
-793 -655 -516 -436 0
-844 -830 -436 -356 -330 0
-770 -655 -464 -436 0
-793 -655 -464 -436 0
-770 -675 -424 -360 -337 -330 0
-787 -696 -501 -360 0
-787 -725 -696 -677 -360 0
-770 -675 -655 -360 -330 0
-787 -696 -501 -360 -330 0
-787 -725 -696 -677 -360 -330 0
-543 -524 -490 -424 -360 -337 0
-767 -689 -543 -424 -325 0
-793 -767 -689 -516 -424 -325 0
-822 -689 -524 -413 0
-854 -846 -844 -830 -747 -718 -334 0
-844 -718 -436 -340 -334 0
-855 -854 -844 -340 -334 0
-844 -436 -340 -334 0
-464 -436 -340 -334 0
-844 -436 -356 -334 0
-464 -436 -356 -334 0
-767 -543 -471 -457 -424 0
-594 -543 -524 -490 0
-832 -767 -689 -516 -424 -325 0
-636 -594 -543 -524 0
-665 -504 -363 -330 0
-696 -665 -504 -397 -363 0
-899 -773 -546 -351 -325 0
-773 -768 -689 -524 0
-899 -773 -689 -546 -325 0
-768 -761 -718 -689 -325 0
-675 -504 -416 -363 -330 0
-504 -416 -363 -330 0
-416 -362 -356 -337 0
-898 -853 -773 -447 -351 0
-899 -546 -447 -351 -325 0
-869 -504 -374 -304 0
-504 -416 -374 -304 0
-517 -504 -374 -304 0
-812 -772 -718 -433 -351 0
-504 -416 -397 -363 0
-768 -718 -689 -374 -325 0
-718 -433 -374 -351 0
-718 -689 -688 -374 -304 0
-773 -718 -688 -374 -304 0
-718 -374 -351 -304 0
-899 -546 -473 -325 0
-504 -416 -374 -337 0
-517 -504 -374 -337 0
-899 -898 -853 -773 -447 -351 -325 0
-869 -718 -504 -374 -325 0
-675 -505 -504 -397 -363 0
-505 -504 -397 -363 0
-768 -718 -689 -504 -374 -325 0
-750 -725 -610 -587 0
-750 -725 -587 -490 0
-878 -756 -594 -524 -490 0
-504 -416 -363 -337 0
-504 -416 -362 -337 0
-718 -517 -504 -374 -325 0
-718 -689 -688 -504 -416 -374 0
-718 -504 -416 -374 -325 0
-877 -747 -719 -663 -348 0
-747 -663 -419 -348 0
-871 -668 -512 -324 0
-904 -877 -719 -663 -348 0
-655 -436 -403 -386 0
-655 -436 -386 -369 0
-655 -535 -436 -386 0
-898 -450 -436 -423 -386 0
-655 -442 -436 -386 0
-898 -450 -442 -436 -386 0
-904 -877 -719 -450 -442 0
-877 -719 -442 -419 0
-719 -442 -419 -348 0
-871 -668 -315 -290 0
-871 -668 -324 -290 0
-655 -436 -369 -290 0
-883 -655 -369 -290 0
-655 -436 -403 -290 0
-883 -655 -403 -290 0
-747 -663 -348 -266 0
-655 -436 -369 -309 -266 0
-883 -655 -369 -309 -266 0
-832 -750 -668 -620 -324 0
-904 -877 -719 -450 -348 0
-904 -877 -450 -419 -348 0
-832 -750 -685 -668 -324 0
-832 -750 -685 -423 -324 0
-836 -685 -668 -653 -436 -315 0
-836 -685 -653 -436 -315 0
-655 -535 -521 -436 0
-898 -450 -436 -423 -324 0
-836 -682 -653 -436 -309 0
-655 -436 -403 -309 0
-883 -655 -403 -309 0
-883 -655 -528 -403 0
-884 -871 -668 -403 -369 -315 0
-901 -729 -535 -502 0
-883 -655 -528 -369 0
-925 -843 -831 -729 -650 -324 0
-904 -877 -512 -450 -419 0
-512 -450 -423 -324 0
-883 -655 -535 -521 0
-883 -655 -528 -419 0
-729 -610 -535 -502 0
-884 -774 -655 -436 -369 -348 0
-639 -610 -553 -540 0
-898 -883 -528 -450 -423 0
-883 -655 -535 -528 0
-843 -729 -610 -599 0
-882 -722 -668 -529 0
-898 -767 -444 -380 0
-898 -792 -444 -380 0
-898 -450 -444 -380 0
-905 -882 -874 -668 -529 0
-905 -882 -874 -668 -444 0
-825 -755 -444 -406 -350 -306 0
-898 -883 -770 -666 -444 0
-882 -722 -668 -290 0
-770 -755 -666 -662 -290 0
-883 -770 -666 -290 0
-770 -666 -662 -290 0
-898 -883 -755 -666 -450 0
-832 -725 -669 -668 -586 0
-332 -312 -290 -271 0
-905 -767 -444 -406 0
-905 -444 -406 -346 0
-898 -792 -729 -543 -529 0
-722 -668 -312 -290 0
-832 -770 -755 -666 -662 -526 0
-832 -770 -666 -662 -526 0
-915 -768 -755 -306 0
-915 -768 -755 -526 -306 0
-898 -883 -666 -450 -306 0
-792 -729 -543 -529 -414 0
-883 -792 -729 -543 -529 0
-883 -770 -666 -497 0
-832 -725 -698 -586 0
-770 -666 -662 -497 0
-883 -792 -666 -414 -306 0
-915 -883 -792 -666 -662 -433 0
-882 -725 -669 -561 -529 0
-832 -725 -586 -561 0
-883 -792 -666 -662 -414 0
-912 -770 -755 -738 -706 -666 0
-905 -685 -416 -313 -277 0
-905 -859 -685 -423 -277 0
-685 -416 -330 -313 -277 0
-905 -894 -793 -685 -416 0
-905 -894 -685 -543 -423 0
-894 -793 -685 -416 -330 0
-894 -685 -543 -423 -330 0
-858 -826 -457 -381 0
-695 -381 -354 -350 0
-429 -381 -354 -350 0
-858 -381 -354 -350 0
-685 -416 -399 -330 -313 0
-793 -685 -667 -476 -416 -330 0
-859 -779 -685 -476 -423 -330 0
-858 -826 -381 -350 0
-693 -659 -429 -381 -345 -325 0
-693 -659 -476 -429 -381 -345 -325 0
-858 -779 -693 -659 -476 -429 -381 -345 0
-429 -421 -381 -350 0
-858 -826 -457 -429 0
-869 -793 -667 -476 -399 0
-800 -750 -677 -396 0
-573 -560 -506 -396 0
-421 -374 -354 -350 0
-858 -718 -660 -659 -429 -374 0
-718 -421 -374 -350 0
-677 -573 -396 -371 0
-573 -506 -396 -371 0
-899 -779 -664 -546 -325 0
-899 -779 -627 -587 -325 0
-899 -779 -667 -664 -546 0
-381 -354 -350 -305 0
-606 -543 -457 -423 0
-899 -793 -667 -546 -468 0
-869 -859 -793 -779 -667 0
-800 -750 -677 -587 0
-619 -573 -560 -506 0
-859 -779 -543 -476 -423 0
-859 -779 -519 -476 -423 0
-859 -779 -667 -519 -476 -423 0
-899 -800 -779 -560 -546 -325 0
-859 -793 -779 -667 -423 0
-643 -619 -573 -560 0
-859 -793 -779 -667 -416 0
-793 -667 -519 -476 -416 0
-750 -619 -591 -587 0
-750 -631 -619 -587 0
-722 -492 -323 -306 0
-814 -722 -492 -323 0
-832 -814 -722 -323 0
-722 -482 -366 -323 0
-925 -839 -768 -722 -526 0
-925 -882 -839 -722 -482 0
-716 -679 -412 -318 -276 0
-716 -679 -318 -276 0
-390 -352 -336 -276 0
-390 -352 -323 -276 0
-814 -430 -390 -352 -323 0
-390 -352 -336 -318 0
-390 -352 -323 -306 0
-814 -390 -352 -323 0
-390 -366 -352 -323 0
-839 -814 -792 -649 -492 -323 0
-851 -832 -814 -526 0
-589 -492 -323 -306 0
-814 -589 -492 -323 0
-832 -814 -589 -323 0
-832 -814 -526 -323 0
-851 -813 -792 -776 -352 -323 0
-492 -352 -323 -306 0
-814 -813 -792 -776 -352 -323 0
-814 -492 -352 -323 0
-832 -814 -352 -323 0
-482 -366 -352 -323 0
-430 -352 -336 -318 0
-430 -352 -323 -306 0
-792 -492 -396 -366 -323 -306 0
-925 -839 -768 -323 -306 0
-832 -814 -526 -306 0
-792 -775 -492 -408 0
-814 -792 -716 -492 -412 -323 0
-792 -492 -412 -306 0
-792 -775 -492 -412 0
-832 -603 -589 -526 0
-832 -729 -603 -589 -526 0
-885 -814 -792 -492 -306 0
-885 -792 -492 -306 0
-792 -492 -412 -318 0
-885 -792 -492 -318 0
-885 -792 -775 -492 0
-832 -793 -792 -729 -589 -526 0
-925 -839 -814 -792 -656 -492 -323 0
-833 -625 -613 -603 0
-832 -729 -589 -543 -526 0
-877 -858 -381 -269 0
-871 -668 -315 -270 0
-871 -669 -668 -390 -270 0
-685 -437 -390 -362 -336 0
-685 -668 -437 -390 -367 0
-685 -669 -668 -437 -390 0
-390 -354 -304 -265 0
-895 -861 -539 -444 -437 0
-843 -696 -577 -511 -397 0
-725 -696 -397 -367 -336 0
-696 -577 -511 -397 -336 0
-696 -511 -412 -397 -336 0
-725 -367 -336 -315 0
-799 -669 -668 -587 0
-877 -858 -419 -381 -351 0
-877 -858 -420 -381 -351 0
-390 -351 -304 -270 0
-909 -757 -608 -596 -539 -437 0
-390 -354 -304 -270 0
-895 -861 -843 -577 -539 0
-725 -560 -397 -367 0
-577 -560 -511 -397 0
-799 -727 -725 -512 -367 0
-799 -725 -587 -367 0
-354 -351 -304 -269 0
-381 -354 -304 -269 0
-736 -512 -492 -419 -354 -304 0
-736 -512 -492 -420 -354 -304 0
-799 -669 -668 -315 0
-799 -725 -669 -668 -315 0
-725 -560 -367 -315 0
-799 -725 -367 -315 0
-664 -473 -449 -419 0
-390 -354 -304 -269 0
-783 -705 -577 -492 -447 0
-664 -609 -473 -449 0
-895 -861 -539 -473 0
-799 -725 -577 -511 0
-444 -381 -354 -304 -269 0
-577 -560 -539 -521 0
-843 -577 -560 -539 0
-685 -668 -492 -447 -437 -367 0
-685 -669 -668 -492 -447 -437 0
-783 -705 -577 -521 -492 0
-799 -725 -587 -577 0
-799 -725 -587 -560 0
-799 -725 -577 -560 -521 0
-577 -560 -521 -491 0
-668 -329 -320 -289 0
-859 -668 -320 -289 0
-665 -504 -399 -289 0
-689 -688 -545 -452 -423 0
-874 -845 -727 -689 -684 -668 0
-845 -844 -712 -429 -386 0
-908 -516 -368 -318 -289 0
-668 -487 -329 -289 0
-859 -668 -487 -289 0
-727 -689 -668 -525 -289 0
-845 -844 -712 -429 -386 -266 0
-908 -874 -684 -346 -318 0
-874 -684 -668 -346 -329 0
-727 -689 -545 -525 0
-908 -874 -769 -684 -359 -318 0
-908 -399 -368 -318 -289 0
-668 -399 -329 -289 0
-859 -668 -399 -289 0
-727 -689 -668 -399 -289 0
-814 -504 -487 -399 0
-814 -504 -399 -328 0
-814 -504 -399 -329 0
-814 -727 -504 -399 0
-668 -487 -400 -368 -329 0
-814 -590 -525 -328 0
-814 -727 -545 -525 0
-590 -540 -525 -328 0
-874 -844 -769 -712 -684 -266 0
-844 -769 -712 -346 -266 0
-895 -590 -553 -540 -423 0
-487 -452 -423 -329 0
-859 -487 -452 -423 0
-844 -769 -711 -346 0
-814 -504 -408 -328 0
-778 -590 -553 -540 0
-516 -504 -359 -318 0
-844 -811 -769 -711 0
-814 -504 -487 -423 -329 0
-859 -814 -504 -487 -423 0
-814 -525 -504 -328 0
-814 -504 -423 -329 0
-814 -727 -525 -504 0
-727 -545 -525 -487 0
-590 -553 -540 -525 0
-908 -516 -504 -368 -318 0
-814 -516 -504 -328 0
-596 -558 -547 -540 0
-814 -516 -504 -318 0
-814 -516 -504 -487 0
-814 -516 -504 -329 0
-814 -727 -516 -504 0
-545 -525 -452 -423 0
-871 -815 -347 -306 -270 0
-871 -851 -721 -374 -270 0
-871 -851 -718 -662 -270 0
-452 -435 -381 -347 0
-851 -718 -662 -528 -374 0
-851 -718 -662 -528 0
-718 -452 -435 -347 0
-871 -851 -760 -694 -346 -270 0
-662 -528 -435 -347 0
-867 -851 -721 -511 -374 0
-721 -662 -452 -435 -347 0
-778 -548 -463 -452 -435 0
-718 -694 -374 -347 0
-694 -374 -347 -306 0
-896 -732 -718 -374 -347 0
-718 -435 -374 -347 0
-877 -718 -374 -347 0
-896 -732 -374 -347 -306 0
-435 -374 -347 -306 0
-877 -374 -347 -306 0
-797 -662 -528 -489 -408 -374 0
-867 -851 -718 -662 -489 -370 0
-867 -750 -725 -370 0
-867 -725 -489 -370 0
-896 -732 -423 -347 -306 0
-452 -435 -347 -306 0
-435 -423 -347 -306 0
-721 -441 -381 -374 -347 -306 0
-886 -760 -718 -694 -374 0
-867 -851 -718 -662 -511 0
-867 -725 -511 -489 0
-760 -718 -694 -374 -346 0
-760 -694 -374 -346 -306 0
-625 -608 -596 -522 0
-916 -851 -830 -760 -694 -374 0
-830 -760 -718 -694 -374 0
-867 -851 -829 -718 -511 -347 0
-750 -725 -625 -574 0
-750 -725 -620 -574 0
-750 -625 -608 -596 0
-867 -829 -511 -370 -337 0
-643 -625 -608 -596 0
-404 -392 -360 -297 0
-665 -392 -359 -297 0
-734 -665 -392 -372 0
-904 -720 -719 -543 -458 0
-903 -880 -665 -392 -297 0
-867 -500 -488 -290 0
-899 -867 -749 -570 -500 -290 0
-867 -814 -477 -290 0
-899 -867 -814 -290 0
-867 -814 -328 -290 0
-814 -686 -546 -477 -458 0
-814 -686 -664 -546 -477 0
-899 -814 -686 -546 -458 0
-899 -814 -693 -692 -664 -657 -546 0
-404 -392 -355 -297 0
-665 -392 -355 -297 0
-719 -526 -431 -418 -349 0
-543 -424 -349 -315 0
-904 -720 -692 -664 -546 -429 0
-904 -720 -458 -429 0
-904 -720 -657 -429 0
-429 -424 -349 -315 0
-458 -429 -424 -349 -315 0
-903 -900 -880 -734 -665 -392 0
-464 -429 -349 -315 0
-904 -899 -814 -692 -664 -546 0
-904 -814 -546 -477 -458 0
-904 -899 -814 -546 -458 0
-904 -570 -546 -458 0
-904 -606 -543 -458 0
-867 -814 -546 -477 0
-899 -867 -814 -546 0
-903 -900 -880 -717 -269 0
-749 -570 -546 -458 0
-904 -546 -471 -458 0
-904 -543 -471 -458 0
-749 -625 -570 -500 0
-749 -570 -546 -500 0
-570 -546 -477 -458 -424 -337 0
-546 -477 -458 -424 -337 0
-546 -517 -458 -424 -337 0
-749 -664 -570 -546 0
-749 -627 -625 -570 0
-899 -546 -458 -424 -360 -337 0
-816 -627 -625 -606 0
-816 -643 -625 -606 0
-899 -546 -458 -424 -337 0
-894 -878 -791 -756 -352 0
-894 -878 -791 -542 -352 0
-919 -894 -791 -674 -504 -452 0
-830 -436 -372 -352 -295 0
-894 -436 -372 -352 -327 0
-894 -386 -340 -334 -327 0
-674 -504 -452 -436 -386 0
-878 -791 -386 -352 0
-919 -791 -720 -674 -504 -452 0
-919 -878 -791 -720 -542 -352 0
-796 -675 -674 -504 -452 0
-894 -452 -436 -386 -327 0
-675 -422 -366 -327 -324 0
-894 -436 -386 -340 -327 0
-791 -762 -738 -653 -403 -363 -352 0
-878 -791 -518 -352 0
-894 -436 -363 -352 -327 0
-762 -738 -436 -403 -363 0
-695 -436 -372 -354 -352 0
-720 -460 -452 -436 -386 0
-919 -791 -720 -460 -452 0
-708 -674 -504 -403 -334 0
-708 -674 -662 -504 -403 0
-894 -403 -363 -352 -327 0
-919 -894 -403 -363 -352 -327 0
-403 -363 -340 -327 0
-695 -372 -354 -340 0
-363 -340 -334 -327 0
-708 -674 -504 -363 0
-674 -504 -452 -363 0
-796 -675 -674 -504 -452 -366 0
-799 -587 -366 -324 0
-800 -799 -587 -366 0
-800 -700 -482 -366 -337 0
-608 -542 -518 -324 0
-542 -518 -422 -324 0
-545 -475 -454 -422 0
-878 -791 -518 -452 0
-716 -403 -363 -327 0
-716 -403 -363 -295 0
-915 -708 -674 -662 -504 -422 0
-708 -674 -662 -504 -422 0
-708 -662 -475 -454 -422 0
-799 -587 -518 -324 0
-878 -791 -756 -545 -452 0
-878 -791 -545 -542 -452 0
-624 -619 -587 -561 0
-915 -865 -755 -712 -369 -264 0
-852 -394 -392 -291 0
-852 -396 -392 -291 0
-894 -755 -518 -324 0
-894 -755 -386 -324 0
-894 -755 -411 -386 -369 0
-755 -386 -351 -324 0
-438 -435 -381 -351 0
-882 -836 -673 -653 -482 0
-915 -755 -713 -712 -369 0
-882 -828 -518 -396 -330 -291 0
-852 -392 -344 -291 0
-882 -792 -769 -424 -344 0
-792 -769 -518 -424 -344 -324 0
-882 -792 -769 -518 -424 -344 0
-755 -518 -351 -324 0
-755 -518 -424 -351 -324 0
-904 -761 -435 -351 0
-865 -712 -403 -344 -264 0
-882 -828 -792 -769 -424 0
-883 -792 -769 -344 -309 0
-883 -792 -769 -403 -309 0
-883 -792 -424 -309 0
-883 -792 -769 -513 -403 0
-883 -792 -769 -513 -403 -344 0
-755 -403 -369 -324 0
-915 -755 -403 -369 0
-755 -518 -369 -324 0
-883 -882 -792 -424 0
-883 -792 -521 -424 0
-883 -792 -518 -424 0
-897 -792 -777 -769 -513 -411 -344 0
-755 -411 -369 -324 0
-915 -755 -411 -369 0
-897 -792 -777 -513 -411 0
-883 -792 -513 -424 0
-825 -811 -810 -408 0
-825 -811 -408 -385 0
-825 -811 -431 -385 0
-859 -839 -815 -773 -527 0
-845 -715 -511 -412 0
-825 -811 -810 -662 -319 0
-858 -773 -431 -418 -351 0
-844 -764 -412 -304 0
-844 -764 -412 -316 0
-764 -666 -662 -418 0
-867 -859 -526 -366 0
-867 -859 -527 -366 0
-691 -577 -496 -396 0
-859 -587 -526 -366 0
-859 -594 -527 -366 0
-859 -799 -587 -366 0
-782 -691 -635 -577 -496 -366 0
-811 -459 -431 -408 0
-920 -715 -691 -594 -414 0
-691 -690 -577 -414 0
-613 -605 -550 -450 0
-691 -690 -577 -496 0
-691 -690 -661 -577 0
-715 -690 -661 -550 -511 -412 0
-764 -666 -511 -489 -412 0
-859 -511 -496 -366 0
-764 -666 -662 -412 0
-859 -526 -496 -366 0
-859 -527 -496 -366 0
-859 -799 -496 -366 0
-691 -690 -577 -550 0
-718 -325 -320 -268 0
-852 -809 -701 -507 0
-452 -436 -345 -268 0
-905 -831 -820 -653 -435 -345 -268 0
-452 -435 -345 -268 0
-436 -385 -345 -268 0
-435 -385 -345 -268 0
-718 -320 -288 -268 0
-779 -674 -668 -667 -452 0
-718 -345 -325 -268 0
-452 -436 -424 -345 0
-674 -667 -452 -436 -369 -345 0
-550 -536 -452 -436 -345 0
-550 -543 -452 -436 -345 0
-452 -435 -424 -345 0
-452 -436 -424 -337 0
-543 -524 -452 -436 -424 0
-543 -452 -435 -424 0
-674 -667 -452 -435 0
-843 -674 -452 -435 0
-550 -536 -452 -435 0
-550 -543 -452 -435 0
-913 -849 -838 -816 -475 0
-764 -736 -718 -435 -345 -268 0
-809 -701 -336 -313 0
-869 -809 -701 -682 -336 0
-869 -809 -701 -682 -336 -313 0
-849 -816 -768 -550 -536 0
-869 -809 -764 -336 -313 0
-517 -452 -424 -337 0
-674 -667 -476 -452 -369 0
-674 -667 -476 -452 0
-550 -536 -524 -452 0
-550 -543 -524 -452 0
-913 -816 -475 -454 0
-816 -550 -475 -454 0
-816 -550 -536 -454 0
-869 -764 -736 -517 -313 0
-550 -536 -469 -454 0
-869 -764 -736 -718 -325 0
-869 -764 -369 -325 0
-869 -764 -369 -313 0
-913 -530 -475 -454 0
-550 -530 -475 -454 0
-869 -764 -718 -682 -369 0
-869 -764 -517 -476 -369 0
-886 -394 -376 -291 0
-437 -416 -390 -270 0
-416 -390 -356 -270 0
-416 -356 -287 -270 0
-844 -695 -685 -655 -416 -263 0
-679 -356 -291 -287 0
-679 -376 -356 -291 0
-848 -828 -685 -437 -390 0
-886 -695 -679 -376 0
-695 -679 -356 -287 0
-722 -390 -356 -291 -284 -270 0
-511 -394 -376 -291 0
-395 -356 -291 -287 0
-394 -376 -356 -291 0
-886 -695 -679 -353 0
-848 -844 -685 -655 -416 0
-541 -459 -432 -419 0
-907 -778 -777 -489 -466 0
-848 -839 -828 -722 -685 -394 -291 0
-848 -839 -828 -722 -394 -291 0
-761 -755 -727 -666 -420 0
-761 -727 -666 -489 -420 0
-778 -761 -727 -666 -489 -420 0
-755 -727 -518 -420 -367 0
-727 -518 -489 -420 -367 0
-907 -777 -489 -367 0
-586 -567 -489 -367 0
-586 -567 -489 -367 -306 0
-833 -828 -800 -567 -488 0
-907 -777 -666 -489 -468 -306 0
-848 -828 -685 -655 -416 0
-468 -466 -437 -416 0
-800 -677 -586 -567 0
-755 -727 -666 -655 -420 0
-727 -666 -655 -489 -420 0
-907 -777 -545 -489 0
-800 -586 -567 -518 -488 0
-666 -655 -489 -416 -306 0
-666 -655 -416 -306 0
-778 -761 -545 -541 -420 0
-907 -902 -777 -545 0
-755 -685 -666 -655 -416 0
-399 -335 -313 -289 0
-825 -810 -413 -347 0
-894 -810 -407 -347 0
-825 -457 -413 -347 0
-894 -468 -407 -347 0
-894 -662 -523 -347 0
-825 -413 -385 -347 0
-896 -895 -743 -732 -577 -521 0
-406 -393 -372 -305 0
-825 -711 -393 -374 -347 0
-399 -357 -313 -289 0
-894 -407 -347 -319 0
-894 -662 -347 -319 0
-896 -894 -853 -437 -357 -319 -313 0
-829 -521 -482 -357 0
-468 -466 -407 -347 0
-896 -853 -468 -437 -407 -347 0
-829 -521 -437 -357 0
-437 -399 -357 -313 0
-482 -437 -413 -326 0
-545 -468 -457 -406 0
-829 -521 -482 -313 0
-577 -521 -482 -326 0
-599 -521 -482 -326 0
-662 -523 -413 -347 0
-521 -482 -413 -326 0
-829 -468 -466 -437 -357 0
-468 -466 -437 -357 -313 0
-610 -545 -474 -457 0
-779 -777 -693 -500 -468 -407 -347 0
-697 -599 -521 -500 -482 0
-599 -521 -500 -482 0
-577 -521 -500 -482 0
-577 -539 -521 -500 0
-577 -570 -539 -500 0
-825 -711 -477 -413 -374 -347 0
-577 -570 -500 -482 0
-577 -570 -521 -477 0
-468 -466 -437 -407 0
-468 -466 -457 -407 0
-577 -570 -521 -482 0
-393 -278 -268 -266 0
-747 -689 -433 -323 -268 0
-767 -747 -689 -323 -268 0
-689 -456 -433 -323 -268 0
-767 -689 -452 -323 -268 0
-767 -761 -689 -323 -268 0
-716 -403 -393 -392 -278 0
-689 -433 -385 -323 -268 0
-767 -689 -385 -323 -268 0
-905 -767 -761 -543 -529 0
-905 -767 -444 -413 0
-721 -452 -444 -413 0
-729 -721 -543 -452 -444 0
-747 -663 -393 -341 0
-747 -689 -393 -323 -268 0
-393 -385 -268 -266 0
-908 -828 -499 -297 0
-828 -499 -398 -297 0
-867 -723 -516 -504 -331 0
-885 -716 -706 -360 -331 -284 0
-747 -663 -341 -266 0
-385 -341 -268 -266 0
-767 -761 -689 -543 -323 0
-822 -689 -523 -323 0
-908 -828 -574 -499 0
-822 -689 -603 -589 -523 0
-908 -516 -504 -403 -393 -331 0
-904 -761 -551 -433 0
-904 -761 -543 -433 0
-729 -452 -433 -413 0
-747 -663 -403 -393 -341 0
-885 -721 -706 -653 -331 0
-822 -767 -721 -689 -452 0
-729 -721 -543 -529 -452 0
-904 -761 -603 -543 0
-689 -403 -363 -323 0
-828 -574 -499 -398 0
-680 -393 -385 -268 -266 0
-822 -689 -363 -323 0
-595 -574 -516 -331 0
-908 -516 -504 -403 -331 -297 0
-822 -689 -523 -413 0
-822 -767 -689 -523 -413 0
-767 -761 -543 -413 0
-729 -543 -452 -413 0
-729 -603 -452 -413 0
-885 -828 -574 -499 -331 0
-747 -716 -403 -393 -392 0
-729 -543 -529 -452 0
-747 -716 -403 -393 -268 0
-716 -403 -363 -323 0
-767 -689 -504 -452 -363 -323 0
-767 -729 -689 -504 -452 -363 -323 0
-664 -589 -523 -487 0
-603 -589 -523 -487 0
-888 -664 -589 -487 0
-888 -603 -589 -487 0
-828 -516 -499 -331 0
-828 -516 -504 -331 0
-908 -867 -516 -504 -331 -297 0
-595 -574 -564 -499 0
-603 -595 -543 -529 0
-729 -589 -543 -529 0
-902 -888 -595 -589 0
-729 -589 -543 -523 0
-603 -589 -543 -523 0
-900 -827 -714 -711 -387 0
-747 -711 -421 -348 0
-747 -711 -433 -348 0
-830 -682 -330 -320 -313 0
-675 -369 -325 -320 0
-747 -711 -348 -274 0
-830 -675 -667 -369 -330 0
-466 -433 -382 -348 0
-827 -664 -661 -466 -433 0
-438 -421 -382 -348 0
-438 -433 -382 -348 0
-769 -721 -444 -416 0
-721 -690 -661 -444 -416 0
-721 -691 -690 -661 -444 0
-689 -466 -444 -433 -423 0
-690 -661 -466 -444 -423 0
-900 -711 -433 -348 0
-830 -682 -330 -313 -294 0
-711 -466 -433 -348 0
-839 -689 -476 -330 -325 0
-749 -675 -667 -560 -369 -330 0
-661 -466 -433 -348 0
-661 -466 -447 -433 -348 0
-466 -447 -433 -348 0
-905 -830 -682 -444 -304 0
-905 -839 -689 -444 -304 0
-721 -690 -661 -416 -304 0
-743 -721 -690 -661 -304 0
-691 -690 -689 -433 -423 0
-691 -689 -519 -433 -423 0
-730 -728 -661 -466 -433 0
-664 -661 -548 -466 -433 0
-730 -728 -661 -466 -447 -433 0
-769 -721 -519 -416 0
-721 -690 -661 -416 -313 0
-882 -721 -690 -661 -423 0
-689 -519 -466 -433 -423 0
-691 -690 -661 -466 0
-421 -369 -348 -325 0
-689 -423 -369 -325 0
-730 -728 -667 -661 -447 -369 0
-830 -682 -675 -369 -330 -313 0
-691 -690 -689 -423 -325 0
-691 -689 -519 -423 -325 0
-882 -519 -486 -416 0
-730 -691 -690 -667 -476 -423 0
-769 -721 -447 -416 0
-689 -466 -447 -433 -423 0
-664 -661 -548 -541 -447 0
-882 -690 -661 -486 -423 0
-689 -519 -476 -423 -325 0
-882 -560 -519 -486 0
-730 -691 -667 -560 -519 -476 0
-882 -743 -691 -560 -486 0
-608 -596 -541 -522 0
-596 -548 -541 -522 0
-749 -742 -624 -560 0
-898 -845 -447 -372 -332 -267 0
-393 -354 -332 -267 0
-764 -412 -393 -372 -267 0
-761 -707 -689 -688 -423 0
-761 -689 -688 -551 -423 0
-761 -689 -688 -423 -381 0
-761 -689 -433 -423 -381 0
-826 -441 -433 -381 0
-898 -791 -720 -536 -423 0
-898 -883 -720 -666 -325 0
-378 -372 -354 -304 0
-788 -764 -666 -393 -325 0
-764 -689 -666 -393 -325 0
-354 -332 -288 -264 0
-697 -696 -500 -476 -330 0
-697 -500 -476 -331 -330 0
-524 -423 -331 -330 0
-908 -785 -697 -696 -500 0
-908 -785 -697 -500 -331 0
-898 -720 -447 -433 -351 0
-883 -666 -447 -351 -325 0
-761 -707 -689 -604 -423 0
-898 -883 -720 -674 -433 0
-761 -707 -689 -433 -423 0
-393 -372 -354 -267 0
-874 -845 -684 -354 -304 0
-898 -791 -524 -423 0
-788 -764 -666 -421 -325 0
-764 -689 -666 -423 -325 0
-920 -883 -674 -671 -399 0
-393 -372 -332 -267 0
-761 -689 -666 -423 -325 0
-898 -791 -447 -423 0
-898 -791 -536 -473 -423 0
-761 -707 -664 -536 -473 0
-756 -707 -664 -473 0
-707 -664 -604 -473 0
-764 -666 -412 -325 0
-689 -524 -476 -423 -325 0
-883 -788 -666 -447 -421 -325 0
-883 -689 -666 -447 -423 -325 0
-898 -883 -791 -666 -351 -325 0
-761 -707 -604 -536 0
-707 -664 -636 -604 0
-764 -671 -666 -517 -476 -325 0
-707 -664 -609 -604 0
-912 -830 -335 -331 0
-912 -830 -390 -331 0
-668 -437 -390 -349 -331 0
-669 -668 -437 -390 -349 0
-437 -416 -390 -331 0
-861 -719 -690 -656 -534 0
-768 -719 -656 -543 -524 0
-720 -719 -690 -550 -437 0
-719 -690 -550 -437 -349 0
-719 -690 -550 -536 -437 -349 0
-716 -695 -694 -295 0
-716 -695 -694 -335 -295 0
-720 -719 -718 -659 -468 -307 0
-861 -720 -690 -534 0
-720 -690 -550 -536 -437 0
-720 -690 -543 -437 0
-768 -720 -656 -524 0
-675 -668 -534 -416 -331 0
-797 -770 -675 -578 -489 0
-668 -534 -416 -349 -331 0
-690 -550 -536 -437 -349 0
-690 -543 -437 -349 0
-690 -550 -536 -437 -416 -349 0
-690 -543 -437 -416 -349 0
-861 -690 -656 -534 -349 0
-768 -656 -524 -349 0
-852 -809 -716 -694 -295 0
-852 -830 -809 -716 -694 -295 0
-861 -720 -690 -429 0
-668 -429 -416 -349 -331 0
-743 -668 -429 -349 -331 0
-690 -550 -536 -524 -437 0
-690 -543 -524 -437 0
-716 -695 -694 -354 0
-770 -675 -668 -416 -331 0
-907 -902 -698 -397 0
-675 -668 -363 -331 0
-797 -770 -708 -363 0
-797 -770 -489 -363 0
-797 -770 -578 -489 -363 0
-719 -718 -659 -429 -307 0
-719 -718 -659 -656 -349 -307 0
-550 -536 -454 -419 0
-716 -695 -694 -354 -307 0
-797 -736 -534 -489 -416 -307 0
-690 -578 -543 -524 0
-762 -736 -718 -716 -694 0
-768 -727 -536 -489 0
-578 -543 -524 -489 0
-625 -578 -543 -524 0
-907 -635 -625 -550 -534 -489 0
-583 -550 -536 -524 0
-578 -550 -543 -524 0
-727 -534 -489 -416 0
-727 -534 -489 -419 0
-534 -489 -416 -331 0
-907 -902 -625 -595 -578 0
-851 -666 -332 -307 0
-899 -871 -851 -777 -666 0
-829 -769 -355 -316 -276 0
-829 -769 -734 -355 -316 -276 0
-825 -792 -773 -437 -347 0
-825 -792 -773 -477 -437 -347 0
-825 -792 -437 -413 -347 0
-825 -761 -656 -347 0
-656 -463 -442 -380 0
-912 -846 -734 -496 -366 0
-792 -773 -477 -437 0
-878 -773 -761 -656 -519 0
-829 -772 -769 -734 -695 -316 0
-845 -829 -769 -316 0
-845 -839 -773 -734 -437 -316 0
-792 -773 -442 -437 0
-656 -463 -442 -413 0
-899 -851 -666 -523 0
-883 -851 -666 -319 0
-899 -851 -666 -319 0
-851 -666 -319 -307 0
-883 -851 -796 -666 -319 0
-843 -734 -577 -496 -366 0
-734 -725 -566 -366 0
-843 -734 -725 -577 -366 0
-792 -477 -437 -413 -347 0
-761 -656 -550 -413 -347 0
-761 -656 -550 -347 0
-912 -829 -792 -769 -734 -366 0
-912 -829 -769 -734 -366 0
-829 -769 -734 -366 -316 0
-881 -467 -463 -432 0
-912 -829 -792 -746 -519 -437 0
-761 -656 -550 -463 0
-734 -496 -366 -316 0
-734 -725 -366 -316 0
-912 -829 -734 -496 -366 0
-829 -734 -496 -366 -316 0
-792 -477 -437 -413 0
-878 -859 -843 -831 -577 -496 -366 0
-829 -812 -772 -769 -734 -316 0
-912 -883 -846 -792 -769 -746 -734 0
-912 -883 -829 -792 -746 0
-761 -656 -467 -463 0
-656 -467 -463 -413 0
-843 -677 -625 -577 0
-677 -578 -573 -566 0
-878 -859 -519 -496 -366 0
-677 -573 -564 -496 0
-677 -573 -566 -496 0
-843 -625 -577 -496 0
-912 -883 -829 -792 -734 -666 0
-878 -777 -761 -550 -519 0
-843 -625 -578 -577 0
-625 -578 -573 -566 0
-375 -367 -336 -289 0
-901 -375 -336 -289 0
-901 -886 -682 -336 -289 0
-715 -690 -390 -345 -268 0
-755 -525 -328 -268 0
-755 -727 -525 -268 0
-885 -715 -649 -648 -529 0
-648 -517 -336 -313 0
-648 -390 -336 -313 0
-715 -682 -390 -313 0
-885 -715 -690 -529 -390 0
-859 -715 -690 -423 -390 0
-885 -715 -517 -390 0
-755 -390 -367 -345 -268 0
-405 -385 -345 -268 0
-851 -755 -525 -328 0
-851 -755 -727 -525 0
-755 -448 -367 -328 -289 0
-517 -336 -313 -289 0
-901 -800 -799 -289 0
-901 -697 -482 -289 0
-844 -812 -647 -345 -271 -268 0
-844 -812 -647 -385 -271 -268 0
-844 -788 -448 -328 -271 0
-901 -800 -336 -289 0
-517 -508 -336 -313 0
-885 -682 -529 -482 -336 0
-755 -661 -466 -448 -328 0
-755 -345 -328 -268 0
-755 -727 -345 -268 0
-715 -690 -648 -423 -390 -345 0
-648 -345 -336 -313 0
-715 -690 -423 -390 -345 0
-715 -690 -534 -390 -345 0
-885 -715 -390 -345 0
-885 -715 -529 -482 0
-661 -466 -448 -433 -328 0
-797 -661 -466 -448 -433 0
-547 -475 -466 -433 0
-553 -475 -466 -433 0
-885 -853 -715 -649 -529 -466 0
-797 -671 -661 -466 -448 0
-690 -661 -536 -466 -423 0
-851 -755 -403 -328 0
-851 -755 -727 -403 0
-851 -788 -755 -403 0
-901 -800 -799 -578 0
-901 -859 -799 -697 -578 0
-755 -525 -367 -328 0
-755 -661 -448 -367 -328 0
-755 -534 -448 -367 -328 0
-755 -727 -525 -367 0
-799 -755 -727 -578 -367 0
-367 -336 -313 -289 0
-901 -336 -313 -289 0
-885 -682 -529 -482 -313 0
-788 -467 -466 -433 -328 0
-788 -661 -466 -433 -328 0
-788 -475 -466 -433 -328 0
-555 -525 -467 -328 0
-727 -555 -525 -475 0
-403 -336 -313 -289 0
-859 -799 -578 -423 0
-879 -808 -570 -534 -423 0
-715 -682 -448 -313 0
-885 -715 -517 -448 0
-885 -715 -529 -448 0
-797 -671 -517 -448 0
-859 -534 -448 -423 0
-799 -788 -727 -661 -466 -433 0
-885 -690 -661 -517 0
-885 -690 -661 -529 0
-901 -697 -508 -482 0
-851 -403 -367 -313 0
-851 -755 -403 -313 0
-901 -517 -508 -367 -313 0
-901 -697 -517 -508 -313 0
-788 -448 -433 -328 0
-555 -547 -525 -475 0
-851 -403 -336 -313 0
-859 -697 -534 -482 -423 0
-859 -799 -534 -423 0
-885 -690 -534 -517 0
-885 -690 -534 -529 0
-715 -682 -448 -328 0
-885 -715 -448 -328 0
-534 -448 -423 -328 0
-797 -661 -570 -555 -448 0
-690 -661 -555 -536 -423 0
-797 -671 -578 -570 -517 0
-788 -715 -448 -328 0
-534 -525 -448 -328 0
-369 -345 -323 -277 0
-861 -753 -661 -528 -407 -347 0
-660 -656 -613 -550 -450 0
-760 -680 -345 -323 -277 0
-680 -436 -345 -323 0
-734 -521 -316 -289 0
-828 -734 -488 -289 0
-528 -407 -347 -323 0
-662 -528 -347 -323 0
-828 -734 -566 -488 0
-656 -550 -450 -347 0
-861 -756 -690 -656 -347 0
-756 -690 -656 -423 -347 0
-662 -661 -528 -450 -347 0
-436 -369 -345 -323 0
-843 -756 -690 -656 -423 0
-407 -399 -347 -323 -289 0
-662 -399 -347 -323 -289 0
-734 -399 -316 -289 0
-662 -399 -369 -347 -323 0
-407 -369 -347 -323 0
-861 -690 -656 -369 -347 -323 0
-656 -423 -369 -347 -323 0
-828 -734 -488 -316 0
-912 -828 -734 -488 -316 0
-577 -521 -496 -316 0
-656 -450 -407 -347 0
-861 -661 -656 -407 -347 0
-861 -690 -656 -407 -347 0
-859 -726 -587 -487 -423 0
-859 -587 -487 -423 0
-859 -587 -512 -487 -423 0
-756 -690 -577 -521 -423 0
-843 -756 -690 -577 -423 0
-662 -656 -528 -450 -347 0
-859 -512 -487 -450 -423 0
-756 -690 -577 -521 -496 0
-843 -756 -690 -577 -496 0
-859 -661 -487 -450 -423 0
-756 -690 -661 -521 0
-869 -399 -347 -323 -289 0
-907 -843 -577 -496 0
-861 -662 -661 -656 -528 -407 0
-690 -662 -661 -528 -407 0
-661 -528 -450 -407 0
-661 -656 -528 -450 -407 0
-690 -661 -528 -407 0
-756 -690 -577 -550 -521 0
-661 -528 -450 -423 0
-690 -661 -528 -423 0
-861 -662 -661 -650 -528 -407 -347 0
-907 -843 -594 -587 0
-387 -381 -340 -273 0
-439 -381 -340 -273 0
-894 -793 -715 -412 -352 0
-894 -885 -793 -715 -352 0
-747 -393 -339 -273 0
-393 -387 -340 -273 0
-894 -755 -722 -306 -290 0
-715 -412 -352 -290 -287 0
-715 -412 -352 -318 -287 0
-885 -715 -352 -318 -287 0
-883 -755 -666 -466 -452 0
-894 -883 -755 -666 -352 0
-894 -755 -430 -352 -306 0
-894 -755 -662 -430 -352 0
-894 -755 -666 -430 -352 -306 0
-883 -666 -452 -430 -306 0
-883 -755 -666 -452 -430 -306 0
-747 -393 -372 -273 0
-793 -790 -715 -466 -412 0
-793 -715 -466 -452 -412 0
-885 -793 -715 -466 -452 0
-701 -619 -566 -499 0
-725 -586 -566 -366 0
-755 -754 -740 -420 -306 0
-590 -586 -524 -420 0
-885 -883 -715 -452 -318 0
-550 -471 -466 -452 0
-864 -738 -666 -662 -489 -412 0
-883 -715 -666 -452 -412 -306 0
-725 -590 -586 -566 0
-782 -619 -566 -499 0
-619 -594 -566 -499 0
-625 -619 -566 -499 0
-635 -625 -586 -524 0
-864 -793 -738 -666 -516 -489 0
-635 -625 -586 -566 0
-619 -590 -586 -566 0
-625 -614 -586 -566 0
-619 -594 -586 -566 0
-788 -658 -647 -449 -418 0
-792 -688 -647 -437 -349 0
-720 -437 -383 -269 0
-720 -656 -383 -269 0
-437 -383 -349 -269 0
-656 -383 -349 -269 0
-908 -830 -511 -496 -318 0
-908 -830 -496 -366 -331 0
-908 -830 -725 -366 -331 0
-761 -707 -688 -656 -349 0
-885 -792 -769 -372 -318 0
-788 -688 -421 -383 0
-788 -688 -418 -383 0
-792 -720 -437 -383 0
-720 -437 -411 -383 0
-720 -656 -449 -383 0
-720 -656 -449 -418 -383 0
-761 -720 -656 -383 0
-720 -656 -418 -383 0
-792 -437 -383 -349 0
-437 -411 -383 -349 0
-656 -449 -383 -349 0
-656 -418 -383 -349 0
-885 -792 -756 -720 -437 0
-720 -437 -411 -369 0
-761 -720 -656 -537 0
-720 -712 -688 -656 -647 -383 0
-908 -511 -496 -318 -291 0
-908 -867 -496 -366 -331 -291 0
-908 -496 -366 -331 -291 0
-908 -725 -366 -331 -291 0
-383 -349 -269 -266 0
-712 -688 -647 -349 -266 0
-437 -411 -369 -349 0
-761 -756 -707 -656 -349 0
-761 -656 -537 -349 0
-885 -792 -769 -366 -331 0
-885 -828 -792 -769 -331 0
-885 -792 -511 -437 -318 0
-885 -792 -527 -437 -331 0
-885 -792 -756 -527 -437 0
-867 -437 -411 -369 0
-769 -712 -658 -647 -411 -369 -355 0
-867 -527 -366 -331 0
-885 -867 -756 -366 -331 0
-725 -624 -566 -366 0
-867 -725 -566 -366 -331 0
-725 -570 -366 -331 0
-725 -566 -366 -331 0
-867 -511 -411 -369 0
-867 -496 -411 -369 0
-885 -792 -725 -366 -331 0
-885 -792 -776 -366 -331 0
-885 -828 -792 -776 -331 0
-885 -792 -661 -511 -318 0
-867 -832 -725 -511 0
-867 -511 -366 -331 0
-884 -867 -822 -693 -511 -496 0
-511 -496 -366 -331 0
-788 -769 -712 -688 -647 -411 -369 0
-527 -496 -366 -331 0
-496 -483 -366 -331 0
-884 -788 -693 -411 -369 0
-792 -661 -513 -411 0
-867 -511 -369 -318 0
-885 -792 -661 -513 0
-885 -792 -776 -708 -513 0
-792 -661 -513 -421 0
-885 -792 -708 -661 -318 0
-867 -511 -366 -318 0
-511 -496 -366 -318 0
-908 -867 -511 -318 -291 0
-511 -496 -483 -318 0
-393 -374 -332 -306 0
-851 -718 -374 -347 -332 0
-851 -374 -332 -304 0
-851 -718 -347 -332 0
-894 -883 -722 -374 -347 -306 0
-881 -826 -663 -381 0
-722 -696 -360 -277 0
-894 -731 -539 -414 0
-894 -885 -791 -731 -517 0
-894 -885 -731 -517 -331 0
-718 -663 -429 -379 -347 0
-718 -663 -444 -429 -379 -347 0
-881 -826 -457 -381 0
-851 -444 -374 -304 0
-779 -693 -476 -444 -429 -347 0
-718 -663 -393 -379 -374 0
-718 -393 -374 -347 0
-393 -374 -347 -306 0
-663 -429 -381 -354 0
-881 -663 -381 -354 0
-851 -399 -374 -304 0
-718 -663 -379 -374 -304 0
-883 -851 -399 -374 0
-718 -429 -374 -347 0
-663 -381 -354 -304 0
-663 -381 -374 -354 -304 0
-718 -374 -347 -304 0
-883 -792 -414 -331 0
-885 -883 -792 -331 0
-885 -883 -792 -517 0
-663 -444 -381 -354 -304 0
-792 -721 -444 -383 0
-444 -383 -333 -304 0
-792 -721 -444 -383 -304 0
-393 -387 -372 -267 0
-792 -729 -721 -537 -444 0
-793 -792 -721 -444 0
-878 -761 -656 -466 -444 0
-656 -466 -444 -422 0
-444 -369 -333 -304 0
-793 -792 -721 -444 -304 0
-378 -372 -333 -304 0
-519 -352 -337 -336 0
-393 -372 -320 -267 0
-412 -369 -333 -304 0
-792 -721 -412 -304 0
-761 -656 -608 -537 0
-761 -656 -590 -540 0
-656 -627 -590 -589 -513 -422 0
-761 -656 -537 -466 0
-761 -656 -540 -466 0
-656 -513 -466 -422 0
-867 -832 -667 -589 0
-476 -422 -369 -324 0
-832 -667 -589 -513 -369 0
-793 -792 -729 -667 -476 -366 0
-832 -589 -366 -324 0
-393 -372 -333 -267 0
-832 -729 -589 -537 -324 0
-761 -656 -537 -422 0
-761 -729 -656 -537 -422 0
-761 -656 -540 -422 0
-393 -372 -333 -320 -267 0
-476 -412 -369 -324 0
-641 -619 -574 -499 0
-513 -476 -422 -324 0
-793 -792 -729 -667 -589 -476 0
-590 -589 -540 -513 0
-832 -793 -667 -589 -513 0
-793 -792 -729 -590 -589 0
-729 -590 -589 -540 0
-729 -590 -589 -537 0
-729 -608 -590 -589 0
-332 -309 -280 -264 0
-904 -718 -663 -433 -351 0
-904 -788 -718 -663 -433 0
-332 -288 -280 -264 0
-530 -440 -426 -421 0
-900 -788 -736 -718 -433 0
-904 -718 -692 -433 -351 0
-814 -718 -690 -423 -324 0
-872 -814 -686 -476 -330 0
-736 -718 -447 -351 -309 0
-814 -718 -423 -351 -324 0
-904 -692 -664 -546 -433 0
-904 -692 -551 -433 0
-793 -764 -759 -736 -416 -309 0
-690 -546 -416 -399 -313 0
-904 -736 -718 -433 -351 0
-814 -543 -423 -324 0
-814 -690 -546 -423 -324 0
-790 -773 -736 -718 -351 -309 0
-736 -718 -433 -351 -309 0
-788 -736 -718 -433 -309 0
-782 -543 -423 -324 0
-606 -543 -423 -324 0
-690 -606 -543 -423 -324 0
-508 -416 -399 -313 0
-832 -586 -423 -324 0
-782 -619 -543 -423 0
-814 -519 -476 -423 -324 0
-543 -476 -423 -324 0
-519 -476 -423 -324 0
-782 -619 -560 -543 0
-690 -546 -476 -423 -324 0
-832 -690 -546 -423 -324 0
-816 -782 -664 -619 0
-782 -619 -573 -560 0
-641 -619 -573 -560 0
-816 -782 -619 -560 0
-883 -844 -452 -393 -320 -266 0
-655 -436 -369 -320 -266 0
-883 -655 -369 -320 -266 0
-727 -726 -686 -668 -648 -349 -320 0
-648 -423 -349 -320 0
-685 -648 -423 -320 0
-685 -648 -320 -316 0
-811 -718 -426 -269 0
-811 -718 -431 -269 0
-682 -392 -371 -316 0
-883 -844 -648 -393 -320 -266 0
-655 -436 -403 -303 0
-655 -436 -369 -303 -266 0
-452 -436 -423 -303 0
-452 -436 -423 -349 -303 0
-655 -444 -436 -403 0
-655 -444 -436 -369 0
-452 -444 -436 -423 0
-858 -761 -656 -550 0
-684 -648 -393 -320 -266 0
-369 -320 -294 -266 0
-648 -349 -320 -266 0
-685 -648 -320 -266 0
-761 -540 -423 -349 0
-761 -656 -540 -349 0
-761 -656 -540 -423 -349 0
-655 -511 -436 -403 0
-685 -452 -436 -423 -316 0
-844 -685 -684 -668 -436 0
-460 -452 -444 -436 0
-858 -460 -431 -407 0
-858 -761 -656 -460 0
-858 -656 -460 -423 0
-811 -718 -403 -369 0
-844 -812 -811 -718 -431 0
-684 -682 -655 -436 -369 -266 0
-685 -684 -655 -436 -369 -266 0
-816 -782 -594 -550 -452 0
-811 -718 -655 -426 -369 0
-883 -844 -511 -403 -393 0
-883 -655 -511 -403 0
-883 -685 -452 -423 -316 0
-901 -727 -726 -686 -512 -496 0
-811 -718 -655 -436 -369 0
-685 -684 -668 -655 -436 -369 0
-816 -782 -594 -550 0
-761 -555 -550 -540 0
-816 -782 -555 -550 0
-691 -577 -529 -496 -488 0
-800 -691 -577 -529 -488 0
-594 -588 -529 -488 0
-908 -830 -828 -375 0
-908 -375 -359 -318 -291 0
-810 -767 -457 -349 -319 0
-792 -722 -504 -367 -319 0
-908 -722 -488 -331 -291 0
-810 -433 -349 -319 -269 0
-810 -767 -349 -319 -269 0
-721 -444 -380 -269 0
-908 -830 -488 -331 0
-810 -380 -349 -319 -269 0
-792 -721 -444 -380 0
-792 -721 -504 -444 -380 0
-908 -830 -390 -318 0
-908 -830 -390 -331 0
-908 -830 -828 -390 0
-792 -721 -504 -444 0
-792 -721 -534 -444 0
-810 -712 -433 -349 -319 0
-810 -767 -712 -349 -319 0
-908 -488 -331 -291 0
-810 -712 -694 -411 -344 -319 0
-433 -419 -349 -319 0
-433 -419 -349 -328 -319 0
-878 -767 -349 -319 0
-792 -721 -504 -367 -319 0
-504 -411 -367 -319 0
-830 -722 -390 -344 -319 0
-908 -830 -390 -344 0
-908 -830 -390 -344 -331 0
-523 -433 -419 -349 0
-878 -767 -524 -349 0
-908 -828 -716 -694 -318 0
-878 -767 -600 -524 0
-444 -406 -390 -344 0
-901 -792 -729 -504 -367 0
-901 -792 -729 -698 -504 0
-810 -712 -694 -344 -319 0
-792 -729 -603 -504 -367 0
-792 -661 -504 -367 0
-792 -729 -664 -504 -411 -367 0
-792 -729 -603 -504 -411 -367 0
-792 -661 -504 -411 -367 0
-457 -433 -419 -328 0
-908 -716 -712 -694 -318 0
-792 -698 -661 -504 -411 0
-792 -698 -661 -504 0
-792 -729 -698 -664 -504 0
-792 -729 -698 -603 -504 0
-900 -711 -353 -340 0
-802 -734 -725 -724 -665 0
-734 -725 -665 -366 0
-767 -720 -689 -386 -267 0
-789 -767 -720 -386 0
-789 -767 -720 -527 0
-655 -477 -403 -290 0
-867 -366 -315 -290 0
-809 -734 -725 -577 -366 0
-809 -785 -734 -725 -366 0
-734 -725 -577 -521 -366 -315 0
-734 -725 -577 -521 -366 0
-789 -767 -720 -464 0
-655 -477 -403 -328 0
-900 -711 -403 -373 -328 0
-655 -477 -403 -373 -328 0
-725 -671 -577 -403 -366 -315 0
-809 -734 -725 -395 -366 0
-900 -711 -373 -340 -328 0
-900 -711 -373 -340 0
-899 -755 -689 -523 -413 -328 0
-897 -767 -735 -546 -477 -457 -413 0
-836 -734 -715 -673 -655 -366 -315 0
-900 -711 -373 -356 -328 0
-755 -689 -477 -413 -328 0
-829 -655 -521 -477 0
-829 -715 -655 -477 -328 0
-829 -655 -477 -328 0
-664 -636 -604 -546 0
-867 -829 -734 -673 -671 -366 0
-725 -577 -521 -366 -315 0
-871 -723 -370 -345 -327 -277 0
-374 -345 -327 -277 0
-376 -359 -357 -277 0
-372 -345 -327 -277 0
-376 -372 -357 -277 0
-694 -412 -376 -372 -357 0
-905 -885 -791 -516 0
-695 -694 -412 -376 -357 0
-372 -345 -305 -277 0
-372 -357 -305 -277 0
-694 -412 -372 -305 0
-452 -435 -345 -327 0
-883 -513 -374 -327 0
-905 -885 -791 -345 0
-883 -374 -345 -327 0
-695 -372 -353 -277 0
-905 -793 -435 -412 -357 0
-905 -885 -793 -435 -357 0
-513 -489 -452 -435 0
-793 -674 -452 -435 0
-674 -489 -452 -435 0
-694 -406 -372 -305 0
-883 -775 -762 -694 -348 0
-694 -374 -345 -327 0
-694 -374 -348 -327 0
-883 -775 -762 -694 -374 -348 0
-435 -374 -345 -327 0
-494 -491 -396 -370 0
-412 -376 -359 -357 0
-613 -551 -536 -418 0
-412 -376 -374 -357 0
-885 -791 -516 -452 0
-551 -536 -456 -418 0
-782 -761 -750 -742 -543 0
-883 -516 -412 -374 0
-536 -471 -456 -418 0
-412 -374 -345 -327 0
-412 -374 -348 -327 0
-883 -775 -412 -374 0
-883 -513 -412 -374 0
-791 -513 -452 -412 -357 0
-883 -793 -775 -674 -412 0
-883 -775 -452 -435 -345 0
-412 -374 -357 -327 0
-885 -791 -513 -452 0
-883 -791 -775 -452 -357 0
-879 -749 -674 -664 -589 -489 0
-782 -750 -749 -742 -594 -588 0
-782 -750 -742 -594 -588 0
-747 -663 -422 -354 -348 0
-747 -663 -422 -348 0
-878 -690 -437 -357 -320 -287 0
-690 -537 -437 -357 -320 -287 0
-769 -648 -364 -357 -320 0
-773 -656 -648 -422 -320 0
-395 -392 -291 -287 0
-793 -773 -690 -674 -437 0
-773 -690 -537 -437 0
-773 -756 -690 -437 0
-773 -447 -442 -437 0
-773 -690 -442 -437 0
-773 -656 -442 -422 0
-663 -656 -422 -354 -348 0
-773 -662 -656 -648 -422 -348 -287 0
-814 -773 -753 -721 -693 -437 0
-826 -664 -591 -475 0
-901 -697 -578 -486 0
-769 -721 -661 -447 -364 0
-769 -721 -447 -364 0
-832 -814 -578 -329 0
-769 -364 -357 -287 0
-908 -769 -364 -357 0
-793 -674 -661 -447 0
-793 -698 -674 -661 0
-832 -814 -770 -698 -578 0
-901 -697 -496 -486 0
-901 -793 -698 -674 -496 0
-832 -814 -770 -698 -496 0
-793 -698 -674 -496 0
-750 -618 -578 -574 0
-750 -631 -618 -578 0
-881 -826 -381 -269 0
-497 -403 -344 -277 0
-915 -861 -674 -661 -659 -656 0
-878 -773 -731 -539 0
-859 -773 -731 -526 0
-845 -769 -734 -731 -684 -672 -315 0
-734 -725 -366 -291 0
-828 -734 -483 -291 0
-859 -675 -526 -366 0
-878 -859 -675 -539 -366 0
-734 -725 -561 -366 0
-902 -734 -725 -674 -366 0
-915 -899 -861 -674 -661 -656 0
-915 -902 -861 -674 -661 -656 0
-769 -734 -684 -672 -366 0
-828 -769 -734 -684 -672 0
-878 -773 -731 -430 0
-773 -731 -430 -315 0
-859 -773 -731 -430 0
-674 -539 -448 -430 0
-861 -674 -661 -656 -608 -539 0
-899 -893 -861 -674 -661 -656 0
-769 -448 -341 -334 0
-448 -430 -341 -334 0
-844 -769 -403 -334 0
-769 -448 -403 -334 0
-769 -448 -403 -344 -334 0
-769 -448 -344 -334 0
-844 -811 -438 -381 -334 0
-881 -844 -811 -381 -334 0
-725 -561 -539 -366 0
-902 -725 -674 -539 -366 0
-902 -725 -674 -661 -366 0
-881 -826 -811 -381 -334 0
-828 -734 -483 -315 0
-725 -561 -366 -315 0
-902 -725 -674 -366 -315 0
-861 -674 -661 -656 -422 0
-861 -661 -656 -545 -422 0
-878 -731 -674 -539 -448 -315 0
-878 -859 -731 -674 -539 -448 0
-878 -859 -674 -539 -448 0
-902 -674 -671 -497 -448 0
-844 -829 -769 -334 0
-829 -769 -448 -334 0
-878 -674 -539 -448 -334 0
-829 -757 -674 -661 -497 0
-902 -674 -671 -661 -497 0
-829 -769 -671 -661 -545 -448 0
-844 -811 -769 -334 0
-811 -769 -448 -334 0
-811 -769 -448 -381 -334 0
-899 -829 -757 -674 -497 0
-902 -725 -674 -664 -661 0
-845 -844 -811 -430 -334 0
-628 -608 -561 -539 0
-773 -429 -347 -301 -270 0
-773 -347 -301 -270 0
-403 -344 -301 -290 0
-774 -717 -714 -464 -429 -347 0
-882 -722 -685 -336 -270 0
-773 -347 -324 -270 0
-464 -429 -381 -334 0
-661 -464 -429 -381 0
-858 -826 -456 -381 0
-858 -464 -429 -381 -334 0
-858 -661 -464 -429 -381 0
-773 -523 -347 -324 0
-773 -583 -486 -347 -324 0
-858 -826 -545 -475 0
-900 -717 -714 -429 -381 0
-722 -685 -423 -336 -290 0
-882 -722 -685 -336 -290 0
-436 -403 -344 -290 0
-792 -716 -706 -477 -403 -290 0
-717 -714 -429 -381 -333 0
-717 -714 -464 -429 -381 -333 0
-464 -429 -334 -333 0
-901 -502 -368 -336 -315 0
-814 -685 -502 -423 -336 -324 0
-685 -486 -423 -336 -324 0
-882 -685 -486 -336 0
-901 -502 -368 -336 0
-882 -486 -368 -336 0
-542 -423 -347 -324 0
-907 -814 -797 -685 -423 -324 0
-882 -685 -578 -486 0
-793 -792 -521 -436 0
-773 -523 -429 -347 -324 0
-858 -826 -456 -429 0
-523 -429 -347 -324 0
-429 -423 -347 -324 0
-792 -661 -464 -429 0
-661 -545 -464 -429 0
-464 -436 -403 -344 0
-793 -792 -464 -436 0
-464 -429 -347 -324 0
-797 -793 -792 -661 -464 0
-792 -661 -477 -464 0
-793 -792 -661 -464 0
-793 -792 -661 -502 -464 0
-722 -403 -344 -336 -290 0
-464 -436 -344 -334 0
-814 -542 -423 -324 0
-901 -792 -502 -477 -368 0
-901 -793 -521 -502 -368 0
-901 -793 -792 -502 -368 0
-882 -578 -486 -368 0
-901 -502 -477 -368 -315 0
-605 -542 -423 -324 0
-882 -604 -578 -486 0
-882 -624 -578 -486 0
-583 -486 -423 -324 0
-882 -578 -486 -423 0
-900 -760 -716 -680 -436 -333 0
-901 -792 -507 -502 -477 0
-826 -545 -475 -456 0
-464 -429 -347 -334 0
-797 -793 -792 -661 -521 0
-792 -661 -502 -477 0
-793 -792 -661 -521 0
-793 -792 -661 -502 0
-814 -792 -774 -716 -706 -477 0
-814 -797 -792 -716 -706 -477 -324 0
-814 -523 -502 -324 0
-814 -523 -477 -324 0
-814 -477 -423 -324 0
-907 -797 -604 -578 -523 -477 0
-792 -661 -528 -477 0
-792 -661 -545 -477 0
-793 -792 -661 -545 0
-793 -792 -661 -528 0
-814 -797 -793 -423 -324 0
-814 -793 -502 -423 -324 0
-814 -797 -792 -423 -324 0
-814 -793 -521 -502 -324 0
-894 -731 -414 -320 0
-894 -882 -731 -320 0
-894 -755 -320 -306 0
-755 -675 -320 -306 0
-883 -770 -675 -374 -320 0
-894 -843 -792 -731 -729 -414 0
-894 -893 -799 -755 -526 0
-894 -792 -762 -755 -731 -680 -414 0
-904 -778 -763 -589 -545 0
-894 -792 -755 -731 -729 -414 0
-905 -894 -755 -346 -306 0
-904 -778 -545 -433 0
-904 -778 -729 -433 0
-883 -770 -464 -374 0
-883 -464 -374 -306 0
-883 -829 -792 -464 0
-883 -792 -464 -414 0
-904 -778 -729 -606 -543 0
-904 -888 -778 -729 -589 0
-904 -843 -778 -729 0
-894 -771 -755 -731 -414 -374 0
-894 -755 -732 -731 -374 -306 0
-894 -755 -731 -414 -306 0
-894 -792 -755 -731 -414 -306 0
-893 -799 -755 -526 -306 0
-924 -904 -556 -433 -419 0
-904 -778 -589 -545 -454 0
-904 -778 -729 -589 -454 0
-883 -771 -770 -497 -374 0
-883 -770 -497 -374 0
-883 -829 -792 -497 0
-883 -882 -792 -731 -414 0
-888 -778 -725 -589 -545 0
-888 -778 -729 -725 -589 0
-888 -843 -778 -729 -725 0
-888 -725 -698 -589 0
-829 -792 -729 -589 -497 0
-888 -725 -589 -545 0
-888 -725 -589 -490 0
-888 -843 -729 -725 -490 0
-888 -843 -725 -594 -490 0
-888 -843 -589 -545 0
-888 -725 -698 -572 0
-725 -698 -572 -490 0
-888 -799 -725 -698 -572 0
-888 -843 -594 -589 0
-888 -843 -799 -594 -526 0
-760 -414 -368 -357 -326 0
-894 -755 -386 -306 0
-770 -386 -374 -304 0
-429 -386 -348 -334 0
-894 -386 -304 -280 0
-845 -760 -414 -357 -326 0
-858 -767 -690 -674 -466 0
-858 -778 -690 -674 -466 0
-858 -778 -553 -466 0
-755 -675 -528 -348 -334 0
-770 -722 -675 -497 -287 0
-770 -722 -675 -374 -287 0
-770 -722 -675 -374 -304 -287 0
-901 -722 -675 -368 -287 0
-414 -357 -326 -287 0
-755 -591 -528 -348 -334 0
-778 -466 -429 -348 0
-894 -722 -386 -304 -287 0
-894 -755 -386 -304 0
-845 -760 -357 -304 0
-869 -770 -374 -304 0
-770 -497 -374 -304 0
-858 -461 -454 -429 0
-528 -429 -348 -334 0
-778 -690 -466 -429 0
-778 -553 -466 -429 0
-767 -690 -674 -578 -489 0
-386 -304 -280 -273 0
-900 -760 -694 -357 -287 0
-900 -894 -722 -386 -374 -304 0
-767 -522 -466 -420 0
-878 -767 -529 -466 0
-778 -690 -674 -489 -466 0
-694 -374 -348 -334 0
-694 -374 -348 -306 0
-770 -528 -374 -334 0
-770 -591 -528 -374 -334 0
-429 -374 -348 -334 0
-875 -755 -659 -426 -374 -306 0
-426 -374 -348 -306 0
-466 -429 -348 -334 0
-578 -522 -489 -306 0
-878 -595 -529 -326 0
-767 -690 -674 -489 -420 0
-760 -694 -374 -357 -287 0
-760 -694 -374 -357 -334 0
-869 -694 -374 -334 0
-869 -770 -374 -334 0
-770 -497 -374 -334 0
-767 -690 -467 -466 0
-767 -467 -466 -414 0
-767 -467 -466 -420 0
-878 -767 -467 -466 0
-869 -694 -374 -306 0
-869 -770 -755 -675 -348 0
-760 -694 -414 -374 -357 -306 0
-767 -690 -674 -489 -420 -306 0
-690 -674 -489 -414 -306 0
-878 -690 -674 -489 -306 0
-878 -595 -537 -529 0
-690 -674 -578 -537 -489 0
-595 -583 -566 -529 0
-690 -674 -489 -414 -326 0
-878 -690 -674 -489 -326 0
-721 -680 -447 -393 -332 0
-721 -680 -447 -393 -332 -263 0
-721 -685 -680 -437 -263 0
-454 -432 -419 -381 0
-775 -773 -718 -688 -523 -419 0
-736 -655 -403 -288 0
-721 -655 -403 -288 0
-773 -718 -688 -447 -437 0
-775 -718 -454 -419 0
-688 -523 -432 -419 -381 -323 0
-432 -419 -381 -351 0
-773 -447 -437 -351 0
-773 -721 -655 -437 -351 0
-775 -718 -419 -351 0
-736 -721 -718 -447 -351 -304 0
-736 -721 -718 -447 -351 0
-785 -685 -619 -499 -366 -315 0
-721 -655 -403 -304 0
-721 -680 -447 -403 -393 -263 0
-736 -718 -655 -403 -351 0
-775 -736 -655 -403 0
-736 -721 -718 -351 -304 0
-921 -879 -489 -366 -315 0
-885 -685 -575 -499 -366 -315 0
-885 -785 -685 -499 -366 -315 0
-596 -586 -523 -420 0
-885 -685 -447 -437 0
-775 -736 -655 -419 0
-677 -641 -619 -577 -499 0
-619 -599 -560 -499 0
-641 -619 -560 -499 0
-736 -721 -718 -437 -351 0
-596 -586 -539 -527 0
-619 -599 -560 -539 0
-736 -721 -718 -685 -437 0
-895 -778 -545 -539 0
-775 -736 -721 -685 -437 0
-619 -575 -560 -499 0
-773 -736 -721 -718 -688 -653 0
-815 -482 -366 -347 -320 -268 0
-727 -347 -320 -268 0
-708 -666 -333 -320 -268 0
-675 -482 -366 -320 0
-815 -727 -675 -320 0
-815 -675 -347 -320 -306 0
-675 -366 -320 -267 0
-815 -675 -320 -267 0
-815 -521 -482 -366 -347 -268 0
-727 -525 -347 -268 0
-727 -522 -347 -268 0
-789 -727 -522 -347 -268 0
-815 -476 -386 -366 -347 -268 0
-727 -386 -347 -268 0
-373 -333 -320 -294 -268 0
-666 -333 -320 -294 -268 0
-675 -521 -482 -366 0
-815 -727 -675 -525 0
-815 -727 -675 -522 0
-815 -727 -675 -525 -347 0
-696 -570 -504 -476 -366 0
-696 -570 -476 -366 0
-434 -347 -333 -268 0
-434 -347 -333 -306 0
-708 -666 -468 -406 -333 0
-748 -696 -504 -476 -376 -366 0
-815 -727 -555 -525 0
-815 -756 -521 -482 -366 -347 0
-727 -555 -525 -347 0
-869 -764 -373 -313 0
-764 -746 -594 -570 -521 -504 -373 0
-895 -767 -756 -594 0
-555 -550 -468 -457 -406 0
-898 -789 -767 -522 0
-373 -347 -333 -268 0
-386 -373 -333 -268 0
-373 -347 -333 -306 0
-848 -746 -594 -521 -366 0
-921 -879 -594 -570 -366 0
-748 -696 -376 -366 -313 0
-748 -696 -376 -366 -357 -313 0
-708 -666 -525 -333 -306 0
-815 -521 -482 -366 -347 -306 0
-708 -666 -468 -306 0
-708 -666 -525 -306 0
-898 -789 -767 -468 0
-708 -666 -504 -468 0
-869 -764 -666 -306 0
-869 -815 -504 -476 -366 -347 0
-869 -764 -666 -313 0
-708 -666 -525 -504 0
-815 -727 -522 -476 -366 0
-890 -676 -570 -550 -476 0
-921 -879 -570 -482 -366 0
-550 -541 -525 -457 0
-573 -521 -501 -482 0
-869 -764 -666 -376 -357 -313 0
-746 -666 -594 -570 -521 -504 0
-895 -756 -594 -550 0
-773 -353 -268 -266 0
-789 -773 -767 -268 0
-858 -826 -773 -657 -268 0
-789 -773 -689 -268 0
-789 -689 -323 -268 0
-789 -767 -689 -323 -268 0
-882 -789 -366 -323 -268 0
-380 -323 -315 -268 0
-689 -380 -323 -268 0
-882 -380 -366 -323 -268 0
-858 -826 -773 -712 -268 -266 0
-773 -767 -268 -266 0
-773 -689 -268 -266 0
-884 -805 -708 -546 -323 0
-789 -689 -496 -399 -366 -323 0
-703 -689 -496 -413 -399 -366 0
-882 -496 -399 -366 0
-749 -698 -570 -477 -399 0
-773 -373 -268 -266 0
-499 -491 -366 -315 0
-869 -689 -496 -399 -366 -323 0
-749 -698 -570 -546 0
-882 -496 -491 -366 0
-749 -698 -570 -496 0
-749 -698 -570 -496 -477 0
-571 -521 -499 -491 0
-869 -682 -496 -399 -366 -323 0
-869 -703 -682 -496 -399 -366 0
-749 -610 -570 -546 0
-621 -610 -570 -546 -477 0
-621 -610 -570 -546 0
-769 -390 -332 -270 0
-390 -344 -332 -270 0
-773 -433 -332 -270 0
-773 -767 -332 -270 0
-773 -689 -332 -270 0
-885 -722 -517 -336 -331 0
-867 -722 -674 -667 -290 0
-867 -779 -722 -568 -500 -290 0
-722 -336 -331 -270 0
-769 -390 -374 -306 -270 0
-773 -767 -414 -270 0
-773 -767 -539 -414 0
-769 -718 -679 -378 -374 0
-722 -336 -331 -290 0
-867 -799 -779 -290 0
-867 -722 -667 -336 -290 0
-722 -390 -344 -336 -270 0
-769 -722 -390 -344 -336 -270 0
-867 -799 -779 -523 0
-848 -823 -779 -476 -414 -331 0
-674 -667 -539 -476 -414 0
-782 -767 -539 -457 -414 0
-767 -674 -667 -539 -457 -414 0
-885 -708 -674 -539 -334 0
-799 -779 -667 -530 -523 0
-769 -718 -390 -374 -270 0
-708 -674 -662 -539 -414 0
-885 -708 -674 -662 -539 0
-852 -809 -392 -368 0
-852 -809 -400 -392 -368 0
-852 -809 -400 -392 0
-769 -680 -355 -303 0
-769 -680 -357 -303 0
-769 -680 -411 -303 0
-719 -674 -661 -464 -435 0
-769 -680 -357 -287 0
-894 -810 -719 -348 -266 0
-925 -919 -894 -810 -266 0
-852 -809 -392 -368 -287 0
-852 -809 -392 -368 -357 -326 -287 0
-852 -392 -355 -286 0
-852 -809 -392 -355 0
-392 -355 -290 -287 0
-719 -467 -464 -435 -348 0
-456 -418 -348 -325 0
-925 -919 -822 -526 -435 0
-857 -674 -661 -603 -464 -435 0
-900 -852 -411 -392 -374 -357 0
-690 -661 -543 -464 0
-793 -674 -661 -464 0
-793 -674 -661 -502 -464 0
-769 -374 -355 -266 0
-832 -526 -400 -368 -326 0
-769 -374 -357 -266 0
-769 -374 -357 -287 0
-793 -674 -661 -511 0
-793 -674 -661 -521 0
-793 -674 -661 -502 0
-857 -793 -674 -603 -502 0
-809 -665 -499 -368 0
-809 -701 -665 -499 0
-809 -665 -392 -368 0
-809 -701 -665 -392 0
-711 -444 -340 -309 -268 0
-444 -340 -309 -268 0
-920 -905 -715 -345 -268 0
-905 -715 -424 -345 -268 0
-457 -435 -345 -268 0
-809 -679 -665 -392 0
-474 -463 -435 -381 -345 -268 0
-905 -715 -526 -424 -326 0
-905 -832 -726 -703 -689 -435 0
-905 -832 -689 -435 -325 0
-905 -689 -486 -435 -326 0
-447 -435 -339 -309 0
-438 -435 -381 -345 -268 0
-905 -715 -444 -424 0
-768 -689 -444 -435 0
-689 -444 -435 -325 0
-689 -444 -435 -326 0
-768 -457 -444 -435 0
-883 -851 -824 -813 -447 0
-809 -749 -677 -397 -368 0
-809 -665 -368 -287 0
-682 -392 -314 -287 0
-920 -905 -715 -504 -345 0
-920 -905 -715 -504 -364 -345 0
-905 -715 -424 -345 0
-768 -457 -435 -345 0
-832 -715 -526 -424 -326 0
-715 -486 -424 -326 0
-691 -689 -435 -424 -326 0
-689 -543 -435 -424 -326 0
-603 -546 -447 -435 0
-689 -444 -435 -309 0
-689 -447 -435 -309 0
-546 -463 -447 -435 0
-526 -397 -368 -326 0
-486 -397 -368 -326 0
-499 -486 -397 -368 0
-749 -677 -561 -397 0
-677 -499 -486 -397 0
-910 -813 -693 -504 -364 -325 0
-809 -701 -682 -665 -392 -314 0
-691 -561 -424 -326 0
-517 -504 -364 -314 0
-749 -691 -677 -561 -424 0
-444 -435 -340 -309 0
-768 -689 -447 -435 0
-689 -447 -435 -325 0
-689 -447 -435 -326 0
-883 -824 -813 -504 -447 -309 0
-603 -546 -543 -447 0
-444 -381 -340 -309 0
-810 -416 -323 -315 0
-814 -722 -487 -323 0
-814 -722 -504 -416 -323 0
-378 -376 -355 -313 0
-722 -323 -306 -277 0
-814 -722 -323 -277 0
-731 -435 -386 -315 0
-722 -323 -306 -294 0
-814 -722 -323 -294 0
-374 -348 -306 -271 0
-504 -416 -323 -315 0
-814 -690 -550 -504 -416 -323 0
-814 -504 -416 -323 -315 0
-877 -827 -449 -348 0
-912 -504 -416 -374 -271 0
-731 -504 -435 -416 -315 0
-777 -690 -550 -468 -406 0
-814 -813 -690 -416 -323 -315 0
-577 -496 -398 -368 0
-732 -731 -374 -323 -306 0
-870 -814 -690 -416 -323 -315 0
-814 -690 -550 -416 -323 -315 0
-615 -577 -496 -368 0
-814 -487 -323 -315 0
-511 -504 -416 -315 0
-577 -504 -416 -315 0
-912 -504 -416 -376 -374 0
-504 -416 -374 -315 0
-690 -615 -577 -504 -416 0
-534 -511 -416 -313 0
-814 -511 -504 -323 -315 0
-814 -511 -504 -487 0
-814 -690 -550 -504 -487 -416 0
-504 -416 -368 -315 0
-743 -690 -534 -527 0
-690 -577 -550 -504 -416 0
-743 -690 -596 -550 -527 0
-912 -814 -504 -416 -376 0
-814 -731 -504 -416 -323 0
-777 -690 -550 -525 -416 0
-814 -504 -416 -315 0
-912 -814 -504 -416 -323 0
-912 -814 -693 -504 -416 0
-867 -366 -301 -290 0
-810 -775 -718 -468 0
-810 -775 -718 -419 0
-810 -775 -718 -270 0
-810 -718 -436 -374 -270 0
-719 -548 -458 -435 0
-719 -548 -458 -435 -414 0
-810 -775 -718 -290 0
-810 -718 -436 -374 -290 0
-878 -815 -756 -731 -604 0
-760 -745 -344 -336 0
-775 -718 -419 -340 0
-878 -756 -731 -435 0
-878 -756 -731 -604 -435 0
-878 -731 -524 -435 0
-878 -756 -458 -435 0
-878 -524 -458 -435 0
-760 -745 -436 -374 -354 0
-731 -436 -414 -374 -354 0
-810 -718 -394 -374 -290 0
-867 -674 -667 -589 0
-812 -775 -718 -419 -374 0
-775 -718 -419 -374 0
-604 -567 -476 -366 0
-815 -731 -436 -414 -374 0
-760 -694 -663 -374 -354 0
-760 -663 -436 -374 -354 0
-790 -663 -649 -436 -374 -354 0
-760 -718 -663 -436 -374 0
-810 -718 -394 -314 -290 0
-567 -503 -476 -366 0
-674 -667 -589 -476 0
-604 -589 -567 -476 0
-436 -414 -374 -306 0
-760 -745 -718 -694 -374 0
-731 -718 -436 -414 -374 0
-878 -756 -604 -548 -458 0
-799 -671 -667 -567 -517 0
-671 -667 -517 -476 0
-816 -785 -604 -567 0
-816 -638 -604 -567 0
-799 -604 -583 -567 -524 0
-785 -614 -604 -567 0
-671 -667 -582 -567 -517 0
-674 -604 -600 -589 -523 0
-756 -604 -589 -523 0
-871 -815 -528 -407 -325 0
-871 -815 -589 -492 -325 0
-915 -871 -815 -528 -492 -325 0
-871 -815 -648 -528 -407 -325 0
-871 -815 -648 -492 -325 0
-871 -815 -799 -669 -648 0
-858 -431 -407 -383 0
-721 -437 -357 -305 0
-871 -815 -492 -325 -289 0
-648 -411 -357 -319 0
-743 -650 -649 -648 -319 0
-793 -655 -521 -437 -411 0
-793 -743 -677 -650 -521 -502 0
-793 -721 -655 -521 0
-770 -655 -526 -492 -325 0
-770 -655 -528 -492 0
-793 -677 -521 -502 -396 0
-793 -743 -677 -521 -502 -396 0
-677 -502 -396 -360 0
-888 -799 -669 -589 -326 0
-888 -799 -589 -526 -326 0
-799 -583 -566 -526 -326 0
-793 -655 -521 -411 0
-793 -655 -521 -491 0
-908 -736 -655 -411 -357 0
-915 -736 -655 -492 -431 -325 0
-915 -768 -655 -492 -325 0
-915 -655 -492 -431 -325 0
-768 -655 -526 -492 -325 0
-619 -583 -566 -491 0
-583 -566 -521 -491 0
-888 -799 -603 -589 -526 0
-583 -539 -521 -491 0
-793 -655 -521 -492 0
-736 -721 -658 -437 -357 0
-736 -658 -655 -411 -357 0
-793 -655 -528 -492 0
-603 -589 -539 -528 0
-793 -655 -526 -492 -325 0
-793 -521 -502 -491 0
-888 -619 -603 -589 0
-603 -589 -539 -521 0
-734 -665 -486 -326 0
-773 -689 -422 -268 0
-773 -768 -689 -268 0
-814 -768 -727 -718 -689 -268 0
-814 -727 -718 -526 -268 0
-773 -689 -648 -486 -326 0
-734 -648 -517 -316 0
-734 -648 -526 -326 0
-734 -648 -486 -326 0
-760 -682 -394 -314 0
-760 -682 -371 -316 0
-885 -760 -682 -680 -316 0
-760 -682 -680 -316 0
-858 -728 -705 -661 -466 0
-858 -816 -664 -661 -466 0
-858 -729 -661 -466 0
-851 -661 -466 -448 -364 0
-851 -814 -727 -526 0
-851 -814 -768 -727 0
-734 -517 -316 -289 0
-885 -734 -529 -316 -289 0
-734 -526 -326 -289 0
-734 -486 -326 -289 0
-814 -768 -761 -727 -718 -526 0
-814 -768 -761 -727 -718 0
-775 -718 -345 -268 0
-814 -727 -718 -345 -268 0
-814 -718 -560 -502 -486 -345 -268 0
-734 -648 -345 -316 0
-734 -648 -345 -326 0
-760 -682 -680 -271 0
-858 -467 -466 -434 0
-858 -661 -466 -434 0
-885 -791 -560 -517 -502 0
-843 -729 -661 -466 0
-734 -394 -316 -289 0
-734 -394 -326 -289 0
-734 -394 -371 -289 0
-517 -502 -394 -314 0
-851 -775 -718 -364 0
-812 -775 -764 -718 -364 0
-885 -734 -673 -517 -502 -326 0
-734 -394 -314 -289 0
-814 -517 -502 -314 0
-843 -749 -729 -677 -534 0
-814 -727 -526 -502 0
-560 -526 -502 -486 0
-843 -749 -729 -534 -502 0
-843 -729 -636 -597 -534 0
-843 -749 -729 -560 0
-843 -749 -729 -664 -661 0
-843 -749 -729 -664 0
-843 -729 -664 -636 0
-814 -727 -517 -502 0
-560 -517 -502 -486 0
-814 -517 -502 -316 0
-729 -664 -591 -534 0
-517 -502 -371 -316 0
-843 -729 -664 -591 0
-843 -816 -729 -636 -628 0
-773 -689 -423 -270 0
-773 -727 -689 -270 0
-779 -727 -675 -327 -270 0
-690 -689 -688 -535 -423 0
-761 -689 -688 -540 -423 0
-773 -690 -689 -535 -423 0
-773 -727 -689 -512 0
-694 -682 -680 -672 -412 -336 0
-779 -727 -675 -512 0
-689 -688 -423 -327 0
-828 -696 -488 -336 0
-787 -696 -500 -336 0
-843 -690 -689 -535 -423 0
-696 -694 -682 -412 -336 0
-682 -436 -412 -336 -315 0
-535 -521 -436 -412 0
-861 -843 -749 -690 -535 0
-861 -843 -690 -636 -535 0
-773 -712 -694 -688 -327 0
-712 -694 -344 -327 0
-811 -459 -431 -334 0
-690 -535 -521 -423 -315 0
-811 -431 -406 -334 0
-828 -696 -682 -412 -336 0
-787 -696 -682 -412 -336 0
-727 -689 -512 -450 -423 0
-843 -749 -690 -535 -500 0
-824 -797 -594 -535 -521 -334 0
-690 -661 -535 -521 0
-816 -558 -550 -474 0
-843 -749 -507 -500 0
-750 -749 -507 -500 0
-843 -749 -594 -500 0
-750 -749 -620 -500 0
-750 -749 -587 -500 0
-712 -694 -682 -412 -327 0
-843 -749 -690 -550 -535 0
-843 -690 -636 -550 -535 0
-899 -797 -535 -512 0
-899 -797 -690 -535 -423 -315 0
-899 -797 -535 -521 0
-899 -797 -594 -587 -535 0
-843 -750 -749 -594 -587 0
-668 -648 -386 -331 0
-668 -386 -349 -331 0
-719 -431 -407 -349 -327 0
-492 -452 -406 -334 0
-721 -407 -373 -334 0
-805 -796 -502 -492 -452 0
-721 -373 -356 -334 0
-721 -715 -356 -334 0
-789 -721 -715 -537 -452 -334 0
-721 -715 -452 -356 -334 0
-789 -721 -537 -452 -334 0
-715 -492 -452 -356 -334 0
-789 -537 -492 -452 -334 0
-727 -715 -512 -492 -452 -356 0
-907 -902 -625 -578 -502 0
-721 -431 -407 -334 0
-750 -635 -625 -486 0
-721 -715 -407 -334 0
-721 -452 -407 -334 0
-805 -796 -517 -502 -492 0
-537 -528 -492 -452 0
-554 -537 -474 -457 0
-805 -796 -727 -517 -502 0
-750 -625 -583 -486 0
-537 -512 -492 -452 0
-352 -332 -290 -287 0
-441 -381 -340 -273 0
-858 -381 -340 -273 0
-894 -767 -542 -420 -352 0
-859 -767 -420 -390 -352 0
-858 -466 -452 -430 -381 0
-858 -466 -452 -381 0
-897 -858 -707 -466 -452 -430 0
-858 -492 -466 -452 0
-767 -420 -352 -290 -287 0
-859 -830 -767 -420 -352 -287 0
-859 -767 -420 -352 -287 0
-888 -859 -848 -799 -604 0
-858 -466 -381 -340 0
-858 -466 -430 -381 -340 0
-859 -767 -488 -420 -352 0
-859 -799 -767 -420 -352 0
-830 -680 -393 -390 -375 0
-492 -452 -430 -306 0
-814 -767 -725 -492 -452 0
-767 -542 -466 -420 0
-492 -466 -452 -306 0
-814 -492 -466 -452 0
-814 -767 -492 -452 -420 0
-707 -604 -542 -518 -420 0
-859 -767 -488 -452 -420 0
-859 -799 -767 -452 -420 0
-814 -725 -561 -492 -452 -306 0
-814 -725 -561 -492 -452 0
-767 -542 -471 -466 -420 0
-767 -542 -471 -466 -452 -420 0
-492 -471 -466 -452 0
-814 -813 -738 -412 -306 0
-725 -707 -604 -561 -542 0
-725 -707 -613 -604 -561 0
-888 -799 -707 -604 -542 0
-707 -604 -561 -542 -518 0
-767 -492 -452 -420 -306 0
-859 -767 -492 -452 -420 0
-811 -767 -662 -492 -452 0
-897 -777 -707 -542 -518 0
-814 -777 -725 -561 -492 0
-859 -799 -725 -561 -518 0
-691 -561 -529 -488 0
-767 -662 -492 -452 -420 0
-902 -888 -859 -799 -691 -420 0
-888 -799 -691 -604 -529 0
-694 -372 -293 -280 -262 0
-811 -747 -711 -662 -422 0
-747 -711 -666 -662 -422 0
-747 -437 -345 -268 0
-773 -747 -437 -268 0
-773 -747 -656 -268 0
-830 -682 -412 -320 -287 0
-845 -694 -372 -320 -293 0
-747 -711 -666 -662 -422 -268 0
-711 -666 -662 -422 -340 -268 0
-883 -528 -340 -309 -268 0
-811 -662 -422 -381 -268 0
-773 -447 -437 -268 0
-773 -656 -454 -268 0
-773 -656 -422 -268 0
-773 -768 -656 -268 0
-830 -734 -667 -367 -326 0
-830 -734 -501 -371 0
-830 -734 -697 -501 0
-694 -372 -320 -293 -287 0
-830 -694 -682 -412 -372 -287 0
-694 -412 -372 -314 0
-883 -773 -667 -666 -447 -437 0
-773 -656 -523 -422 0
-773 -768 -656 -542 0
-773 -768 -656 -523 0
-747 -711 -666 -662 -293 0
-747 -711 -666 -662 -528 -293 0
-747 -345 -293 -268 0
-830 -682 -320 -293 -287 0
-340 -320 -293 -268 0
-773 -656 -320 -293 -268 0
-852 -830 -734 -367 -326 -285 0
-852 -830 -734 -371 -285 0
-852 -830 -734 -697 -285 0
-381 -340 -309 -280 0
-811 -711 -662 -454 -422 0
-340 -320 -309 -287 -268 0
-830 -682 -314 -287 0
-734 -667 -535 -367 -326 0
-773 -437 -340 -268 0
-773 -656 -340 -268 0
-711 -666 -662 -422 -340 0
-773 -747 -711 -345 -309 -268 0
-773 -656 -422 -345 0
-773 -768 -656 -345 0
-915 -768 -707 -610 -542 0
-915 -662 -656 -545 -528 0
-897 -870 -861 -667 -656 -535 0
-768 -656 -597 -542 0
-845 -437 -345 -309 0
-921 -883 -861 -667 -666 -447 -437 0
-747 -694 -381 -293 -268 0
-694 -381 -320 -293 -268 0
-773 -694 -320 -293 -268 0
-482 -397 -367 -326 0
-667 -535 -397 -367 0
-747 -694 -372 -293 -268 0
-845 -372 -340 -309 0
-768 -666 -662 -542 -523 0
-666 -662 -454 -422 0
-441 -381 -340 -309 0
-915 -897 -861 -707 -662 -656 0
-768 -707 -662 -542 -523 0
-830 -734 -682 -412 -367 -326 0
-897 -861 -707 -656 -422 0
-662 -545 -528 -422 0
-845 -437 -340 -309 0
-845 -711 -437 -340 -309 0
-897 -870 -861 -535 -447 -437 0
-711 -667 -666 -535 -447 -309 0
-883 -667 -666 -535 -447 0
-845 -711 -437 -345 -309 0
-845 -381 -340 -309 0
-915 -883 -861 -662 -656 -528 0
-667 -535 -482 -367 -326 0
-883 -666 -662 -447 -422 0
-883 -666 -662 -656 -447 -422 0
-845 -811 -711 -437 -309 0
-811 -711 -447 -437 -309 0
-883 -667 -666 -535 -528 0
-667 -666 -662 -535 -528 0
-667 -535 -517 -367 -326 0
-768 -597 -578 -542 -523 0
-810 -767 -755 -424 -349 0
-810 -789 -767 -755 -349 0
-822 -810 -789 -779 -675 0
-895 -822 -810 -789 -779 -675 0
-779 -722 -675 -490 0
-895 -825 -767 -755 -349 0
-830 -779 -722 -675 -667 0
-844 -655 -403 -292 -280 0
-904 -858 -767 -534 -424 0
-904 -858 -767 -756 -424 0
-779 -675 -674 -667 -534 0
-830 -722 -675 -363 -295 0
-830 -779 -722 -675 -295 0
-895 -767 -756 -349 0
-767 -534 -424 -349 0
-767 -756 -424 -349 0
-789 -767 -526 -349 0
-655 -436 -403 -363 0
-829 -655 -436 -316 0
-895 -767 -756 -595 0
-779 -767 -674 -667 -534 -424 0
-767 -756 -595 -424 0
-844 -829 -655 -316 0
-655 -464 -436 -403 0
-829 -655 -464 -436 0
-674 -655 -534 -464 -436 0
-473 -464 -449 -418 0
-904 -767 -756 -608 -424 0
-854 -844 -825 -679 -333 0
-899 -671 -667 -403 -328 0
-785 -750 -499 -396 0
-895 -779 -724 -674 -667 -534 -424 0
-810 -675 -363 -333 -328 0
-755 -675 -363 -328 0
-899 -674 -655 -403 -363 0
-674 -655 -534 -403 -363 0
-895 -767 -755 -349 -328 0
-904 -767 -534 -449 -424 0
-904 -767 -756 -449 -424 0
-844 -436 -350 -333 0
-904 -767 -534 -473 -424 0
-904 -767 -756 -473 -424 0
-526 -473 -449 -418 0
-508 -499 -490 -396 0
-571 -508 -499 -490 0
-785 -750 -625 -499 0
-779 -674 -667 -534 -490 0
-895 -789 -756 -595 -526 0
-829 -822 -779 -671 -667 0
-899 -829 -671 -667 -316 0
-851 -844 -764 -436 -320 0
-433 -382 -348 -273 0
-760 -716 -376 -276 0
-904 -433 -382 -348 0
-905 -779 -668 -489 -349 0
-442 -433 -423 -349 0
-461 -445 -442 -433 0
-904 -692 -657 -442 -433 0
-851 -844 -764 -528 -334 0
-851 -844 -764 -334 -266 0
-779 -729 -668 -535 -489 0
-779 -668 -594 -535 -489 0
-461 -445 -433 -348 0
-904 -692 -433 -348 0
-859 -668 -522 -349 0
-859 -522 -423 -349 0
-779 -685 -668 -535 -489 0
-888 -859 -779 -685 -489 -423 0
-905 -779 -668 -436 -349 0
-905 -697 -668 -436 -349 0
-905 -859 -436 -423 -349 0
-905 -859 -685 -668 -436 0
-905 -779 -685 -668 -436 0
-904 -657 -541 -433 0
-844 -760 -716 -436 -376 0
-905 -844 -753 -668 -436 -349 0
-905 -844 -668 -436 -349 0
-905 -844 -685 -668 -436 0
-844 -764 -433 -348 -334 0
-844 -433 -348 -334 0
-904 -433 -348 -334 0
-779 -668 -489 -315 0
-779 -668 -489 -349 -315 0
-851 -399 -313 -266 0
-905 -447 -436 -423 -349 0
-905 -685 -447 -436 -423 0
-729 -661 -535 -447 0
-844 -760 -716 -436 -334 0
-905 -844 -436 -349 -334 0
-760 -716 -447 -436 -334 0
-905 -447 -436 -349 -334 0
-905 -685 -447 -436 -334 0
-905 -685 -668 -447 -436 -334 0
-829 -535 -489 -313 0
-844 -436 -348 -334 0
-447 -436 -348 -334 0
-399 -376 -313 -291 0
-447 -433 -348 -334 0
-851 -399 -376 -313 0
-594 -535 -529 -483 0
-905 -844 -436 -348 -334 0
-800 -779 -729 -574 -535 -489 0
-729 -661 -535 -528 0
-843 -729 -661 -535 -528 0
-859 -829 -779 -535 -489 0
-859 -779 -535 -489 -423 0
-594 -535 -529 -489 0
-747 -656 -349 -327 0
-442 -406 -381 -350 0
-762 -653 -374 -349 -327 -315 0
-349 -327 -315 -290 0
-436 -374 -327 -290 0
-893 -884 -662 -407 -327 0
-656 -454 -349 -327 0
-789 -656 -349 -327 0
-789 -656 -537 -349 0
-789 -656 -527 -349 0
-789 -656 -522 -349 0
-789 -656 -608 -537 0
-760 -436 -374 -355 -327 0
-412 -374 -355 -327 0
-656 -374 -349 -327 0
-912 -706 -412 -368 -336 0
-912 -868 -706 -412 -368 0
-912 -706 -412 -374 -336 0
-690 -631 -595 -535 0
-756 -690 -595 -560 0
-625 -608 -589 -528 -473 0
-412 -374 -349 -327 0
-800 -756 -749 -608 -595 0
-436 -374 -349 -327 0
-789 -608 -537 -522 -487 0
-789 -625 -608 -537 -522 -487 0
-756 -595 -560 -527 0
-589 -560 -512 -487 0
-756 -608 -595 -560 0
-595 -560 -512 -487 0
