p cnf 795 54444
1 2 3 4 5 0
-1 -2 0
-1 -3 0
-1 -4 0
-1 -5 0
-2 -3 0
-2 -4 0
-2 -5 0
-3 -4 0
-3 -5 0
-4 -5 0
6 7 8 9 10 0
-6 -7 0
-6 -8 0
-6 -9 0
-6 -10 0
-7 -8 0
-7 -9 0
-7 -10 0
-8 -9 0
-8 -10 0
-9 -10 0
11 12 13 14 15 0
-11 -12 0
-11 -13 0
-11 -14 0
-11 -15 0
-12 -13 0
-12 -14 0
-12 -15 0
-13 -14 0
-13 -15 0
-14 -15 0
16 17 18 19 20 0
-16 -17 0
-16 -18 0
-16 -19 0
-16 -20 0
-17 -18 0
-17 -19 0
-17 -20 0
-18 -19 0
-18 -20 0
-19 -20 0
21 22 23 24 25 0
-21 -22 0
-21 -23 0
-21 -24 0
-21 -25 0
-22 -23 0
-22 -24 0
-22 -25 0
-23 -24 0
-23 -25 0
-24 -25 0
26 27 28 29 30 0
-26 -27 0
-26 -28 0
-26 -29 0
-26 -30 0
-27 -28 0
-27 -29 0
-27 -30 0
-28 -29 0
-28 -30 0
-29 -30 0
31 32 33 34 35 0
-31 -32 0
-31 -33 0
-31 -34 0
-31 -35 0
-32 -33 0
-32 -34 0
-32 -35 0
-33 -34 0
-33 -35 0
-34 -35 0
36 37 38 39 40 0
-36 -37 0
-36 -38 0
-36 -39 0
-36 -40 0
-37 -38 0
-37 -39 0
-37 -40 0
-38 -39 0
-38 -40 0
-39 -40 0
41 42 43 44 45 0
-41 -42 0
-41 -43 0
-41 -44 0
-41 -45 0
-42 -43 0
-42 -44 0
-42 -45 0
-43 -44 0
-43 -45 0
-44 -45 0
46 47 48 49 50 0
-46 -47 0
-46 -48 0
-46 -49 0
-46 -50 0
-47 -48 0
-47 -49 0
-47 -50 0
-48 -49 0
-48 -50 0
-49 -50 0
51 52 53 54 55 0
-51 -52 0
-51 -53 0
-51 -54 0
-51 -55 0
-52 -53 0
-52 -54 0
-52 -55 0
-53 -54 0
-53 -55 0
-54 -55 0
56 57 58 59 60 0
-56 -57 0
-56 -58 0
-56 -59 0
-56 -60 0
-57 -58 0
-57 -59 0
-57 -60 0
-58 -59 0
-58 -60 0
-59 -60 0
61 62 63 64 65 0
-61 -62 0
-61 -63 0
-61 -64 0
-61 -65 0
-62 -63 0
-62 -64 0
-62 -65 0
-63 -64 0
-63 -65 0
-64 -65 0
66 67 68 69 70 0
-66 -67 0
-66 -68 0
-66 -69 0
-66 -70 0
-67 -68 0
-67 -69 0
-67 -70 0
-68 -69 0
-68 -70 0
-69 -70 0
71 72 73 74 75 0
-71 -72 0
-71 -73 0
-71 -74 0
-71 -75 0
-72 -73 0
-72 -74 0
-72 -75 0
-73 -74 0
-73 -75 0
-74 -75 0
76 77 78 79 80 0
-76 -77 0
-76 -78 0
-76 -79 0
-76 -80 0
-77 -78 0
-77 -79 0
-77 -80 0
-78 -79 0
-78 -80 0
-79 -80 0
81 82 83 84 85 0
-81 -82 0
-81 -83 0
-81 -84 0
-81 -85 0
-82 -83 0
-82 -84 0
-82 -85 0
-83 -84 0
-83 -85 0
-84 -85 0
86 87 88 89 90 0
-86 -87 0
-86 -88 0
-86 -89 0
-86 -90 0
-87 -88 0
-87 -89 0
-87 -90 0
-88 -89 0
-88 -90 0
-89 -90 0
91 92 93 94 95 0
-91 -92 0
-91 -93 0
-91 -94 0
-91 -95 0
-92 -93 0
-92 -94 0
-92 -95 0
-93 -94 0
-93 -95 0
-94 -95 0
96 97 98 99 100 0
-96 -97 0
-96 -98 0
-96 -99 0
-96 -100 0
-97 -98 0
-97 -99 0
-97 -100 0
-98 -99 0
-98 -100 0
-99 -100 0
101 102 103 104 105 0
-101 -102 0
-101 -103 0
-101 -104 0
-101 -105 0
-102 -103 0
-102 -104 0
-102 -105 0
-103 -104 0
-103 -105 0
-104 -105 0
106 107 108 109 110 0
-106 -107 0
-106 -108 0
-106 -109 0
-106 -110 0
-107 -108 0
-107 -109 0
-107 -110 0
-108 -109 0
-108 -110 0
-109 -110 0
111 112 113 114 115 0
-111 -112 0
-111 -113 0
-111 -114 0
-111 -115 0
-112 -113 0
-112 -114 0
-112 -115 0
-113 -114 0
-113 -115 0
-114 -115 0
116 117 118 119 120 0
-116 -117 0
-116 -118 0
-116 -119 0
-116 -120 0
-117 -118 0
-117 -119 0
-117 -120 0
-118 -119 0
-118 -120 0
-119 -120 0
121 122 123 124 125 0
-121 -122 0
-121 -123 0
-121 -124 0
-121 -125 0
-122 -123 0
-122 -124 0
-122 -125 0
-123 -124 0
-123 -125 0
-124 -125 0
126 127 128 129 130 0
-126 -127 0
-126 -128 0
-126 -129 0
-126 -130 0
-127 -128 0
-127 -129 0
-127 -130 0
-128 -129 0
-128 -130 0
-129 -130 0
131 132 133 134 135 0
-131 -132 0
-131 -133 0
-131 -134 0
-131 -135 0
-132 -133 0
-132 -134 0
-132 -135 0
-133 -134 0
-133 -135 0
-134 -135 0
136 137 138 139 140 0
-136 -137 0
-136 -138 0
-136 -139 0
-136 -140 0
-137 -138 0
-137 -139 0
-137 -140 0
-138 -139 0
-138 -140 0
-139 -140 0
141 142 143 144 145 0
-141 -142 0
-141 -143 0
-141 -144 0
-141 -145 0
-142 -143 0
-142 -144 0
-142 -145 0
-143 -144 0
-143 -145 0
-144 -145 0
146 147 148 149 150 0
-146 -147 0
-146 -148 0
-146 -149 0
-146 -150 0
-147 -148 0
-147 -149 0
-147 -150 0
-148 -149 0
-148 -150 0
-149 -150 0
151 152 153 154 155 0
-151 -152 0
-151 -153 0
-151 -154 0
-151 -155 0
-152 -153 0
-152 -154 0
-152 -155 0
-153 -154 0
-153 -155 0
-154 -155 0
-1 -6 0
-2 -7 0
-3 -8 0
-4 -9 0
-5 -10 0
-1 -11 0
-2 -12 0
-3 -13 0
-4 -14 0
-5 -15 0
-1 -6 -11 0
-2 -7 -12 0
-3 -8 -13 0
-4 -9 -14 0
-5 -10 -15 0
-1 -11 0
-2 -12 0
-3 -13 0
-4 -14 0
-5 -15 0
-1 -6 0
-2 -7 0
-3 -8 0
-4 -9 0
-5 -10 0
-1 -6 0
-2 -7 0
-3 -8 0
-4 -9 0
-5 -10 0
-1 -11 0
-2 -12 0
-3 -13 0
-4 -14 0
-5 -15 0
-1 -16 -21 0
-2 -17 -22 0
-3 -18 -23 0
-4 -19 -24 0
-5 -20 -25 0
-1 -26 0
-2 -27 0
-3 -28 0
-4 -29 0
-5 -30 0
-1 -31 0
-2 -32 0
-3 -33 0
-4 -34 0
-5 -35 0
-1 -26 -31 0
-2 -27 -32 0
-3 -28 -33 0
-4 -29 -34 0
-5 -30 -35 0
-1 -21 -31 0
-2 -22 -32 0
-3 -23 -33 0
-4 -24 -34 0
-5 -25 -35 0
-1 -21 -26 0
-2 -22 -27 0
-3 -23 -28 0
-4 -24 -29 0
-5 -25 -30 0
-1 -21 -26 0
-2 -22 -27 0
-3 -23 -28 0
-4 -24 -29 0
-5 -25 -30 0
-1 -21 -31 0
-2 -22 -32 0
-3 -23 -33 0
-4 -24 -34 0
-5 -25 -35 0
-1 -36 -41 0
-2 -37 -42 0
-3 -38 -43 0
-4 -39 -44 0
-5 -40 -45 0
-1 -46 0
-2 -47 0
-3 -48 0
-4 -49 0
-5 -50 0
-1 -51 0
-2 -52 0
-3 -53 0
-4 -54 0
-5 -55 0
-1 -46 -51 0
-2 -47 -52 0
-3 -48 -53 0
-4 -49 -54 0
-5 -50 -55 0
-1 -41 -51 0
-2 -42 -52 0
-3 -43 -53 0
-4 -44 -54 0
-5 -45 -55 0
-1 -41 -46 0
-2 -42 -47 0
-3 -43 -48 0
-4 -44 -49 0
-5 -45 -50 0
-1 -41 -46 0
-2 -42 -47 0
-3 -43 -48 0
-4 -44 -49 0
-5 -45 -50 0
-1 -41 -51 0
-2 -42 -52 0
-3 -43 -53 0
-4 -44 -54 0
-5 -45 -55 0
-1 -56 -61 0
-2 -57 -62 0
-3 -58 -63 0
-4 -59 -64 0
-5 -60 -65 0
-1 -66 0
-2 -67 0
-3 -68 0
-4 -69 0
-5 -70 0
-1 -71 0
-2 -72 0
-3 -73 0
-4 -74 0
-5 -75 0
-1 -66 -71 0
-2 -67 -72 0
-3 -68 -73 0
-4 -69 -74 0
-5 -70 -75 0
-1 -61 -71 0
-2 -62 -72 0
-3 -63 -73 0
-4 -64 -74 0
-5 -65 -75 0
-1 -61 -66 0
-2 -62 -67 0
-3 -63 -68 0
-4 -64 -69 0
-5 -65 -70 0
-1 -61 -66 0
-2 -62 -67 0
-3 -63 -68 0
-4 -64 -69 0
-5 -65 -70 0
-1 -61 -71 0
-2 -62 -72 0
-3 -63 -73 0
-4 -64 -74 0
-5 -65 -75 0
-1 -76 -81 0
-2 -77 -82 0
-3 -78 -83 0
-4 -79 -84 0
-5 -80 -85 0
-1 -86 0
-2 -87 0
-3 -88 0
-4 -89 0
-5 -90 0
-1 -91 0
-2 -92 0
-3 -93 0
-4 -94 0
-5 -95 0
-1 -86 -91 0
-2 -87 -92 0
-3 -88 -93 0
-4 -89 -94 0
-5 -90 -95 0
-1 -81 -91 0
-2 -82 -92 0
-3 -83 -93 0
-4 -84 -94 0
-5 -85 -95 0
-1 -81 -86 0
-2 -82 -87 0
-3 -83 -88 0
-4 -84 -89 0
-5 -85 -90 0
-1 -81 -86 0
-2 -82 -87 0
-3 -83 -88 0
-4 -84 -89 0
-5 -85 -90 0
-1 -81 -91 0
-2 -82 -92 0
-3 -83 -93 0
-4 -84 -94 0
-5 -85 -95 0
-1 -96 -101 0
-2 -97 -102 0
-3 -98 -103 0
-4 -99 -104 0
-5 -100 -105 0
-1 -106 0
-2 -107 0
-3 -108 0
-4 -109 0
-5 -110 0
-1 -111 0
-2 -112 0
-3 -113 0
-4 -114 0
-5 -115 0
-1 -106 -111 0
-2 -107 -112 0
-3 -108 -113 0
-4 -109 -114 0
-5 -110 -115 0
-1 -101 -111 0
-2 -102 -112 0
-3 -103 -113 0
-4 -104 -114 0
-5 -105 -115 0
-1 -101 -106 0
-2 -102 -107 0
-3 -103 -108 0
-4 -104 -109 0
-5 -105 -110 0
-1 -101 -106 0
-2 -102 -107 0
-3 -103 -108 0
-4 -104 -109 0
-5 -105 -110 0
-1 -101 -111 0
-2 -102 -112 0
-3 -103 -113 0
-4 -104 -114 0
-5 -105 -115 0
-1 -116 -121 0
-2 -117 -122 0
-3 -118 -123 0
-4 -119 -124 0
-5 -120 -125 0
-1 -126 0
-2 -127 0
-3 -128 0
-4 -129 0
-5 -130 0
-1 -131 0
-2 -132 0
-3 -133 0
-4 -134 0
-5 -135 0
-1 -126 -131 0
-2 -127 -132 0
-3 -128 -133 0
-4 -129 -134 0
-5 -130 -135 0
-1 -121 -131 0
-2 -122 -132 0
-3 -123 -133 0
-4 -124 -134 0
-5 -125 -135 0
-1 -121 -126 0
-2 -122 -127 0
-3 -123 -128 0
-4 -124 -129 0
-5 -125 -130 0
-1 -121 -126 0
-2 -122 -127 0
-3 -123 -128 0
-4 -124 -129 0
-5 -125 -130 0
-1 -121 -131 0
-2 -122 -132 0
-3 -123 -133 0
-4 -124 -134 0
-5 -125 -135 0
-1 -136 -141 0
-2 -137 -142 0
-3 -138 -143 0
-4 -139 -144 0
-5 -140 -145 0
-1 -146 0
-2 -147 0
-3 -148 0
-4 -149 0
-5 -150 0
-1 -151 0
-2 -152 0
-3 -153 0
-4 -154 0
-5 -155 0
-1 -146 -151 0
-2 -147 -152 0
-3 -148 -153 0
-4 -149 -154 0
-5 -150 -155 0
-1 -141 -151 0
-2 -142 -152 0
-3 -143 -153 0
-4 -144 -154 0
-5 -145 -155 0
-1 -141 -146 0
-2 -142 -147 0
-3 -143 -148 0
-4 -144 -149 0
-5 -145 -150 0
-1 -141 -146 0
-2 -142 -147 0
-3 -143 -148 0
-4 -144 -149 0
-5 -145 -150 0
-1 -141 -151 0
-2 -142 -152 0
-3 -143 -153 0
-4 -144 -154 0
-5 -145 -155 0
-6 -11 0
-7 -12 0
-8 -13 0
-9 -14 0
-10 -15 0
-6 -11 0
-7 -12 0
-8 -13 0
-9 -14 0
-10 -15 0
-1 -6 0
-2 -7 0
-3 -8 0
-4 -9 0
-5 -10 0
-6 -11 0
-7 -12 0
-8 -13 0
-9 -14 0
-10 -15 0
-1 -6 -11 0
-2 -7 -12 0
-3 -8 -13 0
-4 -9 -14 0
-5 -10 -15 0
-1 -6 0
-2 -7 0
-3 -8 0
-4 -9 0
-5 -10 0
-6 -16 -26 0
-7 -17 -27 0
-8 -18 -28 0
-9 -19 -29 0
-10 -20 -30 0
-6 -21 -26 0
-7 -22 -27 0
-8 -23 -28 0
-9 -24 -29 0
-10 -25 -30 0
-6 -31 0
-7 -32 0
-8 -33 0
-9 -34 0
-10 -35 0
-6 -26 -31 0
-7 -27 -32 0
-8 -28 -33 0
-9 -29 -34 0
-10 -30 -35 0
-6 -21 0
-7 -22 0
-8 -23 0
-9 -24 0
-10 -25 0
-6 -26 -31 0
-7 -27 -32 0
-8 -28 -33 0
-9 -29 -34 0
-10 -30 -35 0
-6 -21 -31 0
-7 -22 -32 0
-8 -23 -33 0
-9 -24 -34 0
-10 -25 -35 0
-6 -21 -26 0
-7 -22 -27 0
-8 -23 -28 0
-9 -24 -29 0
-10 -25 -30 0
-6 -36 -46 0
-7 -37 -47 0
-8 -38 -48 0
-9 -39 -49 0
-10 -40 -50 0
-6 -41 -46 0
-7 -42 -47 0
-8 -43 -48 0
-9 -44 -49 0
-10 -45 -50 0
-6 -51 0
-7 -52 0
-8 -53 0
-9 -54 0
-10 -55 0
-6 -46 -51 0
-7 -47 -52 0
-8 -48 -53 0
-9 -49 -54 0
-10 -50 -55 0
-6 -41 0
-7 -42 0
-8 -43 0
-9 -44 0
-10 -45 0
-6 -46 -51 0
-7 -47 -52 0
-8 -48 -53 0
-9 -49 -54 0
-10 -50 -55 0
-6 -41 -51 0
-7 -42 -52 0
-8 -43 -53 0
-9 -44 -54 0
-10 -45 -55 0
-6 -41 -46 0
-7 -42 -47 0
-8 -43 -48 0
-9 -44 -49 0
-10 -45 -50 0
-6 -56 -66 0
-7 -57 -67 0
-8 -58 -68 0
-9 -59 -69 0
-10 -60 -70 0
-6 -61 -66 0
-7 -62 -67 0
-8 -63 -68 0
-9 -64 -69 0
-10 -65 -70 0
-6 -71 0
-7 -72 0
-8 -73 0
-9 -74 0
-10 -75 0
-6 -66 -71 0
-7 -67 -72 0
-8 -68 -73 0
-9 -69 -74 0
-10 -70 -75 0
-6 -61 0
-7 -62 0
-8 -63 0
-9 -64 0
-10 -65 0
-6 -66 -71 0
-7 -67 -72 0
-8 -68 -73 0
-9 -69 -74 0
-10 -70 -75 0
-6 -61 -71 0
-7 -62 -72 0
-8 -63 -73 0
-9 -64 -74 0
-10 -65 -75 0
-6 -61 -66 0
-7 -62 -67 0
-8 -63 -68 0
-9 -64 -69 0
-10 -65 -70 0
-6 -76 -86 0
-7 -77 -87 0
-8 -78 -88 0
-9 -79 -89 0
-10 -80 -90 0
-6 -81 -86 0
-7 -82 -87 0
-8 -83 -88 0
-9 -84 -89 0
-10 -85 -90 0
-6 -91 0
-7 -92 0
-8 -93 0
-9 -94 0
-10 -95 0
-6 -86 -91 0
-7 -87 -92 0
-8 -88 -93 0
-9 -89 -94 0
-10 -90 -95 0
-6 -81 0
-7 -82 0
-8 -83 0
-9 -84 0
-10 -85 0
-6 -86 -91 0
-7 -87 -92 0
-8 -88 -93 0
-9 -89 -94 0
-10 -90 -95 0
-6 -81 -91 0
-7 -82 -92 0
-8 -83 -93 0
-9 -84 -94 0
-10 -85 -95 0
-6 -81 -86 0
-7 -82 -87 0
-8 -83 -88 0
-9 -84 -89 0
-10 -85 -90 0
-6 -96 -106 0
-7 -97 -107 0
-8 -98 -108 0
-9 -99 -109 0
-10 -100 -110 0
-6 -101 -106 0
-7 -102 -107 0
-8 -103 -108 0
-9 -104 -109 0
-10 -105 -110 0
-6 -111 0
-7 -112 0
-8 -113 0
-9 -114 0
-10 -115 0
-6 -106 -111 0
-7 -107 -112 0
-8 -108 -113 0
-9 -109 -114 0
-10 -110 -115 0
-6 -101 0
-7 -102 0
-8 -103 0
-9 -104 0
-10 -105 0
-6 -106 -111 0
-7 -107 -112 0
-8 -108 -113 0
-9 -109 -114 0
-10 -110 -115 0
-6 -101 -111 0
-7 -102 -112 0
-8 -103 -113 0
-9 -104 -114 0
-10 -105 -115 0
-6 -101 -106 0
-7 -102 -107 0
-8 -103 -108 0
-9 -104 -109 0
-10 -105 -110 0
-6 -116 -126 0
-7 -117 -127 0
-8 -118 -128 0
-9 -119 -129 0
-10 -120 -130 0
-6 -121 -126 0
-7 -122 -127 0
-8 -123 -128 0
-9 -124 -129 0
-10 -125 -130 0
-6 -131 0
-7 -132 0
-8 -133 0
-9 -134 0
-10 -135 0
-6 -126 -131 0
-7 -127 -132 0
-8 -128 -133 0
-9 -129 -134 0
-10 -130 -135 0
-6 -121 0
-7 -122 0
-8 -123 0
-9 -124 0
-10 -125 0
-6 -126 -131 0
-7 -127 -132 0
-8 -128 -133 0
-9 -129 -134 0
-10 -130 -135 0
-6 -121 -131 0
-7 -122 -132 0
-8 -123 -133 0
-9 -124 -134 0
-10 -125 -135 0
-6 -121 -126 0
-7 -122 -127 0
-8 -123 -128 0
-9 -124 -129 0
-10 -125 -130 0
-6 -136 -146 0
-7 -137 -147 0
-8 -138 -148 0
-9 -139 -149 0
-10 -140 -150 0
-6 -141 -146 0
-7 -142 -147 0
-8 -143 -148 0
-9 -144 -149 0
-10 -145 -150 0
-6 -151 0
-7 -152 0
-8 -153 0
-9 -154 0
-10 -155 0
-6 -146 -151 0
-7 -147 -152 0
-8 -148 -153 0
-9 -149 -154 0
-10 -150 -155 0
-6 -141 0
-7 -142 0
-8 -143 0
-9 -144 0
-10 -145 0
-6 -146 -151 0
-7 -147 -152 0
-8 -148 -153 0
-9 -149 -154 0
-10 -150 -155 0
-6 -141 -151 0
-7 -142 -152 0
-8 -143 -153 0
-9 -144 -154 0
-10 -145 -155 0
-6 -141 -146 0
-7 -142 -147 0
-8 -143 -148 0
-9 -144 -149 0
-10 -145 -150 0
-6 -11 0
-7 -12 0
-8 -13 0
-9 -14 0
-10 -15 0
-6 -11 0
-7 -12 0
-8 -13 0
-9 -14 0
-10 -15 0
-1 -6 0
-2 -7 0
-3 -8 0
-4 -9 0
-5 -10 0
-1 -6 -11 0
-2 -7 -12 0
-3 -8 -13 0
-4 -9 -14 0
-5 -10 -15 0
-1 -6 0
-2 -7 0
-3 -8 0
-4 -9 0
-5 -10 0
-6 -11 0
-7 -12 0
-8 -13 0
-9 -14 0
-10 -15 0
-6 -16 -26 0
-7 -17 -27 0
-8 -18 -28 0
-9 -19 -29 0
-10 -20 -30 0
-6 -21 -26 0
-7 -22 -27 0
-8 -23 -28 0
-9 -24 -29 0
-10 -25 -30 0
-6 -26 -31 0
-7 -27 -32 0
-8 -28 -33 0
-9 -29 -34 0
-10 -30 -35 0
-6 -31 0
-7 -32 0
-8 -33 0
-9 -34 0
-10 -35 0
-6 -21 -26 0
-7 -22 -27 0
-8 -23 -28 0
-9 -24 -29 0
-10 -25 -30 0
-6 -21 -31 0
-7 -22 -32 0
-8 -23 -33 0
-9 -24 -34 0
-10 -25 -35 0
-6 -21 0
-7 -22 0
-8 -23 0
-9 -24 0
-10 -25 0
-6 -26 -31 0
-7 -27 -32 0
-8 -28 -33 0
-9 -29 -34 0
-10 -30 -35 0
-6 -36 -46 0
-7 -37 -47 0
-8 -38 -48 0
-9 -39 -49 0
-10 -40 -50 0
-6 -41 -46 0
-7 -42 -47 0
-8 -43 -48 0
-9 -44 -49 0
-10 -45 -50 0
-6 -46 -51 0
-7 -47 -52 0
-8 -48 -53 0
-9 -49 -54 0
-10 -50 -55 0
-6 -51 0
-7 -52 0
-8 -53 0
-9 -54 0
-10 -55 0
-6 -41 -46 0
-7 -42 -47 0
-8 -43 -48 0
-9 -44 -49 0
-10 -45 -50 0
-6 -41 -51 0
-7 -42 -52 0
-8 -43 -53 0
-9 -44 -54 0
-10 -45 -55 0
-6 -41 0
-7 -42 0
-8 -43 0
-9 -44 0
-10 -45 0
-6 -46 -51 0
-7 -47 -52 0
-8 -48 -53 0
-9 -49 -54 0
-10 -50 -55 0
-6 -56 -66 0
-7 -57 -67 0
-8 -58 -68 0
-9 -59 -69 0
-10 -60 -70 0
-6 -61 -66 0
-7 -62 -67 0
-8 -63 -68 0
-9 -64 -69 0
-10 -65 -70 0
-6 -66 -71 0
-7 -67 -72 0
-8 -68 -73 0
-9 -69 -74 0
-10 -70 -75 0
-6 -71 0
-7 -72 0
-8 -73 0
-9 -74 0
-10 -75 0
-6 -61 -66 0
-7 -62 -67 0
-8 -63 -68 0
-9 -64 -69 0
-10 -65 -70 0
-6 -61 -71 0
-7 -62 -72 0
-8 -63 -73 0
-9 -64 -74 0
-10 -65 -75 0
-6 -61 0
-7 -62 0
-8 -63 0
-9 -64 0
-10 -65 0
-6 -66 -71 0
-7 -67 -72 0
-8 -68 -73 0
-9 -69 -74 0
-10 -70 -75 0
-6 -76 -86 0
-7 -77 -87 0
-8 -78 -88 0
-9 -79 -89 0
-10 -80 -90 0
-6 -81 -86 0
-7 -82 -87 0
-8 -83 -88 0
-9 -84 -89 0
-10 -85 -90 0
-6 -86 -91 0
-7 -87 -92 0
-8 -88 -93 0
-9 -89 -94 0
-10 -90 -95 0
-6 -91 0
-7 -92 0
-8 -93 0
-9 -94 0
-10 -95 0
-6 -81 -86 0
-7 -82 -87 0
-8 -83 -88 0
-9 -84 -89 0
-10 -85 -90 0
-6 -81 -91 0
-7 -82 -92 0
-8 -83 -93 0
-9 -84 -94 0
-10 -85 -95 0
-6 -81 0
-7 -82 0
-8 -83 0
-9 -84 0
-10 -85 0
-6 -86 -91 0
-7 -87 -92 0
-8 -88 -93 0
-9 -89 -94 0
-10 -90 -95 0
-6 -96 -106 0
-7 -97 -107 0
-8 -98 -108 0
-9 -99 -109 0
-10 -100 -110 0
-6 -101 -106 0
-7 -102 -107 0
-8 -103 -108 0
-9 -104 -109 0
-10 -105 -110 0
-6 -106 -111 0
-7 -107 -112 0
-8 -108 -113 0
-9 -109 -114 0
-10 -110 -115 0
-6 -111 0
-7 -112 0
-8 -113 0
-9 -114 0
-10 -115 0
-6 -101 -106 0
-7 -102 -107 0
-8 -103 -108 0
-9 -104 -109 0
-10 -105 -110 0
-6 -101 -111 0
-7 -102 -112 0
-8 -103 -113 0
-9 -104 -114 0
-10 -105 -115 0
-6 -101 0
-7 -102 0
-8 -103 0
-9 -104 0
-10 -105 0
-6 -106 -111 0
-7 -107 -112 0
-8 -108 -113 0
-9 -109 -114 0
-10 -110 -115 0
-6 -116 -126 0
-7 -117 -127 0
-8 -118 -128 0
-9 -119 -129 0
-10 -120 -130 0
-6 -121 -126 0
-7 -122 -127 0
-8 -123 -128 0
-9 -124 -129 0
-10 -125 -130 0
-6 -126 -131 0
-7 -127 -132 0
-8 -128 -133 0
-9 -129 -134 0
-10 -130 -135 0
-6 -131 0
-7 -132 0
-8 -133 0
-9 -134 0
-10 -135 0
-6 -121 -126 0
-7 -122 -127 0
-8 -123 -128 0
-9 -124 -129 0
-10 -125 -130 0
-6 -121 -131 0
-7 -122 -132 0
-8 -123 -133 0
-9 -124 -134 0
-10 -125 -135 0
-6 -121 0
-7 -122 0
-8 -123 0
-9 -124 0
-10 -125 0
-6 -126 -131 0
-7 -127 -132 0
-8 -128 -133 0
-9 -129 -134 0
-10 -130 -135 0
-6 -136 -146 0
-7 -137 -147 0
-8 -138 -148 0
-9 -139 -149 0
-10 -140 -150 0
-6 -141 -146 0
-7 -142 -147 0
-8 -143 -148 0
-9 -144 -149 0
-10 -145 -150 0
-6 -146 -151 0
-7 -147 -152 0
-8 -148 -153 0
-9 -149 -154 0
-10 -150 -155 0
-6 -151 0
-7 -152 0
-8 -153 0
-9 -154 0
-10 -155 0
-6 -141 -146 0
-7 -142 -147 0
-8 -143 -148 0
-9 -144 -149 0
-10 -145 -150 0
-6 -141 -151 0
-7 -142 -152 0
-8 -143 -153 0
-9 -144 -154 0
-10 -145 -155 0
-6 -141 0
-7 -142 0
-8 -143 0
-9 -144 0
-10 -145 0
-6 -146 -151 0
-7 -147 -152 0
-8 -148 -153 0
-9 -149 -154 0
-10 -150 -155 0
-1 -11 0
-2 -12 0
-3 -13 0
-4 -14 0
-5 -15 0
-6 -11 0
-7 -12 0
-8 -13 0
-9 -14 0
-10 -15 0
-1 -11 0
-2 -12 0
-3 -13 0
-4 -14 0
-5 -15 0
-1 -6 -11 0
-2 -7 -12 0
-3 -8 -13 0
-4 -9 -14 0
-5 -10 -15 0
-11 -16 -31 0
-12 -17 -32 0
-13 -18 -33 0
-14 -19 -34 0
-15 -20 -35 0
-11 -21 -31 0
-12 -22 -32 0
-13 -23 -33 0
-14 -24 -34 0
-15 -25 -35 0
-11 -26 -31 0
-12 -27 -32 0
-13 -28 -33 0
-14 -29 -34 0
-15 -30 -35 0
-11 -26 0
-12 -27 0
-13 -28 0
-14 -29 0
-15 -30 0
-11 -21 0
-12 -22 0
-13 -23 0
-14 -24 0
-15 -25 0
-11 -26 -31 0
-12 -27 -32 0
-13 -28 -33 0
-14 -29 -34 0
-15 -30 -35 0
-11 -21 -31 0
-12 -22 -32 0
-13 -23 -33 0
-14 -24 -34 0
-15 -25 -35 0
-11 -21 -26 0
-12 -22 -27 0
-13 -23 -28 0
-14 -24 -29 0
-15 -25 -30 0
-11 -36 -51 0
-12 -37 -52 0
-13 -38 -53 0
-14 -39 -54 0
-15 -40 -55 0
-11 -41 -51 0
-12 -42 -52 0
-13 -43 -53 0
-14 -44 -54 0
-15 -45 -55 0
-11 -46 -51 0
-12 -47 -52 0
-13 -48 -53 0
-14 -49 -54 0
-15 -50 -55 0
-11 -46 0
-12 -47 0
-13 -48 0
-14 -49 0
-15 -50 0
-11 -41 0
-12 -42 0
-13 -43 0
-14 -44 0
-15 -45 0
-11 -46 -51 0
-12 -47 -52 0
-13 -48 -53 0
-14 -49 -54 0
-15 -50 -55 0
-11 -41 -51 0
-12 -42 -52 0
-13 -43 -53 0
-14 -44 -54 0
-15 -45 -55 0
-11 -41 -46 0
-12 -42 -47 0
-13 -43 -48 0
-14 -44 -49 0
-15 -45 -50 0
-11 -56 -71 0
-12 -57 -72 0
-13 -58 -73 0
-14 -59 -74 0
-15 -60 -75 0
-11 -61 -71 0
-12 -62 -72 0
-13 -63 -73 0
-14 -64 -74 0
-15 -65 -75 0
-11 -66 -71 0
-12 -67 -72 0
-13 -68 -73 0
-14 -69 -74 0
-15 -70 -75 0
-11 -66 0
-12 -67 0
-13 -68 0
-14 -69 0
-15 -70 0
-11 -61 0
-12 -62 0
-13 -63 0
-14 -64 0
-15 -65 0
-11 -66 -71 0
-12 -67 -72 0
-13 -68 -73 0
-14 -69 -74 0
-15 -70 -75 0
-11 -61 -71 0
-12 -62 -72 0
-13 -63 -73 0
-14 -64 -74 0
-15 -65 -75 0
-11 -61 -66 0
-12 -62 -67 0
-13 -63 -68 0
-14 -64 -69 0
-15 -65 -70 0
-11 -76 -91 0
-12 -77 -92 0
-13 -78 -93 0
-14 -79 -94 0
-15 -80 -95 0
-11 -81 -91 0
-12 -82 -92 0
-13 -83 -93 0
-14 -84 -94 0
-15 -85 -95 0
-11 -86 -91 0
-12 -87 -92 0
-13 -88 -93 0
-14 -89 -94 0
-15 -90 -95 0
-11 -86 0
-12 -87 0
-13 -88 0
-14 -89 0
-15 -90 0
-11 -81 0
-12 -82 0
-13 -83 0
-14 -84 0
-15 -85 0
-11 -86 -91 0
-12 -87 -92 0
-13 -88 -93 0
-14 -89 -94 0
-15 -90 -95 0
-11 -81 -91 0
-12 -82 -92 0
-13 -83 -93 0
-14 -84 -94 0
-15 -85 -95 0
-11 -81 -86 0
-12 -82 -87 0
-13 -83 -88 0
-14 -84 -89 0
-15 -85 -90 0
-11 -96 -111 0
-12 -97 -112 0
-13 -98 -113 0
-14 -99 -114 0
-15 -100 -115 0
-11 -101 -111 0
-12 -102 -112 0
-13 -103 -113 0
-14 -104 -114 0
-15 -105 -115 0
-11 -106 -111 0
-12 -107 -112 0
-13 -108 -113 0
-14 -109 -114 0
-15 -110 -115 0
-11 -106 0
-12 -107 0
-13 -108 0
-14 -109 0
-15 -110 0
-11 -101 0
-12 -102 0
-13 -103 0
-14 -104 0
-15 -105 0
-11 -106 -111 0
-12 -107 -112 0
-13 -108 -113 0
-14 -109 -114 0
-15 -110 -115 0
-11 -101 -111 0
-12 -102 -112 0
-13 -103 -113 0
-14 -104 -114 0
-15 -105 -115 0
-11 -101 -106 0
-12 -102 -107 0
-13 -103 -108 0
-14 -104 -109 0
-15 -105 -110 0
-11 -116 -131 0
-12 -117 -132 0
-13 -118 -133 0
-14 -119 -134 0
-15 -120 -135 0
-11 -121 -131 0
-12 -122 -132 0
-13 -123 -133 0
-14 -124 -134 0
-15 -125 -135 0
-11 -126 -131 0
-12 -127 -132 0
-13 -128 -133 0
-14 -129 -134 0
-15 -130 -135 0
-11 -126 0
-12 -127 0
-13 -128 0
-14 -129 0
-15 -130 0
-11 -121 0
-12 -122 0
-13 -123 0
-14 -124 0
-15 -125 0
-11 -126 -131 0
-12 -127 -132 0
-13 -128 -133 0
-14 -129 -134 0
-15 -130 -135 0
-11 -121 -131 0
-12 -122 -132 0
-13 -123 -133 0
-14 -124 -134 0
-15 -125 -135 0
-11 -121 -126 0
-12 -122 -127 0
-13 -123 -128 0
-14 -124 -129 0
-15 -125 -130 0
-11 -136 -151 0
-12 -137 -152 0
-13 -138 -153 0
-14 -139 -154 0
-15 -140 -155 0
-11 -141 -151 0
-12 -142 -152 0
-13 -143 -153 0
-14 -144 -154 0
-15 -145 -155 0
-11 -146 -151 0
-12 -147 -152 0
-13 -148 -153 0
-14 -149 -154 0
-15 -150 -155 0
-11 -146 0
-12 -147 0
-13 -148 0
-14 -149 0
-15 -150 0
-11 -141 0
-12 -142 0
-13 -143 0
-14 -144 0
-15 -145 0
-11 -146 -151 0
-12 -147 -152 0
-13 -148 -153 0
-14 -149 -154 0
-15 -150 -155 0
-11 -141 -151 0
-12 -142 -152 0
-13 -143 -153 0
-14 -144 -154 0
-15 -145 -155 0
-11 -141 -146 0
-12 -142 -147 0
-13 -143 -148 0
-14 -144 -149 0
-15 -145 -150 0
-1 -6 -11 0
-2 -7 -12 0
-3 -8 -13 0
-4 -9 -14 0
-5 -10 -15 0
-1 -11 0
-2 -12 0
-3 -13 0
-4 -14 0
-5 -15 0
-1 -11 0
-2 -12 0
-3 -13 0
-4 -14 0
-5 -15 0
-6 -11 0
-7 -12 0
-8 -13 0
-9 -14 0
-10 -15 0
-11 -16 -31 0
-12 -17 -32 0
-13 -18 -33 0
-14 -19 -34 0
-15 -20 -35 0
-11 -21 -31 0
-12 -22 -32 0
-13 -23 -33 0
-14 -24 -34 0
-15 -25 -35 0
-11 -26 0
-12 -27 0
-13 -28 0
-14 -29 0
-15 -30 0
-11 -26 -31 0
-12 -27 -32 0
-13 -28 -33 0
-14 -29 -34 0
-15 -30 -35 0
-11 -21 -26 0
-12 -22 -27 0
-13 -23 -28 0
-14 -24 -29 0
-15 -25 -30 0
-11 -21 -31 0
-12 -22 -32 0
-13 -23 -33 0
-14 -24 -34 0
-15 -25 -35 0
-11 -21 0
-12 -22 0
-13 -23 0
-14 -24 0
-15 -25 0
-11 -26 -31 0
-12 -27 -32 0
-13 -28 -33 0
-14 -29 -34 0
-15 -30 -35 0
-11 -36 -51 0
-12 -37 -52 0
-13 -38 -53 0
-14 -39 -54 0
-15 -40 -55 0
-11 -41 -51 0
-12 -42 -52 0
-13 -43 -53 0
-14 -44 -54 0
-15 -45 -55 0
-11 -46 0
-12 -47 0
-13 -48 0
-14 -49 0
-15 -50 0
-11 -46 -51 0
-12 -47 -52 0
-13 -48 -53 0
-14 -49 -54 0
-15 -50 -55 0
-11 -41 -46 0
-12 -42 -47 0
-13 -43 -48 0
-14 -44 -49 0
-15 -45 -50 0
-11 -41 -51 0
-12 -42 -52 0
-13 -43 -53 0
-14 -44 -54 0
-15 -45 -55 0
-11 -41 0
-12 -42 0
-13 -43 0
-14 -44 0
-15 -45 0
-11 -46 -51 0
-12 -47 -52 0
-13 -48 -53 0
-14 -49 -54 0
-15 -50 -55 0
-11 -56 -71 0
-12 -57 -72 0
-13 -58 -73 0
-14 -59 -74 0
-15 -60 -75 0
-11 -61 -71 0
-12 -62 -72 0
-13 -63 -73 0
-14 -64 -74 0
-15 -65 -75 0
-11 -66 0
-12 -67 0
-13 -68 0
-14 -69 0
-15 -70 0
-11 -66 -71 0
-12 -67 -72 0
-13 -68 -73 0
-14 -69 -74 0
-15 -70 -75 0
-11 -61 -66 0
-12 -62 -67 0
-13 -63 -68 0
-14 -64 -69 0
-15 -65 -70 0
-11 -61 -71 0
-12 -62 -72 0
-13 -63 -73 0
-14 -64 -74 0
-15 -65 -75 0
-11 -61 0
-12 -62 0
-13 -63 0
-14 -64 0
-15 -65 0
-11 -66 -71 0
-12 -67 -72 0
-13 -68 -73 0
-14 -69 -74 0
-15 -70 -75 0
-11 -76 -91 0
-12 -77 -92 0
-13 -78 -93 0
-14 -79 -94 0
-15 -80 -95 0
-11 -81 -91 0
-12 -82 -92 0
-13 -83 -93 0
-14 -84 -94 0
-15 -85 -95 0
-11 -86 0
-12 -87 0
-13 -88 0
-14 -89 0
-15 -90 0
-11 -86 -91 0
-12 -87 -92 0
-13 -88 -93 0
-14 -89 -94 0
-15 -90 -95 0
-11 -81 -86 0
-12 -82 -87 0
-13 -83 -88 0
-14 -84 -89 0
-15 -85 -90 0
-11 -81 -91 0
-12 -82 -92 0
-13 -83 -93 0
-14 -84 -94 0
-15 -85 -95 0
-11 -81 0
-12 -82 0
-13 -83 0
-14 -84 0
-15 -85 0
-11 -86 -91 0
-12 -87 -92 0
-13 -88 -93 0
-14 -89 -94 0
-15 -90 -95 0
-11 -96 -111 0
-12 -97 -112 0
-13 -98 -113 0
-14 -99 -114 0
-15 -100 -115 0
-11 -101 -111 0
-12 -102 -112 0
-13 -103 -113 0
-14 -104 -114 0
-15 -105 -115 0
-11 -106 0
-12 -107 0
-13 -108 0
-14 -109 0
-15 -110 0
-11 -106 -111 0
-12 -107 -112 0
-13 -108 -113 0
-14 -109 -114 0
-15 -110 -115 0
-11 -101 -106 0
-12 -102 -107 0
-13 -103 -108 0
-14 -104 -109 0
-15 -105 -110 0
-11 -101 -111 0
-12 -102 -112 0
-13 -103 -113 0
-14 -104 -114 0
-15 -105 -115 0
-11 -101 0
-12 -102 0
-13 -103 0
-14 -104 0
-15 -105 0
-11 -106 -111 0
-12 -107 -112 0
-13 -108 -113 0
-14 -109 -114 0
-15 -110 -115 0
-11 -116 -131 0
-12 -117 -132 0
-13 -118 -133 0
-14 -119 -134 0
-15 -120 -135 0
-11 -121 -131 0
-12 -122 -132 0
-13 -123 -133 0
-14 -124 -134 0
-15 -125 -135 0
-11 -126 0
-12 -127 0
-13 -128 0
-14 -129 0
-15 -130 0
-11 -126 -131 0
-12 -127 -132 0
-13 -128 -133 0
-14 -129 -134 0
-15 -130 -135 0
-11 -121 -126 0
-12 -122 -127 0
-13 -123 -128 0
-14 -124 -129 0
-15 -125 -130 0
-11 -121 -131 0
-12 -122 -132 0
-13 -123 -133 0
-14 -124 -134 0
-15 -125 -135 0
-11 -121 0
-12 -122 0
-13 -123 0
-14 -124 0
-15 -125 0
-11 -126 -131 0
-12 -127 -132 0
-13 -128 -133 0
-14 -129 -134 0
-15 -130 -135 0
-11 -136 -151 0
-12 -137 -152 0
-13 -138 -153 0
-14 -139 -154 0
-15 -140 -155 0
-11 -141 -151 0
-12 -142 -152 0
-13 -143 -153 0
-14 -144 -154 0
-15 -145 -155 0
-11 -146 0
-12 -147 0
-13 -148 0
-14 -149 0
-15 -150 0
-11 -146 -151 0
-12 -147 -152 0
-13 -148 -153 0
-14 -149 -154 0
-15 -150 -155 0
-11 -141 -146 0
-12 -142 -147 0
-13 -143 -148 0
-14 -144 -149 0
-15 -145 -150 0
-11 -141 -151 0
-12 -142 -152 0
-13 -143 -153 0
-14 -144 -154 0
-15 -145 -155 0
-11 -141 0
-12 -142 0
-13 -143 0
-14 -144 0
-15 -145 0
-11 -146 -151 0
-12 -147 -152 0
-13 -148 -153 0
-14 -149 -154 0
-15 -150 -155 0
-1 -11 0
-2 -12 0
-3 -13 0
-4 -14 0
-5 -15 0
-1 -11 0
-2 -12 0
-3 -13 0
-4 -14 0
-5 -15 0
-1 -11 0
-2 -12 0
-3 -13 0
-4 -14 0
-5 -15 0
-6 -11 0
-7 -12 0
-8 -13 0
-9 -14 0
-10 -15 0
-11 -16 -31 0
-12 -17 -32 0
-13 -18 -33 0
-14 -19 -34 0
-15 -20 -35 0
-11 -21 -26 0
-12 -22 -27 0
-13 -23 -28 0
-14 -24 -29 0
-15 -25 -30 0
-11 -26 -31 0
-12 -27 -32 0
-13 -28 -33 0
-14 -29 -34 0
-15 -30 -35 0
-11 -26 -31 0
-12 -27 -32 0
-13 -28 -33 0
-14 -29 -34 0
-15 -30 -35 0
-11 -21 -31 0
-12 -22 -32 0
-13 -23 -33 0
-14 -24 -34 0
-15 -25 -35 0
-11 -21 -31 0
-12 -22 -32 0
-13 -23 -33 0
-14 -24 -34 0
-15 -25 -35 0
-11 -21 0
-12 -22 0
-13 -23 0
-14 -24 0
-15 -25 0
-11 -26 0
-12 -27 0
-13 -28 0
-14 -29 0
-15 -30 0
-11 -36 -51 0
-12 -37 -52 0
-13 -38 -53 0
-14 -39 -54 0
-15 -40 -55 0
-11 -41 -46 0
-12 -42 -47 0
-13 -43 -48 0
-14 -44 -49 0
-15 -45 -50 0
-11 -46 -51 0
-12 -47 -52 0
-13 -48 -53 0
-14 -49 -54 0
-15 -50 -55 0
-11 -46 -51 0
-12 -47 -52 0
-13 -48 -53 0
-14 -49 -54 0
-15 -50 -55 0
-11 -41 -51 0
-12 -42 -52 0
-13 -43 -53 0
-14 -44 -54 0
-15 -45 -55 0
-11 -41 -51 0
-12 -42 -52 0
-13 -43 -53 0
-14 -44 -54 0
-15 -45 -55 0
-11 -41 0
-12 -42 0
-13 -43 0
-14 -44 0
-15 -45 0
-11 -46 0
-12 -47 0
-13 -48 0
-14 -49 0
-15 -50 0
-11 -56 -71 0
-12 -57 -72 0
-13 -58 -73 0
-14 -59 -74 0
-15 -60 -75 0
-11 -61 -66 0
-12 -62 -67 0
-13 -63 -68 0
-14 -64 -69 0
-15 -65 -70 0
-11 -66 -71 0
-12 -67 -72 0
-13 -68 -73 0
-14 -69 -74 0
-15 -70 -75 0
-11 -66 -71 0
-12 -67 -72 0
-13 -68 -73 0
-14 -69 -74 0
-15 -70 -75 0
-11 -61 -71 0
-12 -62 -72 0
-13 -63 -73 0
-14 -64 -74 0
-15 -65 -75 0
-11 -61 -71 0
-12 -62 -72 0
-13 -63 -73 0
-14 -64 -74 0
-15 -65 -75 0
-11 -61 0
-12 -62 0
-13 -63 0
-14 -64 0
-15 -65 0
-11 -66 0
-12 -67 0
-13 -68 0
-14 -69 0
-15 -70 0
-11 -76 -91 0
-12 -77 -92 0
-13 -78 -93 0
-14 -79 -94 0
-15 -80 -95 0
-11 -81 -86 0
-12 -82 -87 0
-13 -83 -88 0
-14 -84 -89 0
-15 -85 -90 0
-11 -86 -91 0
-12 -87 -92 0
-13 -88 -93 0
-14 -89 -94 0
-15 -90 -95 0
-11 -86 -91 0
-12 -87 -92 0
-13 -88 -93 0
-14 -89 -94 0
-15 -90 -95 0
-11 -81 -91 0
-12 -82 -92 0
-13 -83 -93 0
-14 -84 -94 0
-15 -85 -95 0
-11 -81 -91 0
-12 -82 -92 0
-13 -83 -93 0
-14 -84 -94 0
-15 -85 -95 0
-11 -81 0
-12 -82 0
-13 -83 0
-14 -84 0
-15 -85 0
-11 -86 0
-12 -87 0
-13 -88 0
-14 -89 0
-15 -90 0
-11 -96 -111 0
-12 -97 -112 0
-13 -98 -113 0
-14 -99 -114 0
-15 -100 -115 0
-11 -101 -106 0
-12 -102 -107 0
-13 -103 -108 0
-14 -104 -109 0
-15 -105 -110 0
-11 -106 -111 0
-12 -107 -112 0
-13 -108 -113 0
-14 -109 -114 0
-15 -110 -115 0
-11 -106 -111 0
-12 -107 -112 0
-13 -108 -113 0
-14 -109 -114 0
-15 -110 -115 0
-11 -101 -111 0
-12 -102 -112 0
-13 -103 -113 0
-14 -104 -114 0
-15 -105 -115 0
-11 -101 -111 0
-12 -102 -112 0
-13 -103 -113 0
-14 -104 -114 0
-15 -105 -115 0
-11 -101 0
-12 -102 0
-13 -103 0
-14 -104 0
-15 -105 0
-11 -106 0
-12 -107 0
-13 -108 0
-14 -109 0
-15 -110 0
-11 -116 -131 0
-12 -117 -132 0
-13 -118 -133 0
-14 -119 -134 0
-15 -120 -135 0
-11 -121 -126 0
-12 -122 -127 0
-13 -123 -128 0
-14 -124 -129 0
-15 -125 -130 0
-11 -126 -131 0
-12 -127 -132 0
-13 -128 -133 0
-14 -129 -134 0
-15 -130 -135 0
-11 -126 -131 0
-12 -127 -132 0
-13 -128 -133 0
-14 -129 -134 0
-15 -130 -135 0
-11 -121 -131 0
-12 -122 -132 0
-13 -123 -133 0
-14 -124 -134 0
-15 -125 -135 0
-11 -121 -131 0
-12 -122 -132 0
-13 -123 -133 0
-14 -124 -134 0
-15 -125 -135 0
-11 -121 0
-12 -122 0
-13 -123 0
-14 -124 0
-15 -125 0
-11 -126 0
-12 -127 0
-13 -128 0
-14 -129 0
-15 -130 0
-11 -136 -151 0
-12 -137 -152 0
-13 -138 -153 0
-14 -139 -154 0
-15 -140 -155 0
-11 -141 -146 0
-12 -142 -147 0
-13 -143 -148 0
-14 -144 -149 0
-15 -145 -150 0
-11 -146 -151 0
-12 -147 -152 0
-13 -148 -153 0
-14 -149 -154 0
-15 -150 -155 0
-11 -146 -151 0
-12 -147 -152 0
-13 -148 -153 0
-14 -149 -154 0
-15 -150 -155 0
-11 -141 -151 0
-12 -142 -152 0
-13 -143 -153 0
-14 -144 -154 0
-15 -145 -155 0
-11 -141 -151 0
-12 -142 -152 0
-13 -143 -153 0
-14 -144 -154 0
-15 -145 -155 0
-11 -141 0
-12 -142 0
-13 -143 0
-14 -144 0
-15 -145 0
-11 -146 0
-12 -147 0
-13 -148 0
-14 -149 0
-15 -150 0
-1 -6 0
-2 -7 0
-3 -8 0
-4 -9 0
-5 -10 0
-6 -11 0
-7 -12 0
-8 -13 0
-9 -14 0
-10 -15 0
-1 -6 0
-2 -7 0
-3 -8 0
-4 -9 0
-5 -10 0
-1 -6 0
-2 -7 0
-3 -8 0
-4 -9 0
-5 -10 0
-6 -16 -26 0
-7 -17 -27 0
-8 -18 -28 0
-9 -19 -29 0
-10 -20 -30 0
-6 -21 -31 0
-7 -22 -32 0
-8 -23 -33 0
-9 -24 -34 0
-10 -25 -35 0
-6 -26 -31 0
-7 -27 -32 0
-8 -28 -33 0
-9 -29 -34 0
-10 -30 -35 0
-6 -26 -31 0
-7 -27 -32 0
-8 -28 -33 0
-9 -29 -34 0
-10 -30 -35 0
-6 -21 0
-7 -22 0
-8 -23 0
-9 -24 0
-10 -25 0
-6 -31 0
-7 -32 0
-8 -33 0
-9 -34 0
-10 -35 0
-6 -21 -26 0
-7 -22 -27 0
-8 -23 -28 0
-9 -24 -29 0
-10 -25 -30 0
-6 -21 -26 0
-7 -22 -27 0
-8 -23 -28 0
-9 -24 -29 0
-10 -25 -30 0
-6 -36 -46 0
-7 -37 -47 0
-8 -38 -48 0
-9 -39 -49 0
-10 -40 -50 0
-6 -41 -51 0
-7 -42 -52 0
-8 -43 -53 0
-9 -44 -54 0
-10 -45 -55 0
-6 -46 -51 0
-7 -47 -52 0
-8 -48 -53 0
-9 -49 -54 0
-10 -50 -55 0
-6 -46 -51 0
-7 -47 -52 0
-8 -48 -53 0
-9 -49 -54 0
-10 -50 -55 0
-6 -41 0
-7 -42 0
-8 -43 0
-9 -44 0
-10 -45 0
-6 -51 0
-7 -52 0
-8 -53 0
-9 -54 0
-10 -55 0
-6 -41 -46 0
-7 -42 -47 0
-8 -43 -48 0
-9 -44 -49 0
-10 -45 -50 0
-6 -41 -46 0
-7 -42 -47 0
-8 -43 -48 0
-9 -44 -49 0
-10 -45 -50 0
-6 -56 -66 0
-7 -57 -67 0
-8 -58 -68 0
-9 -59 -69 0
-10 -60 -70 0
-6 -61 -71 0
-7 -62 -72 0
-8 -63 -73 0
-9 -64 -74 0
-10 -65 -75 0
-6 -66 -71 0
-7 -67 -72 0
-8 -68 -73 0
-9 -69 -74 0
-10 -70 -75 0
-6 -66 -71 0
-7 -67 -72 0
-8 -68 -73 0
-9 -69 -74 0
-10 -70 -75 0
-6 -61 0
-7 -62 0
-8 -63 0
-9 -64 0
-10 -65 0
-6 -71 0
-7 -72 0
-8 -73 0
-9 -74 0
-10 -75 0
-6 -61 -66 0
-7 -62 -67 0
-8 -63 -68 0
-9 -64 -69 0
-10 -65 -70 0
-6 -61 -66 0
-7 -62 -67 0
-8 -63 -68 0
-9 -64 -69 0
-10 -65 -70 0
-6 -76 -86 0
-7 -77 -87 0
-8 -78 -88 0
-9 -79 -89 0
-10 -80 -90 0
-6 -81 -91 0
-7 -82 -92 0
-8 -83 -93 0
-9 -84 -94 0
-10 -85 -95 0
-6 -86 -91 0
-7 -87 -92 0
-8 -88 -93 0
-9 -89 -94 0
-10 -90 -95 0
-6 -86 -91 0
-7 -87 -92 0
-8 -88 -93 0
-9 -89 -94 0
-10 -90 -95 0
-6 -81 0
-7 -82 0
-8 -83 0
-9 -84 0
-10 -85 0
-6 -91 0
-7 -92 0
-8 -93 0
-9 -94 0
-10 -95 0
-6 -81 -86 0
-7 -82 -87 0
-8 -83 -88 0
-9 -84 -89 0
-10 -85 -90 0
-6 -81 -86 0
-7 -82 -87 0
-8 -83 -88 0
-9 -84 -89 0
-10 -85 -90 0
-6 -96 -106 0
-7 -97 -107 0
-8 -98 -108 0
-9 -99 -109 0
-10 -100 -110 0
-6 -101 -111 0
-7 -102 -112 0
-8 -103 -113 0
-9 -104 -114 0
-10 -105 -115 0
-6 -106 -111 0
-7 -107 -112 0
-8 -108 -113 0
-9 -109 -114 0
-10 -110 -115 0
-6 -106 -111 0
-7 -107 -112 0
-8 -108 -113 0
-9 -109 -114 0
-10 -110 -115 0
-6 -101 0
-7 -102 0
-8 -103 0
-9 -104 0
-10 -105 0
-6 -111 0
-7 -112 0
-8 -113 0
-9 -114 0
-10 -115 0
-6 -101 -106 0
-7 -102 -107 0
-8 -103 -108 0
-9 -104 -109 0
-10 -105 -110 0
-6 -101 -106 0
-7 -102 -107 0
-8 -103 -108 0
-9 -104 -109 0
-10 -105 -110 0
-6 -116 -126 0
-7 -117 -127 0
-8 -118 -128 0
-9 -119 -129 0
-10 -120 -130 0
-6 -121 -131 0
-7 -122 -132 0
-8 -123 -133 0
-9 -124 -134 0
-10 -125 -135 0
-6 -126 -131 0
-7 -127 -132 0
-8 -128 -133 0
-9 -129 -134 0
-10 -130 -135 0
-6 -126 -131 0
-7 -127 -132 0
-8 -128 -133 0
-9 -129 -134 0
-10 -130 -135 0
-6 -121 0
-7 -122 0
-8 -123 0
-9 -124 0
-10 -125 0
-6 -131 0
-7 -132 0
-8 -133 0
-9 -134 0
-10 -135 0
-6 -121 -126 0
-7 -122 -127 0
-8 -123 -128 0
-9 -124 -129 0
-10 -125 -130 0
-6 -121 -126 0
-7 -122 -127 0
-8 -123 -128 0
-9 -124 -129 0
-10 -125 -130 0
-6 -136 -146 0
-7 -137 -147 0
-8 -138 -148 0
-9 -139 -149 0
-10 -140 -150 0
-6 -141 -151 0
-7 -142 -152 0
-8 -143 -153 0
-9 -144 -154 0
-10 -145 -155 0
-6 -146 -151 0
-7 -147 -152 0
-8 -148 -153 0
-9 -149 -154 0
-10 -150 -155 0
-6 -146 -151 0
-7 -147 -152 0
-8 -148 -153 0
-9 -149 -154 0
-10 -150 -155 0
-6 -141 0
-7 -142 0
-8 -143 0
-9 -144 0
-10 -145 0
-6 -151 0
-7 -152 0
-8 -153 0
-9 -154 0
-10 -155 0
-6 -141 -146 0
-7 -142 -147 0
-8 -143 -148 0
-9 -144 -149 0
-10 -145 -150 0
-6 -141 -146 0
-7 -142 -147 0
-8 -143 -148 0
-9 -144 -149 0
-10 -145 -150 0
-1 -16 -21 0
-2 -17 -22 0
-3 -18 -23 0
-4 -19 -24 0
-5 -20 -25 0
-1 -21 -31 0
-2 -22 -32 0
-3 -23 -33 0
-4 -24 -34 0
-5 -25 -35 0
-1 -21 -26 0
-2 -22 -27 0
-3 -23 -28 0
-4 -24 -29 0
-5 -25 -30 0
-1 -26 0
-2 -27 0
-3 -28 0
-4 -29 0
-5 -30 0
-1 -21 -31 0
-2 -22 -32 0
-3 -23 -33 0
-4 -24 -34 0
-5 -25 -35 0
-1 -26 -31 0
-2 -27 -32 0
-3 -28 -33 0
-4 -29 -34 0
-5 -30 -35 0
-1 -31 0
-2 -32 0
-3 -33 0
-4 -34 0
-5 -35 0
-1 -21 -26 0
-2 -22 -27 0
-3 -23 -28 0
-4 -24 -29 0
-5 -25 -30 0
-1 -36 -41 0
-2 -37 -42 0
-3 -38 -43 0
-4 -39 -44 0
-5 -40 -45 0
-1 -41 -51 0
-2 -42 -52 0
-3 -43 -53 0
-4 -44 -54 0
-5 -45 -55 0
-1 -41 -46 0
-2 -42 -47 0
-3 -43 -48 0
-4 -44 -49 0
-5 -45 -50 0
-1 -46 0
-2 -47 0
-3 -48 0
-4 -49 0
-5 -50 0
-1 -41 -51 0
-2 -42 -52 0
-3 -43 -53 0
-4 -44 -54 0
-5 -45 -55 0
-1 -46 -51 0
-2 -47 -52 0
-3 -48 -53 0
-4 -49 -54 0
-5 -50 -55 0
-1 -51 0
-2 -52 0
-3 -53 0
-4 -54 0
-5 -55 0
-1 -41 -46 0
-2 -42 -47 0
-3 -43 -48 0
-4 -44 -49 0
-5 -45 -50 0
-1 -56 -61 0
-2 -57 -62 0
-3 -58 -63 0
-4 -59 -64 0
-5 -60 -65 0
-1 -61 -71 0
-2 -62 -72 0
-3 -63 -73 0
-4 -64 -74 0
-5 -65 -75 0
-1 -61 -66 0
-2 -62 -67 0
-3 -63 -68 0
-4 -64 -69 0
-5 -65 -70 0
-1 -66 0
-2 -67 0
-3 -68 0
-4 -69 0
-5 -70 0
-1 -61 -71 0
-2 -62 -72 0
-3 -63 -73 0
-4 -64 -74 0
-5 -65 -75 0
-1 -66 -71 0
-2 -67 -72 0
-3 -68 -73 0
-4 -69 -74 0
-5 -70 -75 0
-1 -71 0
-2 -72 0
-3 -73 0
-4 -74 0
-5 -75 0
-1 -61 -66 0
-2 -62 -67 0
-3 -63 -68 0
-4 -64 -69 0
-5 -65 -70 0
-1 -76 -81 0
-2 -77 -82 0
-3 -78 -83 0
-4 -79 -84 0
-5 -80 -85 0
-1 -81 -91 0
-2 -82 -92 0
-3 -83 -93 0
-4 -84 -94 0
-5 -85 -95 0
-1 -81 -86 0
-2 -82 -87 0
-3 -83 -88 0
-4 -84 -89 0
-5 -85 -90 0
-1 -86 0
-2 -87 0
-3 -88 0
-4 -89 0
-5 -90 0
-1 -81 -91 0
-2 -82 -92 0
-3 -83 -93 0
-4 -84 -94 0
-5 -85 -95 0
-1 -86 -91 0
-2 -87 -92 0
-3 -88 -93 0
-4 -89 -94 0
-5 -90 -95 0
-1 -91 0
-2 -92 0
-3 -93 0
-4 -94 0
-5 -95 0
-1 -81 -86 0
-2 -82 -87 0
-3 -83 -88 0
-4 -84 -89 0
-5 -85 -90 0
-1 -96 -101 0
-2 -97 -102 0
-3 -98 -103 0
-4 -99 -104 0
-5 -100 -105 0
-1 -101 -111 0
-2 -102 -112 0
-3 -103 -113 0
-4 -104 -114 0
-5 -105 -115 0
-1 -101 -106 0
-2 -102 -107 0
-3 -103 -108 0
-4 -104 -109 0
-5 -105 -110 0
-1 -106 0
-2 -107 0
-3 -108 0
-4 -109 0
-5 -110 0
-1 -101 -111 0
-2 -102 -112 0
-3 -103 -113 0
-4 -104 -114 0
-5 -105 -115 0
-1 -106 -111 0
-2 -107 -112 0
-3 -108 -113 0
-4 -109 -114 0
-5 -110 -115 0
-1 -111 0
-2 -112 0
-3 -113 0
-4 -114 0
-5 -115 0
-1 -101 -106 0
-2 -102 -107 0
-3 -103 -108 0
-4 -104 -109 0
-5 -105 -110 0
-1 -116 -121 0
-2 -117 -122 0
-3 -118 -123 0
-4 -119 -124 0
-5 -120 -125 0
-1 -121 -131 0
-2 -122 -132 0
-3 -123 -133 0
-4 -124 -134 0
-5 -125 -135 0
-1 -121 -126 0
-2 -122 -127 0
-3 -123 -128 0
-4 -124 -129 0
-5 -125 -130 0
-1 -126 0
-2 -127 0
-3 -128 0
-4 -129 0
-5 -130 0
-1 -121 -131 0
-2 -122 -132 0
-3 -123 -133 0
-4 -124 -134 0
-5 -125 -135 0
-1 -126 -131 0
-2 -127 -132 0
-3 -128 -133 0
-4 -129 -134 0
-5 -130 -135 0
-1 -131 0
-2 -132 0
-3 -133 0
-4 -134 0
-5 -135 0
-1 -121 -126 0
-2 -122 -127 0
-3 -123 -128 0
-4 -124 -129 0
-5 -125 -130 0
-1 -136 -141 0
-2 -137 -142 0
-3 -138 -143 0
-4 -139 -144 0
-5 -140 -145 0
-1 -141 -151 0
-2 -142 -152 0
-3 -143 -153 0
-4 -144 -154 0
-5 -145 -155 0
-1 -141 -146 0
-2 -142 -147 0
-3 -143 -148 0
-4 -144 -149 0
-5 -145 -150 0
-1 -146 0
-2 -147 0
-3 -148 0
-4 -149 0
-5 -150 0
-1 -141 -151 0
-2 -142 -152 0
-3 -143 -153 0
-4 -144 -154 0
-5 -145 -155 0
-1 -146 -151 0
-2 -147 -152 0
-3 -148 -153 0
-4 -149 -154 0
-5 -150 -155 0
-1 -151 0
-2 -152 0
-3 -153 0
-4 -154 0
-5 -155 0
-1 -141 -146 0
-2 -142 -147 0
-3 -143 -148 0
-4 -144 -149 0
-5 -145 -150 0
-11 -16 -31 0
-12 -17 -32 0
-13 -18 -33 0
-14 -19 -34 0
-15 -20 -35 0
-11 -21 0
-12 -22 0
-13 -23 0
-14 -24 0
-15 -25 0
-11 -26 0
-12 -27 0
-13 -28 0
-14 -29 0
-15 -30 0
-11 -21 -26 0
-12 -22 -27 0
-13 -23 -28 0
-14 -24 -29 0
-15 -25 -30 0
-11 -26 -31 0
-12 -27 -32 0
-13 -28 -33 0
-14 -29 -34 0
-15 -30 -35 0
-11 -21 -31 0
-12 -22 -32 0
-13 -23 -33 0
-14 -24 -34 0
-15 -25 -35 0
-11 -21 -31 0
-12 -22 -32 0
-13 -23 -33 0
-14 -24 -34 0
-15 -25 -35 0
-11 -26 -31 0
-12 -27 -32 0
-13 -28 -33 0
-14 -29 -34 0
-15 -30 -35 0
-11 -36 -51 0
-12 -37 -52 0
-13 -38 -53 0
-14 -39 -54 0
-15 -40 -55 0
-11 -41 0
-12 -42 0
-13 -43 0
-14 -44 0
-15 -45 0
-11 -46 0
-12 -47 0
-13 -48 0
-14 -49 0
-15 -50 0
-11 -41 -46 0
-12 -42 -47 0
-13 -43 -48 0
-14 -44 -49 0
-15 -45 -50 0
-11 -46 -51 0
-12 -47 -52 0
-13 -48 -53 0
-14 -49 -54 0
-15 -50 -55 0
-11 -41 -51 0
-12 -42 -52 0
-13 -43 -53 0
-14 -44 -54 0
-15 -45 -55 0
-11 -41 -51 0
-12 -42 -52 0
-13 -43 -53 0
-14 -44 -54 0
-15 -45 -55 0
-11 -46 -51 0
-12 -47 -52 0
-13 -48 -53 0
-14 -49 -54 0
-15 -50 -55 0
-11 -56 -71 0
-12 -57 -72 0
-13 -58 -73 0
-14 -59 -74 0
-15 -60 -75 0
-11 -61 0
-12 -62 0
-13 -63 0
-14 -64 0
-15 -65 0
-11 -66 0
-12 -67 0
-13 -68 0
-14 -69 0
-15 -70 0
-11 -61 -66 0
-12 -62 -67 0
-13 -63 -68 0
-14 -64 -69 0
-15 -65 -70 0
-11 -66 -71 0
-12 -67 -72 0
-13 -68 -73 0
-14 -69 -74 0
-15 -70 -75 0
-11 -61 -71 0
-12 -62 -72 0
-13 -63 -73 0
-14 -64 -74 0
-15 -65 -75 0
-11 -61 -71 0
-12 -62 -72 0
-13 -63 -73 0
-14 -64 -74 0
-15 -65 -75 0
-11 -66 -71 0
-12 -67 -72 0
-13 -68 -73 0
-14 -69 -74 0
-15 -70 -75 0
-11 -76 -91 0
-12 -77 -92 0
-13 -78 -93 0
-14 -79 -94 0
-15 -80 -95 0
-11 -81 0
-12 -82 0
-13 -83 0
-14 -84 0
-15 -85 0
-11 -86 0
-12 -87 0
-13 -88 0
-14 -89 0
-15 -90 0
-11 -81 -86 0
-12 -82 -87 0
-13 -83 -88 0
-14 -84 -89 0
-15 -85 -90 0
-11 -86 -91 0
-12 -87 -92 0
-13 -88 -93 0
-14 -89 -94 0
-15 -90 -95 0
-11 -81 -91 0
-12 -82 -92 0
-13 -83 -93 0
-14 -84 -94 0
-15 -85 -95 0
-11 -81 -91 0
-12 -82 -92 0
-13 -83 -93 0
-14 -84 -94 0
-15 -85 -95 0
-11 -86 -91 0
-12 -87 -92 0
-13 -88 -93 0
-14 -89 -94 0
-15 -90 -95 0
-11 -96 -111 0
-12 -97 -112 0
-13 -98 -113 0
-14 -99 -114 0
-15 -100 -115 0
-11 -101 0
-12 -102 0
-13 -103 0
-14 -104 0
-15 -105 0
-11 -106 0
-12 -107 0
-13 -108 0
-14 -109 0
-15 -110 0
-11 -101 -106 0
-12 -102 -107 0
-13 -103 -108 0
-14 -104 -109 0
-15 -105 -110 0
-11 -106 -111 0
-12 -107 -112 0
-13 -108 -113 0
-14 -109 -114 0
-15 -110 -115 0
-11 -101 -111 0
-12 -102 -112 0
-13 -103 -113 0
-14 -104 -114 0
-15 -105 -115 0
-11 -101 -111 0
-12 -102 -112 0
-13 -103 -113 0
-14 -104 -114 0
-15 -105 -115 0
-11 -106 -111 0
-12 -107 -112 0
-13 -108 -113 0
-14 -109 -114 0
-15 -110 -115 0
-11 -116 -131 0
-12 -117 -132 0
-13 -118 -133 0
-14 -119 -134 0
-15 -120 -135 0
-11 -121 0
-12 -122 0
-13 -123 0
-14 -124 0
-15 -125 0
-11 -126 0
-12 -127 0
-13 -128 0
-14 -129 0
-15 -130 0
-11 -121 -126 0
-12 -122 -127 0
-13 -123 -128 0
-14 -124 -129 0
-15 -125 -130 0
-11 -126 -131 0
-12 -127 -132 0
-13 -128 -133 0
-14 -129 -134 0
-15 -130 -135 0
-11 -121 -131 0
-12 -122 -132 0
-13 -123 -133 0
-14 -124 -134 0
-15 -125 -135 0
-11 -121 -131 0
-12 -122 -132 0
-13 -123 -133 0
-14 -124 -134 0
-15 -125 -135 0
-11 -126 -131 0
-12 -127 -132 0
-13 -128 -133 0
-14 -129 -134 0
-15 -130 -135 0
-11 -136 -151 0
-12 -137 -152 0
-13 -138 -153 0
-14 -139 -154 0
-15 -140 -155 0
-11 -141 0
-12 -142 0
-13 -143 0
-14 -144 0
-15 -145 0
-11 -146 0
-12 -147 0
-13 -148 0
-14 -149 0
-15 -150 0
-11 -141 -146 0
-12 -142 -147 0
-13 -143 -148 0
-14 -144 -149 0
-15 -145 -150 0
-11 -146 -151 0
-12 -147 -152 0
-13 -148 -153 0
-14 -149 -154 0
-15 -150 -155 0
-11 -141 -151 0
-12 -142 -152 0
-13 -143 -153 0
-14 -144 -154 0
-15 -145 -155 0
-11 -141 -151 0
-12 -142 -152 0
-13 -143 -153 0
-14 -144 -154 0
-15 -145 -155 0
-11 -146 -151 0
-12 -147 -152 0
-13 -148 -153 0
-14 -149 -154 0
-15 -150 -155 0
-1 -16 -21 0
-2 -17 -22 0
-3 -18 -23 0
-4 -19 -24 0
-5 -20 -25 0
-1 -21 -26 0
-2 -22 -27 0
-3 -23 -28 0
-4 -24 -29 0
-5 -25 -30 0
-1 -21 -26 0
-2 -22 -27 0
-3 -23 -28 0
-4 -24 -29 0
-5 -25 -30 0
-1 -26 -31 0
-2 -27 -32 0
-3 -28 -33 0
-4 -29 -34 0
-5 -30 -35 0
-1 -31 0
-2 -32 0
-3 -33 0
-4 -34 0
-5 -35 0
-1 -21 -31 0
-2 -22 -32 0
-3 -23 -33 0
-4 -24 -34 0
-5 -25 -35 0
-1 -21 -31 0
-2 -22 -32 0
-3 -23 -33 0
-4 -24 -34 0
-5 -25 -35 0
-1 -26 0
-2 -27 0
-3 -28 0
-4 -29 0
-5 -30 0
-1 -36 -41 0
-2 -37 -42 0
-3 -38 -43 0
-4 -39 -44 0
-5 -40 -45 0
-1 -41 -46 0
-2 -42 -47 0
-3 -43 -48 0
-4 -44 -49 0
-5 -45 -50 0
-1 -41 -46 0
-2 -42 -47 0
-3 -43 -48 0
-4 -44 -49 0
-5 -45 -50 0
-1 -46 -51 0
-2 -47 -52 0
-3 -48 -53 0
-4 -49 -54 0
-5 -50 -55 0
-1 -51 0
-2 -52 0
-3 -53 0
-4 -54 0
-5 -55 0
-1 -41 -51 0
-2 -42 -52 0
-3 -43 -53 0
-4 -44 -54 0
-5 -45 -55 0
-1 -41 -51 0
-2 -42 -52 0
-3 -43 -53 0
-4 -44 -54 0
-5 -45 -55 0
-1 -46 0
-2 -47 0
-3 -48 0
-4 -49 0
-5 -50 0
-1 -56 -61 0
-2 -57 -62 0
-3 -58 -63 0
-4 -59 -64 0
-5 -60 -65 0
-1 -61 -66 0
-2 -62 -67 0
-3 -63 -68 0
-4 -64 -69 0
-5 -65 -70 0
-1 -61 -66 0
-2 -62 -67 0
-3 -63 -68 0
-4 -64 -69 0
-5 -65 -70 0
-1 -66 -71 0
-2 -67 -72 0
-3 -68 -73 0
-4 -69 -74 0
-5 -70 -75 0
-1 -71 0
-2 -72 0
-3 -73 0
-4 -74 0
-5 -75 0
-1 -61 -71 0
-2 -62 -72 0
-3 -63 -73 0
-4 -64 -74 0
-5 -65 -75 0
-1 -61 -71 0
-2 -62 -72 0
-3 -63 -73 0
-4 -64 -74 0
-5 -65 -75 0
-1 -66 0
-2 -67 0
-3 -68 0
-4 -69 0
-5 -70 0
-1 -76 -81 0
-2 -77 -82 0
-3 -78 -83 0
-4 -79 -84 0
-5 -80 -85 0
-1 -81 -86 0
-2 -82 -87 0
-3 -83 -88 0
-4 -84 -89 0
-5 -85 -90 0
-1 -81 -86 0
-2 -82 -87 0
-3 -83 -88 0
-4 -84 -89 0
-5 -85 -90 0
-1 -86 -91 0
-2 -87 -92 0
-3 -88 -93 0
-4 -89 -94 0
-5 -90 -95 0
-1 -91 0
-2 -92 0
-3 -93 0
-4 -94 0
-5 -95 0
-1 -81 -91 0
-2 -82 -92 0
-3 -83 -93 0
-4 -84 -94 0
-5 -85 -95 0
-1 -81 -91 0
-2 -82 -92 0
-3 -83 -93 0
-4 -84 -94 0
-5 -85 -95 0
-1 -86 0
-2 -87 0
-3 -88 0
-4 -89 0
-5 -90 0
-1 -96 -101 0
-2 -97 -102 0
-3 -98 -103 0
-4 -99 -104 0
-5 -100 -105 0
-1 -101 -106 0
-2 -102 -107 0
-3 -103 -108 0
-4 -104 -109 0
-5 -105 -110 0
-1 -101 -106 0
-2 -102 -107 0
-3 -103 -108 0
-4 -104 -109 0
-5 -105 -110 0
-1 -106 -111 0
-2 -107 -112 0
-3 -108 -113 0
-4 -109 -114 0
-5 -110 -115 0
-1 -111 0
-2 -112 0
-3 -113 0
-4 -114 0
-5 -115 0
-1 -101 -111 0
-2 -102 -112 0
-3 -103 -113 0
-4 -104 -114 0
-5 -105 -115 0
-1 -101 -111 0
-2 -102 -112 0
-3 -103 -113 0
-4 -104 -114 0
-5 -105 -115 0
-1 -106 0
-2 -107 0
-3 -108 0
-4 -109 0
-5 -110 0
-1 -116 -121 0
-2 -117 -122 0
-3 -118 -123 0
-4 -119 -124 0
-5 -120 -125 0
-1 -121 -126 0
-2 -122 -127 0
-3 -123 -128 0
-4 -124 -129 0
-5 -125 -130 0
-1 -121 -126 0
-2 -122 -127 0
-3 -123 -128 0
-4 -124 -129 0
-5 -125 -130 0
-1 -126 -131 0
-2 -127 -132 0
-3 -128 -133 0
-4 -129 -134 0
-5 -130 -135 0
-1 -131 0
-2 -132 0
-3 -133 0
-4 -134 0
-5 -135 0
-1 -121 -131 0
-2 -122 -132 0
-3 -123 -133 0
-4 -124 -134 0
-5 -125 -135 0
-1 -121 -131 0
-2 -122 -132 0
-3 -123 -133 0
-4 -124 -134 0
-5 -125 -135 0
-1 -126 0
-2 -127 0
-3 -128 0
-4 -129 0
-5 -130 0
-1 -136 -141 0
-2 -137 -142 0
-3 -138 -143 0
-4 -139 -144 0
-5 -140 -145 0
-1 -141 -146 0
-2 -142 -147 0
-3 -143 -148 0
-4 -144 -149 0
-5 -145 -150 0
-1 -141 -146 0
-2 -142 -147 0
-3 -143 -148 0
-4 -144 -149 0
-5 -145 -150 0
-1 -146 -151 0
-2 -147 -152 0
-3 -148 -153 0
-4 -149 -154 0
-5 -150 -155 0
-1 -151 0
-2 -152 0
-3 -153 0
-4 -154 0
-5 -155 0
-1 -141 -151 0
-2 -142 -152 0
-3 -143 -153 0
-4 -144 -154 0
-5 -145 -155 0
-1 -141 -151 0
-2 -142 -152 0
-3 -143 -153 0
-4 -144 -154 0
-5 -145 -155 0
-1 -146 0
-2 -147 0
-3 -148 0
-4 -149 0
-5 -150 0
-6 -16 -26 0
-7 -17 -27 0
-8 -18 -28 0
-9 -19 -29 0
-10 -20 -30 0
-6 -21 0
-7 -22 0
-8 -23 0
-9 -24 0
-10 -25 0
-6 -26 -31 0
-7 -27 -32 0
-8 -28 -33 0
-9 -29 -34 0
-10 -30 -35 0
-6 -21 -26 0
-7 -22 -27 0
-8 -23 -28 0
-9 -24 -29 0
-10 -25 -30 0
-6 -21 -31 0
-7 -22 -32 0
-8 -23 -33 0
-9 -24 -34 0
-10 -25 -35 0
-6 -31 0
-7 -32 0
-8 -33 0
-9 -34 0
-10 -35 0
-6 -26 -31 0
-7 -27 -32 0
-8 -28 -33 0
-9 -29 -34 0
-10 -30 -35 0
-6 -21 -26 0
-7 -22 -27 0
-8 -23 -28 0
-9 -24 -29 0
-10 -25 -30 0
-6 -36 -46 0
-7 -37 -47 0
-8 -38 -48 0
-9 -39 -49 0
-10 -40 -50 0
-6 -41 0
-7 -42 0
-8 -43 0
-9 -44 0
-10 -45 0
-6 -46 -51 0
-7 -47 -52 0
-8 -48 -53 0
-9 -49 -54 0
-10 -50 -55 0
-6 -41 -46 0
-7 -42 -47 0
-8 -43 -48 0
-9 -44 -49 0
-10 -45 -50 0
-6 -41 -51 0
-7 -42 -52 0
-8 -43 -53 0
-9 -44 -54 0
-10 -45 -55 0
-6 -51 0
-7 -52 0
-8 -53 0
-9 -54 0
-10 -55 0
-6 -46 -51 0
-7 -47 -52 0
-8 -48 -53 0
-9 -49 -54 0
-10 -50 -55 0
-6 -41 -46 0
-7 -42 -47 0
-8 -43 -48 0
-9 -44 -49 0
-10 -45 -50 0
-6 -56 -66 0
-7 -57 -67 0
-8 -58 -68 0
-9 -59 -69 0
-10 -60 -70 0
-6 -61 0
-7 -62 0
-8 -63 0
-9 -64 0
-10 -65 0
-6 -66 -71 0
-7 -67 -72 0
-8 -68 -73 0
-9 -69 -74 0
-10 -70 -75 0
-6 -61 -66 0
-7 -62 -67 0
-8 -63 -68 0
-9 -64 -69 0
-10 -65 -70 0
-6 -61 -71 0
-7 -62 -72 0
-8 -63 -73 0
-9 -64 -74 0
-10 -65 -75 0
-6 -71 0
-7 -72 0
-8 -73 0
-9 -74 0
-10 -75 0
-6 -66 -71 0
-7 -67 -72 0
-8 -68 -73 0
-9 -69 -74 0
-10 -70 -75 0
-6 -61 -66 0
-7 -62 -67 0
-8 -63 -68 0
-9 -64 -69 0
-10 -65 -70 0
-6 -76 -86 0
-7 -77 -87 0
-8 -78 -88 0
-9 -79 -89 0
-10 -80 -90 0
-6 -81 0
-7 -82 0
-8 -83 0
-9 -84 0
-10 -85 0
-6 -86 -91 0
-7 -87 -92 0
-8 -88 -93 0
-9 -89 -94 0
-10 -90 -95 0
-6 -81 -86 0
-7 -82 -87 0
-8 -83 -88 0
-9 -84 -89 0
-10 -85 -90 0
-6 -81 -91 0
-7 -82 -92 0
-8 -83 -93 0
-9 -84 -94 0
-10 -85 -95 0
-6 -91 0
-7 -92 0
-8 -93 0
-9 -94 0
-10 -95 0
-6 -86 -91 0
-7 -87 -92 0
-8 -88 -93 0
-9 -89 -94 0
-10 -90 -95 0
-6 -81 -86 0
-7 -82 -87 0
-8 -83 -88 0
-9 -84 -89 0
-10 -85 -90 0
-6 -96 -106 0
-7 -97 -107 0
-8 -98 -108 0
-9 -99 -109 0
-10 -100 -110 0
-6 -101 0
-7 -102 0
-8 -103 0
-9 -104 0
-10 -105 0
-6 -106 -111 0
-7 -107 -112 0
-8 -108 -113 0
-9 -109 -114 0
-10 -110 -115 0
-6 -101 -106 0
-7 -102 -107 0
-8 -103 -108 0
-9 -104 -109 0
-10 -105 -110 0
-6 -101 -111 0
-7 -102 -112 0
-8 -103 -113 0
-9 -104 -114 0
-10 -105 -115 0
-6 -111 0
-7 -112 0
-8 -113 0
-9 -114 0
-10 -115 0
-6 -106 -111 0
-7 -107 -112 0
-8 -108 -113 0
-9 -109 -114 0
-10 -110 -115 0
-6 -101 -106 0
-7 -102 -107 0
-8 -103 -108 0
-9 -104 -109 0
-10 -105 -110 0
-6 -116 -126 0
-7 -117 -127 0
-8 -118 -128 0
-9 -119 -129 0
-10 -120 -130 0
-6 -121 0
-7 -122 0
-8 -123 0
-9 -124 0
-10 -125 0
-6 -126 -131 0
-7 -127 -132 0
-8 -128 -133 0
-9 -129 -134 0
-10 -130 -135 0
-6 -121 -126 0
-7 -122 -127 0
-8 -123 -128 0
-9 -124 -129 0
-10 -125 -130 0
-6 -121 -131 0
-7 -122 -132 0
-8 -123 -133 0
-9 -124 -134 0
-10 -125 -135 0
-6 -131 0
-7 -132 0
-8 -133 0
-9 -134 0
-10 -135 0
-6 -126 -131 0
-7 -127 -132 0
-8 -128 -133 0
-9 -129 -134 0
-10 -130 -135 0
-6 -121 -126 0
-7 -122 -127 0
-8 -123 -128 0
-9 -124 -129 0
-10 -125 -130 0
-6 -136 -146 0
-7 -137 -147 0
-8 -138 -148 0
-9 -139 -149 0
-10 -140 -150 0
-6 -141 0
-7 -142 0
-8 -143 0
-9 -144 0
-10 -145 0
-6 -146 -151 0
-7 -147 -152 0
-8 -148 -153 0
-9 -149 -154 0
-10 -150 -155 0
-6 -141 -146 0
-7 -142 -147 0
-8 -143 -148 0
-9 -144 -149 0
-10 -145 -150 0
-6 -141 -151 0
-7 -142 -152 0
-8 -143 -153 0
-9 -144 -154 0
-10 -145 -155 0
-6 -151 0
-7 -152 0
-8 -153 0
-9 -154 0
-10 -155 0
-6 -146 -151 0
-7 -147 -152 0
-8 -148 -153 0
-9 -149 -154 0
-10 -150 -155 0
-6 -141 -146 0
-7 -142 -147 0
-8 -143 -148 0
-9 -144 -149 0
-10 -145 -150 0
-1 -16 -21 0
-2 -17 -22 0
-3 -18 -23 0
-4 -19 -24 0
-5 -20 -25 0
-1 -21 -26 0
-2 -22 -27 0
-3 -23 -28 0
-4 -24 -29 0
-5 -25 -30 0
-1 -26 -31 0
-2 -27 -32 0
-3 -28 -33 0
-4 -29 -34 0
-5 -30 -35 0
-1 -21 -26 0
-2 -22 -27 0
-3 -23 -28 0
-4 -24 -29 0
-5 -25 -30 0
-1 -21 -31 0
-2 -22 -32 0
-3 -23 -33 0
-4 -24 -34 0
-5 -25 -35 0
-1 -31 0
-2 -32 0
-3 -33 0
-4 -34 0
-5 -35 0
-1 -21 -31 0
-2 -22 -32 0
-3 -23 -33 0
-4 -24 -34 0
-5 -25 -35 0
-1 -26 0
-2 -27 0
-3 -28 0
-4 -29 0
-5 -30 0
-1 -36 -41 0
-2 -37 -42 0
-3 -38 -43 0
-4 -39 -44 0
-5 -40 -45 0
-1 -41 -46 0
-2 -42 -47 0
-3 -43 -48 0
-4 -44 -49 0
-5 -45 -50 0
-1 -46 -51 0
-2 -47 -52 0
-3 -48 -53 0
-4 -49 -54 0
-5 -50 -55 0
-1 -41 -46 0
-2 -42 -47 0
-3 -43 -48 0
-4 -44 -49 0
-5 -45 -50 0
-1 -41 -51 0
-2 -42 -52 0
-3 -43 -53 0
-4 -44 -54 0
-5 -45 -55 0
-1 -51 0
-2 -52 0
-3 -53 0
-4 -54 0
-5 -55 0
-1 -41 -51 0
-2 -42 -52 0
-3 -43 -53 0
-4 -44 -54 0
-5 -45 -55 0
-1 -46 0
-2 -47 0
-3 -48 0
-4 -49 0
-5 -50 0
-1 -56 -61 0
-2 -57 -62 0
-3 -58 -63 0
-4 -59 -64 0
-5 -60 -65 0
-1 -61 -66 0
-2 -62 -67 0
-3 -63 -68 0
-4 -64 -69 0
-5 -65 -70 0
-1 -66 -71 0
-2 -67 -72 0
-3 -68 -73 0
-4 -69 -74 0
-5 -70 -75 0
-1 -61 -66 0
-2 -62 -67 0
-3 -63 -68 0
-4 -64 -69 0
-5 -65 -70 0
-1 -61 -71 0
-2 -62 -72 0
-3 -63 -73 0
-4 -64 -74 0
-5 -65 -75 0
-1 -71 0
-2 -72 0
-3 -73 0
-4 -74 0
-5 -75 0
-1 -61 -71 0
-2 -62 -72 0
-3 -63 -73 0
-4 -64 -74 0
-5 -65 -75 0
-1 -66 0
-2 -67 0
-3 -68 0
-4 -69 0
-5 -70 0
-1 -76 -81 0
-2 -77 -82 0
-3 -78 -83 0
-4 -79 -84 0
-5 -80 -85 0
-1 -81 -86 0
-2 -82 -87 0
-3 -83 -88 0
-4 -84 -89 0
-5 -85 -90 0
-1 -86 -91 0
-2 -87 -92 0
-3 -88 -93 0
-4 -89 -94 0
-5 -90 -95 0
-1 -81 -86 0
-2 -82 -87 0
-3 -83 -88 0
-4 -84 -89 0
-5 -85 -90 0
-1 -81 -91 0
-2 -82 -92 0
-3 -83 -93 0
-4 -84 -94 0
-5 -85 -95 0
-1 -91 0
-2 -92 0
-3 -93 0
-4 -94 0
-5 -95 0
-1 -81 -91 0
-2 -82 -92 0
-3 -83 -93 0
-4 -84 -94 0
-5 -85 -95 0
-1 -86 0
-2 -87 0
-3 -88 0
-4 -89 0
-5 -90 0
-1 -96 -101 0
-2 -97 -102 0
-3 -98 -103 0
-4 -99 -104 0
-5 -100 -105 0
-1 -101 -106 0
-2 -102 -107 0
-3 -103 -108 0
-4 -104 -109 0
-5 -105 -110 0
-1 -106 -111 0
-2 -107 -112 0
-3 -108 -113 0
-4 -109 -114 0
-5 -110 -115 0
-1 -101 -106 0
-2 -102 -107 0
-3 -103 -108 0
-4 -104 -109 0
-5 -105 -110 0
-1 -101 -111 0
-2 -102 -112 0
-3 -103 -113 0
-4 -104 -114 0
-5 -105 -115 0
-1 -111 0
-2 -112 0
-3 -113 0
-4 -114 0
-5 -115 0
-1 -101 -111 0
-2 -102 -112 0
-3 -103 -113 0
-4 -104 -114 0
-5 -105 -115 0
-1 -106 0
-2 -107 0
-3 -108 0
-4 -109 0
-5 -110 0
-1 -116 -121 0
-2 -117 -122 0
-3 -118 -123 0
-4 -119 -124 0
-5 -120 -125 0
-1 -121 -126 0
-2 -122 -127 0
-3 -123 -128 0
-4 -124 -129 0
-5 -125 -130 0
-1 -126 -131 0
-2 -127 -132 0
-3 -128 -133 0
-4 -129 -134 0
-5 -130 -135 0
-1 -121 -126 0
-2 -122 -127 0
-3 -123 -128 0
-4 -124 -129 0
-5 -125 -130 0
-1 -121 -131 0
-2 -122 -132 0
-3 -123 -133 0
-4 -124 -134 0
-5 -125 -135 0
-1 -131 0
-2 -132 0
-3 -133 0
-4 -134 0
-5 -135 0
-1 -121 -131 0
-2 -122 -132 0
-3 -123 -133 0
-4 -124 -134 0
-5 -125 -135 0
-1 -126 0
-2 -127 0
-3 -128 0
-4 -129 0
-5 -130 0
-1 -136 -141 0
-2 -137 -142 0
-3 -138 -143 0
-4 -139 -144 0
-5 -140 -145 0
-1 -141 -146 0
-2 -142 -147 0
-3 -143 -148 0
-4 -144 -149 0
-5 -145 -150 0
-1 -146 -151 0
-2 -147 -152 0
-3 -148 -153 0
-4 -149 -154 0
-5 -150 -155 0
-1 -141 -146 0
-2 -142 -147 0
-3 -143 -148 0
-4 -144 -149 0
-5 -145 -150 0
-1 -141 -151 0
-2 -142 -152 0
-3 -143 -153 0
-4 -144 -154 0
-5 -145 -155 0
-1 -151 0
-2 -152 0
-3 -153 0
-4 -154 0
-5 -155 0
-1 -141 -151 0
-2 -142 -152 0
-3 -143 -153 0
-4 -144 -154 0
-5 -145 -155 0
-1 -146 0
-2 -147 0
-3 -148 0
-4 -149 0
-5 -150 0
-6 -16 -26 0
-7 -17 -27 0
-8 -18 -28 0
-9 -19 -29 0
-10 -20 -30 0
-6 -21 0
-7 -22 0
-8 -23 0
-9 -24 0
-10 -25 0
-6 -21 -26 0
-7 -22 -27 0
-8 -23 -28 0
-9 -24 -29 0
-10 -25 -30 0
-6 -26 -31 0
-7 -27 -32 0
-8 -28 -33 0
-9 -29 -34 0
-10 -30 -35 0
-6 -31 0
-7 -32 0
-8 -33 0
-9 -34 0
-10 -35 0
-6 -21 -31 0
-7 -22 -32 0
-8 -23 -33 0
-9 -24 -34 0
-10 -25 -35 0
-6 -26 -31 0
-7 -27 -32 0
-8 -28 -33 0
-9 -29 -34 0
-10 -30 -35 0
-6 -21 -26 0
-7 -22 -27 0
-8 -23 -28 0
-9 -24 -29 0
-10 -25 -30 0
-6 -36 -46 0
-7 -37 -47 0
-8 -38 -48 0
-9 -39 -49 0
-10 -40 -50 0
-6 -41 0
-7 -42 0
-8 -43 0
-9 -44 0
-10 -45 0
-6 -41 -46 0
-7 -42 -47 0
-8 -43 -48 0
-9 -44 -49 0
-10 -45 -50 0
-6 -46 -51 0
-7 -47 -52 0
-8 -48 -53 0
-9 -49 -54 0
-10 -50 -55 0
-6 -51 0
-7 -52 0
-8 -53 0
-9 -54 0
-10 -55 0
-6 -41 -51 0
-7 -42 -52 0
-8 -43 -53 0
-9 -44 -54 0
-10 -45 -55 0
-6 -46 -51 0
-7 -47 -52 0
-8 -48 -53 0
-9 -49 -54 0
-10 -50 -55 0
-6 -41 -46 0
-7 -42 -47 0
-8 -43 -48 0
-9 -44 -49 0
-10 -45 -50 0
-6 -56 -66 0
-7 -57 -67 0
-8 -58 -68 0
-9 -59 -69 0
-10 -60 -70 0
-6 -61 0
-7 -62 0
-8 -63 0
-9 -64 0
-10 -65 0
-6 -61 -66 0
-7 -62 -67 0
-8 -63 -68 0
-9 -64 -69 0
-10 -65 -70 0
-6 -66 -71 0
-7 -67 -72 0
-8 -68 -73 0
-9 -69 -74 0
-10 -70 -75 0
-6 -71 0
-7 -72 0
-8 -73 0
-9 -74 0
-10 -75 0
-6 -61 -71 0
-7 -62 -72 0
-8 -63 -73 0
-9 -64 -74 0
-10 -65 -75 0
-6 -66 -71 0
-7 -67 -72 0
-8 -68 -73 0
-9 -69 -74 0
-10 -70 -75 0
-6 -61 -66 0
-7 -62 -67 0
-8 -63 -68 0
-9 -64 -69 0
-10 -65 -70 0
-6 -76 -86 0
-7 -77 -87 0
-8 -78 -88 0
-9 -79 -89 0
-10 -80 -90 0
-6 -81 0
-7 -82 0
-8 -83 0
-9 -84 0
-10 -85 0
-6 -81 -86 0
-7 -82 -87 0
-8 -83 -88 0
-9 -84 -89 0
-10 -85 -90 0
-6 -86 -91 0
-7 -87 -92 0
-8 -88 -93 0
-9 -89 -94 0
-10 -90 -95 0
-6 -91 0
-7 -92 0
-8 -93 0
-9 -94 0
-10 -95 0
-6 -81 -91 0
-7 -82 -92 0
-8 -83 -93 0
-9 -84 -94 0
-10 -85 -95 0
-6 -86 -91 0
-7 -87 -92 0
-8 -88 -93 0
-9 -89 -94 0
-10 -90 -95 0
-6 -81 -86 0
-7 -82 -87 0
-8 -83 -88 0
-9 -84 -89 0
-10 -85 -90 0
-6 -96 -106 0
-7 -97 -107 0
-8 -98 -108 0
-9 -99 -109 0
-10 -100 -110 0
-6 -101 0
-7 -102 0
-8 -103 0
-9 -104 0
-10 -105 0
-6 -101 -106 0
-7 -102 -107 0
-8 -103 -108 0
-9 -104 -109 0
-10 -105 -110 0
-6 -106 -111 0
-7 -107 -112 0
-8 -108 -113 0
-9 -109 -114 0
-10 -110 -115 0
-6 -111 0
-7 -112 0
-8 -113 0
-9 -114 0
-10 -115 0
-6 -101 -111 0
-7 -102 -112 0
-8 -103 -113 0
-9 -104 -114 0
-10 -105 -115 0
-6 -106 -111 0
-7 -107 -112 0
-8 -108 -113 0
-9 -109 -114 0
-10 -110 -115 0
-6 -101 -106 0
-7 -102 -107 0
-8 -103 -108 0
-9 -104 -109 0
-10 -105 -110 0
-6 -116 -126 0
-7 -117 -127 0
-8 -118 -128 0
-9 -119 -129 0
-10 -120 -130 0
-6 -121 0
-7 -122 0
-8 -123 0
-9 -124 0
-10 -125 0
-6 -121 -126 0
-7 -122 -127 0
-8 -123 -128 0
-9 -124 -129 0
-10 -125 -130 0
-6 -126 -131 0
-7 -127 -132 0
-8 -128 -133 0
-9 -129 -134 0
-10 -130 -135 0
-6 -131 0
-7 -132 0
-8 -133 0
-9 -134 0
-10 -135 0
-6 -121 -131 0
-7 -122 -132 0
-8 -123 -133 0
-9 -124 -134 0
-10 -125 -135 0
-6 -126 -131 0
-7 -127 -132 0
-8 -128 -133 0
-9 -129 -134 0
-10 -130 -135 0
-6 -121 -126 0
-7 -122 -127 0
-8 -123 -128 0
-9 -124 -129 0
-10 -125 -130 0
-6 -136 -146 0
-7 -137 -147 0
-8 -138 -148 0
-9 -139 -149 0
-10 -140 -150 0
-6 -141 0
-7 -142 0
-8 -143 0
-9 -144 0
-10 -145 0
-6 -141 -146 0
-7 -142 -147 0
-8 -143 -148 0
-9 -144 -149 0
-10 -145 -150 0
-6 -146 -151 0
-7 -147 -152 0
-8 -148 -153 0
-9 -149 -154 0
-10 -150 -155 0
-6 -151 0
-7 -152 0
-8 -153 0
-9 -154 0
-10 -155 0
-6 -141 -151 0
-7 -142 -152 0
-8 -143 -153 0
-9 -144 -154 0
-10 -145 -155 0
-6 -146 -151 0
-7 -147 -152 0
-8 -148 -153 0
-9 -149 -154 0
-10 -150 -155 0
-6 -141 -146 0
-7 -142 -147 0
-8 -143 -148 0
-9 -144 -149 0
-10 -145 -150 0
-11 -16 -31 0
-12 -17 -32 0
-13 -18 -33 0
-14 -19 -34 0
-15 -20 -35 0
-11 -21 0
-12 -22 0
-13 -23 0
-14 -24 0
-15 -25 0
-11 -21 -26 0
-12 -22 -27 0
-13 -23 -28 0
-14 -24 -29 0
-15 -25 -30 0
-11 -26 0
-12 -27 0
-13 -28 0
-14 -29 0
-15 -30 0
-11 -21 -31 0
-12 -22 -32 0
-13 -23 -33 0
-14 -24 -34 0
-15 -25 -35 0
-11 -26 -31 0
-12 -27 -32 0
-13 -28 -33 0
-14 -29 -34 0
-15 -30 -35 0
-11 -21 -31 0
-12 -22 -32 0
-13 -23 -33 0
-14 -24 -34 0
-15 -25 -35 0
-11 -26 -31 0
-12 -27 -32 0
-13 -28 -33 0
-14 -29 -34 0
-15 -30 -35 0
-11 -36 -51 0
-12 -37 -52 0
-13 -38 -53 0
-14 -39 -54 0
-15 -40 -55 0
-11 -41 0
-12 -42 0
-13 -43 0
-14 -44 0
-15 -45 0
-11 -41 -46 0
-12 -42 -47 0
-13 -43 -48 0
-14 -44 -49 0
-15 -45 -50 0
-11 -46 0
-12 -47 0
-13 -48 0
-14 -49 0
-15 -50 0
-11 -41 -51 0
-12 -42 -52 0
-13 -43 -53 0
-14 -44 -54 0
-15 -45 -55 0
-11 -46 -51 0
-12 -47 -52 0
-13 -48 -53 0
-14 -49 -54 0
-15 -50 -55 0
-11 -41 -51 0
-12 -42 -52 0
-13 -43 -53 0
-14 -44 -54 0
-15 -45 -55 0
-11 -46 -51 0
-12 -47 -52 0
-13 -48 -53 0
-14 -49 -54 0
-15 -50 -55 0
-11 -56 -71 0
-12 -57 -72 0
-13 -58 -73 0
-14 -59 -74 0
-15 -60 -75 0
-11 -61 0
-12 -62 0
-13 -63 0
-14 -64 0
-15 -65 0
-11 -61 -66 0
-12 -62 -67 0
-13 -63 -68 0
-14 -64 -69 0
-15 -65 -70 0
-11 -66 0
-12 -67 0
-13 -68 0
-14 -69 0
-15 -70 0
-11 -61 -71 0
-12 -62 -72 0
-13 -63 -73 0
-14 -64 -74 0
-15 -65 -75 0
-11 -66 -71 0
-12 -67 -72 0
-13 -68 -73 0
-14 -69 -74 0
-15 -70 -75 0
-11 -61 -71 0
-12 -62 -72 0
-13 -63 -73 0
-14 -64 -74 0
-15 -65 -75 0
-11 -66 -71 0
-12 -67 -72 0
-13 -68 -73 0
-14 -69 -74 0
-15 -70 -75 0
-11 -76 -91 0
-12 -77 -92 0
-13 -78 -93 0
-14 -79 -94 0
-15 -80 -95 0
-11 -81 0
-12 -82 0
-13 -83 0
-14 -84 0
-15 -85 0
-11 -81 -86 0
-12 -82 -87 0
-13 -83 -88 0
-14 -84 -89 0
-15 -85 -90 0
-11 -86 0
-12 -87 0
-13 -88 0
-14 -89 0
-15 -90 0
-11 -81 -91 0
-12 -82 -92 0
-13 -83 -93 0
-14 -84 -94 0
-15 -85 -95 0
-11 -86 -91 0
-12 -87 -92 0
-13 -88 -93 0
-14 -89 -94 0
-15 -90 -95 0
-11 -81 -91 0
-12 -82 -92 0
-13 -83 -93 0
-14 -84 -94 0
-15 -85 -95 0
-11 -86 -91 0
-12 -87 -92 0
-13 -88 -93 0
-14 -89 -94 0
-15 -90 -95 0
-11 -96 -111 0
-12 -97 -112 0
-13 -98 -113 0
-14 -99 -114 0
-15 -100 -115 0
-11 -101 0
-12 -102 0
-13 -103 0
-14 -104 0
-15 -105 0
-11 -101 -106 0
-12 -102 -107 0
-13 -103 -108 0
-14 -104 -109 0
-15 -105 -110 0
-11 -106 0
-12 -107 0
-13 -108 0
-14 -109 0
-15 -110 0
-11 -101 -111 0
-12 -102 -112 0
-13 -103 -113 0
-14 -104 -114 0
-15 -105 -115 0
-11 -106 -111 0
-12 -107 -112 0
-13 -108 -113 0
-14 -109 -114 0
-15 -110 -115 0
-11 -101 -111 0
-12 -102 -112 0
-13 -103 -113 0
-14 -104 -114 0
-15 -105 -115 0
-11 -106 -111 0
-12 -107 -112 0
-13 -108 -113 0
-14 -109 -114 0
-15 -110 -115 0
-11 -116 -131 0
-12 -117 -132 0
-13 -118 -133 0
-14 -119 -134 0
-15 -120 -135 0
-11 -121 0
-12 -122 0
-13 -123 0
-14 -124 0
-15 -125 0
-11 -121 -126 0
-12 -122 -127 0
-13 -123 -128 0
-14 -124 -129 0
-15 -125 -130 0
-11 -126 0
-12 -127 0
-13 -128 0
-14 -129 0
-15 -130 0
-11 -121 -131 0
-12 -122 -132 0
-13 -123 -133 0
-14 -124 -134 0
-15 -125 -135 0
-11 -126 -131 0
-12 -127 -132 0
-13 -128 -133 0
-14 -129 -134 0
-15 -130 -135 0
-11 -121 -131 0
-12 -122 -132 0
-13 -123 -133 0
-14 -124 -134 0
-15 -125 -135 0
-11 -126 -131 0
-12 -127 -132 0
-13 -128 -133 0
-14 -129 -134 0
-15 -130 -135 0
-11 -136 -151 0
-12 -137 -152 0
-13 -138 -153 0
-14 -139 -154 0
-15 -140 -155 0
-11 -141 0
-12 -142 0
-13 -143 0
-14 -144 0
-15 -145 0
-11 -141 -146 0
-12 -142 -147 0
-13 -143 -148 0
-14 -144 -149 0
-15 -145 -150 0
-11 -146 0
-12 -147 0
-13 -148 0
-14 -149 0
-15 -150 0
-11 -141 -151 0
-12 -142 -152 0
-13 -143 -153 0
-14 -144 -154 0
-15 -145 -155 0
-11 -146 -151 0
-12 -147 -152 0
-13 -148 -153 0
-14 -149 -154 0
-15 -150 -155 0
-11 -141 -151 0
-12 -142 -152 0
-13 -143 -153 0
-14 -144 -154 0
-15 -145 -155 0
-11 -146 -151 0
-12 -147 -152 0
-13 -148 -153 0
-14 -149 -154 0
-15 -150 -155 0
-1 -16 -21 0
-2 -17 -22 0
-3 -18 -23 0
-4 -19 -24 0
-5 -20 -25 0
-1 -21 -31 0
-2 -22 -32 0
-3 -23 -33 0
-4 -24 -34 0
-5 -25 -35 0
-1 -26 0
-2 -27 0
-3 -28 0
-4 -29 0
-5 -30 0
-1 -21 -26 0
-2 -22 -27 0
-3 -23 -28 0
-4 -24 -29 0
-5 -25 -30 0
-1 -26 -31 0
-2 -27 -32 0
-3 -28 -33 0
-4 -29 -34 0
-5 -30 -35 0
-1 -21 -31 0
-2 -22 -32 0
-3 -23 -33 0
-4 -24 -34 0
-5 -25 -35 0
-1 -31 0
-2 -32 0
-3 -33 0
-4 -34 0
-5 -35 0
-1 -21 -26 0
-2 -22 -27 0
-3 -23 -28 0
-4 -24 -29 0
-5 -25 -30 0
-1 -36 -41 0
-2 -37 -42 0
-3 -38 -43 0
-4 -39 -44 0
-5 -40 -45 0
-1 -41 -51 0
-2 -42 -52 0
-3 -43 -53 0
-4 -44 -54 0
-5 -45 -55 0
-1 -46 0
-2 -47 0
-3 -48 0
-4 -49 0
-5 -50 0
-1 -41 -46 0
-2 -42 -47 0
-3 -43 -48 0
-4 -44 -49 0
-5 -45 -50 0
-1 -46 -51 0
-2 -47 -52 0
-3 -48 -53 0
-4 -49 -54 0
-5 -50 -55 0
-1 -41 -51 0
-2 -42 -52 0
-3 -43 -53 0
-4 -44 -54 0
-5 -45 -55 0
-1 -51 0
-2 -52 0
-3 -53 0
-4 -54 0
-5 -55 0
-1 -41 -46 0
-2 -42 -47 0
-3 -43 -48 0
-4 -44 -49 0
-5 -45 -50 0
-1 -56 -61 0
-2 -57 -62 0
-3 -58 -63 0
-4 -59 -64 0
-5 -60 -65 0
-1 -61 -71 0
-2 -62 -72 0
-3 -63 -73 0
-4 -64 -74 0
-5 -65 -75 0
-1 -66 0
-2 -67 0
-3 -68 0
-4 -69 0
-5 -70 0
-1 -61 -66 0
-2 -62 -67 0
-3 -63 -68 0
-4 -64 -69 0
-5 -65 -70 0
-1 -66 -71 0
-2 -67 -72 0
-3 -68 -73 0
-4 -69 -74 0
-5 -70 -75 0
-1 -61 -71 0
-2 -62 -72 0
-3 -63 -73 0
-4 -64 -74 0
-5 -65 -75 0
-1 -71 0
-2 -72 0
-3 -73 0
-4 -74 0
-5 -75 0
-1 -61 -66 0
-2 -62 -67 0
-3 -63 -68 0
-4 -64 -69 0
-5 -65 -70 0
-1 -76 -81 0
-2 -77 -82 0
-3 -78 -83 0
-4 -79 -84 0
-5 -80 -85 0
-1 -81 -91 0
-2 -82 -92 0
-3 -83 -93 0
-4 -84 -94 0
-5 -85 -95 0
-1 -86 0
-2 -87 0
-3 -88 0
-4 -89 0
-5 -90 0
-1 -81 -86 0
-2 -82 -87 0
-3 -83 -88 0
-4 -84 -89 0
-5 -85 -90 0
-1 -86 -91 0
-2 -87 -92 0
-3 -88 -93 0
-4 -89 -94 0
-5 -90 -95 0
-1 -81 -91 0
-2 -82 -92 0
-3 -83 -93 0
-4 -84 -94 0
-5 -85 -95 0
-1 -91 0
-2 -92 0
-3 -93 0
-4 -94 0
-5 -95 0
-1 -81 -86 0
-2 -82 -87 0
-3 -83 -88 0
-4 -84 -89 0
-5 -85 -90 0
-1 -96 -101 0
-2 -97 -102 0
-3 -98 -103 0
-4 -99 -104 0
-5 -100 -105 0
-1 -101 -111 0
-2 -102 -112 0
-3 -103 -113 0
-4 -104 -114 0
-5 -105 -115 0
-1 -106 0
-2 -107 0
-3 -108 0
-4 -109 0
-5 -110 0
-1 -101 -106 0
-2 -102 -107 0
-3 -103 -108 0
-4 -104 -109 0
-5 -105 -110 0
-1 -106 -111 0
-2 -107 -112 0
-3 -108 -113 0
-4 -109 -114 0
-5 -110 -115 0
-1 -101 -111 0
-2 -102 -112 0
-3 -103 -113 0
-4 -104 -114 0
-5 -105 -115 0
-1 -111 0
-2 -112 0
-3 -113 0
-4 -114 0
-5 -115 0
-1 -101 -106 0
-2 -102 -107 0
-3 -103 -108 0
-4 -104 -109 0
-5 -105 -110 0
-1 -116 -121 0
-2 -117 -122 0
-3 -118 -123 0
-4 -119 -124 0
-5 -120 -125 0
-1 -121 -131 0
-2 -122 -132 0
-3 -123 -133 0
-4 -124 -134 0
-5 -125 -135 0
-1 -126 0
-2 -127 0
-3 -128 0
-4 -129 0
-5 -130 0
-1 -121 -126 0
-2 -122 -127 0
-3 -123 -128 0
-4 -124 -129 0
-5 -125 -130 0
-1 -126 -131 0
-2 -127 -132 0
-3 -128 -133 0
-4 -129 -134 0
-5 -130 -135 0
-1 -121 -131 0
-2 -122 -132 0
-3 -123 -133 0
-4 -124 -134 0
-5 -125 -135 0
-1 -131 0
-2 -132 0
-3 -133 0
-4 -134 0
-5 -135 0
-1 -121 -126 0
-2 -122 -127 0
-3 -123 -128 0
-4 -124 -129 0
-5 -125 -130 0
-1 -136 -141 0
-2 -137 -142 0
-3 -138 -143 0
-4 -139 -144 0
-5 -140 -145 0
-1 -141 -151 0
-2 -142 -152 0
-3 -143 -153 0
-4 -144 -154 0
-5 -145 -155 0
-1 -146 0
-2 -147 0
-3 -148 0
-4 -149 0
-5 -150 0
-1 -141 -146 0
-2 -142 -147 0
-3 -143 -148 0
-4 -144 -149 0
-5 -145 -150 0
-1 -146 -151 0
-2 -147 -152 0
-3 -148 -153 0
-4 -149 -154 0
-5 -150 -155 0
-1 -141 -151 0
-2 -142 -152 0
-3 -143 -153 0
-4 -144 -154 0
-5 -145 -155 0
-1 -151 0
-2 -152 0
-3 -153 0
-4 -154 0
-5 -155 0
-1 -141 -146 0
-2 -142 -147 0
-3 -143 -148 0
-4 -144 -149 0
-5 -145 -150 0
-16 -36 -56 0
-17 -37 -57 0
-18 -38 -58 0
-19 -39 -59 0
-20 -40 -60 0
-16 -41 -61 0
-17 -42 -62 0
-18 -43 -63 0
-19 -44 -64 0
-20 -45 -65 0
-16 -46 -66 0
-17 -47 -67 0
-18 -48 -68 0
-19 -49 -69 0
-20 -50 -70 0
-16 -46 -66 0
-17 -47 -67 0
-18 -48 -68 0
-19 -49 -69 0
-20 -50 -70 0
-16 -51 -71 0
-17 -52 -72 0
-18 -53 -73 0
-19 -54 -74 0
-20 -55 -75 0
-16 -51 -71 0
-17 -52 -72 0
-18 -53 -73 0
-19 -54 -74 0
-20 -55 -75 0
-16 -51 -71 0
-17 -52 -72 0
-18 -53 -73 0
-19 -54 -74 0
-20 -55 -75 0
-16 -46 -66 0
-17 -47 -67 0
-18 -48 -68 0
-19 -49 -69 0
-20 -50 -70 0
-16 -41 -61 0
-17 -42 -62 0
-18 -43 -63 0
-19 -44 -64 0
-20 -45 -65 0
-16 -51 -71 0
-17 -52 -72 0
-18 -53 -73 0
-19 -54 -74 0
-20 -55 -75 0
-16 -41 -61 0
-17 -42 -62 0
-18 -43 -63 0
-19 -44 -64 0
-20 -45 -65 0
-16 -46 -66 0
-17 -47 -67 0
-18 -48 -68 0
-19 -49 -69 0
-20 -50 -70 0
-16 -41 -61 0
-17 -42 -62 0
-18 -43 -63 0
-19 -44 -64 0
-20 -45 -65 0
-16 -46 -66 0
-17 -47 -67 0
-18 -48 -68 0
-19 -49 -69 0
-20 -50 -70 0
-16 -51 -71 0
-17 -52 -72 0
-18 -53 -73 0
-19 -54 -74 0
-20 -55 -75 0
-16 -41 -61 0
-17 -42 -62 0
-18 -43 -63 0
-19 -44 -64 0
-20 -45 -65 0
-16 -76 -96 0
-17 -77 -97 0
-18 -78 -98 0
-19 -79 -99 0
-20 -80 -100 0
-16 -81 -101 0
-17 -82 -102 0
-18 -83 -103 0
-19 -84 -104 0
-20 -85 -105 0
-16 -86 -106 0
-17 -87 -107 0
-18 -88 -108 0
-19 -89 -109 0
-20 -90 -110 0
-16 -86 -106 0
-17 -87 -107 0
-18 -88 -108 0
-19 -89 -109 0
-20 -90 -110 0
-16 -91 -111 0
-17 -92 -112 0
-18 -93 -113 0
-19 -94 -114 0
-20 -95 -115 0
-16 -91 -111 0
-17 -92 -112 0
-18 -93 -113 0
-19 -94 -114 0
-20 -95 -115 0
-16 -91 -111 0
-17 -92 -112 0
-18 -93 -113 0
-19 -94 -114 0
-20 -95 -115 0
-16 -86 -106 0
-17 -87 -107 0
-18 -88 -108 0
-19 -89 -109 0
-20 -90 -110 0
-16 -81 -101 0
-17 -82 -102 0
-18 -83 -103 0
-19 -84 -104 0
-20 -85 -105 0
-16 -91 -111 0
-17 -92 -112 0
-18 -93 -113 0
-19 -94 -114 0
-20 -95 -115 0
-16 -81 -101 0
-17 -82 -102 0
-18 -83 -103 0
-19 -84 -104 0
-20 -85 -105 0
-16 -86 -106 0
-17 -87 -107 0
-18 -88 -108 0
-19 -89 -109 0
-20 -90 -110 0
-16 -81 -101 0
-17 -82 -102 0
-18 -83 -103 0
-19 -84 -104 0
-20 -85 -105 0
-16 -86 -106 0
-17 -87 -107 0
-18 -88 -108 0
-19 -89 -109 0
-20 -90 -110 0
-16 -91 -111 0
-17 -92 -112 0
-18 -93 -113 0
-19 -94 -114 0
-20 -95 -115 0
-16 -81 -101 0
-17 -82 -102 0
-18 -83 -103 0
-19 -84 -104 0
-20 -85 -105 0
-16 -116 -136 0
-17 -117 -137 0
-18 -118 -138 0
-19 -119 -139 0
-20 -120 -140 0
-16 -121 -141 0
-17 -122 -142 0
-18 -123 -143 0
-19 -124 -144 0
-20 -125 -145 0
-16 -126 -146 0
-17 -127 -147 0
-18 -128 -148 0
-19 -129 -149 0
-20 -130 -150 0
-16 -126 -146 0
-17 -127 -147 0
-18 -128 -148 0
-19 -129 -149 0
-20 -130 -150 0
-16 -131 -151 0
-17 -132 -152 0
-18 -133 -153 0
-19 -134 -154 0
-20 -135 -155 0
-16 -131 -151 0
-17 -132 -152 0
-18 -133 -153 0
-19 -134 -154 0
-20 -135 -155 0
-16 -131 -151 0
-17 -132 -152 0
-18 -133 -153 0
-19 -134 -154 0
-20 -135 -155 0
-16 -126 -146 0
-17 -127 -147 0
-18 -128 -148 0
-19 -129 -149 0
-20 -130 -150 0
-16 -121 -141 0
-17 -122 -142 0
-18 -123 -143 0
-19 -124 -144 0
-20 -125 -145 0
-16 -131 -151 0
-17 -132 -152 0
-18 -133 -153 0
-19 -134 -154 0
-20 -135 -155 0
-16 -121 -141 0
-17 -122 -142 0
-18 -123 -143 0
-19 -124 -144 0
-20 -125 -145 0
-16 -126 -146 0
-17 -127 -147 0
-18 -128 -148 0
-19 -129 -149 0
-20 -130 -150 0
-16 -121 -141 0
-17 -122 -142 0
-18 -123 -143 0
-19 -124 -144 0
-20 -125 -145 0
-16 -126 -146 0
-17 -127 -147 0
-18 -128 -148 0
-19 -129 -149 0
-20 -130 -150 0
-16 -131 -151 0
-17 -132 -152 0
-18 -133 -153 0
-19 -134 -154 0
-20 -135 -155 0
-16 -121 -141 0
-17 -122 -142 0
-18 -123 -143 0
-19 -124 -144 0
-20 -125 -145 0
-21 -36 -61 0
-22 -37 -62 0
-23 -38 -63 0
-24 -39 -64 0
-25 -40 -65 0
-21 -41 -56 0
-22 -42 -57 0
-23 -43 -58 0
-24 -44 -59 0
-25 -45 -60 0
-21 -46 -66 0
-22 -47 -67 0
-23 -48 -68 0
-24 -49 -69 0
-25 -50 -70 0
-21 -46 -66 0
-22 -47 -67 0
-23 -48 -68 0
-24 -49 -69 0
-25 -50 -70 0
-21 -51 -71 0
-22 -52 -72 0
-23 -53 -73 0
-24 -54 -74 0
-25 -55 -75 0
-21 -51 -71 0
-22 -52 -72 0
-23 -53 -73 0
-24 -54 -74 0
-25 -55 -75 0
-21 -51 -66 0
-22 -52 -67 0
-23 -53 -68 0
-24 -54 -69 0
-25 -55 -70 0
-21 -46 -71 0
-22 -47 -72 0
-23 -48 -73 0
-24 -49 -74 0
-25 -50 -75 0
-21 -41 -71 0
-22 -42 -72 0
-23 -43 -73 0
-24 -44 -74 0
-25 -45 -75 0
-21 -51 -61 0
-22 -52 -62 0
-23 -53 -63 0
-24 -54 -64 0
-25 -55 -65 0
-21 -41 -66 0
-22 -42 -67 0
-23 -43 -68 0
-24 -44 -69 0
-25 -45 -70 0
-21 -46 -61 0
-22 -47 -62 0
-23 -48 -63 0
-24 -49 -64 0
-25 -50 -65 0
-21 -41 -66 0
-22 -42 -67 0
-23 -43 -68 0
-24 -44 -69 0
-25 -45 -70 0
-21 -46 -61 0
-22 -47 -62 0
-23 -48 -63 0
-24 -49 -64 0
-25 -50 -65 0
-21 -51 -61 0
-22 -52 -62 0
-23 -53 -63 0
-24 -54 -64 0
-25 -55 -65 0
-21 -41 -71 0
-22 -42 -72 0
-23 -43 -73 0
-24 -44 -74 0
-25 -45 -75 0
-21 -76 -101 0
-22 -77 -102 0
-23 -78 -103 0
-24 -79 -104 0
-25 -80 -105 0
-21 -81 -96 0
-22 -82 -97 0
-23 -83 -98 0
-24 -84 -99 0
-25 -85 -100 0
-21 -86 -106 0
-22 -87 -107 0
-23 -88 -108 0
-24 -89 -109 0
-25 -90 -110 0
-21 -86 -106 0
-22 -87 -107 0
-23 -88 -108 0
-24 -89 -109 0
-25 -90 -110 0
-21 -91 -111 0
-22 -92 -112 0
-23 -93 -113 0
-24 -94 -114 0
-25 -95 -115 0
-21 -91 -111 0
-22 -92 -112 0
-23 -93 -113 0
-24 -94 -114 0
-25 -95 -115 0
-21 -91 -106 0
-22 -92 -107 0
-23 -93 -108 0
-24 -94 -109 0
-25 -95 -110 0
-21 -86 -111 0
-22 -87 -112 0
-23 -88 -113 0
-24 -89 -114 0
-25 -90 -115 0
-21 -81 -111 0
-22 -82 -112 0
-23 -83 -113 0
-24 -84 -114 0
-25 -85 -115 0
-21 -91 -101 0
-22 -92 -102 0
-23 -93 -103 0
-24 -94 -104 0
-25 -95 -105 0
-21 -81 -106 0
-22 -82 -107 0
-23 -83 -108 0
-24 -84 -109 0
-25 -85 -110 0
-21 -86 -101 0
-22 -87 -102 0
-23 -88 -103 0
-24 -89 -104 0
-25 -90 -105 0
-21 -81 -106 0
-22 -82 -107 0
-23 -83 -108 0
-24 -84 -109 0
-25 -85 -110 0
-21 -86 -101 0
-22 -87 -102 0
-23 -88 -103 0
-24 -89 -104 0
-25 -90 -105 0
-21 -91 -101 0
-22 -92 -102 0
-23 -93 -103 0
-24 -94 -104 0
-25 -95 -105 0
-21 -81 -111 0
-22 -82 -112 0
-23 -83 -113 0
-24 -84 -114 0
-25 -85 -115 0
-21 -116 -141 0
-22 -117 -142 0
-23 -118 -143 0
-24 -119 -144 0
-25 -120 -145 0
-21 -121 -136 0
-22 -122 -137 0
-23 -123 -138 0
-24 -124 -139 0
-25 -125 -140 0
-21 -126 -146 0
-22 -127 -147 0
-23 -128 -148 0
-24 -129 -149 0
-25 -130 -150 0
-21 -126 -146 0
-22 -127 -147 0
-23 -128 -148 0
-24 -129 -149 0
-25 -130 -150 0
-21 -131 -151 0
-22 -132 -152 0
-23 -133 -153 0
-24 -134 -154 0
-25 -135 -155 0
-21 -131 -151 0
-22 -132 -152 0
-23 -133 -153 0
-24 -134 -154 0
-25 -135 -155 0
-21 -131 -146 0
-22 -132 -147 0
-23 -133 -148 0
-24 -134 -149 0
-25 -135 -150 0
-21 -126 -151 0
-22 -127 -152 0
-23 -128 -153 0
-24 -129 -154 0
-25 -130 -155 0
-21 -121 -151 0
-22 -122 -152 0
-23 -123 -153 0
-24 -124 -154 0
-25 -125 -155 0
-21 -131 -141 0
-22 -132 -142 0
-23 -133 -143 0
-24 -134 -144 0
-25 -135 -145 0
-21 -121 -146 0
-22 -122 -147 0
-23 -123 -148 0
-24 -124 -149 0
-25 -125 -150 0
-21 -126 -141 0
-22 -127 -142 0
-23 -128 -143 0
-24 -129 -144 0
-25 -130 -145 0
-21 -121 -146 0
-22 -122 -147 0
-23 -123 -148 0
-24 -124 -149 0
-25 -125 -150 0
-21 -126 -141 0
-22 -127 -142 0
-23 -128 -143 0
-24 -129 -144 0
-25 -130 -145 0
-21 -131 -141 0
-22 -132 -142 0
-23 -133 -143 0
-24 -134 -144 0
-25 -135 -145 0
-21 -121 -151 0
-22 -122 -152 0
-23 -123 -153 0
-24 -124 -154 0
-25 -125 -155 0
-26 -36 -66 0
-27 -37 -67 0
-28 -38 -68 0
-29 -39 -69 0
-30 -40 -70 0
-26 -41 -66 0
-27 -42 -67 0
-28 -43 -68 0
-29 -44 -69 0
-30 -45 -70 0
-26 -46 -56 0
-27 -47 -57 0
-28 -48 -58 0
-29 -49 -59 0
-30 -50 -60 0
-26 -46 -61 0
-27 -47 -62 0
-28 -48 -63 0
-29 -49 -64 0
-30 -50 -65 0
-26 -51 -71 0
-27 -52 -72 0
-28 -53 -73 0
-29 -54 -74 0
-30 -55 -75 0
-26 -51 -66 0
-27 -52 -67 0
-28 -53 -68 0
-29 -54 -69 0
-30 -55 -70 0
-26 -51 -71 0
-27 -52 -72 0
-28 -53 -73 0
-29 -54 -74 0
-30 -55 -75 0
-26 -46 -71 0
-27 -47 -72 0
-28 -48 -73 0
-29 -49 -74 0
-30 -50 -75 0
-26 -41 -61 0
-27 -42 -62 0
-28 -43 -63 0
-29 -44 -64 0
-30 -45 -65 0
-26 -51 -66 0
-27 -52 -67 0
-28 -53 -68 0
-29 -54 -69 0
-30 -55 -70 0
-26 -41 -61 0
-27 -42 -62 0
-28 -43 -63 0
-29 -44 -64 0
-30 -45 -65 0
-26 -46 -71 0
-27 -47 -72 0
-28 -48 -73 0
-29 -49 -74 0
-30 -50 -75 0
-26 -41 -71 0
-27 -42 -72 0
-28 -43 -73 0
-29 -44 -74 0
-30 -45 -75 0
-26 -46 -61 0
-27 -47 -62 0
-28 -48 -63 0
-29 -49 -64 0
-30 -50 -65 0
-26 -51 -61 0
-27 -52 -62 0
-28 -53 -63 0
-29 -54 -64 0
-30 -55 -65 0
-26 -41 -66 0
-27 -42 -67 0
-28 -43 -68 0
-29 -44 -69 0
-30 -45 -70 0
-26 -76 -106 0
-27 -77 -107 0
-28 -78 -108 0
-29 -79 -109 0
-30 -80 -110 0
-26 -81 -106 0
-27 -82 -107 0
-28 -83 -108 0
-29 -84 -109 0
-30 -85 -110 0
-26 -86 -96 0
-27 -87 -97 0
-28 -88 -98 0
-29 -89 -99 0
-30 -90 -100 0
-26 -86 -101 0
-27 -87 -102 0
-28 -88 -103 0
-29 -89 -104 0
-30 -90 -105 0
-26 -91 -111 0
-27 -92 -112 0
-28 -93 -113 0
-29 -94 -114 0
-30 -95 -115 0
-26 -91 -106 0
-27 -92 -107 0
-28 -93 -108 0
-29 -94 -109 0
-30 -95 -110 0
-26 -91 -111 0
-27 -92 -112 0
-28 -93 -113 0
-29 -94 -114 0
-30 -95 -115 0
-26 -86 -111 0
-27 -87 -112 0
-28 -88 -113 0
-29 -89 -114 0
-30 -90 -115 0
-26 -81 -101 0
-27 -82 -102 0
-28 -83 -103 0
-29 -84 -104 0
-30 -85 -105 0
-26 -91 -106 0
-27 -92 -107 0
-28 -93 -108 0
-29 -94 -109 0
-30 -95 -110 0
-26 -81 -101 0
-27 -82 -102 0
-28 -83 -103 0
-29 -84 -104 0
-30 -85 -105 0
-26 -86 -111 0
-27 -87 -112 0
-28 -88 -113 0
-29 -89 -114 0
-30 -90 -115 0
-26 -81 -111 0
-27 -82 -112 0
-28 -83 -113 0
-29 -84 -114 0
-30 -85 -115 0
-26 -86 -101 0
-27 -87 -102 0
-28 -88 -103 0
-29 -89 -104 0
-30 -90 -105 0
-26 -91 -101 0
-27 -92 -102 0
-28 -93 -103 0
-29 -94 -104 0
-30 -95 -105 0
-26 -81 -106 0
-27 -82 -107 0
-28 -83 -108 0
-29 -84 -109 0
-30 -85 -110 0
-26 -116 -146 0
-27 -117 -147 0
-28 -118 -148 0
-29 -119 -149 0
-30 -120 -150 0
-26 -121 -146 0
-27 -122 -147 0
-28 -123 -148 0
-29 -124 -149 0
-30 -125 -150 0
-26 -126 -136 0
-27 -127 -137 0
-28 -128 -138 0
-29 -129 -139 0
-30 -130 -140 0
-26 -126 -141 0
-27 -127 -142 0
-28 -128 -143 0
-29 -129 -144 0
-30 -130 -145 0
-26 -131 -151 0
-27 -132 -152 0
-28 -133 -153 0
-29 -134 -154 0
-30 -135 -155 0
-26 -131 -146 0
-27 -132 -147 0
-28 -133 -148 0
-29 -134 -149 0
-30 -135 -150 0
-26 -131 -151 0
-27 -132 -152 0
-28 -133 -153 0
-29 -134 -154 0
-30 -135 -155 0
-26 -126 -151 0
-27 -127 -152 0
-28 -128 -153 0
-29 -129 -154 0
-30 -130 -155 0
-26 -121 -141 0
-27 -122 -142 0
-28 -123 -143 0
-29 -124 -144 0
-30 -125 -145 0
-26 -131 -146 0
-27 -132 -147 0
-28 -133 -148 0
-29 -134 -149 0
-30 -135 -150 0
-26 -121 -141 0
-27 -122 -142 0
-28 -123 -143 0
-29 -124 -144 0
-30 -125 -145 0
-26 -126 -151 0
-27 -127 -152 0
-28 -128 -153 0
-29 -129 -154 0
-30 -130 -155 0
-26 -121 -151 0
-27 -122 -152 0
-28 -123 -153 0
-29 -124 -154 0
-30 -125 -155 0
-26 -126 -141 0
-27 -127 -142 0
-28 -128 -143 0
-29 -129 -144 0
-30 -130 -145 0
-26 -131 -141 0
-27 -132 -142 0
-28 -133 -143 0
-29 -134 -144 0
-30 -135 -145 0
-26 -121 -146 0
-27 -122 -147 0
-28 -123 -148 0
-29 -124 -149 0
-30 -125 -150 0
-26 -36 -66 0
-27 -37 -67 0
-28 -38 -68 0
-29 -39 -69 0
-30 -40 -70 0
-26 -41 -66 0
-27 -42 -67 0
-28 -43 -68 0
-29 -44 -69 0
-30 -45 -70 0
-26 -46 -61 0
-27 -47 -62 0
-28 -48 -63 0
-29 -49 -64 0
-30 -50 -65 0
-26 -46 -56 0
-27 -47 -57 0
-28 -48 -58 0
-29 -49 -59 0
-30 -50 -60 0
-26 -51 -66 0
-27 -52 -67 0
-28 -53 -68 0
-29 -54 -69 0
-30 -55 -70 0
-26 -51 -71 0
-27 -52 -72 0
-28 -53 -73 0
-29 -54 -74 0
-30 -55 -75 0
-26 -51 -71 0
-27 -52 -72 0
-28 -53 -73 0
-29 -54 -74 0
-30 -55 -75 0
-26 -46 -71 0
-27 -47 -72 0
-28 -48 -73 0
-29 -49 -74 0
-30 -50 -75 0
-26 -41 -66 0
-27 -42 -67 0
-28 -43 -68 0
-29 -44 -69 0
-30 -45 -70 0
-26 -51 -61 0
-27 -52 -62 0
-28 -53 -63 0
-29 -54 -64 0
-30 -55 -65 0
-26 -41 -71 0
-27 -42 -72 0
-28 -43 -73 0
-29 -44 -74 0
-30 -45 -75 0
-26 -46 -61 0
-27 -47 -62 0
-28 -48 -63 0
-29 -49 -64 0
-30 -50 -65 0
-26 -41 -61 0
-27 -42 -62 0
-28 -43 -63 0
-29 -44 -64 0
-30 -45 -65 0
-26 -46 -71 0
-27 -47 -72 0
-28 -48 -73 0
-29 -49 -74 0
-30 -50 -75 0
-26 -51 -66 0
-27 -52 -67 0
-28 -53 -68 0
-29 -54 -69 0
-30 -55 -70 0
-26 -41 -61 0
-27 -42 -62 0
-28 -43 -63 0
-29 -44 -64 0
-30 -45 -65 0
-26 -76 -106 0
-27 -77 -107 0
-28 -78 -108 0
-29 -79 -109 0
-30 -80 -110 0
-26 -81 -106 0
-27 -82 -107 0
-28 -83 -108 0
-29 -84 -109 0
-30 -85 -110 0
-26 -86 -101 0
-27 -87 -102 0
-28 -88 -103 0
-29 -89 -104 0
-30 -90 -105 0
-26 -86 -96 0
-27 -87 -97 0
-28 -88 -98 0
-29 -89 -99 0
-30 -90 -100 0
-26 -91 -106 0
-27 -92 -107 0
-28 -93 -108 0
-29 -94 -109 0
-30 -95 -110 0
-26 -91 -111 0
-27 -92 -112 0
-28 -93 -113 0
-29 -94 -114 0
-30 -95 -115 0
-26 -91 -111 0
-27 -92 -112 0
-28 -93 -113 0
-29 -94 -114 0
-30 -95 -115 0
-26 -86 -111 0
-27 -87 -112 0
-28 -88 -113 0
-29 -89 -114 0
-30 -90 -115 0
-26 -81 -106 0
-27 -82 -107 0
-28 -83 -108 0
-29 -84 -109 0
-30 -85 -110 0
-26 -91 -101 0
-27 -92 -102 0
-28 -93 -103 0
-29 -94 -104 0
-30 -95 -105 0
-26 -81 -111 0
-27 -82 -112 0
-28 -83 -113 0
-29 -84 -114 0
-30 -85 -115 0
-26 -86 -101 0
-27 -87 -102 0
-28 -88 -103 0
-29 -89 -104 0
-30 -90 -105 0
-26 -81 -101 0
-27 -82 -102 0
-28 -83 -103 0
-29 -84 -104 0
-30 -85 -105 0
-26 -86 -111 0
-27 -87 -112 0
-28 -88 -113 0
-29 -89 -114 0
-30 -90 -115 0
-26 -91 -106 0
-27 -92 -107 0
-28 -93 -108 0
-29 -94 -109 0
-30 -95 -110 0
-26 -81 -101 0
-27 -82 -102 0
-28 -83 -103 0
-29 -84 -104 0
-30 -85 -105 0
-26 -116 -146 0
-27 -117 -147 0
-28 -118 -148 0
-29 -119 -149 0
-30 -120 -150 0
-26 -121 -146 0
-27 -122 -147 0
-28 -123 -148 0
-29 -124 -149 0
-30 -125 -150 0
-26 -126 -141 0
-27 -127 -142 0
-28 -128 -143 0
-29 -129 -144 0
-30 -130 -145 0
-26 -126 -136 0
-27 -127 -137 0
-28 -128 -138 0
-29 -129 -139 0
-30 -130 -140 0
-26 -131 -146 0
-27 -132 -147 0
-28 -133 -148 0
-29 -134 -149 0
-30 -135 -150 0
-26 -131 -151 0
-27 -132 -152 0
-28 -133 -153 0
-29 -134 -154 0
-30 -135 -155 0
-26 -131 -151 0
-27 -132 -152 0
-28 -133 -153 0
-29 -134 -154 0
-30 -135 -155 0
-26 -126 -151 0
-27 -127 -152 0
-28 -128 -153 0
-29 -129 -154 0
-30 -130 -155 0
-26 -121 -146 0
-27 -122 -147 0
-28 -123 -148 0
-29 -124 -149 0
-30 -125 -150 0
-26 -131 -141 0
-27 -132 -142 0
-28 -133 -143 0
-29 -134 -144 0
-30 -135 -145 0
-26 -121 -151 0
-27 -122 -152 0
-28 -123 -153 0
-29 -124 -154 0
-30 -125 -155 0
-26 -126 -141 0
-27 -127 -142 0
-28 -128 -143 0
-29 -129 -144 0
-30 -130 -145 0
-26 -121 -141 0
-27 -122 -142 0
-28 -123 -143 0
-29 -124 -144 0
-30 -125 -145 0
-26 -126 -151 0
-27 -127 -152 0
-28 -128 -153 0
-29 -129 -154 0
-30 -130 -155 0
-26 -131 -146 0
-27 -132 -147 0
-28 -133 -148 0
-29 -134 -149 0
-30 -135 -150 0
-26 -121 -141 0
-27 -122 -142 0
-28 -123 -143 0
-29 -124 -144 0
-30 -125 -145 0
-31 -36 -71 0
-32 -37 -72 0
-33 -38 -73 0
-34 -39 -74 0
-35 -40 -75 0
-31 -41 -71 0
-32 -42 -72 0
-33 -43 -73 0
-34 -44 -74 0
-35 -45 -75 0
-31 -46 -71 0
-32 -47 -72 0
-33 -48 -73 0
-34 -49 -74 0
-35 -50 -75 0
-31 -46 -66 0
-32 -47 -67 0
-33 -48 -68 0
-34 -49 -69 0
-35 -50 -70 0
-31 -51 -56 0
-32 -52 -57 0
-33 -53 -58 0
-34 -54 -59 0
-35 -55 -60 0
-31 -51 -61 0
-32 -52 -62 0
-33 -53 -63 0
-34 -54 -64 0
-35 -55 -65 0
-31 -51 -66 0
-32 -52 -67 0
-33 -53 -68 0
-34 -54 -69 0
-35 -55 -70 0
-31 -46 -66 0
-32 -47 -67 0
-33 -48 -68 0
-34 -49 -69 0
-35 -50 -70 0
-31 -41 -61 0
-32 -42 -62 0
-33 -43 -63 0
-34 -44 -64 0
-35 -45 -65 0
-31 -51 -66 0
-32 -52 -67 0
-33 -53 -68 0
-34 -54 -69 0
-35 -55 -70 0
-31 -41 -71 0
-32 -42 -72 0
-33 -43 -73 0
-34 -44 -74 0
-35 -45 -75 0
-31 -46 -61 0
-32 -47 -62 0
-33 -48 -63 0
-34 -49 -64 0
-35 -50 -65 0
-31 -41 -61 0
-32 -42 -62 0
-33 -43 -63 0
-34 -44 -64 0
-35 -45 -65 0
-31 -46 -71 0
-32 -47 -72 0
-33 -48 -73 0
-34 -49 -74 0
-35 -50 -75 0
-31 -51 -61 0
-32 -52 -62 0
-33 -53 -63 0
-34 -54 -64 0
-35 -55 -65 0
-31 -41 -66 0
-32 -42 -67 0
-33 -43 -68 0
-34 -44 -69 0
-35 -45 -70 0
-31 -76 -111 0
-32 -77 -112 0
-33 -78 -113 0
-34 -79 -114 0
-35 -80 -115 0
-31 -81 -111 0
-32 -82 -112 0
-33 -83 -113 0
-34 -84 -114 0
-35 -85 -115 0
-31 -86 -111 0
-32 -87 -112 0
-33 -88 -113 0
-34 -89 -114 0
-35 -90 -115 0
-31 -86 -106 0
-32 -87 -107 0
-33 -88 -108 0
-34 -89 -109 0
-35 -90 -110 0
-31 -91 -96 0
-32 -92 -97 0
-33 -93 -98 0
-34 -94 -99 0
-35 -95 -100 0
-31 -91 -101 0
-32 -92 -102 0
-33 -93 -103 0
-34 -94 -104 0
-35 -95 -105 0
-31 -91 -106 0
-32 -92 -107 0
-33 -93 -108 0
-34 -94 -109 0
-35 -95 -110 0
-31 -86 -106 0
-32 -87 -107 0
-33 -88 -108 0
-34 -89 -109 0
-35 -90 -110 0
-31 -81 -101 0
-32 -82 -102 0
-33 -83 -103 0
-34 -84 -104 0
-35 -85 -105 0
-31 -91 -106 0
-32 -92 -107 0
-33 -93 -108 0
-34 -94 -109 0
-35 -95 -110 0
-31 -81 -111 0
-32 -82 -112 0
-33 -83 -113 0
-34 -84 -114 0
-35 -85 -115 0
-31 -86 -101 0
-32 -87 -102 0
-33 -88 -103 0
-34 -89 -104 0
-35 -90 -105 0
-31 -81 -101 0
-32 -82 -102 0
-33 -83 -103 0
-34 -84 -104 0
-35 -85 -105 0
-31 -86 -111 0
-32 -87 -112 0
-33 -88 -113 0
-34 -89 -114 0
-35 -90 -115 0
-31 -91 -101 0
-32 -92 -102 0
-33 -93 -103 0
-34 -94 -104 0
-35 -95 -105 0
-31 -81 -106 0
-32 -82 -107 0
-33 -83 -108 0
-34 -84 -109 0
-35 -85 -110 0
-31 -116 -151 0
-32 -117 -152 0
-33 -118 -153 0
-34 -119 -154 0
-35 -120 -155 0
-31 -121 -151 0
-32 -122 -152 0
-33 -123 -153 0
-34 -124 -154 0
-35 -125 -155 0
-31 -126 -151 0
-32 -127 -152 0
-33 -128 -153 0
-34 -129 -154 0
-35 -130 -155 0
-31 -126 -146 0
-32 -127 -147 0
-33 -128 -148 0
-34 -129 -149 0
-35 -130 -150 0
-31 -131 -136 0
-32 -132 -137 0
-33 -133 -138 0
-34 -134 -139 0
-35 -135 -140 0
-31 -131 -141 0
-32 -132 -142 0
-33 -133 -143 0
-34 -134 -144 0
-35 -135 -145 0
-31 -131 -146 0
-32 -132 -147 0
-33 -133 -148 0
-34 -134 -149 0
-35 -135 -150 0
-31 -126 -146 0
-32 -127 -147 0
-33 -128 -148 0
-34 -129 -149 0
-35 -130 -150 0
-31 -121 -141 0
-32 -122 -142 0
-33 -123 -143 0
-34 -124 -144 0
-35 -125 -145 0
-31 -131 -146 0
-32 -132 -147 0
-33 -133 -148 0
-34 -134 -149 0
-35 -135 -150 0
-31 -121 -151 0
-32 -122 -152 0
-33 -123 -153 0
-34 -124 -154 0
-35 -125 -155 0
-31 -126 -141 0
-32 -127 -142 0
-33 -128 -143 0
-34 -129 -144 0
-35 -130 -145 0
-31 -121 -141 0
-32 -122 -142 0
-33 -123 -143 0
-34 -124 -144 0
-35 -125 -145 0
-31 -126 -151 0
-32 -127 -152 0
-33 -128 -153 0
-34 -129 -154 0
-35 -130 -155 0
-31 -131 -141 0
-32 -132 -142 0
-33 -133 -143 0
-34 -134 -144 0
-35 -135 -145 0
-31 -121 -146 0
-32 -122 -147 0
-33 -123 -148 0
-34 -124 -149 0
-35 -125 -150 0
-31 -36 -71 0
-32 -37 -72 0
-33 -38 -73 0
-34 -39 -74 0
-35 -40 -75 0
-31 -41 -71 0
-32 -42 -72 0
-33 -43 -73 0
-34 -44 -74 0
-35 -45 -75 0
-31 -46 -66 0
-32 -47 -67 0
-33 -48 -68 0
-34 -49 -69 0
-35 -50 -70 0
-31 -46 -71 0
-32 -47 -72 0
-33 -48 -73 0
-34 -49 -74 0
-35 -50 -75 0
-31 -51 -61 0
-32 -52 -62 0
-33 -53 -63 0
-34 -54 -64 0
-35 -55 -65 0
-31 -51 -56 0
-32 -52 -57 0
-33 -53 -58 0
-34 -54 -59 0
-35 -55 -60 0
-31 -51 -66 0
-32 -52 -67 0
-33 -53 -68 0
-34 -54 -69 0
-35 -55 -70 0
-31 -46 -66 0
-32 -47 -67 0
-33 -48 -68 0
-34 -49 -69 0
-35 -50 -70 0
-31 -41 -66 0
-32 -42 -67 0
-33 -43 -68 0
-34 -44 -69 0
-35 -45 -70 0
-31 -51 -61 0
-32 -52 -62 0
-33 -53 -63 0
-34 -54 -64 0
-35 -55 -65 0
-31 -41 -61 0
-32 -42 -62 0
-33 -43 -63 0
-34 -44 -64 0
-35 -45 -65 0
-31 -46 -71 0
-32 -47 -72 0
-33 -48 -73 0
-34 -49 -74 0
-35 -50 -75 0
-31 -41 -71 0
-32 -42 -72 0
-33 -43 -73 0
-34 -44 -74 0
-35 -45 -75 0
-31 -46 -61 0
-32 -47 -62 0
-33 -48 -63 0
-34 -49 -64 0
-35 -50 -65 0
-31 -51 -66 0
-32 -52 -67 0
-33 -53 -68 0
-34 -54 -69 0
-35 -55 -70 0
-31 -41 -61 0
-32 -42 -62 0
-33 -43 -63 0
-34 -44 -64 0
-35 -45 -65 0
-31 -76 -111 0
-32 -77 -112 0
-33 -78 -113 0
-34 -79 -114 0
-35 -80 -115 0
-31 -81 -111 0
-32 -82 -112 0
-33 -83 -113 0
-34 -84 -114 0
-35 -85 -115 0
-31 -86 -106 0
-32 -87 -107 0
-33 -88 -108 0
-34 -89 -109 0
-35 -90 -110 0
-31 -86 -111 0
-32 -87 -112 0
-33 -88 -113 0
-34 -89 -114 0
-35 -90 -115 0
-31 -91 -101 0
-32 -92 -102 0
-33 -93 -103 0
-34 -94 -104 0
-35 -95 -105 0
-31 -91 -96 0
-32 -92 -97 0
-33 -93 -98 0
-34 -94 -99 0
-35 -95 -100 0
-31 -91 -106 0
-32 -92 -107 0
-33 -93 -108 0
-34 -94 -109 0
-35 -95 -110 0
-31 -86 -106 0
-32 -87 -107 0
-33 -88 -108 0
-34 -89 -109 0
-35 -90 -110 0
-31 -81 -106 0
-32 -82 -107 0
-33 -83 -108 0
-34 -84 -109 0
-35 -85 -110 0
-31 -91 -101 0
-32 -92 -102 0
-33 -93 -103 0
-34 -94 -104 0
-35 -95 -105 0
-31 -81 -101 0
-32 -82 -102 0
-33 -83 -103 0
-34 -84 -104 0
-35 -85 -105 0
-31 -86 -111 0
-32 -87 -112 0
-33 -88 -113 0
-34 -89 -114 0
-35 -90 -115 0
-31 -81 -111 0
-32 -82 -112 0
-33 -83 -113 0
-34 -84 -114 0
-35 -85 -115 0
-31 -86 -101 0
-32 -87 -102 0
-33 -88 -103 0
-34 -89 -104 0
-35 -90 -105 0
-31 -91 -106 0
-32 -92 -107 0
-33 -93 -108 0
-34 -94 -109 0
-35 -95 -110 0
-31 -81 -101 0
-32 -82 -102 0
-33 -83 -103 0
-34 -84 -104 0
-35 -85 -105 0
-31 -116 -151 0
-32 -117 -152 0
-33 -118 -153 0
-34 -119 -154 0
-35 -120 -155 0
-31 -121 -151 0
-32 -122 -152 0
-33 -123 -153 0
-34 -124 -154 0
-35 -125 -155 0
-31 -126 -146 0
-32 -127 -147 0
-33 -128 -148 0
-34 -129 -149 0
-35 -130 -150 0
-31 -126 -151 0
-32 -127 -152 0
-33 -128 -153 0
-34 -129 -154 0
-35 -130 -155 0
-31 -131 -141 0
-32 -132 -142 0
-33 -133 -143 0
-34 -134 -144 0
-35 -135 -145 0
-31 -131 -136 0
-32 -132 -137 0
-33 -133 -138 0
-34 -134 -139 0
-35 -135 -140 0
-31 -131 -146 0
-32 -132 -147 0
-33 -133 -148 0
-34 -134 -149 0
-35 -135 -150 0
-31 -126 -146 0
-32 -127 -147 0
-33 -128 -148 0
-34 -129 -149 0
-35 -130 -150 0
-31 -121 -146 0
-32 -122 -147 0
-33 -123 -148 0
-34 -124 -149 0
-35 -125 -150 0
-31 -131 -141 0
-32 -132 -142 0
-33 -133 -143 0
-34 -134 -144 0
-35 -135 -145 0
-31 -121 -141 0
-32 -122 -142 0
-33 -123 -143 0
-34 -124 -144 0
-35 -125 -145 0
-31 -126 -151 0
-32 -127 -152 0
-33 -128 -153 0
-34 -129 -154 0
-35 -130 -155 0
-31 -121 -151 0
-32 -122 -152 0
-33 -123 -153 0
-34 -124 -154 0
-35 -125 -155 0
-31 -126 -141 0
-32 -127 -142 0
-33 -128 -143 0
-34 -129 -144 0
-35 -130 -145 0
-31 -131 -146 0
-32 -132 -147 0
-33 -133 -148 0
-34 -134 -149 0
-35 -135 -150 0
-31 -121 -141 0
-32 -122 -142 0
-33 -123 -143 0
-34 -124 -144 0
-35 -125 -145 0
-31 -36 -71 0
-32 -37 -72 0
-33 -38 -73 0
-34 -39 -74 0
-35 -40 -75 0
-31 -41 -66 0
-32 -42 -67 0
-33 -43 -68 0
-34 -44 -69 0
-35 -45 -70 0
-31 -46 -71 0
-32 -47 -72 0
-33 -48 -73 0
-34 -49 -74 0
-35 -50 -75 0
-31 -46 -71 0
-32 -47 -72 0
-33 -48 -73 0
-34 -49 -74 0
-35 -50 -75 0
-31 -51 -66 0
-32 -52 -67 0
-33 -53 -68 0
-34 -54 -69 0
-35 -55 -70 0
-31 -51 -66 0
-32 -52 -67 0
-33 -53 -68 0
-34 -54 -69 0
-35 -55 -70 0
-31 -51 -56 0
-32 -52 -57 0
-33 -53 -58 0
-34 -54 -59 0
-35 -55 -60 0
-31 -46 -61 0
-32 -47 -62 0
-33 -48 -63 0
-34 -49 -64 0
-35 -50 -65 0
-31 -41 -71 0
-32 -42 -72 0
-33 -43 -73 0
-34 -44 -74 0
-35 -45 -75 0
-31 -51 -61 0
-32 -52 -62 0
-33 -53 -63 0
-34 -54 -64 0
-35 -55 -65 0
-31 -41 -61 0
-32 -42 -62 0
-33 -43 -63 0
-34 -44 -64 0
-35 -45 -65 0
-31 -46 -66 0
-32 -47 -67 0
-33 -48 -68 0
-34 -49 -69 0
-35 -50 -70 0
-31 -41 -61 0
-32 -42 -62 0
-33 -43 -63 0
-34 -44 -64 0
-35 -45 -65 0
-31 -46 -66 0
-32 -47 -67 0
-33 -48 -68 0
-34 -49 -69 0
-35 -50 -70 0
-31 -51 -61 0
-32 -52 -62 0
-33 -53 -63 0
-34 -54 -64 0
-35 -55 -65 0
-31 -41 -71 0
-32 -42 -72 0
-33 -43 -73 0
-34 -44 -74 0
-35 -45 -75 0
-31 -76 -111 0
-32 -77 -112 0
-33 -78 -113 0
-34 -79 -114 0
-35 -80 -115 0
-31 -81 -106 0
-32 -82 -107 0
-33 -83 -108 0
-34 -84 -109 0
-35 -85 -110 0
-31 -86 -111 0
-32 -87 -112 0
-33 -88 -113 0
-34 -89 -114 0
-35 -90 -115 0
-31 -86 -111 0
-32 -87 -112 0
-33 -88 -113 0
-34 -89 -114 0
-35 -90 -115 0
-31 -91 -106 0
-32 -92 -107 0
-33 -93 -108 0
-34 -94 -109 0
-35 -95 -110 0
-31 -91 -106 0
-32 -92 -107 0
-33 -93 -108 0
-34 -94 -109 0
-35 -95 -110 0
-31 -91 -96 0
-32 -92 -97 0
-33 -93 -98 0
-34 -94 -99 0
-35 -95 -100 0
-31 -86 -101 0
-32 -87 -102 0
-33 -88 -103 0
-34 -89 -104 0
-35 -90 -105 0
-31 -81 -111 0
-32 -82 -112 0
-33 -83 -113 0
-34 -84 -114 0
-35 -85 -115 0
-31 -91 -101 0
-32 -92 -102 0
-33 -93 -103 0
-34 -94 -104 0
-35 -95 -105 0
-31 -81 -101 0
-32 -82 -102 0
-33 -83 -103 0
-34 -84 -104 0
-35 -85 -105 0
-31 -86 -106 0
-32 -87 -107 0
-33 -88 -108 0
-34 -89 -109 0
-35 -90 -110 0
-31 -81 -101 0
-32 -82 -102 0
-33 -83 -103 0
-34 -84 -104 0
-35 -85 -105 0
-31 -86 -106 0
-32 -87 -107 0
-33 -88 -108 0
-34 -89 -109 0
-35 -90 -110 0
-31 -91 -101 0
-32 -92 -102 0
-33 -93 -103 0
-34 -94 -104 0
-35 -95 -105 0
-31 -81 -111 0
-32 -82 -112 0
-33 -83 -113 0
-34 -84 -114 0
-35 -85 -115 0
-31 -116 -151 0
-32 -117 -152 0
-33 -118 -153 0
-34 -119 -154 0
-35 -120 -155 0
-31 -121 -146 0
-32 -122 -147 0
-33 -123 -148 0
-34 -124 -149 0
-35 -125 -150 0
-31 -126 -151 0
-32 -127 -152 0
-33 -128 -153 0
-34 -129 -154 0
-35 -130 -155 0
-31 -126 -151 0
-32 -127 -152 0
-33 -128 -153 0
-34 -129 -154 0
-35 -130 -155 0
-31 -131 -146 0
-32 -132 -147 0
-33 -133 -148 0
-34 -134 -149 0
-35 -135 -150 0
-31 -131 -146 0
-32 -132 -147 0
-33 -133 -148 0
-34 -134 -149 0
-35 -135 -150 0
-31 -131 -136 0
-32 -132 -137 0
-33 -133 -138 0
-34 -134 -139 0
-35 -135 -140 0
-31 -126 -141 0
-32 -127 -142 0
-33 -128 -143 0
-34 -129 -144 0
-35 -130 -145 0
-31 -121 -151 0
-32 -122 -152 0
-33 -123 -153 0
-34 -124 -154 0
-35 -125 -155 0
-31 -131 -141 0
-32 -132 -142 0
-33 -133 -143 0
-34 -134 -144 0
-35 -135 -145 0
-31 -121 -141 0
-32 -122 -142 0
-33 -123 -143 0
-34 -124 -144 0
-35 -125 -145 0
-31 -126 -146 0
-32 -127 -147 0
-33 -128 -148 0
-34 -129 -149 0
-35 -130 -150 0
-31 -121 -141 0
-32 -122 -142 0
-33 -123 -143 0
-34 -124 -144 0
-35 -125 -145 0
-31 -126 -146 0
-32 -127 -147 0
-33 -128 -148 0
-34 -129 -149 0
-35 -130 -150 0
-31 -131 -141 0
-32 -132 -142 0
-33 -133 -143 0
-34 -134 -144 0
-35 -135 -145 0
-31 -121 -151 0
-32 -122 -152 0
-33 -123 -153 0
-34 -124 -154 0
-35 -125 -155 0
-26 -36 -66 0
-27 -37 -67 0
-28 -38 -68 0
-29 -39 -69 0
-30 -40 -70 0
-26 -41 -71 0
-27 -42 -72 0
-28 -43 -73 0
-29 -44 -74 0
-30 -45 -75 0
-26 -46 -71 0
-27 -47 -72 0
-28 -48 -73 0
-29 -49 -74 0
-30 -50 -75 0
-26 -46 -71 0
-27 -47 -72 0
-28 -48 -73 0
-29 -49 -74 0
-30 -50 -75 0
-26 -51 -66 0
-27 -52 -67 0
-28 -53 -68 0
-29 -54 -69 0
-30 -55 -70 0
-26 -51 -66 0
-27 -52 -67 0
-28 -53 -68 0
-29 -54 -69 0
-30 -55 -70 0
-26 -51 -61 0
-27 -52 -62 0
-28 -53 -63 0
-29 -54 -64 0
-30 -55 -65 0
-26 -46 -56 0
-27 -47 -57 0
-28 -48 -58 0
-29 -49 -59 0
-30 -50 -60 0
-26 -41 -61 0
-27 -42 -62 0
-28 -43 -63 0
-29 -44 -64 0
-30 -45 -65 0
-26 -51 -71 0
-27 -52 -72 0
-28 -53 -73 0
-29 -54 -74 0
-30 -55 -75 0
-26 -41 -66 0
-27 -42 -67 0
-28 -43 -68 0
-29 -44 -69 0
-30 -45 -70 0
-26 -46 -61 0
-27 -47 -62 0
-28 -48 -63 0
-29 -49 -64 0
-30 -50 -65 0
-26 -41 -66 0
-27 -42 -67 0
-28 -43 -68 0
-29 -44 -69 0
-30 -45 -70 0
-26 -46 -61 0
-27 -47 -62 0
-28 -48 -63 0
-29 -49 -64 0
-30 -50 -65 0
-26 -51 -71 0
-27 -52 -72 0
-28 -53 -73 0
-29 -54 -74 0
-30 -55 -75 0
-26 -41 -61 0
-27 -42 -62 0
-28 -43 -63 0
-29 -44 -64 0
-30 -45 -65 0
-26 -76 -106 0
-27 -77 -107 0
-28 -78 -108 0
-29 -79 -109 0
-30 -80 -110 0
-26 -81 -111 0
-27 -82 -112 0
-28 -83 -113 0
-29 -84 -114 0
-30 -85 -115 0
-26 -86 -111 0
-27 -87 -112 0
-28 -88 -113 0
-29 -89 -114 0
-30 -90 -115 0
-26 -86 -111 0
-27 -87 -112 0
-28 -88 -113 0
-29 -89 -114 0
-30 -90 -115 0
-26 -91 -106 0
-27 -92 -107 0
-28 -93 -108 0
-29 -94 -109 0
-30 -95 -110 0
-26 -91 -106 0
-27 -92 -107 0
-28 -93 -108 0
-29 -94 -109 0
-30 -95 -110 0
-26 -91 -101 0
-27 -92 -102 0
-28 -93 -103 0
-29 -94 -104 0
-30 -95 -105 0
-26 -86 -96 0
-27 -87 -97 0
-28 -88 -98 0
-29 -89 -99 0
-30 -90 -100 0
-26 -81 -101 0
-27 -82 -102 0
-28 -83 -103 0
-29 -84 -104 0
-30 -85 -105 0
-26 -91 -111 0
-27 -92 -112 0
-28 -93 -113 0
-29 -94 -114 0
-30 -95 -115 0
-26 -81 -106 0
-27 -82 -107 0
-28 -83 -108 0
-29 -84 -109 0
-30 -85 -110 0
-26 -86 -101 0
-27 -87 -102 0
-28 -88 -103 0
-29 -89 -104 0
-30 -90 -105 0
-26 -81 -106 0
-27 -82 -107 0
-28 -83 -108 0
-29 -84 -109 0
-30 -85 -110 0
-26 -86 -101 0
-27 -87 -102 0
-28 -88 -103 0
-29 -89 -104 0
-30 -90 -105 0
-26 -91 -111 0
-27 -92 -112 0
-28 -93 -113 0
-29 -94 -114 0
-30 -95 -115 0
-26 -81 -101 0
-27 -82 -102 0
-28 -83 -103 0
-29 -84 -104 0
-30 -85 -105 0
-26 -116 -146 0
-27 -117 -147 0
-28 -118 -148 0
-29 -119 -149 0
-30 -120 -150 0
-26 -121 -151 0
-27 -122 -152 0
-28 -123 -153 0
-29 -124 -154 0
-30 -125 -155 0
-26 -126 -151 0
-27 -127 -152 0
-28 -128 -153 0
-29 -129 -154 0
-30 -130 -155 0
-26 -126 -151 0
-27 -127 -152 0
-28 -128 -153 0
-29 -129 -154 0
-30 -130 -155 0
-26 -131 -146 0
-27 -132 -147 0
-28 -133 -148 0
-29 -134 -149 0
-30 -135 -150 0
-26 -131 -146 0
-27 -132 -147 0
-28 -133 -148 0
-29 -134 -149 0
-30 -135 -150 0
-26 -131 -141 0
-27 -132 -142 0
-28 -133 -143 0
-29 -134 -144 0
-30 -135 -145 0
-26 -126 -136 0
-27 -127 -137 0
-28 -128 -138 0
-29 -129 -139 0
-30 -130 -140 0
-26 -121 -141 0
-27 -122 -142 0
-28 -123 -143 0
-29 -124 -144 0
-30 -125 -145 0
-26 -131 -151 0
-27 -132 -152 0
-28 -133 -153 0
-29 -134 -154 0
-30 -135 -155 0
-26 -121 -146 0
-27 -122 -147 0
-28 -123 -148 0
-29 -124 -149 0
-30 -125 -150 0
-26 -126 -141 0
-27 -127 -142 0
-28 -128 -143 0
-29 -129 -144 0
-30 -130 -145 0
-26 -121 -146 0
-27 -122 -147 0
-28 -123 -148 0
-29 -124 -149 0
-30 -125 -150 0
-26 -126 -141 0
-27 -127 -142 0
-28 -128 -143 0
-29 -129 -144 0
-30 -130 -145 0
-26 -131 -151 0
-27 -132 -152 0
-28 -133 -153 0
-29 -134 -154 0
-30 -135 -155 0
-26 -121 -141 0
-27 -122 -142 0
-28 -123 -143 0
-29 -124 -144 0
-30 -125 -145 0
-21 -36 -61 0
-22 -37 -62 0
-23 -38 -63 0
-24 -39 -64 0
-25 -40 -65 0
-21 -41 -71 0
-22 -42 -72 0
-23 -43 -73 0
-24 -44 -74 0
-25 -45 -75 0
-21 -46 -61 0
-22 -47 -62 0
-23 -48 -63 0
-24 -49 -64 0
-25 -50 -65 0
-21 -46 -66 0
-22 -47 -67 0
-23 -48 -68 0
-24 -49 -69 0
-25 -50 -70 0
-21 -51 -61 0
-22 -52 -62 0
-23 -53 -63 0
-24 -54 -64 0
-25 -55 -65 0
-21 -51 -66 0
-22 -52 -67 0
-23 -53 -68 0
-24 -54 -69 0
-25 -55 -70 0
-21 -51 -71 0
-22 -52 -72 0
-23 -53 -73 0
-24 -54 -74 0
-25 -55 -75 0
-21 -46 -61 0
-22 -47 -62 0
-23 -48 -63 0
-24 -49 -64 0
-25 -50 -65 0
-21 -41 -56 0
-22 -42 -57 0
-23 -43 -58 0
-24 -44 -59 0
-25 -45 -60 0
-21 -51 -61 0
-22 -52 -62 0
-23 -53 -63 0
-24 -54 -64 0
-25 -55 -65 0
-21 -41 -66 0
-22 -42 -67 0
-23 -43 -68 0
-24 -44 -69 0
-25 -45 -70 0
-21 -46 -66 0
-22 -47 -67 0
-23 -48 -68 0
-24 -49 -69 0
-25 -50 -70 0
-21 -41 -71 0
-22 -42 -72 0
-23 -43 -73 0
-24 -44 -74 0
-25 -45 -75 0
-21 -46 -71 0
-22 -47 -72 0
-23 -48 -73 0
-24 -49 -74 0
-25 -50 -75 0
-21 -51 -71 0
-22 -52 -72 0
-23 -53 -73 0
-24 -54 -74 0
-25 -55 -75 0
-21 -41 -66 0
-22 -42 -67 0
-23 -43 -68 0
-24 -44 -69 0
-25 -45 -70 0
-21 -76 -101 0
-22 -77 -102 0
-23 -78 -103 0
-24 -79 -104 0
-25 -80 -105 0
-21 -81 -111 0
-22 -82 -112 0
-23 -83 -113 0
-24 -84 -114 0
-25 -85 -115 0
-21 -86 -101 0
-22 -87 -102 0
-23 -88 -103 0
-24 -89 -104 0
-25 -90 -105 0
-21 -86 -106 0
-22 -87 -107 0
-23 -88 -108 0
-24 -89 -109 0
-25 -90 -110 0
-21 -91 -101 0
-22 -92 -102 0
-23 -93 -103 0
-24 -94 -104 0
-25 -95 -105 0
-21 -91 -106 0
-22 -92 -107 0
-23 -93 -108 0
-24 -94 -109 0
-25 -95 -110 0
-21 -91 -111 0
-22 -92 -112 0
-23 -93 -113 0
-24 -94 -114 0
-25 -95 -115 0
-21 -86 -101 0
-22 -87 -102 0
-23 -88 -103 0
-24 -89 -104 0
-25 -90 -105 0
-21 -81 -96 0
-22 -82 -97 0
-23 -83 -98 0
-24 -84 -99 0
-25 -85 -100 0
-21 -91 -101 0
-22 -92 -102 0
-23 -93 -103 0
-24 -94 -104 0
-25 -95 -105 0
-21 -81 -106 0
-22 -82 -107 0
-23 -83 -108 0
-24 -84 -109 0
-25 -85 -110 0
-21 -86 -106 0
-22 -87 -107 0
-23 -88 -108 0
-24 -89 -109 0
-25 -90 -110 0
-21 -81 -111 0
-22 -82 -112 0
-23 -83 -113 0
-24 -84 -114 0
-25 -85 -115 0
-21 -86 -111 0
-22 -87 -112 0
-23 -88 -113 0
-24 -89 -114 0
-25 -90 -115 0
-21 -91 -111 0
-22 -92 -112 0
-23 -93 -113 0
-24 -94 -114 0
-25 -95 -115 0
-21 -81 -106 0
-22 -82 -107 0
-23 -83 -108 0
-24 -84 -109 0
-25 -85 -110 0
-21 -116 -141 0
-22 -117 -142 0
-23 -118 -143 0
-24 -119 -144 0
-25 -120 -145 0
-21 -121 -151 0
-22 -122 -152 0
-23 -123 -153 0
-24 -124 -154 0
-25 -125 -155 0
-21 -126 -141 0
-22 -127 -142 0
-23 -128 -143 0
-24 -129 -144 0
-25 -130 -145 0
-21 -126 -146 0
-22 -127 -147 0
-23 -128 -148 0
-24 -129 -149 0
-25 -130 -150 0
-21 -131 -141 0
-22 -132 -142 0
-23 -133 -143 0
-24 -134 -144 0
-25 -135 -145 0
-21 -131 -146 0
-22 -132 -147 0
-23 -133 -148 0
-24 -134 -149 0
-25 -135 -150 0
-21 -131 -151 0
-22 -132 -152 0
-23 -133 -153 0
-24 -134 -154 0
-25 -135 -155 0
-21 -126 -141 0
-22 -127 -142 0
-23 -128 -143 0
-24 -129 -144 0
-25 -130 -145 0
-21 -121 -136 0
-22 -122 -137 0
-23 -123 -138 0
-24 -124 -139 0
-25 -125 -140 0
-21 -131 -141 0
-22 -132 -142 0
-23 -133 -143 0
-24 -134 -144 0
-25 -135 -145 0
-21 -121 -146 0
-22 -122 -147 0
-23 -123 -148 0
-24 -124 -149 0
-25 -125 -150 0
-21 -126 -146 0
-22 -127 -147 0
-23 -128 -148 0
-24 -129 -149 0
-25 -130 -150 0
-21 -121 -151 0
-22 -122 -152 0
-23 -123 -153 0
-24 -124 -154 0
-25 -125 -155 0
-21 -126 -151 0
-22 -127 -152 0
-23 -128 -153 0
-24 -129 -154 0
-25 -130 -155 0
-21 -131 -151 0
-22 -132 -152 0
-23 -133 -153 0
-24 -134 -154 0
-25 -135 -155 0
-21 -121 -146 0
-22 -122 -147 0
-23 -123 -148 0
-24 -124 -149 0
-25 -125 -150 0
-31 -36 -71 0
-32 -37 -72 0
-33 -38 -73 0
-34 -39 -74 0
-35 -40 -75 0
-31 -41 -61 0
-32 -42 -62 0
-33 -43 -63 0
-34 -44 -64 0
-35 -45 -65 0
-31 -46 -66 0
-32 -47 -67 0
-33 -48 -68 0
-34 -49 -69 0
-35 -50 -70 0
-31 -46 -61 0
-32 -47 -62 0
-33 -48 -63 0
-34 -49 -64 0
-35 -50 -65 0
-31 -51 -66 0
-32 -52 -67 0
-33 -53 -68 0
-34 -54 -69 0
-35 -55 -70 0
-31 -51 -61 0
-32 -52 -62 0
-33 -53 -63 0
-34 -54 -64 0
-35 -55 -65 0
-31 -51 -61 0
-32 -52 -62 0
-33 -53 -63 0
-34 -54 -64 0
-35 -55 -65 0
-31 -46 -71 0
-32 -47 -72 0
-33 -48 -73 0
-34 -49 -74 0
-35 -50 -75 0
-31 -41 -61 0
-32 -42 -62 0
-33 -43 -63 0
-34 -44 -64 0
-35 -45 -65 0
-31 -51 -56 0
-32 -52 -57 0
-33 -53 -58 0
-34 -54 -59 0
-35 -55 -60 0
-31 -41 -66 0
-32 -42 -67 0
-33 -43 -68 0
-34 -44 -69 0
-35 -45 -70 0
-31 -46 -66 0
-32 -47 -67 0
-33 -48 -68 0
-34 -49 -69 0
-35 -50 -70 0
-31 -41 -71 0
-32 -42 -72 0
-33 -43 -73 0
-34 -44 -74 0
-35 -45 -75 0
-31 -46 -71 0
-32 -47 -72 0
-33 -48 -73 0
-34 -49 -74 0
-35 -50 -75 0
-31 -51 -66 0
-32 -52 -67 0
-33 -53 -68 0
-34 -54 -69 0
-35 -55 -70 0
-31 -41 -71 0
-32 -42 -72 0
-33 -43 -73 0
-34 -44 -74 0
-35 -45 -75 0
-31 -76 -111 0
-32 -77 -112 0
-33 -78 -113 0
-34 -79 -114 0
-35 -80 -115 0
-31 -81 -101 0
-32 -82 -102 0
-33 -83 -103 0
-34 -84 -104 0
-35 -85 -105 0
-31 -86 -106 0
-32 -87 -107 0
-33 -88 -108 0
-34 -89 -109 0
-35 -90 -110 0
-31 -86 -101 0
-32 -87 -102 0
-33 -88 -103 0
-34 -89 -104 0
-35 -90 -105 0
-31 -91 -106 0
-32 -92 -107 0
-33 -93 -108 0
-34 -94 -109 0
-35 -95 -110 0
-31 -91 -101 0
-32 -92 -102 0
-33 -93 -103 0
-34 -94 -104 0
-35 -95 -105 0
-31 -91 -101 0
-32 -92 -102 0
-33 -93 -103 0
-34 -94 -104 0
-35 -95 -105 0
-31 -86 -111 0
-32 -87 -112 0
-33 -88 -113 0
-34 -89 -114 0
-35 -90 -115 0
-31 -81 -101 0
-32 -82 -102 0
-33 -83 -103 0
-34 -84 -104 0
-35 -85 -105 0
-31 -91 -96 0
-32 -92 -97 0
-33 -93 -98 0
-34 -94 -99 0
-35 -95 -100 0
-31 -81 -106 0
-32 -82 -107 0
-33 -83 -108 0
-34 -84 -109 0
-35 -85 -110 0
-31 -86 -106 0
-32 -87 -107 0
-33 -88 -108 0
-34 -89 -109 0
-35 -90 -110 0
-31 -81 -111 0
-32 -82 -112 0
-33 -83 -113 0
-34 -84 -114 0
-35 -85 -115 0
-31 -86 -111 0
-32 -87 -112 0
-33 -88 -113 0
-34 -89 -114 0
-35 -90 -115 0
-31 -91 -106 0
-32 -92 -107 0
-33 -93 -108 0
-34 -94 -109 0
-35 -95 -110 0
-31 -81 -111 0
-32 -82 -112 0
-33 -83 -113 0
-34 -84 -114 0
-35 -85 -115 0
-31 -116 -151 0
-32 -117 -152 0
-33 -118 -153 0
-34 -119 -154 0
-35 -120 -155 0
-31 -121 -141 0
-32 -122 -142 0
-33 -123 -143 0
-34 -124 -144 0
-35 -125 -145 0
-31 -126 -146 0
-32 -127 -147 0
-33 -128 -148 0
-34 -129 -149 0
-35 -130 -150 0
-31 -126 -141 0
-32 -127 -142 0
-33 -128 -143 0
-34 -129 -144 0
-35 -130 -145 0
-31 -131 -146 0
-32 -132 -147 0
-33 -133 -148 0
-34 -134 -149 0
-35 -135 -150 0
-31 -131 -141 0
-32 -132 -142 0
-33 -133 -143 0
-34 -134 -144 0
-35 -135 -145 0
-31 -131 -141 0
-32 -132 -142 0
-33 -133 -143 0
-34 -134 -144 0
-35 -135 -145 0
-31 -126 -151 0
-32 -127 -152 0
-33 -128 -153 0
-34 -129 -154 0
-35 -130 -155 0
-31 -121 -141 0
-32 -122 -142 0
-33 -123 -143 0
-34 -124 -144 0
-35 -125 -145 0
-31 -131 -136 0
-32 -132 -137 0
-33 -133 -138 0
-34 -134 -139 0
-35 -135 -140 0
-31 -121 -146 0
-32 -122 -147 0
-33 -123 -148 0
-34 -124 -149 0
-35 -125 -150 0
-31 -126 -146 0
-32 -127 -147 0
-33 -128 -148 0
-34 -129 -149 0
-35 -130 -150 0
-31 -121 -151 0
-32 -122 -152 0
-33 -123 -153 0
-34 -124 -154 0
-35 -125 -155 0
-31 -126 -151 0
-32 -127 -152 0
-33 -128 -153 0
-34 -129 -154 0
-35 -130 -155 0
-31 -131 -146 0
-32 -132 -147 0
-33 -133 -148 0
-34 -134 -149 0
-35 -135 -150 0
-31 -121 -151 0
-32 -122 -152 0
-33 -123 -153 0
-34 -124 -154 0
-35 -125 -155 0
-21 -36 -61 0
-22 -37 -62 0
-23 -38 -63 0
-24 -39 -64 0
-25 -40 -65 0
-21 -41 -66 0
-22 -42 -67 0
-23 -43 -68 0
-24 -44 -69 0
-25 -45 -70 0
-21 -46 -61 0
-22 -47 -62 0
-23 -48 -63 0
-24 -49 -64 0
-25 -50 -65 0
-21 -46 -71 0
-22 -47 -72 0
-23 -48 -73 0
-24 -49 -74 0
-25 -50 -75 0
-21 -51 -71 0
-22 -52 -72 0
-23 -53 -73 0
-24 -54 -74 0
-25 -55 -75 0
-21 -51 -61 0
-22 -52 -62 0
-23 -53 -63 0
-24 -54 -64 0
-25 -55 -65 0
-21 -51 -61 0
-22 -52 -62 0
-23 -53 -63 0
-24 -54 -64 0
-25 -55 -65 0
-21 -46 -66 0
-22 -47 -67 0
-23 -48 -68 0
-24 -49 -69 0
-25 -50 -70 0
-21 -41 -66 0
-22 -42 -67 0
-23 -43 -68 0
-24 -44 -69 0
-25 -45 -70 0
-21 -51 -66 0
-22 -52 -67 0
-23 -53 -68 0
-24 -54 -69 0
-25 -55 -70 0
-21 -41 -56 0
-22 -42 -57 0
-23 -43 -58 0
-24 -44 -59 0
-25 -45 -60 0
-21 -46 -61 0
-22 -47 -62 0
-23 -48 -63 0
-24 -49 -64 0
-25 -50 -65 0
-21 -41 -71 0
-22 -42 -72 0
-23 -43 -73 0
-24 -44 -74 0
-25 -45 -75 0
-21 -46 -66 0
-22 -47 -67 0
-23 -48 -68 0
-24 -49 -69 0
-25 -50 -70 0
-21 -51 -71 0
-22 -52 -72 0
-23 -53 -73 0
-24 -54 -74 0
-25 -55 -75 0
-21 -41 -71 0
-22 -42 -72 0
-23 -43 -73 0
-24 -44 -74 0
-25 -45 -75 0
-21 -76 -101 0
-22 -77 -102 0
-23 -78 -103 0
-24 -79 -104 0
-25 -80 -105 0
-21 -81 -106 0
-22 -82 -107 0
-23 -83 -108 0
-24 -84 -109 0
-25 -85 -110 0
-21 -86 -101 0
-22 -87 -102 0
-23 -88 -103 0
-24 -89 -104 0
-25 -90 -105 0
-21 -86 -111 0
-22 -87 -112 0
-23 -88 -113 0
-24 -89 -114 0
-25 -90 -115 0
-21 -91 -111 0
-22 -92 -112 0
-23 -93 -113 0
-24 -94 -114 0
-25 -95 -115 0
-21 -91 -101 0
-22 -92 -102 0
-23 -93 -103 0
-24 -94 -104 0
-25 -95 -105 0
-21 -91 -101 0
-22 -92 -102 0
-23 -93 -103 0
-24 -94 -104 0
-25 -95 -105 0
-21 -86 -106 0
-22 -87 -107 0
-23 -88 -108 0
-24 -89 -109 0
-25 -90 -110 0
-21 -81 -106 0
-22 -82 -107 0
-23 -83 -108 0
-24 -84 -109 0
-25 -85 -110 0
-21 -91 -106 0
-22 -92 -107 0
-23 -93 -108 0
-24 -94 -109 0
-25 -95 -110 0
-21 -81 -96 0
-22 -82 -97 0
-23 -83 -98 0
-24 -84 -99 0
-25 -85 -100 0
-21 -86 -101 0
-22 -87 -102 0
-23 -88 -103 0
-24 -89 -104 0
-25 -90 -105 0
-21 -81 -111 0
-22 -82 -112 0
-23 -83 -113 0
-24 -84 -114 0
-25 -85 -115 0
-21 -86 -106 0
-22 -87 -107 0
-23 -88 -108 0
-24 -89 -109 0
-25 -90 -110 0
-21 -91 -111 0
-22 -92 -112 0
-23 -93 -113 0
-24 -94 -114 0
-25 -95 -115 0
-21 -81 -111 0
-22 -82 -112 0
-23 -83 -113 0
-24 -84 -114 0
-25 -85 -115 0
-21 -116 -141 0
-22 -117 -142 0
-23 -118 -143 0
-24 -119 -144 0
-25 -120 -145 0
-21 -121 -146 0
-22 -122 -147 0
-23 -123 -148 0
-24 -124 -149 0
-25 -125 -150 0
-21 -126 -141 0
-22 -127 -142 0
-23 -128 -143 0
-24 -129 -144 0
-25 -130 -145 0
-21 -126 -151 0
-22 -127 -152 0
-23 -128 -153 0
-24 -129 -154 0
-25 -130 -155 0
-21 -131 -151 0
-22 -132 -152 0
-23 -133 -153 0
-24 -134 -154 0
-25 -135 -155 0
-21 -131 -141 0
-22 -132 -142 0
-23 -133 -143 0
-24 -134 -144 0
-25 -135 -145 0
-21 -131 -141 0
-22 -132 -142 0
-23 -133 -143 0
-24 -134 -144 0
-25 -135 -145 0
-21 -126 -146 0
-22 -127 -147 0
-23 -128 -148 0
-24 -129 -149 0
-25 -130 -150 0
-21 -121 -146 0
-22 -122 -147 0
-23 -123 -148 0
-24 -124 -149 0
-25 -125 -150 0
-21 -131 -146 0
-22 -132 -147 0
-23 -133 -148 0
-24 -134 -149 0
-25 -135 -150 0
-21 -121 -136 0
-22 -122 -137 0
-23 -123 -138 0
-24 -124 -139 0
-25 -125 -140 0
-21 -126 -141 0
-22 -127 -142 0
-23 -128 -143 0
-24 -129 -144 0
-25 -130 -145 0
-21 -121 -151 0
-22 -122 -152 0
-23 -123 -153 0
-24 -124 -154 0
-25 -125 -155 0
-21 -126 -146 0
-22 -127 -147 0
-23 -128 -148 0
-24 -129 -149 0
-25 -130 -150 0
-21 -131 -151 0
-22 -132 -152 0
-23 -133 -153 0
-24 -134 -154 0
-25 -135 -155 0
-21 -121 -151 0
-22 -122 -152 0
-23 -123 -153 0
-24 -124 -154 0
-25 -125 -155 0
-26 -36 -66 0
-27 -37 -67 0
-28 -38 -68 0
-29 -39 -69 0
-30 -40 -70 0
-26 -41 -61 0
-27 -42 -62 0
-28 -43 -63 0
-29 -44 -64 0
-30 -45 -65 0
-26 -46 -71 0
-27 -47 -72 0
-28 -48 -73 0
-29 -49 -74 0
-30 -50 -75 0
-26 -46 -61 0
-27 -47 -62 0
-28 -48 -63 0
-29 -49 -64 0
-30 -50 -65 0
-26 -51 -61 0
-27 -52 -62 0
-28 -53 -63 0
-29 -54 -64 0
-30 -55 -65 0
-26 -51 -71 0
-27 -52 -72 0
-28 -53 -73 0
-29 -54 -74 0
-30 -55 -75 0
-26 -51 -66 0
-27 -52 -67 0
-28 -53 -68 0
-29 -54 -69 0
-30 -55 -70 0
-26 -46 -61 0
-27 -47 -62 0
-28 -48 -63 0
-29 -49 -64 0
-30 -50 -65 0
-26 -41 -66 0
-27 -42 -67 0
-28 -43 -68 0
-29 -44 -69 0
-30 -45 -70 0
-26 -51 -66 0
-27 -52 -67 0
-28 -53 -68 0
-29 -54 -69 0
-30 -55 -70 0
-26 -41 -61 0
-27 -42 -62 0
-28 -43 -63 0
-29 -44 -64 0
-30 -45 -65 0
-26 -46 -56 0
-27 -47 -57 0
-28 -48 -58 0
-29 -49 -59 0
-30 -50 -60 0
-26 -41 -66 0
-27 -42 -67 0
-28 -43 -68 0
-29 -44 -69 0
-30 -45 -70 0
-26 -46 -71 0
-27 -47 -72 0
-28 -48 -73 0
-29 -49 -74 0
-30 -50 -75 0
-26 -51 -71 0
-27 -52 -72 0
-28 -53 -73 0
-29 -54 -74 0
-30 -55 -75 0
-26 -41 -71 0
-27 -42 -72 0
-28 -43 -73 0
-29 -44 -74 0
-30 -45 -75 0
-26 -76 -106 0
-27 -77 -107 0
-28 -78 -108 0
-29 -79 -109 0
-30 -80 -110 0
-26 -81 -101 0
-27 -82 -102 0
-28 -83 -103 0
-29 -84 -104 0
-30 -85 -105 0
-26 -86 -111 0
-27 -87 -112 0
-28 -88 -113 0
-29 -89 -114 0
-30 -90 -115 0
-26 -86 -101 0
-27 -87 -102 0
-28 -88 -103 0
-29 -89 -104 0
-30 -90 -105 0
-26 -91 -101 0
-27 -92 -102 0
-28 -93 -103 0
-29 -94 -104 0
-30 -95 -105 0
-26 -91 -111 0
-27 -92 -112 0
-28 -93 -113 0
-29 -94 -114 0
-30 -95 -115 0
-26 -91 -106 0
-27 -92 -107 0
-28 -93 -108 0
-29 -94 -109 0
-30 -95 -110 0
-26 -86 -101 0
-27 -87 -102 0
-28 -88 -103 0
-29 -89 -104 0
-30 -90 -105 0
-26 -81 -106 0
-27 -82 -107 0
-28 -83 -108 0
-29 -84 -109 0
-30 -85 -110 0
-26 -91 -106 0
-27 -92 -107 0
-28 -93 -108 0
-29 -94 -109 0
-30 -95 -110 0
-26 -81 -101 0
-27 -82 -102 0
-28 -83 -103 0
-29 -84 -104 0
-30 -85 -105 0
-26 -86 -96 0
-27 -87 -97 0
-28 -88 -98 0
-29 -89 -99 0
-30 -90 -100 0
-26 -81 -106 0
-27 -82 -107 0
-28 -83 -108 0
-29 -84 -109 0
-30 -85 -110 0
-26 -86 -111 0
-27 -87 -112 0
-28 -88 -113 0
-29 -89 -114 0
-30 -90 -115 0
-26 -91 -111 0
-27 -92 -112 0
-28 -93 -113 0
-29 -94 -114 0
-30 -95 -115 0
-26 -81 -111 0
-27 -82 -112 0
-28 -83 -113 0
-29 -84 -114 0
-30 -85 -115 0
-26 -116 -146 0
-27 -117 -147 0
-28 -118 -148 0
-29 -119 -149 0
-30 -120 -150 0
-26 -121 -141 0
-27 -122 -142 0
-28 -123 -143 0
-29 -124 -144 0
-30 -125 -145 0
-26 -126 -151 0
-27 -127 -152 0
-28 -128 -153 0
-29 -129 -154 0
-30 -130 -155 0
-26 -126 -141 0
-27 -127 -142 0
-28 -128 -143 0
-29 -129 -144 0
-30 -130 -145 0
-26 -131 -141 0
-27 -132 -142 0
-28 -133 -143 0
-29 -134 -144 0
-30 -135 -145 0
-26 -131 -151 0
-27 -132 -152 0
-28 -133 -153 0
-29 -134 -154 0
-30 -135 -155 0
-26 -131 -146 0
-27 -132 -147 0
-28 -133 -148 0
-29 -134 -149 0
-30 -135 -150 0
-26 -126 -141 0
-27 -127 -142 0
-28 -128 -143 0
-29 -129 -144 0
-30 -130 -145 0
-26 -121 -146 0
-27 -122 -147 0
-28 -123 -148 0
-29 -124 -149 0
-30 -125 -150 0
-26 -131 -146 0
-27 -132 -147 0
-28 -133 -148 0
-29 -134 -149 0
-30 -135 -150 0
-26 -121 -141 0
-27 -122 -142 0
-28 -123 -143 0
-29 -124 -144 0
-30 -125 -145 0
-26 -126 -136 0
-27 -127 -137 0
-28 -128 -138 0
-29 -129 -139 0
-30 -130 -140 0
-26 -121 -146 0
-27 -122 -147 0
-28 -123 -148 0
-29 -124 -149 0
-30 -125 -150 0
-26 -126 -151 0
-27 -127 -152 0
-28 -128 -153 0
-29 -129 -154 0
-30 -130 -155 0
-26 -131 -151 0
-27 -132 -152 0
-28 -133 -153 0
-29 -134 -154 0
-30 -135 -155 0
-26 -121 -151 0
-27 -122 -152 0
-28 -123 -153 0
-29 -124 -154 0
-30 -125 -155 0
-21 -36 -61 0
-22 -37 -62 0
-23 -38 -63 0
-24 -39 -64 0
-25 -40 -65 0
-21 -41 -66 0
-22 -42 -67 0
-23 -43 -68 0
-24 -44 -69 0
-25 -45 -70 0
-21 -46 -71 0
-22 -47 -72 0
-23 -48 -73 0
-24 -49 -74 0
-25 -50 -75 0
-21 -46 -61 0
-22 -47 -62 0
-23 -48 -63 0
-24 -49 -64 0
-25 -50 -65 0
-21 -51 -61 0
-22 -52 -62 0
-23 -53 -63 0
-24 -54 -64 0
-25 -55 -65 0
-21 -51 -71 0
-22 -52 -72 0
-23 -53 -73 0
-24 -54 -74 0
-25 -55 -75 0
-21 -51 -61 0
-22 -52 -62 0
-23 -53 -63 0
-24 -54 -64 0
-25 -55 -65 0
-21 -46 -66 0
-22 -47 -67 0
-23 -48 -68 0
-24 -49 -69 0
-25 -50 -70 0
-21 -41 -71 0
-22 -42 -72 0
-23 -43 -73 0
-24 -44 -74 0
-25 -45 -75 0
-21 -51 -71 0
-22 -52 -72 0
-23 -53 -73 0
-24 -54 -74 0
-25 -55 -75 0
-21 -41 -71 0
-22 -42 -72 0
-23 -43 -73 0
-24 -44 -74 0
-25 -45 -75 0
-21 -46 -66 0
-22 -47 -67 0
-23 -48 -68 0
-24 -49 -69 0
-25 -50 -70 0
-21 -41 -56 0
-22 -42 -57 0
-23 -43 -58 0
-24 -44 -59 0
-25 -45 -60 0
-21 -46 -61 0
-22 -47 -62 0
-23 -48 -63 0
-24 -49 -64 0
-25 -50 -65 0
-21 -51 -66 0
-22 -52 -67 0
-23 -53 -68 0
-24 -54 -69 0
-25 -55 -70 0
-21 -41 -66 0
-22 -42 -67 0
-23 -43 -68 0
-24 -44 -69 0
-25 -45 -70 0
-21 -76 -101 0
-22 -77 -102 0
-23 -78 -103 0
-24 -79 -104 0
-25 -80 -105 0
-21 -81 -106 0
-22 -82 -107 0
-23 -83 -108 0
-24 -84 -109 0
-25 -85 -110 0
-21 -86 -111 0
-22 -87 -112 0
-23 -88 -113 0
-24 -89 -114 0
-25 -90 -115 0
-21 -86 -101 0
-22 -87 -102 0
-23 -88 -103 0
-24 -89 -104 0
-25 -90 -105 0
-21 -91 -101 0
-22 -92 -102 0
-23 -93 -103 0
-24 -94 -104 0
-25 -95 -105 0
-21 -91 -111 0
-22 -92 -112 0
-23 -93 -113 0
-24 -94 -114 0
-25 -95 -115 0
-21 -91 -101 0
-22 -92 -102 0
-23 -93 -103 0
-24 -94 -104 0
-25 -95 -105 0
-21 -86 -106 0
-22 -87 -107 0
-23 -88 -108 0
-24 -89 -109 0
-25 -90 -110 0
-21 -81 -111 0
-22 -82 -112 0
-23 -83 -113 0
-24 -84 -114 0
-25 -85 -115 0
-21 -91 -111 0
-22 -92 -112 0
-23 -93 -113 0
-24 -94 -114 0
-25 -95 -115 0
-21 -81 -111 0
-22 -82 -112 0
-23 -83 -113 0
-24 -84 -114 0
-25 -85 -115 0
-21 -86 -106 0
-22 -87 -107 0
-23 -88 -108 0
-24 -89 -109 0
-25 -90 -110 0
-21 -81 -96 0
-22 -82 -97 0
-23 -83 -98 0
-24 -84 -99 0
-25 -85 -100 0
-21 -86 -101 0
-22 -87 -102 0
-23 -88 -103 0
-24 -89 -104 0
-25 -90 -105 0
-21 -91 -106 0
-22 -92 -107 0
-23 -93 -108 0
-24 -94 -109 0
-25 -95 -110 0
-21 -81 -106 0
-22 -82 -107 0
-23 -83 -108 0
-24 -84 -109 0
-25 -85 -110 0
-21 -116 -141 0
-22 -117 -142 0
-23 -118 -143 0
-24 -119 -144 0
-25 -120 -145 0
-21 -121 -146 0
-22 -122 -147 0
-23 -123 -148 0
-24 -124 -149 0
-25 -125 -150 0
-21 -126 -151 0
-22 -127 -152 0
-23 -128 -153 0
-24 -129 -154 0
-25 -130 -155 0
-21 -126 -141 0
-22 -127 -142 0
-23 -128 -143 0
-24 -129 -144 0
-25 -130 -145 0
-21 -131 -141 0
-22 -132 -142 0
-23 -133 -143 0
-24 -134 -144 0
-25 -135 -145 0
-21 -131 -151 0
-22 -132 -152 0
-23 -133 -153 0
-24 -134 -154 0
-25 -135 -155 0
-21 -131 -141 0
-22 -132 -142 0
-23 -133 -143 0
-24 -134 -144 0
-25 -135 -145 0
-21 -126 -146 0
-22 -127 -147 0
-23 -128 -148 0
-24 -129 -149 0
-25 -130 -150 0
-21 -121 -151 0
-22 -122 -152 0
-23 -123 -153 0
-24 -124 -154 0
-25 -125 -155 0
-21 -131 -151 0
-22 -132 -152 0
-23 -133 -153 0
-24 -134 -154 0
-25 -135 -155 0
-21 -121 -151 0
-22 -122 -152 0
-23 -123 -153 0
-24 -124 -154 0
-25 -125 -155 0
-21 -126 -146 0
-22 -127 -147 0
-23 -128 -148 0
-24 -129 -149 0
-25 -130 -150 0
-21 -121 -136 0
-22 -122 -137 0
-23 -123 -138 0
-24 -124 -139 0
-25 -125 -140 0
-21 -126 -141 0
-22 -127 -142 0
-23 -128 -143 0
-24 -129 -144 0
-25 -130 -145 0
-21 -131 -146 0
-22 -132 -147 0
-23 -133 -148 0
-24 -134 -149 0
-25 -135 -150 0
-21 -121 -146 0
-22 -122 -147 0
-23 -123 -148 0
-24 -124 -149 0
-25 -125 -150 0
-26 -36 -66 0
-27 -37 -67 0
-28 -38 -68 0
-29 -39 -69 0
-30 -40 -70 0
-26 -41 -61 0
-27 -42 -62 0
-28 -43 -63 0
-29 -44 -64 0
-30 -45 -65 0
-26 -46 -61 0
-27 -47 -62 0
-28 -48 -63 0
-29 -49 -64 0
-30 -50 -65 0
-26 -46 -71 0
-27 -47 -72 0
-28 -48 -73 0
-29 -49 -74 0
-30 -50 -75 0
-26 -51 -71 0
-27 -52 -72 0
-28 -53 -73 0
-29 -54 -74 0
-30 -55 -75 0
-26 -51 -61 0
-27 -52 -62 0
-28 -53 -63 0
-29 -54 -64 0
-30 -55 -65 0
-26 -51 -66 0
-27 -52 -67 0
-28 -53 -68 0
-29 -54 -69 0
-30 -55 -70 0
-26 -46 -61 0
-27 -47 -62 0
-28 -48 -63 0
-29 -49 -64 0
-30 -50 -65 0
-26 -41 -71 0
-27 -42 -72 0
-28 -43 -73 0
-29 -44 -74 0
-30 -45 -75 0
-26 -51 -71 0
-27 -52 -72 0
-28 -53 -73 0
-29 -54 -74 0
-30 -55 -75 0
-26 -41 -66 0
-27 -42 -67 0
-28 -43 -68 0
-29 -44 -69 0
-30 -45 -70 0
-26 -46 -71 0
-27 -47 -72 0
-28 -48 -73 0
-29 -49 -74 0
-30 -50 -75 0
-26 -41 -61 0
-27 -42 -62 0
-28 -43 -63 0
-29 -44 -64 0
-30 -45 -65 0
-26 -46 -56 0
-27 -47 -57 0
-28 -48 -58 0
-29 -49 -59 0
-30 -50 -60 0
-26 -51 -66 0
-27 -52 -67 0
-28 -53 -68 0
-29 -54 -69 0
-30 -55 -70 0
-26 -41 -66 0
-27 -42 -67 0
-28 -43 -68 0
-29 -44 -69 0
-30 -45 -70 0
-26 -76 -106 0
-27 -77 -107 0
-28 -78 -108 0
-29 -79 -109 0
-30 -80 -110 0
-26 -81 -101 0
-27 -82 -102 0
-28 -83 -103 0
-29 -84 -104 0
-30 -85 -105 0
-26 -86 -101 0
-27 -87 -102 0
-28 -88 -103 0
-29 -89 -104 0
-30 -90 -105 0
-26 -86 -111 0
-27 -87 -112 0
-28 -88 -113 0
-29 -89 -114 0
-30 -90 -115 0
-26 -91 -111 0
-27 -92 -112 0
-28 -93 -113 0
-29 -94 -114 0
-30 -95 -115 0
-26 -91 -101 0
-27 -92 -102 0
-28 -93 -103 0
-29 -94 -104 0
-30 -95 -105 0
-26 -91 -106 0
-27 -92 -107 0
-28 -93 -108 0
-29 -94 -109 0
-30 -95 -110 0
-26 -86 -101 0
-27 -87 -102 0
-28 -88 -103 0
-29 -89 -104 0
-30 -90 -105 0
-26 -81 -111 0
-27 -82 -112 0
-28 -83 -113 0
-29 -84 -114 0
-30 -85 -115 0
-26 -91 -111 0
-27 -92 -112 0
-28 -93 -113 0
-29 -94 -114 0
-30 -95 -115 0
-26 -81 -106 0
-27 -82 -107 0
-28 -83 -108 0
-29 -84 -109 0
-30 -85 -110 0
-26 -86 -111 0
-27 -87 -112 0
-28 -88 -113 0
-29 -89 -114 0
-30 -90 -115 0
-26 -81 -101 0
-27 -82 -102 0
-28 -83 -103 0
-29 -84 -104 0
-30 -85 -105 0
-26 -86 -96 0
-27 -87 -97 0
-28 -88 -98 0
-29 -89 -99 0
-30 -90 -100 0
-26 -91 -106 0
-27 -92 -107 0
-28 -93 -108 0
-29 -94 -109 0
-30 -95 -110 0
-26 -81 -106 0
-27 -82 -107 0
-28 -83 -108 0
-29 -84 -109 0
-30 -85 -110 0
-26 -116 -146 0
-27 -117 -147 0
-28 -118 -148 0
-29 -119 -149 0
-30 -120 -150 0
-26 -121 -141 0
-27 -122 -142 0
-28 -123 -143 0
-29 -124 -144 0
-30 -125 -145 0
-26 -126 -141 0
-27 -127 -142 0
-28 -128 -143 0
-29 -129 -144 0
-30 -130 -145 0
-26 -126 -151 0
-27 -127 -152 0
-28 -128 -153 0
-29 -129 -154 0
-30 -130 -155 0
-26 -131 -151 0
-27 -132 -152 0
-28 -133 -153 0
-29 -134 -154 0
-30 -135 -155 0
-26 -131 -141 0
-27 -132 -142 0
-28 -133 -143 0
-29 -134 -144 0
-30 -135 -145 0
-26 -131 -146 0
-27 -132 -147 0
-28 -133 -148 0
-29 -134 -149 0
-30 -135 -150 0
-26 -126 -141 0
-27 -127 -142 0
-28 -128 -143 0
-29 -129 -144 0
-30 -130 -145 0
-26 -121 -151 0
-27 -122 -152 0
-28 -123 -153 0
-29 -124 -154 0
-30 -125 -155 0
-26 -131 -151 0
-27 -132 -152 0
-28 -133 -153 0
-29 -134 -154 0
-30 -135 -155 0
-26 -121 -146 0
-27 -122 -147 0
-28 -123 -148 0
-29 -124 -149 0
-30 -125 -150 0
-26 -126 -151 0
-27 -127 -152 0
-28 -128 -153 0
-29 -129 -154 0
-30 -130 -155 0
-26 -121 -141 0
-27 -122 -142 0
-28 -123 -143 0
-29 -124 -144 0
-30 -125 -145 0
-26 -126 -136 0
-27 -127 -137 0
-28 -128 -138 0
-29 -129 -139 0
-30 -130 -140 0
-26 -131 -146 0
-27 -132 -147 0
-28 -133 -148 0
-29 -134 -149 0
-30 -135 -150 0
-26 -121 -146 0
-27 -122 -147 0
-28 -123 -148 0
-29 -124 -149 0
-30 -125 -150 0
-31 -36 -71 0
-32 -37 -72 0
-33 -38 -73 0
-34 -39 -74 0
-35 -40 -75 0
-31 -41 -61 0
-32 -42 -62 0
-33 -43 -63 0
-34 -44 -64 0
-35 -45 -65 0
-31 -46 -61 0
-32 -47 -62 0
-33 -48 -63 0
-34 -49 -64 0
-35 -50 -65 0
-31 -46 -66 0
-32 -47 -67 0
-33 -48 -68 0
-34 -49 -69 0
-35 -50 -70 0
-31 -51 -61 0
-32 -52 -62 0
-33 -53 -63 0
-34 -54 -64 0
-35 -55 -65 0
-31 -51 -66 0
-32 -52 -67 0
-33 -53 -68 0
-34 -54 -69 0
-35 -55 -70 0
-31 -51 -61 0
-32 -52 -62 0
-33 -53 -63 0
-34 -54 -64 0
-35 -55 -65 0
-31 -46 -71 0
-32 -47 -72 0
-33 -48 -73 0
-34 -49 -74 0
-35 -50 -75 0
-31 -41 -71 0
-32 -42 -72 0
-33 -43 -73 0
-34 -44 -74 0
-35 -45 -75 0
-31 -51 -66 0
-32 -52 -67 0
-33 -53 -68 0
-34 -54 -69 0
-35 -55 -70 0
-31 -41 -71 0
-32 -42 -72 0
-33 -43 -73 0
-34 -44 -74 0
-35 -45 -75 0
-31 -46 -71 0
-32 -47 -72 0
-33 -48 -73 0
-34 -49 -74 0
-35 -50 -75 0
-31 -41 -66 0
-32 -42 -67 0
-33 -43 -68 0
-34 -44 -69 0
-35 -45 -70 0
-31 -46 -66 0
-32 -47 -67 0
-33 -48 -68 0
-34 -49 -69 0
-35 -50 -70 0
-31 -51 -56 0
-32 -52 -57 0
-33 -53 -58 0
-34 -54 -59 0
-35 -55 -60 0
-31 -41 -61 0
-32 -42 -62 0
-33 -43 -63 0
-34 -44 -64 0
-35 -45 -65 0
-31 -76 -111 0
-32 -77 -112 0
-33 -78 -113 0
-34 -79 -114 0
-35 -80 -115 0
-31 -81 -101 0
-32 -82 -102 0
-33 -83 -103 0
-34 -84 -104 0
-35 -85 -105 0
-31 -86 -101 0
-32 -87 -102 0
-33 -88 -103 0
-34 -89 -104 0
-35 -90 -105 0
-31 -86 -106 0
-32 -87 -107 0
-33 -88 -108 0
-34 -89 -109 0
-35 -90 -110 0
-31 -91 -101 0
-32 -92 -102 0
-33 -93 -103 0
-34 -94 -104 0
-35 -95 -105 0
-31 -91 -106 0
-32 -92 -107 0
-33 -93 -108 0
-34 -94 -109 0
-35 -95 -110 0
-31 -91 -101 0
-32 -92 -102 0
-33 -93 -103 0
-34 -94 -104 0
-35 -95 -105 0
-31 -86 -111 0
-32 -87 -112 0
-33 -88 -113 0
-34 -89 -114 0
-35 -90 -115 0
-31 -81 -111 0
-32 -82 -112 0
-33 -83 -113 0
-34 -84 -114 0
-35 -85 -115 0
-31 -91 -106 0
-32 -92 -107 0
-33 -93 -108 0
-34 -94 -109 0
-35 -95 -110 0
-31 -81 -111 0
-32 -82 -112 0
-33 -83 -113 0
-34 -84 -114 0
-35 -85 -115 0
-31 -86 -111 0
-32 -87 -112 0
-33 -88 -113 0
-34 -89 -114 0
-35 -90 -115 0
-31 -81 -106 0
-32 -82 -107 0
-33 -83 -108 0
-34 -84 -109 0
-35 -85 -110 0
-31 -86 -106 0
-32 -87 -107 0
-33 -88 -108 0
-34 -89 -109 0
-35 -90 -110 0
-31 -91 -96 0
-32 -92 -97 0
-33 -93 -98 0
-34 -94 -99 0
-35 -95 -100 0
-31 -81 -101 0
-32 -82 -102 0
-33 -83 -103 0
-34 -84 -104 0
-35 -85 -105 0
-31 -116 -151 0
-32 -117 -152 0
-33 -118 -153 0
-34 -119 -154 0
-35 -120 -155 0
-31 -121 -141 0
-32 -122 -142 0
-33 -123 -143 0
-34 -124 -144 0
-35 -125 -145 0
-31 -126 -141 0
-32 -127 -142 0
-33 -128 -143 0
-34 -129 -144 0
-35 -130 -145 0
-31 -126 -146 0
-32 -127 -147 0
-33 -128 -148 0
-34 -129 -149 0
-35 -130 -150 0
-31 -131 -141 0
-32 -132 -142 0
-33 -133 -143 0
-34 -134 -144 0
-35 -135 -145 0
-31 -131 -146 0
-32 -132 -147 0
-33 -133 -148 0
-34 -134 -149 0
-35 -135 -150 0
-31 -131 -141 0
-32 -132 -142 0
-33 -133 -143 0
-34 -134 -144 0
-35 -135 -145 0
-31 -126 -151 0
-32 -127 -152 0
-33 -128 -153 0
-34 -129 -154 0
-35 -130 -155 0
-31 -121 -151 0
-32 -122 -152 0
-33 -123 -153 0
-34 -124 -154 0
-35 -125 -155 0
-31 -131 -146 0
-32 -132 -147 0
-33 -133 -148 0
-34 -134 -149 0
-35 -135 -150 0
-31 -121 -151 0
-32 -122 -152 0
-33 -123 -153 0
-34 -124 -154 0
-35 -125 -155 0
-31 -126 -151 0
-32 -127 -152 0
-33 -128 -153 0
-34 -129 -154 0
-35 -130 -155 0
-31 -121 -146 0
-32 -122 -147 0
-33 -123 -148 0
-34 -124 -149 0
-35 -125 -150 0
-31 -126 -146 0
-32 -127 -147 0
-33 -128 -148 0
-34 -129 -149 0
-35 -130 -150 0
-31 -131 -136 0
-32 -132 -137 0
-33 -133 -138 0
-34 -134 -139 0
-35 -135 -140 0
-31 -121 -141 0
-32 -122 -142 0
-33 -123 -143 0
-34 -124 -144 0
-35 -125 -145 0
-21 -36 -61 0
-22 -37 -62 0
-23 -38 -63 0
-24 -39 -64 0
-25 -40 -65 0
-21 -41 -71 0
-22 -42 -72 0
-23 -43 -73 0
-24 -44 -74 0
-25 -45 -75 0
-21 -46 -66 0
-22 -47 -67 0
-23 -48 -68 0
-24 -49 -69 0
-25 -50 -70 0
-21 -46 -61 0
-22 -47 -62 0
-23 -48 -63 0
-24 -49 -64 0
-25 -50 -65 0
-21 -51 -66 0
-22 -52 -67 0
-23 -53 -68 0
-24 -54 -69 0
-25 -55 -70 0
-21 -51 -61 0
-22 -52 -62 0
-23 -53 -63 0
-24 -54 -64 0
-25 -55 -65 0
-21 -51 -71 0
-22 -52 -72 0
-23 -53 -73 0
-24 -54 -74 0
-25 -55 -75 0
-21 -46 -61 0
-22 -47 -62 0
-23 -48 -63 0
-24 -49 -64 0
-25 -50 -65 0
-21 -41 -66 0
-22 -42 -67 0
-23 -43 -68 0
-24 -44 -69 0
-25 -45 -70 0
-21 -51 -71 0
-22 -52 -72 0
-23 -53 -73 0
-24 -54 -74 0
-25 -55 -75 0
-21 -41 -71 0
-22 -42 -72 0
-23 -43 -73 0
-24 -44 -74 0
-25 -45 -75 0
-21 -46 -71 0
-22 -47 -72 0
-23 -48 -73 0
-24 -49 -74 0
-25 -50 -75 0
-21 -41 -66 0
-22 -42 -67 0
-23 -43 -68 0
-24 -44 -69 0
-25 -45 -70 0
-21 -46 -66 0
-22 -47 -67 0
-23 -48 -68 0
-24 -49 -69 0
-25 -50 -70 0
-21 -51 -61 0
-22 -52 -62 0
-23 -53 -63 0
-24 -54 -64 0
-25 -55 -65 0
-21 -41 -56 0
-22 -42 -57 0
-23 -43 -58 0
-24 -44 -59 0
-25 -45 -60 0
-21 -76 -101 0
-22 -77 -102 0
-23 -78 -103 0
-24 -79 -104 0
-25 -80 -105 0
-21 -81 -111 0
-22 -82 -112 0
-23 -83 -113 0
-24 -84 -114 0
-25 -85 -115 0
-21 -86 -106 0
-22 -87 -107 0
-23 -88 -108 0
-24 -89 -109 0
-25 -90 -110 0
-21 -86 -101 0
-22 -87 -102 0
-23 -88 -103 0
-24 -89 -104 0
-25 -90 -105 0
-21 -91 -106 0
-22 -92 -107 0
-23 -93 -108 0
-24 -94 -109 0
-25 -95 -110 0
-21 -91 -101 0
-22 -92 -102 0
-23 -93 -103 0
-24 -94 -104 0
-25 -95 -105 0
-21 -91 -111 0
-22 -92 -112 0
-23 -93 -113 0
-24 -94 -114 0
-25 -95 -115 0
-21 -86 -101 0
-22 -87 -102 0
-23 -88 -103 0
-24 -89 -104 0
-25 -90 -105 0
-21 -81 -106 0
-22 -82 -107 0
-23 -83 -108 0
-24 -84 -109 0
-25 -85 -110 0
-21 -91 -111 0
-22 -92 -112 0
-23 -93 -113 0
-24 -94 -114 0
-25 -95 -115 0
-21 -81 -111 0
-22 -82 -112 0
-23 -83 -113 0
-24 -84 -114 0
-25 -85 -115 0
-21 -86 -111 0
-22 -87 -112 0
-23 -88 -113 0
-24 -89 -114 0
-25 -90 -115 0
-21 -81 -106 0
-22 -82 -107 0
-23 -83 -108 0
-24 -84 -109 0
-25 -85 -110 0
-21 -86 -106 0
-22 -87 -107 0
-23 -88 -108 0
-24 -89 -109 0
-25 -90 -110 0
-21 -91 -101 0
-22 -92 -102 0
-23 -93 -103 0
-24 -94 -104 0
-25 -95 -105 0
-21 -81 -96 0
-22 -82 -97 0
-23 -83 -98 0
-24 -84 -99 0
-25 -85 -100 0
-21 -116 -141 0
-22 -117 -142 0
-23 -118 -143 0
-24 -119 -144 0
-25 -120 -145 0
-21 -121 -151 0
-22 -122 -152 0
-23 -123 -153 0
-24 -124 -154 0
-25 -125 -155 0
-21 -126 -146 0
-22 -127 -147 0
-23 -128 -148 0
-24 -129 -149 0
-25 -130 -150 0
-21 -126 -141 0
-22 -127 -142 0
-23 -128 -143 0
-24 -129 -144 0
-25 -130 -145 0
-21 -131 -146 0
-22 -132 -147 0
-23 -133 -148 0
-24 -134 -149 0
-25 -135 -150 0
-21 -131 -141 0
-22 -132 -142 0
-23 -133 -143 0
-24 -134 -144 0
-25 -135 -145 0
-21 -131 -151 0
-22 -132 -152 0
-23 -133 -153 0
-24 -134 -154 0
-25 -135 -155 0
-21 -126 -141 0
-22 -127 -142 0
-23 -128 -143 0
-24 -129 -144 0
-25 -130 -145 0
-21 -121 -146 0
-22 -122 -147 0
-23 -123 -148 0
-24 -124 -149 0
-25 -125 -150 0
-21 -131 -151 0
-22 -132 -152 0
-23 -133 -153 0
-24 -134 -154 0
-25 -135 -155 0
-21 -121 -151 0
-22 -122 -152 0
-23 -123 -153 0
-24 -124 -154 0
-25 -125 -155 0
-21 -126 -151 0
-22 -127 -152 0
-23 -128 -153 0
-24 -129 -154 0
-25 -130 -155 0
-21 -121 -146 0
-22 -122 -147 0
-23 -123 -148 0
-24 -124 -149 0
-25 -125 -150 0
-21 -126 -146 0
-22 -127 -147 0
-23 -128 -148 0
-24 -129 -149 0
-25 -130 -150 0
-21 -131 -141 0
-22 -132 -142 0
-23 -133 -143 0
-24 -134 -144 0
-25 -135 -145 0
-21 -121 -136 0
-22 -122 -137 0
-23 -123 -138 0
-24 -124 -139 0
-25 -125 -140 0
-36 -76 -116 0
-37 -77 -117 0
-38 -78 -118 0
-39 -79 -119 0
-40 -80 -120 0
-36 -81 -121 0
-37 -82 -122 0
-38 -83 -123 0
-39 -84 -124 0
-40 -85 -125 0
-36 -86 -126 0
-37 -87 -127 0
-38 -88 -128 0
-39 -89 -129 0
-40 -90 -130 0
-36 -86 -126 0
-37 -87 -127 0
-38 -88 -128 0
-39 -89 -129 0
-40 -90 -130 0
-36 -91 -131 0
-37 -92 -132 0
-38 -93 -133 0
-39 -94 -134 0
-40 -95 -135 0
-36 -91 -131 0
-37 -92 -132 0
-38 -93 -133 0
-39 -94 -134 0
-40 -95 -135 0
-36 -91 -131 0
-37 -92 -132 0
-38 -93 -133 0
-39 -94 -134 0
-40 -95 -135 0
-36 -86 -126 0
-37 -87 -127 0
-38 -88 -128 0
-39 -89 -129 0
-40 -90 -130 0
-36 -81 -121 0
-37 -82 -122 0
-38 -83 -123 0
-39 -84 -124 0
-40 -85 -125 0
-36 -91 -131 0
-37 -92 -132 0
-38 -93 -133 0
-39 -94 -134 0
-40 -95 -135 0
-36 -81 -121 0
-37 -82 -122 0
-38 -83 -123 0
-39 -84 -124 0
-40 -85 -125 0
-36 -86 -126 0
-37 -87 -127 0
-38 -88 -128 0
-39 -89 -129 0
-40 -90 -130 0
-36 -81 -121 0
-37 -82 -122 0
-38 -83 -123 0
-39 -84 -124 0
-40 -85 -125 0
-36 -86 -126 0
-37 -87 -127 0
-38 -88 -128 0
-39 -89 -129 0
-40 -90 -130 0
-36 -91 -131 0
-37 -92 -132 0
-38 -93 -133 0
-39 -94 -134 0
-40 -95 -135 0
-36 -81 -121 0
-37 -82 -122 0
-38 -83 -123 0
-39 -84 -124 0
-40 -85 -125 0
-36 -96 -136 0
-37 -97 -137 0
-38 -98 -138 0
-39 -99 -139 0
-40 -100 -140 0
-36 -101 -141 0
-37 -102 -142 0
-38 -103 -143 0
-39 -104 -144 0
-40 -105 -145 0
-36 -106 -146 0
-37 -107 -147 0
-38 -108 -148 0
-39 -109 -149 0
-40 -110 -150 0
-36 -106 -146 0
-37 -107 -147 0
-38 -108 -148 0
-39 -109 -149 0
-40 -110 -150 0
-36 -111 -151 0
-37 -112 -152 0
-38 -113 -153 0
-39 -114 -154 0
-40 -115 -155 0
-36 -111 -151 0
-37 -112 -152 0
-38 -113 -153 0
-39 -114 -154 0
-40 -115 -155 0
-36 -111 -151 0
-37 -112 -152 0
-38 -113 -153 0
-39 -114 -154 0
-40 -115 -155 0
-36 -106 -146 0
-37 -107 -147 0
-38 -108 -148 0
-39 -109 -149 0
-40 -110 -150 0
-36 -101 -141 0
-37 -102 -142 0
-38 -103 -143 0
-39 -104 -144 0
-40 -105 -145 0
-36 -111 -151 0
-37 -112 -152 0
-38 -113 -153 0
-39 -114 -154 0
-40 -115 -155 0
-36 -101 -141 0
-37 -102 -142 0
-38 -103 -143 0
-39 -104 -144 0
-40 -105 -145 0
-36 -106 -146 0
-37 -107 -147 0
-38 -108 -148 0
-39 -109 -149 0
-40 -110 -150 0
-36 -101 -141 0
-37 -102 -142 0
-38 -103 -143 0
-39 -104 -144 0
-40 -105 -145 0
-36 -106 -146 0
-37 -107 -147 0
-38 -108 -148 0
-39 -109 -149 0
-40 -110 -150 0
-36 -111 -151 0
-37 -112 -152 0
-38 -113 -153 0
-39 -114 -154 0
-40 -115 -155 0
-36 -101 -141 0
-37 -102 -142 0
-38 -103 -143 0
-39 -104 -144 0
-40 -105 -145 0
-41 -76 -121 0
-42 -77 -122 0
-43 -78 -123 0
-44 -79 -124 0
-45 -80 -125 0
-41 -81 -116 0
-42 -82 -117 0
-43 -83 -118 0
-44 -84 -119 0
-45 -85 -120 0
-41 -86 -126 0
-42 -87 -127 0
-43 -88 -128 0
-44 -89 -129 0
-45 -90 -130 0
-41 -86 -126 0
-42 -87 -127 0
-43 -88 -128 0
-44 -89 -129 0
-45 -90 -130 0
-41 -91 -131 0
-42 -92 -132 0
-43 -93 -133 0
-44 -94 -134 0
-45 -95 -135 0
-41 -91 -131 0
-42 -92 -132 0
-43 -93 -133 0
-44 -94 -134 0
-45 -95 -135 0
-41 -91 -126 0
-42 -92 -127 0
-43 -93 -128 0
-44 -94 -129 0
-45 -95 -130 0
-41 -86 -131 0
-42 -87 -132 0
-43 -88 -133 0
-44 -89 -134 0
-45 -90 -135 0
-41 -81 -131 0
-42 -82 -132 0
-43 -83 -133 0
-44 -84 -134 0
-45 -85 -135 0
-41 -91 -121 0
-42 -92 -122 0
-43 -93 -123 0
-44 -94 -124 0
-45 -95 -125 0
-41 -81 -126 0
-42 -82 -127 0
-43 -83 -128 0
-44 -84 -129 0
-45 -85 -130 0
-41 -86 -121 0
-42 -87 -122 0
-43 -88 -123 0
-44 -89 -124 0
-45 -90 -125 0
-41 -81 -126 0
-42 -82 -127 0
-43 -83 -128 0
-44 -84 -129 0
-45 -85 -130 0
-41 -86 -121 0
-42 -87 -122 0
-43 -88 -123 0
-44 -89 -124 0
-45 -90 -125 0
-41 -91 -121 0
-42 -92 -122 0
-43 -93 -123 0
-44 -94 -124 0
-45 -95 -125 0
-41 -81 -131 0
-42 -82 -132 0
-43 -83 -133 0
-44 -84 -134 0
-45 -85 -135 0
-41 -96 -141 0
-42 -97 -142 0
-43 -98 -143 0
-44 -99 -144 0
-45 -100 -145 0
-41 -101 -136 0
-42 -102 -137 0
-43 -103 -138 0
-44 -104 -139 0
-45 -105 -140 0
-41 -106 -146 0
-42 -107 -147 0
-43 -108 -148 0
-44 -109 -149 0
-45 -110 -150 0
-41 -106 -146 0
-42 -107 -147 0
-43 -108 -148 0
-44 -109 -149 0
-45 -110 -150 0
-41 -111 -151 0
-42 -112 -152 0
-43 -113 -153 0
-44 -114 -154 0
-45 -115 -155 0
-41 -111 -151 0
-42 -112 -152 0
-43 -113 -153 0
-44 -114 -154 0
-45 -115 -155 0
-41 -111 -146 0
-42 -112 -147 0
-43 -113 -148 0
-44 -114 -149 0
-45 -115 -150 0
-41 -106 -151 0
-42 -107 -152 0
-43 -108 -153 0
-44 -109 -154 0
-45 -110 -155 0
-41 -101 -151 0
-42 -102 -152 0
-43 -103 -153 0
-44 -104 -154 0
-45 -105 -155 0
-41 -111 -141 0
-42 -112 -142 0
-43 -113 -143 0
-44 -114 -144 0
-45 -115 -145 0
-41 -101 -146 0
-42 -102 -147 0
-43 -103 -148 0
-44 -104 -149 0
-45 -105 -150 0
-41 -106 -141 0
-42 -107 -142 0
-43 -108 -143 0
-44 -109 -144 0
-45 -110 -145 0
-41 -101 -146 0
-42 -102 -147 0
-43 -103 -148 0
-44 -104 -149 0
-45 -105 -150 0
-41 -106 -141 0
-42 -107 -142 0
-43 -108 -143 0
-44 -109 -144 0
-45 -110 -145 0
-41 -111 -141 0
-42 -112 -142 0
-43 -113 -143 0
-44 -114 -144 0
-45 -115 -145 0
-41 -101 -151 0
-42 -102 -152 0
-43 -103 -153 0
-44 -104 -154 0
-45 -105 -155 0
-46 -76 -126 0
-47 -77 -127 0
-48 -78 -128 0
-49 -79 -129 0
-50 -80 -130 0
-46 -81 -126 0
-47 -82 -127 0
-48 -83 -128 0
-49 -84 -129 0
-50 -85 -130 0
-46 -86 -116 0
-47 -87 -117 0
-48 -88 -118 0
-49 -89 -119 0
-50 -90 -120 0
-46 -86 -121 0
-47 -87 -122 0
-48 -88 -123 0
-49 -89 -124 0
-50 -90 -125 0
-46 -91 -131 0
-47 -92 -132 0
-48 -93 -133 0
-49 -94 -134 0
-50 -95 -135 0
-46 -91 -126 0
-47 -92 -127 0
-48 -93 -128 0
-49 -94 -129 0
-50 -95 -130 0
-46 -91 -131 0
-47 -92 -132 0
-48 -93 -133 0
-49 -94 -134 0
-50 -95 -135 0
-46 -86 -131 0
-47 -87 -132 0
-48 -88 -133 0
-49 -89 -134 0
-50 -90 -135 0
-46 -81 -121 0
-47 -82 -122 0
-48 -83 -123 0
-49 -84 -124 0
-50 -85 -125 0
-46 -91 -126 0
-47 -92 -127 0
-48 -93 -128 0
-49 -94 -129 0
-50 -95 -130 0
-46 -81 -121 0
-47 -82 -122 0
-48 -83 -123 0
-49 -84 -124 0
-50 -85 -125 0
-46 -86 -131 0
-47 -87 -132 0
-48 -88 -133 0
-49 -89 -134 0
-50 -90 -135 0
-46 -81 -131 0
-47 -82 -132 0
-48 -83 -133 0
-49 -84 -134 0
-50 -85 -135 0
-46 -86 -121 0
-47 -87 -122 0
-48 -88 -123 0
-49 -89 -124 0
-50 -90 -125 0
-46 -91 -121 0
-47 -92 -122 0
-48 -93 -123 0
-49 -94 -124 0
-50 -95 -125 0
-46 -81 -126 0
-47 -82 -127 0
-48 -83 -128 0
-49 -84 -129 0
-50 -85 -130 0
-46 -96 -146 0
-47 -97 -147 0
-48 -98 -148 0
-49 -99 -149 0
-50 -100 -150 0
-46 -101 -146 0
-47 -102 -147 0
-48 -103 -148 0
-49 -104 -149 0
-50 -105 -150 0
-46 -106 -136 0
-47 -107 -137 0
-48 -108 -138 0
-49 -109 -139 0
-50 -110 -140 0
-46 -106 -141 0
-47 -107 -142 0
-48 -108 -143 0
-49 -109 -144 0
-50 -110 -145 0
-46 -111 -151 0
-47 -112 -152 0
-48 -113 -153 0
-49 -114 -154 0
-50 -115 -155 0
-46 -111 -146 0
-47 -112 -147 0
-48 -113 -148 0
-49 -114 -149 0
-50 -115 -150 0
-46 -111 -151 0
-47 -112 -152 0
-48 -113 -153 0
-49 -114 -154 0
-50 -115 -155 0
-46 -106 -151 0
-47 -107 -152 0
-48 -108 -153 0
-49 -109 -154 0
-50 -110 -155 0
-46 -101 -141 0
-47 -102 -142 0
-48 -103 -143 0
-49 -104 -144 0
-50 -105 -145 0
-46 -111 -146 0
-47 -112 -147 0
-48 -113 -148 0
-49 -114 -149 0
-50 -115 -150 0
-46 -101 -141 0
-47 -102 -142 0
-48 -103 -143 0
-49 -104 -144 0
-50 -105 -145 0
-46 -106 -151 0
-47 -107 -152 0
-48 -108 -153 0
-49 -109 -154 0
-50 -110 -155 0
-46 -101 -151 0
-47 -102 -152 0
-48 -103 -153 0
-49 -104 -154 0
-50 -105 -155 0
-46 -106 -141 0
-47 -107 -142 0
-48 -108 -143 0
-49 -109 -144 0
-50 -110 -145 0
-46 -111 -141 0
-47 -112 -142 0
-48 -113 -143 0
-49 -114 -144 0
-50 -115 -145 0
-46 -101 -146 0
-47 -102 -147 0
-48 -103 -148 0
-49 -104 -149 0
-50 -105 -150 0
-46 -76 -126 0
-47 -77 -127 0
-48 -78 -128 0
-49 -79 -129 0
-50 -80 -130 0
-46 -81 -126 0
-47 -82 -127 0
-48 -83 -128 0
-49 -84 -129 0
-50 -85 -130 0
-46 -86 -121 0
-47 -87 -122 0
-48 -88 -123 0
-49 -89 -124 0
-50 -90 -125 0
-46 -86 -116 0
-47 -87 -117 0
-48 -88 -118 0
-49 -89 -119 0
-50 -90 -120 0
-46 -91 -126 0
-47 -92 -127 0
-48 -93 -128 0
-49 -94 -129 0
-50 -95 -130 0
-46 -91 -131 0
-47 -92 -132 0
-48 -93 -133 0
-49 -94 -134 0
-50 -95 -135 0
-46 -91 -131 0
-47 -92 -132 0
-48 -93 -133 0
-49 -94 -134 0
-50 -95 -135 0
-46 -86 -131 0
-47 -87 -132 0
-48 -88 -133 0
-49 -89 -134 0
-50 -90 -135 0
-46 -81 -126 0
-47 -82 -127 0
-48 -83 -128 0
-49 -84 -129 0
-50 -85 -130 0
-46 -91 -121 0
-47 -92 -122 0
-48 -93 -123 0
-49 -94 -124 0
-50 -95 -125 0
-46 -81 -131 0
-47 -82 -132 0
-48 -83 -133 0
-49 -84 -134 0
-50 -85 -135 0
-46 -86 -121 0
-47 -87 -122 0
-48 -88 -123 0
-49 -89 -124 0
-50 -90 -125 0
-46 -81 -121 0
-47 -82 -122 0
-48 -83 -123 0
-49 -84 -124 0
-50 -85 -125 0
-46 -86 -131 0
-47 -87 -132 0
-48 -88 -133 0
-49 -89 -134 0
-50 -90 -135 0
-46 -91 -126 0
-47 -92 -127 0
-48 -93 -128 0
-49 -94 -129 0
-50 -95 -130 0
-46 -81 -121 0
-47 -82 -122 0
-48 -83 -123 0
-49 -84 -124 0
-50 -85 -125 0
-46 -96 -146 0
-47 -97 -147 0
-48 -98 -148 0
-49 -99 -149 0
-50 -100 -150 0
-46 -101 -146 0
-47 -102 -147 0
-48 -103 -148 0
-49 -104 -149 0
-50 -105 -150 0
-46 -106 -141 0
-47 -107 -142 0
-48 -108 -143 0
-49 -109 -144 0
-50 -110 -145 0
-46 -106 -136 0
-47 -107 -137 0
-48 -108 -138 0
-49 -109 -139 0
-50 -110 -140 0
-46 -111 -146 0
-47 -112 -147 0
-48 -113 -148 0
-49 -114 -149 0
-50 -115 -150 0
-46 -111 -151 0
-47 -112 -152 0
-48 -113 -153 0
-49 -114 -154 0
-50 -115 -155 0
-46 -111 -151 0
-47 -112 -152 0
-48 -113 -153 0
-49 -114 -154 0
-50 -115 -155 0
-46 -106 -151 0
-47 -107 -152 0
-48 -108 -153 0
-49 -109 -154 0
-50 -110 -155 0
-46 -101 -146 0
-47 -102 -147 0
-48 -103 -148 0
-49 -104 -149 0
-50 -105 -150 0
-46 -111 -141 0
-47 -112 -142 0
-48 -113 -143 0
-49 -114 -144 0
-50 -115 -145 0
-46 -101 -151 0
-47 -102 -152 0
-48 -103 -153 0
-49 -104 -154 0
-50 -105 -155 0
-46 -106 -141 0
-47 -107 -142 0
-48 -108 -143 0
-49 -109 -144 0
-50 -110 -145 0
-46 -101 -141 0
-47 -102 -142 0
-48 -103 -143 0
-49 -104 -144 0
-50 -105 -145 0
-46 -106 -151 0
-47 -107 -152 0
-48 -108 -153 0
-49 -109 -154 0
-50 -110 -155 0
-46 -111 -146 0
-47 -112 -147 0
-48 -113 -148 0
-49 -114 -149 0
-50 -115 -150 0
-46 -101 -141 0
-47 -102 -142 0
-48 -103 -143 0
-49 -104 -144 0
-50 -105 -145 0
-51 -76 -131 0
-52 -77 -132 0
-53 -78 -133 0
-54 -79 -134 0
-55 -80 -135 0
-51 -81 -131 0
-52 -82 -132 0
-53 -83 -133 0
-54 -84 -134 0
-55 -85 -135 0
-51 -86 -131 0
-52 -87 -132 0
-53 -88 -133 0
-54 -89 -134 0
-55 -90 -135 0
-51 -86 -126 0
-52 -87 -127 0
-53 -88 -128 0
-54 -89 -129 0
-55 -90 -130 0
-51 -91 -116 0
-52 -92 -117 0
-53 -93 -118 0
-54 -94 -119 0
-55 -95 -120 0
-51 -91 -121 0
-52 -92 -122 0
-53 -93 -123 0
-54 -94 -124 0
-55 -95 -125 0
-51 -91 -126 0
-52 -92 -127 0
-53 -93 -128 0
-54 -94 -129 0
-55 -95 -130 0
-51 -86 -126 0
-52 -87 -127 0
-53 -88 -128 0
-54 -89 -129 0
-55 -90 -130 0
-51 -81 -121 0
-52 -82 -122 0
-53 -83 -123 0
-54 -84 -124 0
-55 -85 -125 0
-51 -91 -126 0
-52 -92 -127 0
-53 -93 -128 0
-54 -94 -129 0
-55 -95 -130 0
-51 -81 -131 0
-52 -82 -132 0
-53 -83 -133 0
-54 -84 -134 0
-55 -85 -135 0
-51 -86 -121 0
-52 -87 -122 0
-53 -88 -123 0
-54 -89 -124 0
-55 -90 -125 0
-51 -81 -121 0
-52 -82 -122 0
-53 -83 -123 0
-54 -84 -124 0
-55 -85 -125 0
-51 -86 -131 0
-52 -87 -132 0
-53 -88 -133 0
-54 -89 -134 0
-55 -90 -135 0
-51 -91 -121 0
-52 -92 -122 0
-53 -93 -123 0
-54 -94 -124 0
-55 -95 -125 0
-51 -81 -126 0
-52 -82 -127 0
-53 -83 -128 0
-54 -84 -129 0
-55 -85 -130 0
-51 -96 -151 0
-52 -97 -152 0
-53 -98 -153 0
-54 -99 -154 0
-55 -100 -155 0
-51 -101 -151 0
-52 -102 -152 0
-53 -103 -153 0
-54 -104 -154 0
-55 -105 -155 0
-51 -106 -151 0
-52 -107 -152 0
-53 -108 -153 0
-54 -109 -154 0
-55 -110 -155 0
-51 -106 -146 0
-52 -107 -147 0
-53 -108 -148 0
-54 -109 -149 0
-55 -110 -150 0
-51 -111 -136 0
-52 -112 -137 0
-53 -113 -138 0
-54 -114 -139 0
-55 -115 -140 0
-51 -111 -141 0
-52 -112 -142 0
-53 -113 -143 0
-54 -114 -144 0
-55 -115 -145 0
-51 -111 -146 0
-52 -112 -147 0
-53 -113 -148 0
-54 -114 -149 0
-55 -115 -150 0
-51 -106 -146 0
-52 -107 -147 0
-53 -108 -148 0
-54 -109 -149 0
-55 -110 -150 0
-51 -101 -141 0
-52 -102 -142 0
-53 -103 -143 0
-54 -104 -144 0
-55 -105 -145 0
-51 -111 -146 0
-52 -112 -147 0
-53 -113 -148 0
-54 -114 -149 0
-55 -115 -150 0
-51 -101 -151 0
-52 -102 -152 0
-53 -103 -153 0
-54 -104 -154 0
-55 -105 -155 0
-51 -106 -141 0
-52 -107 -142 0
-53 -108 -143 0
-54 -109 -144 0
-55 -110 -145 0
-51 -101 -141 0
-52 -102 -142 0
-53 -103 -143 0
-54 -104 -144 0
-55 -105 -145 0
-51 -106 -151 0
-52 -107 -152 0
-53 -108 -153 0
-54 -109 -154 0
-55 -110 -155 0
-51 -111 -141 0
-52 -112 -142 0
-53 -113 -143 0
-54 -114 -144 0
-55 -115 -145 0
-51 -101 -146 0
-52 -102 -147 0
-53 -103 -148 0
-54 -104 -149 0
-55 -105 -150 0
-51 -76 -131 0
-52 -77 -132 0
-53 -78 -133 0
-54 -79 -134 0
-55 -80 -135 0
-51 -81 -131 0
-52 -82 -132 0
-53 -83 -133 0
-54 -84 -134 0
-55 -85 -135 0
-51 -86 -126 0
-52 -87 -127 0
-53 -88 -128 0
-54 -89 -129 0
-55 -90 -130 0
-51 -86 -131 0
-52 -87 -132 0
-53 -88 -133 0
-54 -89 -134 0
-55 -90 -135 0
-51 -91 -121 0
-52 -92 -122 0
-53 -93 -123 0
-54 -94 -124 0
-55 -95 -125 0
-51 -91 -116 0
-52 -92 -117 0
-53 -93 -118 0
-54 -94 -119 0
-55 -95 -120 0
-51 -91 -126 0
-52 -92 -127 0
-53 -93 -128 0
-54 -94 -129 0
-55 -95 -130 0
-51 -86 -126 0
-52 -87 -127 0
-53 -88 -128 0
-54 -89 -129 0
-55 -90 -130 0
-51 -81 -126 0
-52 -82 -127 0
-53 -83 -128 0
-54 -84 -129 0
-55 -85 -130 0
-51 -91 -121 0
-52 -92 -122 0
-53 -93 -123 0
-54 -94 -124 0
-55 -95 -125 0
-51 -81 -121 0
-52 -82 -122 0
-53 -83 -123 0
-54 -84 -124 0
-55 -85 -125 0
-51 -86 -131 0
-52 -87 -132 0
-53 -88 -133 0
-54 -89 -134 0
-55 -90 -135 0
-51 -81 -131 0
-52 -82 -132 0
-53 -83 -133 0
-54 -84 -134 0
-55 -85 -135 0
-51 -86 -121 0
-52 -87 -122 0
-53 -88 -123 0
-54 -89 -124 0
-55 -90 -125 0
-51 -91 -126 0
-52 -92 -127 0
-53 -93 -128 0
-54 -94 -129 0
-55 -95 -130 0
-51 -81 -121 0
-52 -82 -122 0
-53 -83 -123 0
-54 -84 -124 0
-55 -85 -125 0
-51 -96 -151 0
-52 -97 -152 0
-53 -98 -153 0
-54 -99 -154 0
-55 -100 -155 0
-51 -101 -151 0
-52 -102 -152 0
-53 -103 -153 0
-54 -104 -154 0
-55 -105 -155 0
-51 -106 -146 0
-52 -107 -147 0
-53 -108 -148 0
-54 -109 -149 0
-55 -110 -150 0
-51 -106 -151 0
-52 -107 -152 0
-53 -108 -153 0
-54 -109 -154 0
-55 -110 -155 0
-51 -111 -141 0
-52 -112 -142 0
-53 -113 -143 0
-54 -114 -144 0
-55 -115 -145 0
-51 -111 -136 0
-52 -112 -137 0
-53 -113 -138 0
-54 -114 -139 0
-55 -115 -140 0
-51 -111 -146 0
-52 -112 -147 0
-53 -113 -148 0
-54 -114 -149 0
-55 -115 -150 0
-51 -106 -146 0
-52 -107 -147 0
-53 -108 -148 0
-54 -109 -149 0
-55 -110 -150 0
-51 -101 -146 0
-52 -102 -147 0
-53 -103 -148 0
-54 -104 -149 0
-55 -105 -150 0
-51 -111 -141 0
-52 -112 -142 0
-53 -113 -143 0
-54 -114 -144 0
-55 -115 -145 0
-51 -101 -141 0
-52 -102 -142 0
-53 -103 -143 0
-54 -104 -144 0
-55 -105 -145 0
-51 -106 -151 0
-52 -107 -152 0
-53 -108 -153 0
-54 -109 -154 0
-55 -110 -155 0
-51 -101 -151 0
-52 -102 -152 0
-53 -103 -153 0
-54 -104 -154 0
-55 -105 -155 0
-51 -106 -141 0
-52 -107 -142 0
-53 -108 -143 0
-54 -109 -144 0
-55 -110 -145 0
-51 -111 -146 0
-52 -112 -147 0
-53 -113 -148 0
-54 -114 -149 0
-55 -115 -150 0
-51 -101 -141 0
-52 -102 -142 0
-53 -103 -143 0
-54 -104 -144 0
-55 -105 -145 0
-51 -76 -131 0
-52 -77 -132 0
-53 -78 -133 0
-54 -79 -134 0
-55 -80 -135 0
-51 -81 -126 0
-52 -82 -127 0
-53 -83 -128 0
-54 -84 -129 0
-55 -85 -130 0
-51 -86 -131 0
-52 -87 -132 0
-53 -88 -133 0
-54 -89 -134 0
-55 -90 -135 0
-51 -86 -131 0
-52 -87 -132 0
-53 -88 -133 0
-54 -89 -134 0
-55 -90 -135 0
-51 -91 -126 0
-52 -92 -127 0
-53 -93 -128 0
-54 -94 -129 0
-55 -95 -130 0
-51 -91 -126 0
-52 -92 -127 0
-53 -93 -128 0
-54 -94 -129 0
-55 -95 -130 0
-51 -91 -116 0
-52 -92 -117 0
-53 -93 -118 0
-54 -94 -119 0
-55 -95 -120 0
-51 -86 -121 0
-52 -87 -122 0
-53 -88 -123 0
-54 -89 -124 0
-55 -90 -125 0
-51 -81 -131 0
-52 -82 -132 0
-53 -83 -133 0
-54 -84 -134 0
-55 -85 -135 0
-51 -91 -121 0
-52 -92 -122 0
-53 -93 -123 0
-54 -94 -124 0
-55 -95 -125 0
-51 -81 -121 0
-52 -82 -122 0
-53 -83 -123 0
-54 -84 -124 0
-55 -85 -125 0
-51 -86 -126 0
-52 -87 -127 0
-53 -88 -128 0
-54 -89 -129 0
-55 -90 -130 0
-51 -81 -121 0
-52 -82 -122 0
-53 -83 -123 0
-54 -84 -124 0
-55 -85 -125 0
-51 -86 -126 0
-52 -87 -127 0
-53 -88 -128 0
-54 -89 -129 0
-55 -90 -130 0
-51 -91 -121 0
-52 -92 -122 0
-53 -93 -123 0
-54 -94 -124 0
-55 -95 -125 0
-51 -81 -131 0
-52 -82 -132 0
-53 -83 -133 0
-54 -84 -134 0
-55 -85 -135 0
-51 -96 -151 0
-52 -97 -152 0
-53 -98 -153 0
-54 -99 -154 0
-55 -100 -155 0
-51 -101 -146 0
-52 -102 -147 0
-53 -103 -148 0
-54 -104 -149 0
-55 -105 -150 0
-51 -106 -151 0
-52 -107 -152 0
-53 -108 -153 0
-54 -109 -154 0
-55 -110 -155 0
-51 -106 -151 0
-52 -107 -152 0
-53 -108 -153 0
-54 -109 -154 0
-55 -110 -155 0
-51 -111 -146 0
-52 -112 -147 0
-53 -113 -148 0
-54 -114 -149 0
-55 -115 -150 0
-51 -111 -146 0
-52 -112 -147 0
-53 -113 -148 0
-54 -114 -149 0
-55 -115 -150 0
-51 -111 -136 0
-52 -112 -137 0
-53 -113 -138 0
-54 -114 -139 0
-55 -115 -140 0
-51 -106 -141 0
-52 -107 -142 0
-53 -108 -143 0
-54 -109 -144 0
-55 -110 -145 0
-51 -101 -151 0
-52 -102 -152 0
-53 -103 -153 0
-54 -104 -154 0
-55 -105 -155 0
-51 -111 -141 0
-52 -112 -142 0
-53 -113 -143 0
-54 -114 -144 0
-55 -115 -145 0
-51 -101 -141 0
-52 -102 -142 0
-53 -103 -143 0
-54 -104 -144 0
-55 -105 -145 0
-51 -106 -146 0
-52 -107 -147 0
-53 -108 -148 0
-54 -109 -149 0
-55 -110 -150 0
-51 -101 -141 0
-52 -102 -142 0
-53 -103 -143 0
-54 -104 -144 0
-55 -105 -145 0
-51 -106 -146 0
-52 -107 -147 0
-53 -108 -148 0
-54 -109 -149 0
-55 -110 -150 0
-51 -111 -141 0
-52 -112 -142 0
-53 -113 -143 0
-54 -114 -144 0
-55 -115 -145 0
-51 -101 -151 0
-52 -102 -152 0
-53 -103 -153 0
-54 -104 -154 0
-55 -105 -155 0
-46 -76 -126 0
-47 -77 -127 0
-48 -78 -128 0
-49 -79 -129 0
-50 -80 -130 0
-46 -81 -131 0
-47 -82 -132 0
-48 -83 -133 0
-49 -84 -134 0
-50 -85 -135 0
-46 -86 -131 0
-47 -87 -132 0
-48 -88 -133 0
-49 -89 -134 0
-50 -90 -135 0
-46 -86 -131 0
-47 -87 -132 0
-48 -88 -133 0
-49 -89 -134 0
-50 -90 -135 0
-46 -91 -126 0
-47 -92 -127 0
-48 -93 -128 0
-49 -94 -129 0
-50 -95 -130 0
-46 -91 -126 0
-47 -92 -127 0
-48 -93 -128 0
-49 -94 -129 0
-50 -95 -130 0
-46 -91 -121 0
-47 -92 -122 0
-48 -93 -123 0
-49 -94 -124 0
-50 -95 -125 0
-46 -86 -116 0
-47 -87 -117 0
-48 -88 -118 0
-49 -89 -119 0
-50 -90 -120 0
-46 -81 -121 0
-47 -82 -122 0
-48 -83 -123 0
-49 -84 -124 0
-50 -85 -125 0
-46 -91 -131 0
-47 -92 -132 0
-48 -93 -133 0
-49 -94 -134 0
-50 -95 -135 0
-46 -81 -126 0
-47 -82 -127 0
-48 -83 -128 0
-49 -84 -129 0
-50 -85 -130 0
-46 -86 -121 0
-47 -87 -122 0
-48 -88 -123 0
-49 -89 -124 0
-50 -90 -125 0
-46 -81 -126 0
-47 -82 -127 0
-48 -83 -128 0
-49 -84 -129 0
-50 -85 -130 0
-46 -86 -121 0
-47 -87 -122 0
-48 -88 -123 0
-49 -89 -124 0
-50 -90 -125 0
-46 -91 -131 0
-47 -92 -132 0
-48 -93 -133 0
-49 -94 -134 0
-50 -95 -135 0
-46 -81 -121 0
-47 -82 -122 0
-48 -83 -123 0
-49 -84 -124 0
-50 -85 -125 0
-46 -96 -146 0
-47 -97 -147 0
-48 -98 -148 0
-49 -99 -149 0
-50 -100 -150 0
-46 -101 -151 0
-47 -102 -152 0
-48 -103 -153 0
-49 -104 -154 0
-50 -105 -155 0
-46 -106 -151 0
-47 -107 -152 0
-48 -108 -153 0
-49 -109 -154 0
-50 -110 -155 0
-46 -106 -151 0
-47 -107 -152 0
-48 -108 -153 0
-49 -109 -154 0
-50 -110 -155 0
-46 -111 -146 0
-47 -112 -147 0
-48 -113 -148 0
-49 -114 -149 0
-50 -115 -150 0
-46 -111 -146 0
-47 -112 -147 0
-48 -113 -148 0
-49 -114 -149 0
-50 -115 -150 0
-46 -111 -141 0
-47 -112 -142 0
-48 -113 -143 0
-49 -114 -144 0
-50 -115 -145 0
-46 -106 -136 0
-47 -107 -137 0
-48 -108 -138 0
-49 -109 -139 0
-50 -110 -140 0
-46 -101 -141 0
-47 -102 -142 0
-48 -103 -143 0
-49 -104 -144 0
-50 -105 -145 0
-46 -111 -151 0
-47 -112 -152 0
-48 -113 -153 0
-49 -114 -154 0
-50 -115 -155 0
-46 -101 -146 0
-47 -102 -147 0
-48 -103 -148 0
-49 -104 -149 0
-50 -105 -150 0
-46 -106 -141 0
-47 -107 -142 0
-48 -108 -143 0
-49 -109 -144 0
-50 -110 -145 0
-46 -101 -146 0
-47 -102 -147 0
-48 -103 -148 0
-49 -104 -149 0
-50 -105 -150 0
-46 -106 -141 0
-47 -107 -142 0
-48 -108 -143 0
-49 -109 -144 0
-50 -110 -145 0
-46 -111 -151 0
-47 -112 -152 0
-48 -113 -153 0
-49 -114 -154 0
-50 -115 -155 0
-46 -101 -141 0
-47 -102 -142 0
-48 -103 -143 0
-49 -104 -144 0
-50 -105 -145 0
-41 -76 -121 0
-42 -77 -122 0
-43 -78 -123 0
-44 -79 -124 0
-45 -80 -125 0
-41 -81 -131 0
-42 -82 -132 0
-43 -83 -133 0
-44 -84 -134 0
-45 -85 -135 0
-41 -86 -121 0
-42 -87 -122 0
-43 -88 -123 0
-44 -89 -124 0
-45 -90 -125 0
-41 -86 -126 0
-42 -87 -127 0
-43 -88 -128 0
-44 -89 -129 0
-45 -90 -130 0
-41 -91 -121 0
-42 -92 -122 0
-43 -93 -123 0
-44 -94 -124 0
-45 -95 -125 0
-41 -91 -126 0
-42 -92 -127 0
-43 -93 -128 0
-44 -94 -129 0
-45 -95 -130 0
-41 -91 -131 0
-42 -92 -132 0
-43 -93 -133 0
-44 -94 -134 0
-45 -95 -135 0
-41 -86 -121 0
-42 -87 -122 0
-43 -88 -123 0
-44 -89 -124 0
-45 -90 -125 0
-41 -81 -116 0
-42 -82 -117 0
-43 -83 -118 0
-44 -84 -119 0
-45 -85 -120 0
-41 -91 -121 0
-42 -92 -122 0
-43 -93 -123 0
-44 -94 -124 0
-45 -95 -125 0
-41 -81 -126 0
-42 -82 -127 0
-43 -83 -128 0
-44 -84 -129 0
-45 -85 -130 0
-41 -86 -126 0
-42 -87 -127 0
-43 -88 -128 0
-44 -89 -129 0
-45 -90 -130 0
-41 -81 -131 0
-42 -82 -132 0
-43 -83 -133 0
-44 -84 -134 0
-45 -85 -135 0
-41 -86 -131 0
-42 -87 -132 0
-43 -88 -133 0
-44 -89 -134 0
-45 -90 -135 0
-41 -91 -131 0
-42 -92 -132 0
-43 -93 -133 0
-44 -94 -134 0
-45 -95 -135 0
-41 -81 -126 0
-42 -82 -127 0
-43 -83 -128 0
-44 -84 -129 0
-45 -85 -130 0
-41 -96 -141 0
-42 -97 -142 0
-43 -98 -143 0
-44 -99 -144 0
-45 -100 -145 0
-41 -101 -151 0
-42 -102 -152 0
-43 -103 -153 0
-44 -104 -154 0
-45 -105 -155 0
-41 -106 -141 0
-42 -107 -142 0
-43 -108 -143 0
-44 -109 -144 0
-45 -110 -145 0
-41 -106 -146 0
-42 -107 -147 0
-43 -108 -148 0
-44 -109 -149 0
-45 -110 -150 0
-41 -111 -141 0
-42 -112 -142 0
-43 -113 -143 0
-44 -114 -144 0
-45 -115 -145 0
-41 -111 -146 0
-42 -112 -147 0
-43 -113 -148 0
-44 -114 -149 0
-45 -115 -150 0
-41 -111 -151 0
-42 -112 -152 0
-43 -113 -153 0
-44 -114 -154 0
-45 -115 -155 0
-41 -106 -141 0
-42 -107 -142 0
-43 -108 -143 0
-44 -109 -144 0
-45 -110 -145 0
-41 -101 -136 0
-42 -102 -137 0
-43 -103 -138 0
-44 -104 -139 0
-45 -105 -140 0
-41 -111 -141 0
-42 -112 -142 0
-43 -113 -143 0
-44 -114 -144 0
-45 -115 -145 0
-41 -101 -146 0
-42 -102 -147 0
-43 -103 -148 0
-44 -104 -149 0
-45 -105 -150 0
-41 -106 -146 0
-42 -107 -147 0
-43 -108 -148 0
-44 -109 -149 0
-45 -110 -150 0
-41 -101 -151 0
-42 -102 -152 0
-43 -103 -153 0
-44 -104 -154 0
-45 -105 -155 0
-41 -106 -151 0
-42 -107 -152 0
-43 -108 -153 0
-44 -109 -154 0
-45 -110 -155 0
-41 -111 -151 0
-42 -112 -152 0
-43 -113 -153 0
-44 -114 -154 0
-45 -115 -155 0
-41 -101 -146 0
-42 -102 -147 0
-43 -103 -148 0
-44 -104 -149 0
-45 -105 -150 0
-51 -76 -131 0
-52 -77 -132 0
-53 -78 -133 0
-54 -79 -134 0
-55 -80 -135 0
-51 -81 -121 0
-52 -82 -122 0
-53 -83 -123 0
-54 -84 -124 0
-55 -85 -125 0
-51 -86 -126 0
-52 -87 -127 0
-53 -88 -128 0
-54 -89 -129 0
-55 -90 -130 0
-51 -86 -121 0
-52 -87 -122 0
-53 -88 -123 0
-54 -89 -124 0
-55 -90 -125 0
-51 -91 -126 0
-52 -92 -127 0
-53 -93 -128 0
-54 -94 -129 0
-55 -95 -130 0
-51 -91 -121 0
-52 -92 -122 0
-53 -93 -123 0
-54 -94 -124 0
-55 -95 -125 0
-51 -91 -121 0
-52 -92 -122 0
-53 -93 -123 0
-54 -94 -124 0
-55 -95 -125 0
-51 -86 -131 0
-52 -87 -132 0
-53 -88 -133 0
-54 -89 -134 0
-55 -90 -135 0
-51 -81 -121 0
-52 -82 -122 0
-53 -83 -123 0
-54 -84 -124 0
-55 -85 -125 0
-51 -91 -116 0
-52 -92 -117 0
-53 -93 -118 0
-54 -94 -119 0
-55 -95 -120 0
-51 -81 -126 0
-52 -82 -127 0
-53 -83 -128 0
-54 -84 -129 0
-55 -85 -130 0
-51 -86 -126 0
-52 -87 -127 0
-53 -88 -128 0
-54 -89 -129 0
-55 -90 -130 0
-51 -81 -131 0
-52 -82 -132 0
-53 -83 -133 0
-54 -84 -134 0
-55 -85 -135 0
-51 -86 -131 0
-52 -87 -132 0
-53 -88 -133 0
-54 -89 -134 0
-55 -90 -135 0
-51 -91 -126 0
-52 -92 -127 0
-53 -93 -128 0
-54 -94 -129 0
-55 -95 -130 0
-51 -81 -131 0
-52 -82 -132 0
-53 -83 -133 0
-54 -84 -134 0
-55 -85 -135 0
-51 -96 -151 0
-52 -97 -152 0
-53 -98 -153 0
-54 -99 -154 0
-55 -100 -155 0
-51 -101 -141 0
-52 -102 -142 0
-53 -103 -143 0
-54 -104 -144 0
-55 -105 -145 0
-51 -106 -146 0
-52 -107 -147 0
-53 -108 -148 0
-54 -109 -149 0
-55 -110 -150 0
-51 -106 -141 0
-52 -107 -142 0
-53 -108 -143 0
-54 -109 -144 0
-55 -110 -145 0
-51 -111 -146 0
-52 -112 -147 0
-53 -113 -148 0
-54 -114 -149 0
-55 -115 -150 0
-51 -111 -141 0
-52 -112 -142 0
-53 -113 -143 0
-54 -114 -144 0
-55 -115 -145 0
-51 -111 -141 0
-52 -112 -142 0
-53 -113 -143 0
-54 -114 -144 0
-55 -115 -145 0
-51 -106 -151 0
-52 -107 -152 0
-53 -108 -153 0
-54 -109 -154 0
-55 -110 -155 0
-51 -101 -141 0
-52 -102 -142 0
-53 -103 -143 0
-54 -104 -144 0
-55 -105 -145 0
-51 -111 -136 0
-52 -112 -137 0
-53 -113 -138 0
-54 -114 -139 0
-55 -115 -140 0
-51 -101 -146 0
-52 -102 -147 0
-53 -103 -148 0
-54 -104 -149 0
-55 -105 -150 0
-51 -106 -146 0
-52 -107 -147 0
-53 -108 -148 0
-54 -109 -149 0
-55 -110 -150 0
-51 -101 -151 0
-52 -102 -152 0
-53 -103 -153 0
-54 -104 -154 0
-55 -105 -155 0
-51 -106 -151 0
-52 -107 -152 0
-53 -108 -153 0
-54 -109 -154 0
-55 -110 -155 0
-51 -111 -146 0
-52 -112 -147 0
-53 -113 -148 0
-54 -114 -149 0
-55 -115 -150 0
-51 -101 -151 0
-52 -102 -152 0
-53 -103 -153 0
-54 -104 -154 0
-55 -105 -155 0
-41 -76 -121 0
-42 -77 -122 0
-43 -78 -123 0
-44 -79 -124 0
-45 -80 -125 0
-41 -81 -126 0
-42 -82 -127 0
-43 -83 -128 0
-44 -84 -129 0
-45 -85 -130 0
-41 -86 -121 0
-42 -87 -122 0
-43 -88 -123 0
-44 -89 -124 0
-45 -90 -125 0
-41 -86 -131 0
-42 -87 -132 0
-43 -88 -133 0
-44 -89 -134 0
-45 -90 -135 0
-41 -91 -131 0
-42 -92 -132 0
-43 -93 -133 0
-44 -94 -134 0
-45 -95 -135 0
-41 -91 -121 0
-42 -92 -122 0
-43 -93 -123 0
-44 -94 -124 0
-45 -95 -125 0
-41 -91 -121 0
-42 -92 -122 0
-43 -93 -123 0
-44 -94 -124 0
-45 -95 -125 0
-41 -86 -126 0
-42 -87 -127 0
-43 -88 -128 0
-44 -89 -129 0
-45 -90 -130 0
-41 -81 -126 0
-42 -82 -127 0
-43 -83 -128 0
-44 -84 -129 0
-45 -85 -130 0
-41 -91 -126 0
-42 -92 -127 0
-43 -93 -128 0
-44 -94 -129 0
-45 -95 -130 0
-41 -81 -116 0
-42 -82 -117 0
-43 -83 -118 0
-44 -84 -119 0
-45 -85 -120 0
-41 -86 -121 0
-42 -87 -122 0
-43 -88 -123 0
-44 -89 -124 0
-45 -90 -125 0
-41 -81 -131 0
-42 -82 -132 0
-43 -83 -133 0
-44 -84 -134 0
-45 -85 -135 0
-41 -86 -126 0
-42 -87 -127 0
-43 -88 -128 0
-44 -89 -129 0
-45 -90 -130 0
-41 -91 -131 0
-42 -92 -132 0
-43 -93 -133 0
-44 -94 -134 0
-45 -95 -135 0
-41 -81 -131 0
-42 -82 -132 0
-43 -83 -133 0
-44 -84 -134 0
-45 -85 -135 0
-41 -96 -141 0
-42 -97 -142 0
-43 -98 -143 0
-44 -99 -144 0
-45 -100 -145 0
-41 -101 -146 0
-42 -102 -147 0
-43 -103 -148 0
-44 -104 -149 0
-45 -105 -150 0
-41 -106 -141 0
-42 -107 -142 0
-43 -108 -143 0
-44 -109 -144 0
-45 -110 -145 0
-41 -106 -151 0
-42 -107 -152 0
-43 -108 -153 0
-44 -109 -154 0
-45 -110 -155 0
-41 -111 -151 0
-42 -112 -152 0
-43 -113 -153 0
-44 -114 -154 0
-45 -115 -155 0
-41 -111 -141 0
-42 -112 -142 0
-43 -113 -143 0
-44 -114 -144 0
-45 -115 -145 0
-41 -111 -141 0
-42 -112 -142 0
-43 -113 -143 0
-44 -114 -144 0
-45 -115 -145 0
-41 -106 -146 0
-42 -107 -147 0
-43 -108 -148 0
-44 -109 -149 0
-45 -110 -150 0
-41 -101 -146 0
-42 -102 -147 0
-43 -103 -148 0
-44 -104 -149 0
-45 -105 -150 0
-41 -111 -146 0
-42 -112 -147 0
-43 -113 -148 0
-44 -114 -149 0
-45 -115 -150 0
-41 -101 -136 0
-42 -102 -137 0
-43 -103 -138 0
-44 -104 -139 0
-45 -105 -140 0
-41 -106 -141 0
-42 -107 -142 0
-43 -108 -143 0
-44 -109 -144 0
-45 -110 -145 0
-41 -101 -151 0
-42 -102 -152 0
-43 -103 -153 0
-44 -104 -154 0
-45 -105 -155 0
-41 -106 -146 0
-42 -107 -147 0
-43 -108 -148 0
-44 -109 -149 0
-45 -110 -150 0
-41 -111 -151 0
-42 -112 -152 0
-43 -113 -153 0
-44 -114 -154 0
-45 -115 -155 0
-41 -101 -151 0
-42 -102 -152 0
-43 -103 -153 0
-44 -104 -154 0
-45 -105 -155 0
-46 -76 -126 0
-47 -77 -127 0
-48 -78 -128 0
-49 -79 -129 0
-50 -80 -130 0
-46 -81 -121 0
-47 -82 -122 0
-48 -83 -123 0
-49 -84 -124 0
-50 -85 -125 0
-46 -86 -131 0
-47 -87 -132 0
-48 -88 -133 0
-49 -89 -134 0
-50 -90 -135 0
-46 -86 -121 0
-47 -87 -122 0
-48 -88 -123 0
-49 -89 -124 0
-50 -90 -125 0
-46 -91 -121 0
-47 -92 -122 0
-48 -93 -123 0
-49 -94 -124 0
-50 -95 -125 0
-46 -91 -131 0
-47 -92 -132 0
-48 -93 -133 0
-49 -94 -134 0
-50 -95 -135 0
-46 -91 -126 0
-47 -92 -127 0
-48 -93 -128 0
-49 -94 -129 0
-50 -95 -130 0
-46 -86 -121 0
-47 -87 -122 0
-48 -88 -123 0
-49 -89 -124 0
-50 -90 -125 0
-46 -81 -126 0
-47 -82 -127 0
-48 -83 -128 0
-49 -84 -129 0
-50 -85 -130 0
-46 -91 -126 0
-47 -92 -127 0
-48 -93 -128 0
-49 -94 -129 0
-50 -95 -130 0
-46 -81 -121 0
-47 -82 -122 0
-48 -83 -123 0
-49 -84 -124 0
-50 -85 -125 0
-46 -86 -116 0
-47 -87 -117 0
-48 -88 -118 0
-49 -89 -119 0
-50 -90 -120 0
-46 -81 -126 0
-47 -82 -127 0
-48 -83 -128 0
-49 -84 -129 0
-50 -85 -130 0
-46 -86 -131 0
-47 -87 -132 0
-48 -88 -133 0
-49 -89 -134 0
-50 -90 -135 0
-46 -91 -131 0
-47 -92 -132 0
-48 -93 -133 0
-49 -94 -134 0
-50 -95 -135 0
-46 -81 -131 0
-47 -82 -132 0
-48 -83 -133 0
-49 -84 -134 0
-50 -85 -135 0
-46 -96 -146 0
-47 -97 -147 0
-48 -98 -148 0
-49 -99 -149 0
-50 -100 -150 0
-46 -101 -141 0
-47 -102 -142 0
-48 -103 -143 0
-49 -104 -144 0
-50 -105 -145 0
-46 -106 -151 0
-47 -107 -152 0
-48 -108 -153 0
-49 -109 -154 0
-50 -110 -155 0
-46 -106 -141 0
-47 -107 -142 0
-48 -108 -143 0
-49 -109 -144 0
-50 -110 -145 0
-46 -111 -141 0
-47 -112 -142 0
-48 -113 -143 0
-49 -114 -144 0
-50 -115 -145 0
-46 -111 -151 0
-47 -112 -152 0
-48 -113 -153 0
-49 -114 -154 0
-50 -115 -155 0
-46 -111 -146 0
-47 -112 -147 0
-48 -113 -148 0
-49 -114 -149 0
-50 -115 -150 0
-46 -106 -141 0
-47 -107 -142 0
-48 -108 -143 0
-49 -109 -144 0
-50 -110 -145 0
-46 -101 -146 0
-47 -102 -147 0
-48 -103 -148 0
-49 -104 -149 0
-50 -105 -150 0
-46 -111 -146 0
-47 -112 -147 0
-48 -113 -148 0
-49 -114 -149 0
-50 -115 -150 0
-46 -101 -141 0
-47 -102 -142 0
-48 -103 -143 0
-49 -104 -144 0
-50 -105 -145 0
-46 -106 -136 0
-47 -107 -137 0
-48 -108 -138 0
-49 -109 -139 0
-50 -110 -140 0
-46 -101 -146 0
-47 -102 -147 0
-48 -103 -148 0
-49 -104 -149 0
-50 -105 -150 0
-46 -106 -151 0
-47 -107 -152 0
-48 -108 -153 0
-49 -109 -154 0
-50 -110 -155 0
-46 -111 -151 0
-47 -112 -152 0
-48 -113 -153 0
-49 -114 -154 0
-50 -115 -155 0
-46 -101 -151 0
-47 -102 -152 0
-48 -103 -153 0
-49 -104 -154 0
-50 -105 -155 0
-41 -76 -121 0
-42 -77 -122 0
-43 -78 -123 0
-44 -79 -124 0
-45 -80 -125 0
-41 -81 -126 0
-42 -82 -127 0
-43 -83 -128 0
-44 -84 -129 0
-45 -85 -130 0
-41 -86 -131 0
-42 -87 -132 0
-43 -88 -133 0
-44 -89 -134 0
-45 -90 -135 0
-41 -86 -121 0
-42 -87 -122 0
-43 -88 -123 0
-44 -89 -124 0
-45 -90 -125 0
-41 -91 -121 0
-42 -92 -122 0
-43 -93 -123 0
-44 -94 -124 0
-45 -95 -125 0
-41 -91 -131 0
-42 -92 -132 0
-43 -93 -133 0
-44 -94 -134 0
-45 -95 -135 0
-41 -91 -121 0
-42 -92 -122 0
-43 -93 -123 0
-44 -94 -124 0
-45 -95 -125 0
-41 -86 -126 0
-42 -87 -127 0
-43 -88 -128 0
-44 -89 -129 0
-45 -90 -130 0
-41 -81 -131 0
-42 -82 -132 0
-43 -83 -133 0
-44 -84 -134 0
-45 -85 -135 0
-41 -91 -131 0
-42 -92 -132 0
-43 -93 -133 0
-44 -94 -134 0
-45 -95 -135 0
-41 -81 -131 0
-42 -82 -132 0
-43 -83 -133 0
-44 -84 -134 0
-45 -85 -135 0
-41 -86 -126 0
-42 -87 -127 0
-43 -88 -128 0
-44 -89 -129 0
-45 -90 -130 0
-41 -81 -116 0
-42 -82 -117 0
-43 -83 -118 0
-44 -84 -119 0
-45 -85 -120 0
-41 -86 -121 0
-42 -87 -122 0
-43 -88 -123 0
-44 -89 -124 0
-45 -90 -125 0
-41 -91 -126 0
-42 -92 -127 0
-43 -93 -128 0
-44 -94 -129 0
-45 -95 -130 0
-41 -81 -126 0
-42 -82 -127 0
-43 -83 -128 0
-44 -84 -129 0
-45 -85 -130 0
-41 -96 -141 0
-42 -97 -142 0
-43 -98 -143 0
-44 -99 -144 0
-45 -100 -145 0
-41 -101 -146 0
-42 -102 -147 0
-43 -103 -148 0
-44 -104 -149 0
-45 -105 -150 0
-41 -106 -151 0
-42 -107 -152 0
-43 -108 -153 0
-44 -109 -154 0
-45 -110 -155 0
-41 -106 -141 0
-42 -107 -142 0
-43 -108 -143 0
-44 -109 -144 0
-45 -110 -145 0
-41 -111 -141 0
-42 -112 -142 0
-43 -113 -143 0
-44 -114 -144 0
-45 -115 -145 0
-41 -111 -151 0
-42 -112 -152 0
-43 -113 -153 0
-44 -114 -154 0
-45 -115 -155 0
-41 -111 -141 0
-42 -112 -142 0
-43 -113 -143 0
-44 -114 -144 0
-45 -115 -145 0
-41 -106 -146 0
-42 -107 -147 0
-43 -108 -148 0
-44 -109 -149 0
-45 -110 -150 0
-41 -101 -151 0
-42 -102 -152 0
-43 -103 -153 0
-44 -104 -154 0
-45 -105 -155 0
-41 -111 -151 0
-42 -112 -152 0
-43 -113 -153 0
-44 -114 -154 0
-45 -115 -155 0
-41 -101 -151 0
-42 -102 -152 0
-43 -103 -153 0
-44 -104 -154 0
-45 -105 -155 0
-41 -106 -146 0
-42 -107 -147 0
-43 -108 -148 0
-44 -109 -149 0
-45 -110 -150 0
-41 -101 -136 0
-42 -102 -137 0
-43 -103 -138 0
-44 -104 -139 0
-45 -105 -140 0
-41 -106 -141 0
-42 -107 -142 0
-43 -108 -143 0
-44 -109 -144 0
-45 -110 -145 0
-41 -111 -146 0
-42 -112 -147 0
-43 -113 -148 0
-44 -114 -149 0
-45 -115 -150 0
-41 -101 -146 0
-42 -102 -147 0
-43 -103 -148 0
-44 -104 -149 0
-45 -105 -150 0
-46 -76 -126 0
-47 -77 -127 0
-48 -78 -128 0
-49 -79 -129 0
-50 -80 -130 0
-46 -81 -121 0
-47 -82 -122 0
-48 -83 -123 0
-49 -84 -124 0
-50 -85 -125 0
-46 -86 -121 0
-47 -87 -122 0
-48 -88 -123 0
-49 -89 -124 0
-50 -90 -125 0
-46 -86 -131 0
-47 -87 -132 0
-48 -88 -133 0
-49 -89 -134 0
-50 -90 -135 0
-46 -91 -131 0
-47 -92 -132 0
-48 -93 -133 0
-49 -94 -134 0
-50 -95 -135 0
-46 -91 -121 0
-47 -92 -122 0
-48 -93 -123 0
-49 -94 -124 0
-50 -95 -125 0
-46 -91 -126 0
-47 -92 -127 0
-48 -93 -128 0
-49 -94 -129 0
-50 -95 -130 0
-46 -86 -121 0
-47 -87 -122 0
-48 -88 -123 0
-49 -89 -124 0
-50 -90 -125 0
-46 -81 -131 0
-47 -82 -132 0
-48 -83 -133 0
-49 -84 -134 0
-50 -85 -135 0
-46 -91 -131 0
-47 -92 -132 0
-48 -93 -133 0
-49 -94 -134 0
-50 -95 -135 0
-46 -81 -126 0
-47 -82 -127 0
-48 -83 -128 0
-49 -84 -129 0
-50 -85 -130 0
-46 -86 -131 0
-47 -87 -132 0
-48 -88 -133 0
-49 -89 -134 0
-50 -90 -135 0
-46 -81 -121 0
-47 -82 -122 0
-48 -83 -123 0
-49 -84 -124 0
-50 -85 -125 0
-46 -86 -116 0
-47 -87 -117 0
-48 -88 -118 0
-49 -89 -119 0
-50 -90 -120 0
-46 -91 -126 0
-47 -92 -127 0
-48 -93 -128 0
-49 -94 -129 0
-50 -95 -130 0
-46 -81 -126 0
-47 -82 -127 0
-48 -83 -128 0
-49 -84 -129 0
-50 -85 -130 0
-46 -96 -146 0
-47 -97 -147 0
-48 -98 -148 0
-49 -99 -149 0
-50 -100 -150 0
-46 -101 -141 0
-47 -102 -142 0
-48 -103 -143 0
-49 -104 -144 0
-50 -105 -145 0
-46 -106 -141 0
-47 -107 -142 0
-48 -108 -143 0
-49 -109 -144 0
-50 -110 -145 0
-46 -106 -151 0
-47 -107 -152 0
-48 -108 -153 0
-49 -109 -154 0
-50 -110 -155 0
-46 -111 -151 0
-47 -112 -152 0
-48 -113 -153 0
-49 -114 -154 0
-50 -115 -155 0
-46 -111 -141 0
-47 -112 -142 0
-48 -113 -143 0
-49 -114 -144 0
-50 -115 -145 0
-46 -111 -146 0
-47 -112 -147 0
-48 -113 -148 0
-49 -114 -149 0
-50 -115 -150 0
-46 -106 -141 0
-47 -107 -142 0
-48 -108 -143 0
-49 -109 -144 0
-50 -110 -145 0
-46 -101 -151 0
-47 -102 -152 0
-48 -103 -153 0
-49 -104 -154 0
-50 -105 -155 0
-46 -111 -151 0
-47 -112 -152 0
-48 -113 -153 0
-49 -114 -154 0
-50 -115 -155 0
-46 -101 -146 0
-47 -102 -147 0
-48 -103 -148 0
-49 -104 -149 0
-50 -105 -150 0
-46 -106 -151 0
-47 -107 -152 0
-48 -108 -153 0
-49 -109 -154 0
-50 -110 -155 0
-46 -101 -141 0
-47 -102 -142 0
-48 -103 -143 0
-49 -104 -144 0
-50 -105 -145 0
-46 -106 -136 0
-47 -107 -137 0
-48 -108 -138 0
-49 -109 -139 0
-50 -110 -140 0
-46 -111 -146 0
-47 -112 -147 0
-48 -113 -148 0
-49 -114 -149 0
-50 -115 -150 0
-46 -101 -146 0
-47 -102 -147 0
-48 -103 -148 0
-49 -104 -149 0
-50 -105 -150 0
-51 -76 -131 0
-52 -77 -132 0
-53 -78 -133 0
-54 -79 -134 0
-55 -80 -135 0
-51 -81 -121 0
-52 -82 -122 0
-53 -83 -123 0
-54 -84 -124 0
-55 -85 -125 0
-51 -86 -121 0
-52 -87 -122 0
-53 -88 -123 0
-54 -89 -124 0
-55 -90 -125 0
-51 -86 -126 0
-52 -87 -127 0
-53 -88 -128 0
-54 -89 -129 0
-55 -90 -130 0
-51 -91 -121 0
-52 -92 -122 0
-53 -93 -123 0
-54 -94 -124 0
-55 -95 -125 0
-51 -91 -126 0
-52 -92 -127 0
-53 -93 -128 0
-54 -94 -129 0
-55 -95 -130 0
-51 -91 -121 0
-52 -92 -122 0
-53 -93 -123 0
-54 -94 -124 0
-55 -95 -125 0
-51 -86 -131 0
-52 -87 -132 0
-53 -88 -133 0
-54 -89 -134 0
-55 -90 -135 0
-51 -81 -131 0
-52 -82 -132 0
-53 -83 -133 0
-54 -84 -134 0
-55 -85 -135 0
-51 -91 -126 0
-52 -92 -127 0
-53 -93 -128 0
-54 -94 -129 0
-55 -95 -130 0
-51 -81 -131 0
-52 -82 -132 0
-53 -83 -133 0
-54 -84 -134 0
-55 -85 -135 0
-51 -86 -131 0
-52 -87 -132 0
-53 -88 -133 0
-54 -89 -134 0
-55 -90 -135 0
-51 -81 -126 0
-52 -82 -127 0
-53 -83 -128 0
-54 -84 -129 0
-55 -85 -130 0
-51 -86 -126 0
-52 -87 -127 0
-53 -88 -128 0
-54 -89 -129 0
-55 -90 -130 0
-51 -91 -116 0
-52 -92 -117 0
-53 -93 -118 0
-54 -94 -119 0
-55 -95 -120 0
-51 -81 -121 0
-52 -82 -122 0
-53 -83 -123 0
-54 -84 -124 0
-55 -85 -125 0
-51 -96 -151 0
-52 -97 -152 0
-53 -98 -153 0
-54 -99 -154 0
-55 -100 -155 0
-51 -101 -141 0
-52 -102 -142 0
-53 -103 -143 0
-54 -104 -144 0
-55 -105 -145 0
-51 -106 -141 0
-52 -107 -142 0
-53 -108 -143 0
-54 -109 -144 0
-55 -110 -145 0
-51 -106 -146 0
-52 -107 -147 0
-53 -108 -148 0
-54 -109 -149 0
-55 -110 -150 0
-51 -111 -141 0
-52 -112 -142 0
-53 -113 -143 0
-54 -114 -144 0
-55 -115 -145 0
-51 -111 -146 0
-52 -112 -147 0
-53 -113 -148 0
-54 -114 -149 0
-55 -115 -150 0
-51 -111 -141 0
-52 -112 -142 0
-53 -113 -143 0
-54 -114 -144 0
-55 -115 -145 0
-51 -106 -151 0
-52 -107 -152 0
-53 -108 -153 0
-54 -109 -154 0
-55 -110 -155 0
-51 -101 -151 0
-52 -102 -152 0
-53 -103 -153 0
-54 -104 -154 0
-55 -105 -155 0
-51 -111 -146 0
-52 -112 -147 0
-53 -113 -148 0
-54 -114 -149 0
-55 -115 -150 0
-51 -101 -151 0
-52 -102 -152 0
-53 -103 -153 0
-54 -104 -154 0
-55 -105 -155 0
-51 -106 -151 0
-52 -107 -152 0
-53 -108 -153 0
-54 -109 -154 0
-55 -110 -155 0
-51 -101 -146 0
-52 -102 -147 0
-53 -103 -148 0
-54 -104 -149 0
-55 -105 -150 0
-51 -106 -146 0
-52 -107 -147 0
-53 -108 -148 0
-54 -109 -149 0
-55 -110 -150 0
-51 -111 -136 0
-52 -112 -137 0
-53 -113 -138 0
-54 -114 -139 0
-55 -115 -140 0
-51 -101 -141 0
-52 -102 -142 0
-53 -103 -143 0
-54 -104 -144 0
-55 -105 -145 0
-41 -76 -121 0
-42 -77 -122 0
-43 -78 -123 0
-44 -79 -124 0
-45 -80 -125 0
-41 -81 -131 0
-42 -82 -132 0
-43 -83 -133 0
-44 -84 -134 0
-45 -85 -135 0
-41 -86 -126 0
-42 -87 -127 0
-43 -88 -128 0
-44 -89 -129 0
-45 -90 -130 0
-41 -86 -121 0
-42 -87 -122 0
-43 -88 -123 0
-44 -89 -124 0
-45 -90 -125 0
-41 -91 -126 0
-42 -92 -127 0
-43 -93 -128 0
-44 -94 -129 0
-45 -95 -130 0
-41 -91 -121 0
-42 -92 -122 0
-43 -93 -123 0
-44 -94 -124 0
-45 -95 -125 0
-41 -91 -131 0
-42 -92 -132 0
-43 -93 -133 0
-44 -94 -134 0
-45 -95 -135 0
-41 -86 -121 0
-42 -87 -122 0
-43 -88 -123 0
-44 -89 -124 0
-45 -90 -125 0
-41 -81 -126 0
-42 -82 -127 0
-43 -83 -128 0
-44 -84 -129 0
-45 -85 -130 0
-41 -91 -131 0
-42 -92 -132 0
-43 -93 -133 0
-44 -94 -134 0
-45 -95 -135 0
-41 -81 -131 0
-42 -82 -132 0
-43 -83 -133 0
-44 -84 -134 0
-45 -85 -135 0
-41 -86 -131 0
-42 -87 -132 0
-43 -88 -133 0
-44 -89 -134 0
-45 -90 -135 0
-41 -81 -126 0
-42 -82 -127 0
-43 -83 -128 0
-44 -84 -129 0
-45 -85 -130 0
-41 -86 -126 0
-42 -87 -127 0
-43 -88 -128 0
-44 -89 -129 0
-45 -90 -130 0
-41 -91 -121 0
-42 -92 -122 0
-43 -93 -123 0
-44 -94 -124 0
-45 -95 -125 0
-41 -81 -116 0
-42 -82 -117 0
-43 -83 -118 0
-44 -84 -119 0
-45 -85 -120 0
-41 -96 -141 0
-42 -97 -142 0
-43 -98 -143 0
-44 -99 -144 0
-45 -100 -145 0
-41 -101 -151 0
-42 -102 -152 0
-43 -103 -153 0
-44 -104 -154 0
-45 -105 -155 0
-41 -106 -146 0
-42 -107 -147 0
-43 -108 -148 0
-44 -109 -149 0
-45 -110 -150 0
-41 -106 -141 0
-42 -107 -142 0
-43 -108 -143 0
-44 -109 -144 0
-45 -110 -145 0
-41 -111 -146 0
-42 -112 -147 0
-43 -113 -148 0
-44 -114 -149 0
-45 -115 -150 0
-41 -111 -141 0
-42 -112 -142 0
-43 -113 -143 0
-44 -114 -144 0
-45 -115 -145 0
-41 -111 -151 0
-42 -112 -152 0
-43 -113 -153 0
-44 -114 -154 0
-45 -115 -155 0
-41 -106 -141 0
-42 -107 -142 0
-43 -108 -143 0
-44 -109 -144 0
-45 -110 -145 0
-41 -101 -146 0
-42 -102 -147 0
-43 -103 -148 0
-44 -104 -149 0
-45 -105 -150 0
-41 -111 -151 0
-42 -112 -152 0
-43 -113 -153 0
-44 -114 -154 0
-45 -115 -155 0
-41 -101 -151 0
-42 -102 -152 0
-43 -103 -153 0
-44 -104 -154 0
-45 -105 -155 0
-41 -106 -151 0
-42 -107 -152 0
-43 -108 -153 0
-44 -109 -154 0
-45 -110 -155 0
-41 -101 -146 0
-42 -102 -147 0
-43 -103 -148 0
-44 -104 -149 0
-45 -105 -150 0
-41 -106 -146 0
-42 -107 -147 0
-43 -108 -148 0
-44 -109 -149 0
-45 -110 -150 0
-41 -111 -141 0
-42 -112 -142 0
-43 -113 -143 0
-44 -114 -144 0
-45 -115 -145 0
-41 -101 -136 0
-42 -102 -137 0
-43 -103 -138 0
-44 -104 -139 0
-45 -105 -140 0
-56 -76 -136 0
-57 -77 -137 0
-58 -78 -138 0
-59 -79 -139 0
-60 -80 -140 0
-56 -81 -141 0
-57 -82 -142 0
-58 -83 -143 0
-59 -84 -144 0
-60 -85 -145 0
-56 -86 -146 0
-57 -87 -147 0
-58 -88 -148 0
-59 -89 -149 0
-60 -90 -150 0
-56 -86 -146 0
-57 -87 -147 0
-58 -88 -148 0
-59 -89 -149 0
-60 -90 -150 0
-56 -91 -151 0
-57 -92 -152 0
-58 -93 -153 0
-59 -94 -154 0
-60 -95 -155 0
-56 -91 -151 0
-57 -92 -152 0
-58 -93 -153 0
-59 -94 -154 0
-60 -95 -155 0
-56 -91 -151 0
-57 -92 -152 0
-58 -93 -153 0
-59 -94 -154 0
-60 -95 -155 0
-56 -86 -146 0
-57 -87 -147 0
-58 -88 -148 0
-59 -89 -149 0
-60 -90 -150 0
-56 -81 -141 0
-57 -82 -142 0
-58 -83 -143 0
-59 -84 -144 0
-60 -85 -145 0
-56 -91 -151 0
-57 -92 -152 0
-58 -93 -153 0
-59 -94 -154 0
-60 -95 -155 0
-56 -81 -141 0
-57 -82 -142 0
-58 -83 -143 0
-59 -84 -144 0
-60 -85 -145 0
-56 -86 -146 0
-57 -87 -147 0
-58 -88 -148 0
-59 -89 -149 0
-60 -90 -150 0
-56 -81 -141 0
-57 -82 -142 0
-58 -83 -143 0
-59 -84 -144 0
-60 -85 -145 0
-56 -86 -146 0
-57 -87 -147 0
-58 -88 -148 0
-59 -89 -149 0
-60 -90 -150 0
-56 -91 -151 0
-57 -92 -152 0
-58 -93 -153 0
-59 -94 -154 0
-60 -95 -155 0
-56 -81 -141 0
-57 -82 -142 0
-58 -83 -143 0
-59 -84 -144 0
-60 -85 -145 0
-56 -96 -116 0
-57 -97 -117 0
-58 -98 -118 0
-59 -99 -119 0
-60 -100 -120 0
-56 -101 -121 0
-57 -102 -122 0
-58 -103 -123 0
-59 -104 -124 0
-60 -105 -125 0
-56 -106 -126 0
-57 -107 -127 0
-58 -108 -128 0
-59 -109 -129 0
-60 -110 -130 0
-56 -106 -126 0
-57 -107 -127 0
-58 -108 -128 0
-59 -109 -129 0
-60 -110 -130 0
-56 -111 -131 0
-57 -112 -132 0
-58 -113 -133 0
-59 -114 -134 0
-60 -115 -135 0
-56 -111 -131 0
-57 -112 -132 0
-58 -113 -133 0
-59 -114 -134 0
-60 -115 -135 0
-56 -111 -131 0
-57 -112 -132 0
-58 -113 -133 0
-59 -114 -134 0
-60 -115 -135 0
-56 -106 -126 0
-57 -107 -127 0
-58 -108 -128 0
-59 -109 -129 0
-60 -110 -130 0
-56 -101 -121 0
-57 -102 -122 0
-58 -103 -123 0
-59 -104 -124 0
-60 -105 -125 0
-56 -111 -131 0
-57 -112 -132 0
-58 -113 -133 0
-59 -114 -134 0
-60 -115 -135 0
-56 -101 -121 0
-57 -102 -122 0
-58 -103 -123 0
-59 -104 -124 0
-60 -105 -125 0
-56 -106 -126 0
-57 -107 -127 0
-58 -108 -128 0
-59 -109 -129 0
-60 -110 -130 0
-56 -101 -121 0
-57 -102 -122 0
-58 -103 -123 0
-59 -104 -124 0
-60 -105 -125 0
-56 -106 -126 0
-57 -107 -127 0
-58 -108 -128 0
-59 -109 -129 0
-60 -110 -130 0
-56 -111 -131 0
-57 -112 -132 0
-58 -113 -133 0
-59 -114 -134 0
-60 -115 -135 0
-56 -101 -121 0
-57 -102 -122 0
-58 -103 -123 0
-59 -104 -124 0
-60 -105 -125 0
-61 -76 -141 0
-62 -77 -142 0
-63 -78 -143 0
-64 -79 -144 0
-65 -80 -145 0
-61 -81 -136 0
-62 -82 -137 0
-63 -83 -138 0
-64 -84 -139 0
-65 -85 -140 0
-61 -86 -146 0
-62 -87 -147 0
-63 -88 -148 0
-64 -89 -149 0
-65 -90 -150 0
-61 -86 -146 0
-62 -87 -147 0
-63 -88 -148 0
-64 -89 -149 0
-65 -90 -150 0
-61 -91 -151 0
-62 -92 -152 0
-63 -93 -153 0
-64 -94 -154 0
-65 -95 -155 0
-61 -91 -151 0
-62 -92 -152 0
-63 -93 -153 0
-64 -94 -154 0
-65 -95 -155 0
-61 -91 -146 0
-62 -92 -147 0
-63 -93 -148 0
-64 -94 -149 0
-65 -95 -150 0
-61 -86 -151 0
-62 -87 -152 0
-63 -88 -153 0
-64 -89 -154 0
-65 -90 -155 0
-61 -81 -151 0
-62 -82 -152 0
-63 -83 -153 0
-64 -84 -154 0
-65 -85 -155 0
-61 -91 -141 0
-62 -92 -142 0
-63 -93 -143 0
-64 -94 -144 0
-65 -95 -145 0
-61 -81 -146 0
-62 -82 -147 0
-63 -83 -148 0
-64 -84 -149 0
-65 -85 -150 0
-61 -86 -141 0
-62 -87 -142 0
-63 -88 -143 0
-64 -89 -144 0
-65 -90 -145 0
-61 -81 -146 0
-62 -82 -147 0
-63 -83 -148 0
-64 -84 -149 0
-65 -85 -150 0
-61 -86 -141 0
-62 -87 -142 0
-63 -88 -143 0
-64 -89 -144 0
-65 -90 -145 0
-61 -91 -141 0
-62 -92 -142 0
-63 -93 -143 0
-64 -94 -144 0
-65 -95 -145 0
-61 -81 -151 0
-62 -82 -152 0
-63 -83 -153 0
-64 -84 -154 0
-65 -85 -155 0
-61 -96 -121 0
-62 -97 -122 0
-63 -98 -123 0
-64 -99 -124 0
-65 -100 -125 0
-61 -101 -116 0
-62 -102 -117 0
-63 -103 -118 0
-64 -104 -119 0
-65 -105 -120 0
-61 -106 -126 0
-62 -107 -127 0
-63 -108 -128 0
-64 -109 -129 0
-65 -110 -130 0
-61 -106 -126 0
-62 -107 -127 0
-63 -108 -128 0
-64 -109 -129 0
-65 -110 -130 0
-61 -111 -131 0
-62 -112 -132 0
-63 -113 -133 0
-64 -114 -134 0
-65 -115 -135 0
-61 -111 -131 0
-62 -112 -132 0
-63 -113 -133 0
-64 -114 -134 0
-65 -115 -135 0
-61 -111 -126 0
-62 -112 -127 0
-63 -113 -128 0
-64 -114 -129 0
-65 -115 -130 0
-61 -106 -131 0
-62 -107 -132 0
-63 -108 -133 0
-64 -109 -134 0
-65 -110 -135 0
-61 -101 -131 0
-62 -102 -132 0
-63 -103 -133 0
-64 -104 -134 0
-65 -105 -135 0
-61 -111 -121 0
-62 -112 -122 0
-63 -113 -123 0
-64 -114 -124 0
-65 -115 -125 0
-61 -101 -126 0
-62 -102 -127 0
-63 -103 -128 0
-64 -104 -129 0
-65 -105 -130 0
-61 -106 -121 0
-62 -107 -122 0
-63 -108 -123 0
-64 -109 -124 0
-65 -110 -125 0
-61 -101 -126 0
-62 -102 -127 0
-63 -103 -128 0
-64 -104 -129 0
-65 -105 -130 0
-61 -106 -121 0
-62 -107 -122 0
-63 -108 -123 0
-64 -109 -124 0
-65 -110 -125 0
-61 -111 -121 0
-62 -112 -122 0
-63 -113 -123 0
-64 -114 -124 0
-65 -115 -125 0
-61 -101 -131 0
-62 -102 -132 0
-63 -103 -133 0
-64 -104 -134 0
-65 -105 -135 0
-66 -76 -146 0
-67 -77 -147 0
-68 -78 -148 0
-69 -79 -149 0
-70 -80 -150 0
-66 -81 -146 0
-67 -82 -147 0
-68 -83 -148 0
-69 -84 -149 0
-70 -85 -150 0
-66 -86 -136 0
-67 -87 -137 0
-68 -88 -138 0
-69 -89 -139 0
-70 -90 -140 0
-66 -86 -141 0
-67 -87 -142 0
-68 -88 -143 0
-69 -89 -144 0
-70 -90 -145 0
-66 -91 -151 0
-67 -92 -152 0
-68 -93 -153 0
-69 -94 -154 0
-70 -95 -155 0
-66 -91 -146 0
-67 -92 -147 0
-68 -93 -148 0
-69 -94 -149 0
-70 -95 -150 0
-66 -91 -151 0
-67 -92 -152 0
-68 -93 -153 0
-69 -94 -154 0
-70 -95 -155 0
-66 -86 -151 0
-67 -87 -152 0
-68 -88 -153 0
-69 -89 -154 0
-70 -90 -155 0
-66 -81 -141 0
-67 -82 -142 0
-68 -83 -143 0
-69 -84 -144 0
-70 -85 -145 0
-66 -91 -146 0
-67 -92 -147 0
-68 -93 -148 0
-69 -94 -149 0
-70 -95 -150 0
-66 -81 -141 0
-67 -82 -142 0
-68 -83 -143 0
-69 -84 -144 0
-70 -85 -145 0
-66 -86 -151 0
-67 -87 -152 0
-68 -88 -153 0
-69 -89 -154 0
-70 -90 -155 0
-66 -81 -151 0
-67 -82 -152 0
-68 -83 -153 0
-69 -84 -154 0
-70 -85 -155 0
-66 -86 -141 0
-67 -87 -142 0
-68 -88 -143 0
-69 -89 -144 0
-70 -90 -145 0
-66 -91 -141 0
-67 -92 -142 0
-68 -93 -143 0
-69 -94 -144 0
-70 -95 -145 0
-66 -81 -146 0
-67 -82 -147 0
-68 -83 -148 0
-69 -84 -149 0
-70 -85 -150 0
-66 -96 -126 0
-67 -97 -127 0
-68 -98 -128 0
-69 -99 -129 0
-70 -100 -130 0
-66 -101 -126 0
-67 -102 -127 0
-68 -103 -128 0
-69 -104 -129 0
-70 -105 -130 0
-66 -106 -116 0
-67 -107 -117 0
-68 -108 -118 0
-69 -109 -119 0
-70 -110 -120 0
-66 -106 -121 0
-67 -107 -122 0
-68 -108 -123 0
-69 -109 -124 0
-70 -110 -125 0
-66 -111 -131 0
-67 -112 -132 0
-68 -113 -133 0
-69 -114 -134 0
-70 -115 -135 0
-66 -111 -126 0
-67 -112 -127 0
-68 -113 -128 0
-69 -114 -129 0
-70 -115 -130 0
-66 -111 -131 0
-67 -112 -132 0
-68 -113 -133 0
-69 -114 -134 0
-70 -115 -135 0
-66 -106 -131 0
-67 -107 -132 0
-68 -108 -133 0
-69 -109 -134 0
-70 -110 -135 0
-66 -101 -121 0
-67 -102 -122 0
-68 -103 -123 0
-69 -104 -124 0
-70 -105 -125 0
-66 -111 -126 0
-67 -112 -127 0
-68 -113 -128 0
-69 -114 -129 0
-70 -115 -130 0
-66 -101 -121 0
-67 -102 -122 0
-68 -103 -123 0
-69 -104 -124 0
-70 -105 -125 0
-66 -106 -131 0
-67 -107 -132 0
-68 -108 -133 0
-69 -109 -134 0
-70 -110 -135 0
-66 -101 -131 0
-67 -102 -132 0
-68 -103 -133 0
-69 -104 -134 0
-70 -105 -135 0
-66 -106 -121 0
-67 -107 -122 0
-68 -108 -123 0
-69 -109 -124 0
-70 -110 -125 0
-66 -111 -121 0
-67 -112 -122 0
-68 -113 -123 0
-69 -114 -124 0
-70 -115 -125 0
-66 -101 -126 0
-67 -102 -127 0
-68 -103 -128 0
-69 -104 -129 0
-70 -105 -130 0
-66 -76 -146 0
-67 -77 -147 0
-68 -78 -148 0
-69 -79 -149 0
-70 -80 -150 0
-66 -81 -146 0
-67 -82 -147 0
-68 -83 -148 0
-69 -84 -149 0
-70 -85 -150 0
-66 -86 -141 0
-67 -87 -142 0
-68 -88 -143 0
-69 -89 -144 0
-70 -90 -145 0
-66 -86 -136 0
-67 -87 -137 0
-68 -88 -138 0
-69 -89 -139 0
-70 -90 -140 0
-66 -91 -146 0
-67 -92 -147 0
-68 -93 -148 0
-69 -94 -149 0
-70 -95 -150 0
-66 -91 -151 0
-67 -92 -152 0
-68 -93 -153 0
-69 -94 -154 0
-70 -95 -155 0
-66 -91 -151 0
-67 -92 -152 0
-68 -93 -153 0
-69 -94 -154 0
-70 -95 -155 0
-66 -86 -151 0
-67 -87 -152 0
-68 -88 -153 0
-69 -89 -154 0
-70 -90 -155 0
-66 -81 -146 0
-67 -82 -147 0
-68 -83 -148 0
-69 -84 -149 0
-70 -85 -150 0
-66 -91 -141 0
-67 -92 -142 0
-68 -93 -143 0
-69 -94 -144 0
-70 -95 -145 0
-66 -81 -151 0
-67 -82 -152 0
-68 -83 -153 0
-69 -84 -154 0
-70 -85 -155 0
-66 -86 -141 0
-67 -87 -142 0
-68 -88 -143 0
-69 -89 -144 0
-70 -90 -145 0
-66 -81 -141 0
-67 -82 -142 0
-68 -83 -143 0
-69 -84 -144 0
-70 -85 -145 0
-66 -86 -151 0
-67 -87 -152 0
-68 -88 -153 0
-69 -89 -154 0
-70 -90 -155 0
-66 -91 -146 0
-67 -92 -147 0
-68 -93 -148 0
-69 -94 -149 0
-70 -95 -150 0
-66 -81 -141 0
-67 -82 -142 0
-68 -83 -143 0
-69 -84 -144 0
-70 -85 -145 0
-66 -96 -126 0
-67 -97 -127 0
-68 -98 -128 0
-69 -99 -129 0
-70 -100 -130 0
-66 -101 -126 0
-67 -102 -127 0
-68 -103 -128 0
-69 -104 -129 0
-70 -105 -130 0
-66 -106 -121 0
-67 -107 -122 0
-68 -108 -123 0
-69 -109 -124 0
-70 -110 -125 0
-66 -106 -116 0
-67 -107 -117 0
-68 -108 -118 0
-69 -109 -119 0
-70 -110 -120 0
-66 -111 -126 0
-67 -112 -127 0
-68 -113 -128 0
-69 -114 -129 0
-70 -115 -130 0
-66 -111 -131 0
-67 -112 -132 0
-68 -113 -133 0
-69 -114 -134 0
-70 -115 -135 0
-66 -111 -131 0
-67 -112 -132 0
-68 -113 -133 0
-69 -114 -134 0
-70 -115 -135 0
-66 -106 -131 0
-67 -107 -132 0
-68 -108 -133 0
-69 -109 -134 0
-70 -110 -135 0
-66 -101 -126 0
-67 -102 -127 0
-68 -103 -128 0
-69 -104 -129 0
-70 -105 -130 0
-66 -111 -121 0
-67 -112 -122 0
-68 -113 -123 0
-69 -114 -124 0
-70 -115 -125 0
-66 -101 -131 0
-67 -102 -132 0
-68 -103 -133 0
-69 -104 -134 0
-70 -105 -135 0
-66 -106 -121 0
-67 -107 -122 0
-68 -108 -123 0
-69 -109 -124 0
-70 -110 -125 0
-66 -101 -121 0
-67 -102 -122 0
-68 -103 -123 0
-69 -104 -124 0
-70 -105 -125 0
-66 -106 -131 0
-67 -107 -132 0
-68 -108 -133 0
-69 -109 -134 0
-70 -110 -135 0
-66 -111 -126 0
-67 -112 -127 0
-68 -113 -128 0
-69 -114 -129 0
-70 -115 -130 0
-66 -101 -121 0
-67 -102 -122 0
-68 -103 -123 0
-69 -104 -124 0
-70 -105 -125 0
-71 -76 -151 0
-72 -77 -152 0
-73 -78 -153 0
-74 -79 -154 0
-75 -80 -155 0
-71 -81 -151 0
-72 -82 -152 0
-73 -83 -153 0
-74 -84 -154 0
-75 -85 -155 0
-71 -86 -151 0
-72 -87 -152 0
-73 -88 -153 0
-74 -89 -154 0
-75 -90 -155 0
-71 -86 -146 0
-72 -87 -147 0
-73 -88 -148 0
-74 -89 -149 0
-75 -90 -150 0
-71 -91 -136 0
-72 -92 -137 0
-73 -93 -138 0
-74 -94 -139 0
-75 -95 -140 0
-71 -91 -141 0
-72 -92 -142 0
-73 -93 -143 0
-74 -94 -144 0
-75 -95 -145 0
-71 -91 -146 0
-72 -92 -147 0
-73 -93 -148 0
-74 -94 -149 0
-75 -95 -150 0
-71 -86 -146 0
-72 -87 -147 0
-73 -88 -148 0
-74 -89 -149 0
-75 -90 -150 0
-71 -81 -141 0
-72 -82 -142 0
-73 -83 -143 0
-74 -84 -144 0
-75 -85 -145 0
-71 -91 -146 0
-72 -92 -147 0
-73 -93 -148 0
-74 -94 -149 0
-75 -95 -150 0
-71 -81 -151 0
-72 -82 -152 0
-73 -83 -153 0
-74 -84 -154 0
-75 -85 -155 0
-71 -86 -141 0
-72 -87 -142 0
-73 -88 -143 0
-74 -89 -144 0
-75 -90 -145 0
-71 -81 -141 0
-72 -82 -142 0
-73 -83 -143 0
-74 -84 -144 0
-75 -85 -145 0
-71 -86 -151 0
-72 -87 -152 0
-73 -88 -153 0
-74 -89 -154 0
-75 -90 -155 0
-71 -91 -141 0
-72 -92 -142 0
-73 -93 -143 0
-74 -94 -144 0
-75 -95 -145 0
-71 -81 -146 0
-72 -82 -147 0
-73 -83 -148 0
-74 -84 -149 0
-75 -85 -150 0
-71 -96 -131 0
-72 -97 -132 0
-73 -98 -133 0
-74 -99 -134 0
-75 -100 -135 0
-71 -101 -131 0
-72 -102 -132 0
-73 -103 -133 0
-74 -104 -134 0
-75 -105 -135 0
-71 -106 -131 0
-72 -107 -132 0
-73 -108 -133 0
-74 -109 -134 0
-75 -110 -135 0
-71 -106 -126 0
-72 -107 -127 0
-73 -108 -128 0
-74 -109 -129 0
-75 -110 -130 0
-71 -111 -116 0
-72 -112 -117 0
-73 -113 -118 0
-74 -114 -119 0
-75 -115 -120 0
-71 -111 -121 0
-72 -112 -122 0
-73 -113 -123 0
-74 -114 -124 0
-75 -115 -125 0
-71 -111 -126 0
-72 -112 -127 0
-73 -113 -128 0
-74 -114 -129 0
-75 -115 -130 0
-71 -106 -126 0
-72 -107 -127 0
-73 -108 -128 0
-74 -109 -129 0
-75 -110 -130 0
-71 -101 -121 0
-72 -102 -122 0
-73 -103 -123 0
-74 -104 -124 0
-75 -105 -125 0
-71 -111 -126 0
-72 -112 -127 0
-73 -113 -128 0
-74 -114 -129 0
-75 -115 -130 0
-71 -101 -131 0
-72 -102 -132 0
-73 -103 -133 0
-74 -104 -134 0
-75 -105 -135 0
-71 -106 -121 0
-72 -107 -122 0
-73 -108 -123 0
-74 -109 -124 0
-75 -110 -125 0
-71 -101 -121 0
-72 -102 -122 0
-73 -103 -123 0
-74 -104 -124 0
-75 -105 -125 0
-71 -106 -131 0
-72 -107 -132 0
-73 -108 -133 0
-74 -109 -134 0
-75 -110 -135 0
-71 -111 -121 0
-72 -112 -122 0
-73 -113 -123 0
-74 -114 -124 0
-75 -115 -125 0
-71 -101 -126 0
-72 -102 -127 0
-73 -103 -128 0
-74 -104 -129 0
-75 -105 -130 0
-71 -76 -151 0
-72 -77 -152 0
-73 -78 -153 0
-74 -79 -154 0
-75 -80 -155 0
-71 -81 -151 0
-72 -82 -152 0
-73 -83 -153 0
-74 -84 -154 0
-75 -85 -155 0
-71 -86 -146 0
-72 -87 -147 0
-73 -88 -148 0
-74 -89 -149 0
-75 -90 -150 0
-71 -86 -151 0
-72 -87 -152 0
-73 -88 -153 0
-74 -89 -154 0
-75 -90 -155 0
-71 -91 -141 0
-72 -92 -142 0
-73 -93 -143 0
-74 -94 -144 0
-75 -95 -145 0
-71 -91 -136 0
-72 -92 -137 0
-73 -93 -138 0
-74 -94 -139 0
-75 -95 -140 0
-71 -91 -146 0
-72 -92 -147 0
-73 -93 -148 0
-74 -94 -149 0
-75 -95 -150 0
-71 -86 -146 0
-72 -87 -147 0
-73 -88 -148 0
-74 -89 -149 0
-75 -90 -150 0
-71 -81 -146 0
-72 -82 -147 0
-73 -83 -148 0
-74 -84 -149 0
-75 -85 -150 0
-71 -91 -141 0
-72 -92 -142 0
-73 -93 -143 0
-74 -94 -144 0
-75 -95 -145 0
-71 -81 -141 0
-72 -82 -142 0
-73 -83 -143 0
-74 -84 -144 0
-75 -85 -145 0
-71 -86 -151 0
-72 -87 -152 0
-73 -88 -153 0
-74 -89 -154 0
-75 -90 -155 0
-71 -81 -151 0
-72 -82 -152 0
-73 -83 -153 0
-74 -84 -154 0
-75 -85 -155 0
-71 -86 -141 0
-72 -87 -142 0
-73 -88 -143 0
-74 -89 -144 0
-75 -90 -145 0
-71 -91 -146 0
-72 -92 -147 0
-73 -93 -148 0
-74 -94 -149 0
-75 -95 -150 0
-71 -81 -141 0
-72 -82 -142 0
-73 -83 -143 0
-74 -84 -144 0
-75 -85 -145 0
-71 -96 -131 0
-72 -97 -132 0
-73 -98 -133 0
-74 -99 -134 0
-75 -100 -135 0
-71 -101 -131 0
-72 -102 -132 0
-73 -103 -133 0
-74 -104 -134 0
-75 -105 -135 0
-71 -106 -126 0
-72 -107 -127 0
-73 -108 -128 0
-74 -109 -129 0
-75 -110 -130 0
-71 -106 -131 0
-72 -107 -132 0
-73 -108 -133 0
-74 -109 -134 0
-75 -110 -135 0
-71 -111 -121 0
-72 -112 -122 0
-73 -113 -123 0
-74 -114 -124 0
-75 -115 -125 0
-71 -111 -116 0
-72 -112 -117 0
-73 -113 -118 0
-74 -114 -119 0
-75 -115 -120 0
-71 -111 -126 0
-72 -112 -127 0
-73 -113 -128 0
-74 -114 -129 0
-75 -115 -130 0
-71 -106 -126 0
-72 -107 -127 0
-73 -108 -128 0
-74 -109 -129 0
-75 -110 -130 0
-71 -101 -126 0
-72 -102 -127 0
-73 -103 -128 0
-74 -104 -129 0
-75 -105 -130 0
-71 -111 -121 0
-72 -112 -122 0
-73 -113 -123 0
-74 -114 -124 0
-75 -115 -125 0
-71 -101 -121 0
-72 -102 -122 0
-73 -103 -123 0
-74 -104 -124 0
-75 -105 -125 0
-71 -106 -131 0
-72 -107 -132 0
-73 -108 -133 0
-74 -109 -134 0
-75 -110 -135 0
-71 -101 -131 0
-72 -102 -132 0
-73 -103 -133 0
-74 -104 -134 0
-75 -105 -135 0
-71 -106 -121 0
-72 -107 -122 0
-73 -108 -123 0
-74 -109 -124 0
-75 -110 -125 0
-71 -111 -126 0
-72 -112 -127 0
-73 -113 -128 0
-74 -114 -129 0
-75 -115 -130 0
-71 -101 -121 0
-72 -102 -122 0
-73 -103 -123 0
-74 -104 -124 0
-75 -105 -125 0
-71 -76 -151 0
-72 -77 -152 0
-73 -78 -153 0
-74 -79 -154 0
-75 -80 -155 0
-71 -81 -146 0
-72 -82 -147 0
-73 -83 -148 0
-74 -84 -149 0
-75 -85 -150 0
-71 -86 -151 0
-72 -87 -152 0
-73 -88 -153 0
-74 -89 -154 0
-75 -90 -155 0
-71 -86 -151 0
-72 -87 -152 0
-73 -88 -153 0
-74 -89 -154 0
-75 -90 -155 0
-71 -91 -146 0
-72 -92 -147 0
-73 -93 -148 0
-74 -94 -149 0
-75 -95 -150 0
-71 -91 -146 0
-72 -92 -147 0
-73 -93 -148 0
-74 -94 -149 0
-75 -95 -150 0
-71 -91 -136 0
-72 -92 -137 0
-73 -93 -138 0
-74 -94 -139 0
-75 -95 -140 0
-71 -86 -141 0
-72 -87 -142 0
-73 -88 -143 0
-74 -89 -144 0
-75 -90 -145 0
-71 -81 -151 0
-72 -82 -152 0
-73 -83 -153 0
-74 -84 -154 0
-75 -85 -155 0
-71 -91 -141 0
-72 -92 -142 0
-73 -93 -143 0
-74 -94 -144 0
-75 -95 -145 0
-71 -81 -141 0
-72 -82 -142 0
-73 -83 -143 0
-74 -84 -144 0
-75 -85 -145 0
-71 -86 -146 0
-72 -87 -147 0
-73 -88 -148 0
-74 -89 -149 0
-75 -90 -150 0
-71 -81 -141 0
-72 -82 -142 0
-73 -83 -143 0
-74 -84 -144 0
-75 -85 -145 0
-71 -86 -146 0
-72 -87 -147 0
-73 -88 -148 0
-74 -89 -149 0
-75 -90 -150 0
-71 -91 -141 0
-72 -92 -142 0
-73 -93 -143 0
-74 -94 -144 0
-75 -95 -145 0
-71 -81 -151 0
-72 -82 -152 0
-73 -83 -153 0
-74 -84 -154 0
-75 -85 -155 0
-71 -96 -131 0
-72 -97 -132 0
-73 -98 -133 0
-74 -99 -134 0
-75 -100 -135 0
-71 -101 -126 0
-72 -102 -127 0
-73 -103 -128 0
-74 -104 -129 0
-75 -105 -130 0
-71 -106 -131 0
-72 -107 -132 0
-73 -108 -133 0
-74 -109 -134 0
-75 -110 -135 0
-71 -106 -131 0
-72 -107 -132 0
-73 -108 -133 0
-74 -109 -134 0
-75 -110 -135 0
-71 -111 -126 0
-72 -112 -127 0
-73 -113 -128 0
-74 -114 -129 0
-75 -115 -130 0
-71 -111 -126 0
-72 -112 -127 0
-73 -113 -128 0
-74 -114 -129 0
-75 -115 -130 0
-71 -111 -116 0
-72 -112 -117 0
-73 -113 -118 0
-74 -114 -119 0
-75 -115 -120 0
-71 -106 -121 0
-72 -107 -122 0
-73 -108 -123 0
-74 -109 -124 0
-75 -110 -125 0
-71 -101 -131 0
-72 -102 -132 0
-73 -103 -133 0
-74 -104 -134 0
-75 -105 -135 0
-71 -111 -121 0
-72 -112 -122 0
-73 -113 -123 0
-74 -114 -124 0
-75 -115 -125 0
-71 -101 -121 0
-72 -102 -122 0
-73 -103 -123 0
-74 -104 -124 0
-75 -105 -125 0
-71 -106 -126 0
-72 -107 -127 0
-73 -108 -128 0
-74 -109 -129 0
-75 -110 -130 0
-71 -101 -121 0
-72 -102 -122 0
-73 -103 -123 0
-74 -104 -124 0
-75 -105 -125 0
-71 -106 -126 0
-72 -107 -127 0
-73 -108 -128 0
-74 -109 -129 0
-75 -110 -130 0
-71 -111 -121 0
-72 -112 -122 0
-73 -113 -123 0
-74 -114 -124 0
-75 -115 -125 0
-71 -101 -131 0
-72 -102 -132 0
-73 -103 -133 0
-74 -104 -134 0
-75 -105 -135 0
-66 -76 -146 0
-67 -77 -147 0
-68 -78 -148 0
-69 -79 -149 0
-70 -80 -150 0
-66 -81 -151 0
-67 -82 -152 0
-68 -83 -153 0
-69 -84 -154 0
-70 -85 -155 0
-66 -86 -151 0
-67 -87 -152 0
-68 -88 -153 0
-69 -89 -154 0
-70 -90 -155 0
-66 -86 -151 0
-67 -87 -152 0
-68 -88 -153 0
-69 -89 -154 0
-70 -90 -155 0
-66 -91 -146 0
-67 -92 -147 0
-68 -93 -148 0
-69 -94 -149 0
-70 -95 -150 0
-66 -91 -146 0
-67 -92 -147 0
-68 -93 -148 0
-69 -94 -149 0
-70 -95 -150 0
-66 -91 -141 0
-67 -92 -142 0
-68 -93 -143 0
-69 -94 -144 0
-70 -95 -145 0
-66 -86 -136 0
-67 -87 -137 0
-68 -88 -138 0
-69 -89 -139 0
-70 -90 -140 0
-66 -81 -141 0
-67 -82 -142 0
-68 -83 -143 0
-69 -84 -144 0
-70 -85 -145 0
-66 -91 -151 0
-67 -92 -152 0
-68 -93 -153 0
-69 -94 -154 0
-70 -95 -155 0
-66 -81 -146 0
-67 -82 -147 0
-68 -83 -148 0
-69 -84 -149 0
-70 -85 -150 0
-66 -86 -141 0
-67 -87 -142 0
-68 -88 -143 0
-69 -89 -144 0
-70 -90 -145 0
-66 -81 -146 0
-67 -82 -147 0
-68 -83 -148 0
-69 -84 -149 0
-70 -85 -150 0
-66 -86 -141 0
-67 -87 -142 0
-68 -88 -143 0
-69 -89 -144 0
-70 -90 -145 0
-66 -91 -151 0
-67 -92 -152 0
-68 -93 -153 0
-69 -94 -154 0
-70 -95 -155 0
-66 -81 -141 0
-67 -82 -142 0
-68 -83 -143 0
-69 -84 -144 0
-70 -85 -145 0
-66 -96 -126 0
-67 -97 -127 0
-68 -98 -128 0
-69 -99 -129 0
-70 -100 -130 0
-66 -101 -131 0
-67 -102 -132 0
-68 -103 -133 0
-69 -104 -134 0
-70 -105 -135 0
-66 -106 -131 0
-67 -107 -132 0
-68 -108 -133 0
-69 -109 -134 0
-70 -110 -135 0
-66 -106 -131 0
-67 -107 -132 0
-68 -108 -133 0
-69 -109 -134 0
-70 -110 -135 0
-66 -111 -126 0
-67 -112 -127 0
-68 -113 -128 0
-69 -114 -129 0
-70 -115 -130 0
-66 -111 -126 0
-67 -112 -127 0
-68 -113 -128 0
-69 -114 -129 0
-70 -115 -130 0
-66 -111 -121 0
-67 -112 -122 0
-68 -113 -123 0
-69 -114 -124 0
-70 -115 -125 0
-66 -106 -116 0
-67 -107 -117 0
-68 -108 -118 0
-69 -109 -119 0
-70 -110 -120 0
-66 -101 -121 0
-67 -102 -122 0
-68 -103 -123 0
-69 -104 -124 0
-70 -105 -125 0
-66 -111 -131 0
-67 -112 -132 0
-68 -113 -133 0
-69 -114 -134 0
-70 -115 -135 0
-66 -101 -126 0
-67 -102 -127 0
-68 -103 -128 0
-69 -104 -129 0
-70 -105 -130 0
-66 -106 -121 0
-67 -107 -122 0
-68 -108 -123 0
-69 -109 -124 0
-70 -110 -125 0
-66 -101 -126 0
-67 -102 -127 0
-68 -103 -128 0
-69 -104 -129 0
-70 -105 -130 0
-66 -106 -121 0
-67 -107 -122 0
-68 -108 -123 0
-69 -109 -124 0
-70 -110 -125 0
-66 -111 -131 0
-67 -112 -132 0
-68 -113 -133 0
-69 -114 -134 0
-70 -115 -135 0
-66 -101 -121 0
-67 -102 -122 0
-68 -103 -123 0
-69 -104 -124 0
-70 -105 -125 0
-61 -76 -141 0
-62 -77 -142 0
-63 -78 -143 0
-64 -79 -144 0
-65 -80 -145 0
-61 -81 -151 0
-62 -82 -152 0
-63 -83 -153 0
-64 -84 -154 0
-65 -85 -155 0
-61 -86 -141 0
-62 -87 -142 0
-63 -88 -143 0
-64 -89 -144 0
-65 -90 -145 0
-61 -86 -146 0
-62 -87 -147 0
-63 -88 -148 0
-64 -89 -149 0
-65 -90 -150 0
-61 -91 -141 0
-62 -92 -142 0
-63 -93 -143 0
-64 -94 -144 0
-65 -95 -145 0
-61 -91 -146 0
-62 -92 -147 0
-63 -93 -148 0
-64 -94 -149 0
-65 -95 -150 0
-61 -91 -151 0
-62 -92 -152 0
-63 -93 -153 0
-64 -94 -154 0
-65 -95 -155 0
-61 -86 -141 0
-62 -87 -142 0
-63 -88 -143 0
-64 -89 -144 0
-65 -90 -145 0
-61 -81 -136 0
-62 -82 -137 0
-63 -83 -138 0
-64 -84 -139 0
-65 -85 -140 0
-61 -91 -141 0
-62 -92 -142 0
-63 -93 -143 0
-64 -94 -144 0
-65 -95 -145 0
-61 -81 -146 0
-62 -82 -147 0
-63 -83 -148 0
-64 -84 -149 0
-65 -85 -150 0
-61 -86 -146 0
-62 -87 -147 0
-63 -88 -148 0
-64 -89 -149 0
-65 -90 -150 0
-61 -81 -151 0
-62 -82 -152 0
-63 -83 -153 0
-64 -84 -154 0
-65 -85 -155 0
-61 -86 -151 0
-62 -87 -152 0
-63 -88 -153 0
-64 -89 -154 0
-65 -90 -155 0
-61 -91 -151 0
-62 -92 -152 0
-63 -93 -153 0
-64 -94 -154 0
-65 -95 -155 0
-61 -81 -146 0
-62 -82 -147 0
-63 -83 -148 0
-64 -84 -149 0
-65 -85 -150 0
-61 -96 -121 0
-62 -97 -122 0
-63 -98 -123 0
-64 -99 -124 0
-65 -100 -125 0
-61 -101 -131 0
-62 -102 -132 0
-63 -103 -133 0
-64 -104 -134 0
-65 -105 -135 0
-61 -106 -121 0
-62 -107 -122 0
-63 -108 -123 0
-64 -109 -124 0
-65 -110 -125 0
-61 -106 -126 0
-62 -107 -127 0
-63 -108 -128 0
-64 -109 -129 0
-65 -110 -130 0
-61 -111 -121 0
-62 -112 -122 0
-63 -113 -123 0
-64 -114 -124 0
-65 -115 -125 0
-61 -111 -126 0
-62 -112 -127 0
-63 -113 -128 0
-64 -114 -129 0
-65 -115 -130 0
-61 -111 -131 0
-62 -112 -132 0
-63 -113 -133 0
-64 -114 -134 0
-65 -115 -135 0
-61 -106 -121 0
-62 -107 -122 0
-63 -108 -123 0
-64 -109 -124 0
-65 -110 -125 0
-61 -101 -116 0
-62 -102 -117 0
-63 -103 -118 0
-64 -104 -119 0
-65 -105 -120 0
-61 -111 -121 0
-62 -112 -122 0
-63 -113 -123 0
-64 -114 -124 0
-65 -115 -125 0
-61 -101 -126 0
-62 -102 -127 0
-63 -103 -128 0
-64 -104 -129 0
-65 -105 -130 0
-61 -106 -126 0
-62 -107 -127 0
-63 -108 -128 0
-64 -109 -129 0
-65 -110 -130 0
-61 -101 -131 0
-62 -102 -132 0
-63 -103 -133 0
-64 -104 -134 0
-65 -105 -135 0
-61 -106 -131 0
-62 -107 -132 0
-63 -108 -133 0
-64 -109 -134 0
-65 -110 -135 0
-61 -111 -131 0
-62 -112 -132 0
-63 -113 -133 0
-64 -114 -134 0
-65 -115 -135 0
-61 -101 -126 0
-62 -102 -127 0
-63 -103 -128 0
-64 -104 -129 0
-65 -105 -130 0
-71 -76 -151 0
-72 -77 -152 0
-73 -78 -153 0
-74 -79 -154 0
-75 -80 -155 0
-71 -81 -141 0
-72 -82 -142 0
-73 -83 -143 0
-74 -84 -144 0
-75 -85 -145 0
-71 -86 -146 0
-72 -87 -147 0
-73 -88 -148 0
-74 -89 -149 0
-75 -90 -150 0
-71 -86 -141 0
-72 -87 -142 0
-73 -88 -143 0
-74 -89 -144 0
-75 -90 -145 0
-71 -91 -146 0
-72 -92 -147 0
-73 -93 -148 0
-74 -94 -149 0
-75 -95 -150 0
-71 -91 -141 0
-72 -92 -142 0
-73 -93 -143 0
-74 -94 -144 0
-75 -95 -145 0
-71 -91 -141 0
-72 -92 -142 0
-73 -93 -143 0
-74 -94 -144 0
-75 -95 -145 0
-71 -86 -151 0
-72 -87 -152 0
-73 -88 -153 0
-74 -89 -154 0
-75 -90 -155 0
-71 -81 -141 0
-72 -82 -142 0
-73 -83 -143 0
-74 -84 -144 0
-75 -85 -145 0
-71 -91 -136 0
-72 -92 -137 0
-73 -93 -138 0
-74 -94 -139 0
-75 -95 -140 0
-71 -81 -146 0
-72 -82 -147 0
-73 -83 -148 0
-74 -84 -149 0
-75 -85 -150 0
-71 -86 -146 0
-72 -87 -147 0
-73 -88 -148 0
-74 -89 -149 0
-75 -90 -150 0
-71 -81 -151 0
-72 -82 -152 0
-73 -83 -153 0
-74 -84 -154 0
-75 -85 -155 0
-71 -86 -151 0
-72 -87 -152 0
-73 -88 -153 0
-74 -89 -154 0
-75 -90 -155 0
-71 -91 -146 0
-72 -92 -147 0
-73 -93 -148 0
-74 -94 -149 0
-75 -95 -150 0
-71 -81 -151 0
-72 -82 -152 0
-73 -83 -153 0
-74 -84 -154 0
-75 -85 -155 0
-71 -96 -131 0
-72 -97 -132 0
-73 -98 -133 0
-74 -99 -134 0
-75 -100 -135 0
-71 -101 -121 0
-72 -102 -122 0
-73 -103 -123 0
-74 -104 -124 0
-75 -105 -125 0
-71 -106 -126 0
-72 -107 -127 0
-73 -108 -128 0
-74 -109 -129 0
-75 -110 -130 0
-71 -106 -121 0
-72 -107 -122 0
-73 -108 -123 0
-74 -109 -124 0
-75 -110 -125 0
-71 -111 -126 0
-72 -112 -127 0
-73 -113 -128 0
-74 -114 -129 0
-75 -115 -130 0
-71 -111 -121 0
-72 -112 -122 0
-73 -113 -123 0
-74 -114 -124 0
-75 -115 -125 0
-71 -111 -121 0
-72 -112 -122 0
-73 -113 -123 0
-74 -114 -124 0
-75 -115 -125 0
-71 -106 -131 0
-72 -107 -132 0
-73 -108 -133 0
-74 -109 -134 0
-75 -110 -135 0
-71 -101 -121 0
-72 -102 -122 0
-73 -103 -123 0
-74 -104 -124 0
-75 -105 -125 0
-71 -111 -116 0
-72 -112 -117 0
-73 -113 -118 0
-74 -114 -119 0
-75 -115 -120 0
-71 -101 -126 0
-72 -102 -127 0
-73 -103 -128 0
-74 -104 -129 0
-75 -105 -130 0
-71 -106 -126 0
-72 -107 -127 0
-73 -108 -128 0
-74 -109 -129 0
-75 -110 -130 0
-71 -101 -131 0
-72 -102 -132 0
-73 -103 -133 0
-74 -104 -134 0
-75 -105 -135 0
-71 -106 -131 0
-72 -107 -132 0
-73 -108 -133 0
-74 -109 -134 0
-75 -110 -135 0
-71 -111 -126 0
-72 -112 -127 0
-73 -113 -128 0
-74 -114 -129 0
-75 -115 -130 0
-71 -101 -131 0
-72 -102 -132 0
-73 -103 -133 0
-74 -104 -134 0
-75 -105 -135 0
-61 -76 -141 0
-62 -77 -142 0
-63 -78 -143 0
-64 -79 -144 0
-65 -80 -145 0
-61 -81 -146 0
-62 -82 -147 0
-63 -83 -148 0
-64 -84 -149 0
-65 -85 -150 0
-61 -86 -141 0
-62 -87 -142 0
-63 -88 -143 0
-64 -89 -144 0
-65 -90 -145 0
-61 -86 -151 0
-62 -87 -152 0
-63 -88 -153 0
-64 -89 -154 0
-65 -90 -155 0
-61 -91 -151 0
-62 -92 -152 0
-63 -93 -153 0
-64 -94 -154 0
-65 -95 -155 0
-61 -91 -141 0
-62 -92 -142 0
-63 -93 -143 0
-64 -94 -144 0
-65 -95 -145 0
-61 -91 -141 0
-62 -92 -142 0
-63 -93 -143 0
-64 -94 -144 0
-65 -95 -145 0
-61 -86 -146 0
-62 -87 -147 0
-63 -88 -148 0
-64 -89 -149 0
-65 -90 -150 0
-61 -81 -146 0
-62 -82 -147 0
-63 -83 -148 0
-64 -84 -149 0
-65 -85 -150 0
-61 -91 -146 0
-62 -92 -147 0
-63 -93 -148 0
-64 -94 -149 0
-65 -95 -150 0
-61 -81 -136 0
-62 -82 -137 0
-63 -83 -138 0
-64 -84 -139 0
-65 -85 -140 0
-61 -86 -141 0
-62 -87 -142 0
-63 -88 -143 0
-64 -89 -144 0
-65 -90 -145 0
-61 -81 -151 0
-62 -82 -152 0
-63 -83 -153 0
-64 -84 -154 0
-65 -85 -155 0
-61 -86 -146 0
-62 -87 -147 0
-63 -88 -148 0
-64 -89 -149 0
-65 -90 -150 0
-61 -91 -151 0
-62 -92 -152 0
-63 -93 -153 0
-64 -94 -154 0
-65 -95 -155 0
-61 -81 -151 0
-62 -82 -152 0
-63 -83 -153 0
-64 -84 -154 0
-65 -85 -155 0
-61 -96 -121 0
-62 -97 -122 0
-63 -98 -123 0
-64 -99 -124 0
-65 -100 -125 0
-61 -101 -126 0
-62 -102 -127 0
-63 -103 -128 0
-64 -104 -129 0
-65 -105 -130 0
-61 -106 -121 0
-62 -107 -122 0
-63 -108 -123 0
-64 -109 -124 0
-65 -110 -125 0
-61 -106 -131 0
-62 -107 -132 0
-63 -108 -133 0
-64 -109 -134 0
-65 -110 -135 0
-61 -111 -131 0
-62 -112 -132 0
-63 -113 -133 0
-64 -114 -134 0
-65 -115 -135 0
-61 -111 -121 0
-62 -112 -122 0
-63 -113 -123 0
-64 -114 -124 0
-65 -115 -125 0
-61 -111 -121 0
-62 -112 -122 0
-63 -113 -123 0
-64 -114 -124 0
-65 -115 -125 0
-61 -106 -126 0
-62 -107 -127 0
-63 -108 -128 0
-64 -109 -129 0
-65 -110 -130 0
-61 -101 -126 0
-62 -102 -127 0
-63 -103 -128 0
-64 -104 -129 0
-65 -105 -130 0
-61 -111 -126 0
-62 -112 -127 0
-63 -113 -128 0
-64 -114 -129 0
-65 -115 -130 0
-61 -101 -116 0
-62 -102 -117 0
-63 -103 -118 0
-64 -104 -119 0
-65 -105 -120 0
-61 -106 -121 0
-62 -107 -122 0
-63 -108 -123 0
-64 -109 -124 0
-65 -110 -125 0
-61 -101 -131 0
-62 -102 -132 0
-63 -103 -133 0
-64 -104 -134 0
-65 -105 -135 0
-61 -106 -126 0
-62 -107 -127 0
-63 -108 -128 0
-64 -109 -129 0
-65 -110 -130 0
-61 -111 -131 0
-62 -112 -132 0
-63 -113 -133 0
-64 -114 -134 0
-65 -115 -135 0
-61 -101 -131 0
-62 -102 -132 0
-63 -103 -133 0
-64 -104 -134 0
-65 -105 -135 0
-66 -76 -146 0
-67 -77 -147 0
-68 -78 -148 0
-69 -79 -149 0
-70 -80 -150 0
-66 -81 -141 0
-67 -82 -142 0
-68 -83 -143 0
-69 -84 -144 0
-70 -85 -145 0
-66 -86 -151 0
-67 -87 -152 0
-68 -88 -153 0
-69 -89 -154 0
-70 -90 -155 0
-66 -86 -141 0
-67 -87 -142 0
-68 -88 -143 0
-69 -89 -144 0
-70 -90 -145 0
-66 -91 -141 0
-67 -92 -142 0
-68 -93 -143 0
-69 -94 -144 0
-70 -95 -145 0
-66 -91 -151 0
-67 -92 -152 0
-68 -93 -153 0
-69 -94 -154 0
-70 -95 -155 0
-66 -91 -146 0
-67 -92 -147 0
-68 -93 -148 0
-69 -94 -149 0
-70 -95 -150 0
-66 -86 -141 0
-67 -87 -142 0
-68 -88 -143 0
-69 -89 -144 0
-70 -90 -145 0
-66 -81 -146 0
-67 -82 -147 0
-68 -83 -148 0
-69 -84 -149 0
-70 -85 -150 0
-66 -91 -146 0
-67 -92 -147 0
-68 -93 -148 0
-69 -94 -149 0
-70 -95 -150 0
-66 -81 -141 0
-67 -82 -142 0
-68 -83 -143 0
-69 -84 -144 0
-70 -85 -145 0
-66 -86 -136 0
-67 -87 -137 0
-68 -88 -138 0
-69 -89 -139 0
-70 -90 -140 0
-66 -81 -146 0
-67 -82 -147 0
-68 -83 -148 0
-69 -84 -149 0
-70 -85 -150 0
-66 -86 -151 0
-67 -87 -152 0
-68 -88 -153 0
-69 -89 -154 0
-70 -90 -155 0
-66 -91 -151 0
-67 -92 -152 0
-68 -93 -153 0
-69 -94 -154 0
-70 -95 -155 0
-66 -81 -151 0
-67 -82 -152 0
-68 -83 -153 0
-69 -84 -154 0
-70 -85 -155 0
-66 -96 -126 0
-67 -97 -127 0
-68 -98 -128 0
-69 -99 -129 0
-70 -100 -130 0
-66 -101 -121 0
-67 -102 -122 0
-68 -103 -123 0
-69 -104 -124 0
-70 -105 -125 0
-66 -106 -131 0
-67 -107 -132 0
-68 -108 -133 0
-69 -109 -134 0
-70 -110 -135 0
-66 -106 -121 0
-67 -107 -122 0
-68 -108 -123 0
-69 -109 -124 0
-70 -110 -125 0
-66 -111 -121 0
-67 -112 -122 0
-68 -113 -123 0
-69 -114 -124 0
-70 -115 -125 0
-66 -111 -131 0
-67 -112 -132 0
-68 -113 -133 0
-69 -114 -134 0
-70 -115 -135 0
-66 -111 -126 0
-67 -112 -127 0
-68 -113 -128 0
-69 -114 -129 0
-70 -115 -130 0
-66 -106 -121 0
-67 -107 -122 0
-68 -108 -123 0
-69 -109 -124 0
-70 -110 -125 0
-66 -101 -126 0
-67 -102 -127 0
-68 -103 -128 0
-69 -104 -129 0
-70 -105 -130 0
-66 -111 -126 0
-67 -112 -127 0
-68 -113 -128 0
-69 -114 -129 0
-70 -115 -130 0
-66 -101 -121 0
-67 -102 -122 0
-68 -103 -123 0
-69 -104 -124 0
-70 -105 -125 0
-66 -106 -116 0
-67 -107 -117 0
-68 -108 -118 0
-69 -109 -119 0
-70 -110 -120 0
-66 -101 -126 0
-67 -102 -127 0
-68 -103 -128 0
-69 -104 -129 0
-70 -105 -130 0
-66 -106 -131 0
-67 -107 -132 0
-68 -108 -133 0
-69 -109 -134 0
-70 -110 -135 0
-66 -111 -131 0
-67 -112 -132 0
-68 -113 -133 0
-69 -114 -134 0
-70 -115 -135 0
-66 -101 -131 0
-67 -102 -132 0
-68 -103 -133 0
-69 -104 -134 0
-70 -105 -135 0
-61 -76 -141 0
-62 -77 -142 0
-63 -78 -143 0
-64 -79 -144 0
-65 -80 -145 0
-61 -81 -146 0
-62 -82 -147 0
-63 -83 -148 0
-64 -84 -149 0
-65 -85 -150 0
-61 -86 -151 0
-62 -87 -152 0
-63 -88 -153 0
-64 -89 -154 0
-65 -90 -155 0
-61 -86 -141 0
-62 -87 -142 0
-63 -88 -143 0
-64 -89 -144 0
-65 -90 -145 0
-61 -91 -141 0
-62 -92 -142 0
-63 -93 -143 0
-64 -94 -144 0
-65 -95 -145 0
-61 -91 -151 0
-62 -92 -152 0
-63 -93 -153 0
-64 -94 -154 0
-65 -95 -155 0
-61 -91 -141 0
-62 -92 -142 0
-63 -93 -143 0
-64 -94 -144 0
-65 -95 -145 0
-61 -86 -146 0
-62 -87 -147 0
-63 -88 -148 0
-64 -89 -149 0
-65 -90 -150 0
-61 -81 -151 0
-62 -82 -152 0
-63 -83 -153 0
-64 -84 -154 0
-65 -85 -155 0
-61 -91 -151 0
-62 -92 -152 0
-63 -93 -153 0
-64 -94 -154 0
-65 -95 -155 0
-61 -81 -151 0
-62 -82 -152 0
-63 -83 -153 0
-64 -84 -154 0
-65 -85 -155 0
-61 -86 -146 0
-62 -87 -147 0
-63 -88 -148 0
-64 -89 -149 0
-65 -90 -150 0
-61 -81 -136 0
-62 -82 -137 0
-63 -83 -138 0
-64 -84 -139 0
-65 -85 -140 0
-61 -86 -141 0
-62 -87 -142 0
-63 -88 -143 0
-64 -89 -144 0
-65 -90 -145 0
-61 -91 -146 0
-62 -92 -147 0
-63 -93 -148 0
-64 -94 -149 0
-65 -95 -150 0
-61 -81 -146 0
-62 -82 -147 0
-63 -83 -148 0
-64 -84 -149 0
-65 -85 -150 0
-61 -96 -121 0
-62 -97 -122 0
-63 -98 -123 0
-64 -99 -124 0
-65 -100 -125 0
-61 -101 -126 0
-62 -102 -127 0
-63 -103 -128 0
-64 -104 -129 0
-65 -105 -130 0
-61 -106 -131 0
-62 -107 -132 0
-63 -108 -133 0
-64 -109 -134 0
-65 -110 -135 0
-61 -106 -121 0
-62 -107 -122 0
-63 -108 -123 0
-64 -109 -124 0
-65 -110 -125 0
-61 -111 -121 0
-62 -112 -122 0
-63 -113 -123 0
-64 -114 -124 0
-65 -115 -125 0
-61 -111 -131 0
-62 -112 -132 0
-63 -113 -133 0
-64 -114 -134 0
-65 -115 -135 0
-61 -111 -121 0
-62 -112 -122 0
-63 -113 -123 0
-64 -114 -124 0
-65 -115 -125 0
-61 -106 -126 0
-62 -107 -127 0
-63 -108 -128 0
-64 -109 -129 0
-65 -110 -130 0
-61 -101 -131 0
-62 -102 -132 0
-63 -103 -133 0
-64 -104 -134 0
-65 -105 -135 0
-61 -111 -131 0
-62 -112 -132 0
-63 -113 -133 0
-64 -114 -134 0
-65 -115 -135 0
-61 -101 -131 0
-62 -102 -132 0
-63 -103 -133 0
-64 -104 -134 0
-65 -105 -135 0
-61 -106 -126 0
-62 -107 -127 0
-63 -108 -128 0
-64 -109 -129 0
-65 -110 -130 0
-61 -101 -116 0
-62 -102 -117 0
-63 -103 -118 0
-64 -104 -119 0
-65 -105 -120 0
-61 -106 -121 0
-62 -107 -122 0
-63 -108 -123 0
-64 -109 -124 0
-65 -110 -125 0
-61 -111 -126 0
-62 -112 -127 0
-63 -113 -128 0
-64 -114 -129 0
-65 -115 -130 0
-61 -101 -126 0
-62 -102 -127 0
-63 -103 -128 0
-64 -104 -129 0
-65 -105 -130 0
-66 -76 -146 0
-67 -77 -147 0
-68 -78 -148 0
-69 -79 -149 0
-70 -80 -150 0
-66 -81 -141 0
-67 -82 -142 0
-68 -83 -143 0
-69 -84 -144 0
-70 -85 -145 0
-66 -86 -141 0
-67 -87 -142 0
-68 -88 -143 0
-69 -89 -144 0
-70 -90 -145 0
-66 -86 -151 0
-67 -87 -152 0
-68 -88 -153 0
-69 -89 -154 0
-70 -90 -155 0
-66 -91 -151 0
-67 -92 -152 0
-68 -93 -153 0
-69 -94 -154 0
-70 -95 -155 0
-66 -91 -141 0
-67 -92 -142 0
-68 -93 -143 0
-69 -94 -144 0
-70 -95 -145 0
-66 -91 -146 0
-67 -92 -147 0
-68 -93 -148 0
-69 -94 -149 0
-70 -95 -150 0
-66 -86 -141 0
-67 -87 -142 0
-68 -88 -143 0
-69 -89 -144 0
-70 -90 -145 0
-66 -81 -151 0
-67 -82 -152 0
-68 -83 -153 0
-69 -84 -154 0
-70 -85 -155 0
-66 -91 -151 0
-67 -92 -152 0
-68 -93 -153 0
-69 -94 -154 0
-70 -95 -155 0
-66 -81 -146 0
-67 -82 -147 0
-68 -83 -148 0
-69 -84 -149 0
-70 -85 -150 0
-66 -86 -151 0
-67 -87 -152 0
-68 -88 -153 0
-69 -89 -154 0
-70 -90 -155 0
-66 -81 -141 0
-67 -82 -142 0
-68 -83 -143 0
-69 -84 -144 0
-70 -85 -145 0
-66 -86 -136 0
-67 -87 -137 0
-68 -88 -138 0
-69 -89 -139 0
-70 -90 -140 0
-66 -91 -146 0
-67 -92 -147 0
-68 -93 -148 0
-69 -94 -149 0
-70 -95 -150 0
-66 -81 -146 0
-67 -82 -147 0
-68 -83 -148 0
-69 -84 -149 0
-70 -85 -150 0
-66 -96 -126 0
-67 -97 -127 0
-68 -98 -128 0
-69 -99 -129 0
-70 -100 -130 0
-66 -101 -121 0
-67 -102 -122 0
-68 -103 -123 0
-69 -104 -124 0
-70 -105 -125 0
-66 -106 -121 0
-67 -107 -122 0
-68 -108 -123 0
-69 -109 -124 0
-70 -110 -125 0
-66 -106 -131 0
-67 -107 -132 0
-68 -108 -133 0
-69 -109 -134 0
-70 -110 -135 0
-66 -111 -131 0
-67 -112 -132 0
-68 -113 -133 0
-69 -114 -134 0
-70 -115 -135 0
-66 -111 -121 0
-67 -112 -122 0
-68 -113 -123 0
-69 -114 -124 0
-70 -115 -125 0
-66 -111 -126 0
-67 -112 -127 0
-68 -113 -128 0
-69 -114 -129 0
-70 -115 -130 0
-66 -106 -121 0
-67 -107 -122 0
-68 -108 -123 0
-69 -109 -124 0
-70 -110 -125 0
-66 -101 -131 0
-67 -102 -132 0
-68 -103 -133 0
-69 -104 -134 0
-70 -105 -135 0
-66 -111 -131 0
-67 -112 -132 0
-68 -113 -133 0
-69 -114 -134 0
-70 -115 -135 0
-66 -101 -126 0
-67 -102 -127 0
-68 -103 -128 0
-69 -104 -129 0
-70 -105 -130 0
-66 -106 -131 0
-67 -107 -132 0
-68 -108 -133 0
-69 -109 -134 0
-70 -110 -135 0
-66 -101 -121 0
-67 -102 -122 0
-68 -103 -123 0
-69 -104 -124 0
-70 -105 -125 0
-66 -106 -116 0
-67 -107 -117 0
-68 -108 -118 0
-69 -109 -119 0
-70 -110 -120 0
-66 -111 -126 0
-67 -112 -127 0
-68 -113 -128 0
-69 -114 -129 0
-70 -115 -130 0
-66 -101 -126 0
-67 -102 -127 0
-68 -103 -128 0
-69 -104 -129 0
-70 -105 -130 0
-71 -76 -151 0
-72 -77 -152 0
-73 -78 -153 0
-74 -79 -154 0
-75 -80 -155 0
-71 -81 -141 0
-72 -82 -142 0
-73 -83 -143 0
-74 -84 -144 0
-75 -85 -145 0
-71 -86 -141 0
-72 -87 -142 0
-73 -88 -143 0
-74 -89 -144 0
-75 -90 -145 0
-71 -86 -146 0
-72 -87 -147 0
-73 -88 -148 0
-74 -89 -149 0
-75 -90 -150 0
-71 -91 -141 0
-72 -92 -142 0
-73 -93 -143 0
-74 -94 -144 0
-75 -95 -145 0
-71 -91 -146 0
-72 -92 -147 0
-73 -93 -148 0
-74 -94 -149 0
-75 -95 -150 0
-71 -91 -141 0
-72 -92 -142 0
-73 -93 -143 0
-74 -94 -144 0
-75 -95 -145 0
-71 -86 -151 0
-72 -87 -152 0
-73 -88 -153 0
-74 -89 -154 0
-75 -90 -155 0
-71 -81 -151 0
-72 -82 -152 0
-73 -83 -153 0
-74 -84 -154 0
-75 -85 -155 0
-71 -91 -146 0
-72 -92 -147 0
-73 -93 -148 0
-74 -94 -149 0
-75 -95 -150 0
-71 -81 -151 0
-72 -82 -152 0
-73 -83 -153 0
-74 -84 -154 0
-75 -85 -155 0
-71 -86 -151 0
-72 -87 -152 0
-73 -88 -153 0
-74 -89 -154 0
-75 -90 -155 0
-71 -81 -146 0
-72 -82 -147 0
-73 -83 -148 0
-74 -84 -149 0
-75 -85 -150 0
-71 -86 -146 0
-72 -87 -147 0
-73 -88 -148 0
-74 -89 -149 0
-75 -90 -150 0
-71 -91 -136 0
-72 -92 -137 0
-73 -93 -138 0
-74 -94 -139 0
-75 -95 -140 0
-71 -81 -141 0
-72 -82 -142 0
-73 -83 -143 0
-74 -84 -144 0
-75 -85 -145 0
-71 -96 -131 0
-72 -97 -132 0
-73 -98 -133 0
-74 -99 -134 0
-75 -100 -135 0
-71 -101 -121 0
-72 -102 -122 0
-73 -103 -123 0
-74 -104 -124 0
-75 -105 -125 0
-71 -106 -121 0
-72 -107 -122 0
-73 -108 -123 0
-74 -109 -124 0
-75 -110 -125 0
-71 -106 -126 0
-72 -107 -127 0
-73 -108 -128 0
-74 -109 -129 0
-75 -110 -130 0
-71 -111 -121 0
-72 -112 -122 0
-73 -113 -123 0
-74 -114 -124 0
-75 -115 -125 0
-71 -111 -126 0
-72 -112 -127 0
-73 -113 -128 0
-74 -114 -129 0
-75 -115 -130 0
-71 -111 -121 0
-72 -112 -122 0
-73 -113 -123 0
-74 -114 -124 0
-75 -115 -125 0
-71 -106 -131 0
-72 -107 -132 0
-73 -108 -133 0
-74 -109 -134 0
-75 -110 -135 0
-71 -101 -131 0
-72 -102 -132 0
-73 -103 -133 0
-74 -104 -134 0
-75 -105 -135 0
-71 -111 -126 0
-72 -112 -127 0
-73 -113 -128 0
-74 -114 -129 0
-75 -115 -130 0
-71 -101 -131 0
-72 -102 -132 0
-73 -103 -133 0
-74 -104 -134 0
-75 -105 -135 0
-71 -106 -131 0
-72 -107 -132 0
-73 -108 -133 0
-74 -109 -134 0
-75 -110 -135 0
-71 -101 -126 0
-72 -102 -127 0
-73 -103 -128 0
-74 -104 -129 0
-75 -105 -130 0
-71 -106 -126 0
-72 -107 -127 0
-73 -108 -128 0
-74 -109 -129 0
-75 -110 -130 0
-71 -111 -116 0
-72 -112 -117 0
-73 -113 -118 0
-74 -114 -119 0
-75 -115 -120 0
-71 -101 -121 0
-72 -102 -122 0
-73 -103 -123 0
-74 -104 -124 0
-75 -105 -125 0
-61 -76 -141 0
-62 -77 -142 0
-63 -78 -143 0
-64 -79 -144 0
-65 -80 -145 0
-61 -81 -151 0
-62 -82 -152 0
-63 -83 -153 0
-64 -84 -154 0
-65 -85 -155 0
-61 -86 -146 0
-62 -87 -147 0
-63 -88 -148 0
-64 -89 -149 0
-65 -90 -150 0
-61 -86 -141 0
-62 -87 -142 0
-63 -88 -143 0
-64 -89 -144 0
-65 -90 -145 0
-61 -91 -146 0
-62 -92 -147 0
-63 -93 -148 0
-64 -94 -149 0
-65 -95 -150 0
-61 -91 -141 0
-62 -92 -142 0
-63 -93 -143 0
-64 -94 -144 0
-65 -95 -145 0
-61 -91 -151 0
-62 -92 -152 0
-63 -93 -153 0
-64 -94 -154 0
-65 -95 -155 0
-61 -86 -141 0
-62 -87 -142 0
-63 -88 -143 0
-64 -89 -144 0
-65 -90 -145 0
-61 -81 -146 0
-62 -82 -147 0
-63 -83 -148 0
-64 -84 -149 0
-65 -85 -150 0
-61 -91 -151 0
-62 -92 -152 0
-63 -93 -153 0
-64 -94 -154 0
-65 -95 -155 0
-61 -81 -151 0
-62 -82 -152 0
-63 -83 -153 0
-64 -84 -154 0
-65 -85 -155 0
-61 -86 -151 0
-62 -87 -152 0
-63 -88 -153 0
-64 -89 -154 0
-65 -90 -155 0
-61 -81 -146 0
-62 -82 -147 0
-63 -83 -148 0
-64 -84 -149 0
-65 -85 -150 0
-61 -86 -146 0
-62 -87 -147 0
-63 -88 -148 0
-64 -89 -149 0
-65 -90 -150 0
-61 -91 -141 0
-62 -92 -142 0
-63 -93 -143 0
-64 -94 -144 0
-65 -95 -145 0
-61 -81 -136 0
-62 -82 -137 0
-63 -83 -138 0
-64 -84 -139 0
-65 -85 -140 0
-61 -96 -121 0
-62 -97 -122 0
-63 -98 -123 0
-64 -99 -124 0
-65 -100 -125 0
-61 -101 -131 0
-62 -102 -132 0
-63 -103 -133 0
-64 -104 -134 0
-65 -105 -135 0
-61 -106 -126 0
-62 -107 -127 0
-63 -108 -128 0
-64 -109 -129 0
-65 -110 -130 0
-61 -106 -121 0
-62 -107 -122 0
-63 -108 -123 0
-64 -109 -124 0
-65 -110 -125 0
-61 -111 -126 0
-62 -112 -127 0
-63 -113 -128 0
-64 -114 -129 0
-65 -115 -130 0
-61 -111 -121 0
-62 -112 -122 0
-63 -113 -123 0
-64 -114 -124 0
-65 -115 -125 0
-61 -111 -131 0
-62 -112 -132 0
-63 -113 -133 0
-64 -114 -134 0
-65 -115 -135 0
-61 -106 -121 0
-62 -107 -122 0
-63 -108 -123 0
-64 -109 -124 0
-65 -110 -125 0
-61 -101 -126 0
-62 -102 -127 0
-63 -103 -128 0
-64 -104 -129 0
-65 -105 -130 0
-61 -111 -131 0
-62 -112 -132 0
-63 -113 -133 0
-64 -114 -134 0
-65 -115 -135 0
-61 -101 -131 0
-62 -102 -132 0
-63 -103 -133 0
-64 -104 -134 0
-65 -105 -135 0
-61 -106 -131 0
-62 -107 -132 0
-63 -108 -133 0
-64 -109 -134 0
-65 -110 -135 0
-61 -101 -126 0
-62 -102 -127 0
-63 -103 -128 0
-64 -104 -129 0
-65 -105 -130 0
-61 -106 -126 0
-62 -107 -127 0
-63 -108 -128 0
-64 -109 -129 0
-65 -110 -130 0
-61 -111 -121 0
-62 -112 -122 0
-63 -113 -123 0
-64 -114 -124 0
-65 -115 -125 0
-61 -101 -116 0
-62 -102 -117 0
-63 -103 -118 0
-64 -104 -119 0
-65 -105 -120 0
156 157 158 159 160 0
161 162 163 164 165 0
166 167 168 169 170 0
171 172 173 174 175 0
176 177 178 179 180 0
181 182 183 184 185 0
186 187 188 189 190 0
191 192 193 194 195 0
196 197 198 199 200 0
201 202 203 204 205 0
206 207 208 209 210 0
211 212 213 214 215 0
216 217 218 219 220 0
221 222 223 224 225 0
226 227 228 229 230 0
231 232 233 234 235 0
236 237 238 239 240 0
241 242 243 244 245 0
246 247 248 249 250 0
251 252 253 254 255 0
256 257 258 259 260 0
261 262 263 264 265 0
266 267 268 269 270 0
271 272 273 274 275 0
276 277 278 279 280 0
281 282 283 284 285 0
286 287 288 289 290 0
291 292 293 294 295 0
296 297 298 299 300 0
301 302 303 304 305 0
306 307 308 309 310 0
311 312 313 314 315 0
316 317 318 319 320 0
321 322 323 324 325 0
326 327 328 329 330 0
331 332 333 334 335 0
336 337 338 339 340 0
341 342 343 344 345 0
346 347 348 349 350 0
351 352 353 354 355 0
356 357 358 359 360 0
361 362 363 364 365 0
366 367 368 369 370 0
371 372 373 374 375 0
376 377 378 379 380 0
381 382 383 384 385 0
386 387 388 389 390 0
391 392 393 394 395 0
396 397 398 399 400 0
401 402 403 404 405 0
406 407 408 409 410 0
411 412 413 414 415 0
416 417 418 419 420 0
421 422 423 424 425 0
426 427 428 429 430 0
431 432 433 434 435 0
436 437 438 439 440 0
441 442 443 444 445 0
446 447 448 449 450 0
451 452 453 454 455 0
456 457 458 459 460 0
461 462 463 464 465 0
466 467 468 469 470 0
471 472 473 474 475 0
476 477 478 479 480 0
481 482 483 484 485 0
486 487 488 489 490 0
491 492 493 494 495 0
496 497 498 499 500 0
501 502 503 504 505 0
506 507 508 509 510 0
511 512 513 514 515 0
516 517 518 519 520 0
521 522 523 524 525 0
526 527 528 529 530 0
531 532 533 534 535 0
536 537 538 539 540 0
541 542 543 544 545 0
546 547 548 549 550 0
551 552 553 554 555 0
556 557 558 559 560 0
561 562 563 564 565 0
566 567 568 569 570 0
571 572 573 574 575 0
576 577 578 579 580 0
581 582 583 584 585 0
586 587 588 589 590 0
591 592 593 594 595 0
596 597 598 599 600 0
601 602 603 604 605 0
606 607 608 609 610 0
611 612 613 614 615 0
616 617 618 619 620 0
621 622 623 624 625 0
626 627 628 629 630 0
631 632 633 634 635 0
636 637 638 639 640 0
641 642 643 644 645 0
646 647 648 649 650 0
651 652 653 654 655 0
656 657 658 659 660 0
661 662 663 664 665 0
666 667 668 669 670 0
671 672 673 674 675 0
676 677 678 679 680 0
681 682 683 684 685 0
686 687 688 689 690 0
691 692 693 694 695 0
696 697 698 699 700 0
701 702 703 704 705 0
706 707 708 709 710 0
711 712 713 714 715 0
716 717 718 719 720 0
721 722 723 724 725 0
726 727 728 729 730 0
731 732 733 734 735 0
736 737 738 739 740 0
741 742 743 744 745 0
746 747 748 749 750 0
751 752 753 754 755 0
756 757 758 759 760 0
761 762 763 764 765 0
766 767 768 769 770 0
771 772 773 774 775 0
776 777 778 779 780 0
781 782 783 784 785 0
786 787 788 789 790 0
791 792 793 794 795 0
-1 -156 -161 0
-2 -157 -162 0
-3 -158 -163 0
-4 -159 -164 0
-5 -160 -165 0
-1 -166 -171 0
-2 -167 -172 0
-3 -168 -173 0
-4 -169 -174 0
-5 -170 -175 0
-1 -176 -181 0
-2 -177 -182 0
-3 -178 -183 0
-4 -179 -184 0
-5 -180 -185 0
-1 -186 -191 0
-2 -187 -192 0
-3 -188 -193 0
-4 -189 -194 0
-5 -190 -195 0
-1 -196 -201 0
-2 -197 -202 0
-3 -198 -203 0
-4 -199 -204 0
-5 -200 -205 0
-1 -206 -211 0
-2 -207 -212 0
-3 -208 -213 0
-4 -209 -214 0
-5 -210 -215 0
-1 -216 -221 0
-2 -217 -222 0
-3 -218 -223 0
-4 -219 -224 0
-5 -220 -225 0
-1 -226 -231 0
-2 -227 -232 0
-3 -228 -233 0
-4 -229 -234 0
-5 -230 -235 0
-1 -236 -241 0
-2 -237 -242 0
-3 -238 -243 0
-4 -239 -244 0
-5 -240 -245 0
-1 -246 -251 0
-2 -247 -252 0
-3 -248 -253 0
-4 -249 -254 0
-5 -250 -255 0
-1 -256 -261 0
-2 -257 -262 0
-3 -258 -263 0
-4 -259 -264 0
-5 -260 -265 0
-1 -266 -271 0
-2 -267 -272 0
-3 -268 -273 0
-4 -269 -274 0
-5 -270 -275 0
-1 -276 -281 0
-2 -277 -282 0
-3 -278 -283 0
-4 -279 -284 0
-5 -280 -285 0
-1 -286 -291 0
-2 -287 -292 0
-3 -288 -293 0
-4 -289 -294 0
-5 -290 -295 0
-1 -296 -301 0
-2 -297 -302 0
-3 -298 -303 0
-4 -299 -304 0
-5 -300 -305 0
-1 -306 -311 0
-2 -307 -312 0
-3 -308 -313 0
-4 -309 -314 0
-5 -310 -315 0
-1 -316 -321 0
-2 -317 -322 0
-3 -318 -323 0
-4 -319 -324 0
-5 -320 -325 0
-1 -326 -331 0
-2 -327 -332 0
-3 -328 -333 0
-4 -329 -334 0
-5 -330 -335 0
-1 -336 -341 0
-2 -337 -342 0
-3 -338 -343 0
-4 -339 -344 0
-5 -340 -345 0
-1 -346 -351 0
-2 -347 -352 0
-3 -348 -353 0
-4 -349 -354 0
-5 -350 -355 0
-1 -356 -361 0
-2 -357 -362 0
-3 -358 -363 0
-4 -359 -364 0
-5 -360 -365 0
-1 -366 -371 0
-2 -367 -372 0
-3 -368 -373 0
-4 -369 -374 0
-5 -370 -375 0
-1 -376 -381 0
-2 -377 -382 0
-3 -378 -383 0
-4 -379 -384 0
-5 -380 -385 0
-1 -386 -391 0
-2 -387 -392 0
-3 -388 -393 0
-4 -389 -394 0
-5 -390 -395 0
-1 -396 -401 0
-2 -397 -402 0
-3 -398 -403 0
-4 -399 -404 0
-5 -400 -405 0
-1 -406 -411 0
-2 -407 -412 0
-3 -408 -413 0
-4 -409 -414 0
-5 -410 -415 0
-1 -416 -421 0
-2 -417 -422 0
-3 -418 -423 0
-4 -419 -424 0
-5 -420 -425 0
-1 -426 -431 0
-2 -427 -432 0
-3 -428 -433 0
-4 -429 -434 0
-5 -430 -435 0
-1 -436 -441 0
-2 -437 -442 0
-3 -438 -443 0
-4 -439 -444 0
-5 -440 -445 0
-1 -446 -451 0
-2 -447 -452 0
-3 -448 -453 0
-4 -449 -454 0
-5 -450 -455 0
-1 -456 -461 0
-2 -457 -462 0
-3 -458 -463 0
-4 -459 -464 0
-5 -460 -465 0
-1 -466 -471 0
-2 -467 -472 0
-3 -468 -473 0
-4 -469 -474 0
-5 -470 -475 0
-1 -476 -481 0
-2 -477 -482 0
-3 -478 -483 0
-4 -479 -484 0
-5 -480 -485 0
-1 -486 -491 0
-2 -487 -492 0
-3 -488 -493 0
-4 -489 -494 0
-5 -490 -495 0
-1 -496 -501 0
-2 -497 -502 0
-3 -498 -503 0
-4 -499 -504 0
-5 -500 -505 0
-1 -506 -511 0
-2 -507 -512 0
-3 -508 -513 0
-4 -509 -514 0
-5 -510 -515 0
-1 -516 -521 0
-2 -517 -522 0
-3 -518 -523 0
-4 -519 -524 0
-5 -520 -525 0
-1 -526 -531 0
-2 -527 -532 0
-3 -528 -533 0
-4 -529 -534 0
-5 -530 -535 0
-1 -536 -541 0
-2 -537 -542 0
-3 -538 -543 0
-4 -539 -544 0
-5 -540 -545 0
-1 -546 -551 0
-2 -547 -552 0
-3 -548 -553 0
-4 -549 -554 0
-5 -550 -555 0
-1 -556 -561 0
-2 -557 -562 0
-3 -558 -563 0
-4 -559 -564 0
-5 -560 -565 0
-1 -566 -571 0
-2 -567 -572 0
-3 -568 -573 0
-4 -569 -574 0
-5 -570 -575 0
-1 -576 -581 0
-2 -577 -582 0
-3 -578 -583 0
-4 -579 -584 0
-5 -580 -585 0
-1 -586 -591 0
-2 -587 -592 0
-3 -588 -593 0
-4 -589 -594 0
-5 -590 -595 0
-1 -596 -601 0
-2 -597 -602 0
-3 -598 -603 0
-4 -599 -604 0
-5 -600 -605 0
-1 -606 -611 0
-2 -607 -612 0
-3 -608 -613 0
-4 -609 -614 0
-5 -610 -615 0
-1 -616 -621 0
-2 -617 -622 0
-3 -618 -623 0
-4 -619 -624 0
-5 -620 -625 0
-1 -626 -631 0
-2 -627 -632 0
-3 -628 -633 0
-4 -629 -634 0
-5 -630 -635 0
-1 -636 -641 0
-2 -637 -642 0
-3 -638 -643 0
-4 -639 -644 0
-5 -640 -645 0
-1 -646 -651 0
-2 -647 -652 0
-3 -648 -653 0
-4 -649 -654 0
-5 -650 -655 0
-1 -656 -661 0
-2 -657 -662 0
-3 -658 -663 0
-4 -659 -664 0
-5 -660 -665 0
-1 -666 -671 0
-2 -667 -672 0
-3 -668 -673 0
-4 -669 -674 0
-5 -670 -675 0
-1 -676 -681 0
-2 -677 -682 0
-3 -678 -683 0
-4 -679 -684 0
-5 -680 -685 0
-1 -686 -691 0
-2 -687 -692 0
-3 -688 -693 0
-4 -689 -694 0
-5 -690 -695 0
-1 -696 -701 0
-2 -697 -702 0
-3 -698 -703 0
-4 -699 -704 0
-5 -700 -705 0
-1 -706 -711 0
-2 -707 -712 0
-3 -708 -713 0
-4 -709 -714 0
-5 -710 -715 0
-1 -716 -721 0
-2 -717 -722 0
-3 -718 -723 0
-4 -719 -724 0
-5 -720 -725 0
-1 -726 -731 0
-2 -727 -732 0
-3 -728 -733 0
-4 -729 -734 0
-5 -730 -735 0
-1 -736 -741 0
-2 -737 -742 0
-3 -738 -743 0
-4 -739 -744 0
-5 -740 -745 0
-1 -746 -751 0
-2 -747 -752 0
-3 -748 -753 0
-4 -749 -754 0
-5 -750 -755 0
-1 -756 -761 0
-2 -757 -762 0
-3 -758 -763 0
-4 -759 -764 0
-5 -760 -765 0
-1 -766 -771 0
-2 -767 -772 0
-3 -768 -773 0
-4 -769 -774 0
-5 -770 -775 0
-1 -776 -781 0
-2 -777 -782 0
-3 -778 -783 0
-4 -779 -784 0
-5 -780 -785 0
-1 -786 -791 0
-2 -787 -792 0
-3 -788 -793 0
-4 -789 -794 0
-5 -790 -795 0
-6 -156 -166 0
-7 -157 -167 0
-8 -158 -168 0
-9 -159 -169 0
-10 -160 -170 0
-6 -161 -171 0
-7 -162 -172 0
-8 -163 -173 0
-9 -164 -174 0
-10 -165 -175 0
-6 -176 -186 0
-7 -177 -187 0
-8 -178 -188 0
-9 -179 -189 0
-10 -180 -190 0
-6 -181 -191 0
-7 -182 -192 0
-8 -183 -193 0
-9 -184 -194 0
-10 -185 -195 0
-6 -196 -206 0
-7 -197 -207 0
-8 -198 -208 0
-9 -199 -209 0
-10 -200 -210 0
-6 -201 -211 0
-7 -202 -212 0
-8 -203 -213 0
-9 -204 -214 0
-10 -205 -215 0
-6 -216 -226 0
-7 -217 -227 0
-8 -218 -228 0
-9 -219 -229 0
-10 -220 -230 0
-6 -221 -231 0
-7 -222 -232 0
-8 -223 -233 0
-9 -224 -234 0
-10 -225 -235 0
-6 -236 -246 0
-7 -237 -247 0
-8 -238 -248 0
-9 -239 -249 0
-10 -240 -250 0
-6 -241 -251 0
-7 -242 -252 0
-8 -243 -253 0
-9 -244 -254 0
-10 -245 -255 0
-6 -256 -266 0
-7 -257 -267 0
-8 -258 -268 0
-9 -259 -269 0
-10 -260 -270 0
-6 -261 -271 0
-7 -262 -272 0
-8 -263 -273 0
-9 -264 -274 0
-10 -265 -275 0
-6 -276 -286 0
-7 -277 -287 0
-8 -278 -288 0
-9 -279 -289 0
-10 -280 -290 0
-6 -281 -291 0
-7 -282 -292 0
-8 -283 -293 0
-9 -284 -294 0
-10 -285 -295 0
-6 -296 -306 0
-7 -297 -307 0
-8 -298 -308 0
-9 -299 -309 0
-10 -300 -310 0
-6 -301 -311 0
-7 -302 -312 0
-8 -303 -313 0
-9 -304 -314 0
-10 -305 -315 0
-6 -316 -326 0
-7 -317 -327 0
-8 -318 -328 0
-9 -319 -329 0
-10 -320 -330 0
-6 -321 -331 0
-7 -322 -332 0
-8 -323 -333 0
-9 -324 -334 0
-10 -325 -335 0
-6 -336 -346 0
-7 -337 -347 0
-8 -338 -348 0
-9 -339 -349 0
-10 -340 -350 0
-6 -341 -351 0
-7 -342 -352 0
-8 -343 -353 0
-9 -344 -354 0
-10 -345 -355 0
-6 -356 -366 0
-7 -357 -367 0
-8 -358 -368 0
-9 -359 -369 0
-10 -360 -370 0
-6 -361 -371 0
-7 -362 -372 0
-8 -363 -373 0
-9 -364 -374 0
-10 -365 -375 0
-6 -376 -386 0
-7 -377 -387 0
-8 -378 -388 0
-9 -379 -389 0
-10 -380 -390 0
-6 -381 -391 0
-7 -382 -392 0
-8 -383 -393 0
-9 -384 -394 0
-10 -385 -395 0
-6 -396 -406 0
-7 -397 -407 0
-8 -398 -408 0
-9 -399 -409 0
-10 -400 -410 0
-6 -401 -411 0
-7 -402 -412 0
-8 -403 -413 0
-9 -404 -414 0
-10 -405 -415 0
-6 -416 -426 0
-7 -417 -427 0
-8 -418 -428 0
-9 -419 -429 0
-10 -420 -430 0
-6 -421 -431 0
-7 -422 -432 0
-8 -423 -433 0
-9 -424 -434 0
-10 -425 -435 0
-6 -436 -446 0
-7 -437 -447 0
-8 -438 -448 0
-9 -439 -449 0
-10 -440 -450 0
-6 -441 -451 0
-7 -442 -452 0
-8 -443 -453 0
-9 -444 -454 0
-10 -445 -455 0
-6 -456 -466 0
-7 -457 -467 0
-8 -458 -468 0
-9 -459 -469 0
-10 -460 -470 0
-6 -461 -471 0
-7 -462 -472 0
-8 -463 -473 0
-9 -464 -474 0
-10 -465 -475 0
-6 -476 -486 0
-7 -477 -487 0
-8 -478 -488 0
-9 -479 -489 0
-10 -480 -490 0
-6 -481 -491 0
-7 -482 -492 0
-8 -483 -493 0
-9 -484 -494 0
-10 -485 -495 0
-6 -496 -506 0
-7 -497 -507 0
-8 -498 -508 0
-9 -499 -509 0
-10 -500 -510 0
-6 -501 -511 0
-7 -502 -512 0
-8 -503 -513 0
-9 -504 -514 0
-10 -505 -515 0
-6 -516 -526 0
-7 -517 -527 0
-8 -518 -528 0
-9 -519 -529 0
-10 -520 -530 0
-6 -521 -531 0
-7 -522 -532 0
-8 -523 -533 0
-9 -524 -534 0
-10 -525 -535 0
-6 -536 -546 0
-7 -537 -547 0
-8 -538 -548 0
-9 -539 -549 0
-10 -540 -550 0
-6 -541 -551 0
-7 -542 -552 0
-8 -543 -553 0
-9 -544 -554 0
-10 -545 -555 0
-6 -556 -566 0
-7 -557 -567 0
-8 -558 -568 0
-9 -559 -569 0
-10 -560 -570 0
-6 -561 -571 0
-7 -562 -572 0
-8 -563 -573 0
-9 -564 -574 0
-10 -565 -575 0
-6 -576 -586 0
-7 -577 -587 0
-8 -578 -588 0
-9 -579 -589 0
-10 -580 -590 0
-6 -581 -591 0
-7 -582 -592 0
-8 -583 -593 0
-9 -584 -594 0
-10 -585 -595 0
-6 -596 -606 0
-7 -597 -607 0
-8 -598 -608 0
-9 -599 -609 0
-10 -600 -610 0
-6 -601 -611 0
-7 -602 -612 0
-8 -603 -613 0
-9 -604 -614 0
-10 -605 -615 0
-6 -616 -626 0
-7 -617 -627 0
-8 -618 -628 0
-9 -619 -629 0
-10 -620 -630 0
-6 -621 -631 0
-7 -622 -632 0
-8 -623 -633 0
-9 -624 -634 0
-10 -625 -635 0
-6 -636 -646 0
-7 -637 -647 0
-8 -638 -648 0
-9 -639 -649 0
-10 -640 -650 0
-6 -641 -651 0
-7 -642 -652 0
-8 -643 -653 0
-9 -644 -654 0
-10 -645 -655 0
-6 -656 -666 0
-7 -657 -667 0
-8 -658 -668 0
-9 -659 -669 0
-10 -660 -670 0
-6 -661 -671 0
-7 -662 -672 0
-8 -663 -673 0
-9 -664 -674 0
-10 -665 -675 0
-6 -676 -686 0
-7 -677 -687 0
-8 -678 -688 0
-9 -679 -689 0
-10 -680 -690 0
-6 -681 -691 0
-7 -682 -692 0
-8 -683 -693 0
-9 -684 -694 0
-10 -685 -695 0
-6 -696 -706 0
-7 -697 -707 0
-8 -698 -708 0
-9 -699 -709 0
-10 -700 -710 0
-6 -701 -711 0
-7 -702 -712 0
-8 -703 -713 0
-9 -704 -714 0
-10 -705 -715 0
-6 -716 -726 0
-7 -717 -727 0
-8 -718 -728 0
-9 -719 -729 0
-10 -720 -730 0
-6 -721 -731 0
-7 -722 -732 0
-8 -723 -733 0
-9 -724 -734 0
-10 -725 -735 0
-6 -736 -746 0
-7 -737 -747 0
-8 -738 -748 0
-9 -739 -749 0
-10 -740 -750 0
-6 -741 -751 0
-7 -742 -752 0
-8 -743 -753 0
-9 -744 -754 0
-10 -745 -755 0
-6 -756 -766 0
-7 -757 -767 0
-8 -758 -768 0
-9 -759 -769 0
-10 -760 -770 0
-6 -761 -771 0
-7 -762 -772 0
-8 -763 -773 0
-9 -764 -774 0
-10 -765 -775 0
-6 -776 -786 0
-7 -777 -787 0
-8 -778 -788 0
-9 -779 -789 0
-10 -780 -790 0
-6 -781 -791 0
-7 -782 -792 0
-8 -783 -793 0
-9 -784 -794 0
-10 -785 -795 0
-6 -156 -171 0
-7 -157 -172 0
-8 -158 -173 0
-9 -159 -174 0
-10 -160 -175 0
-6 -161 -166 0
-7 -162 -167 0
-8 -163 -168 0
-9 -164 -169 0
-10 -165 -170 0
-6 -176 -191 0
-7 -177 -192 0
-8 -178 -193 0
-9 -179 -194 0
-10 -180 -195 0
-6 -181 -186 0
-7 -182 -187 0
-8 -183 -188 0
-9 -184 -189 0
-10 -185 -190 0
-6 -196 -211 0
-7 -197 -212 0
-8 -198 -213 0
-9 -199 -214 0
-10 -200 -215 0
-6 -201 -206 0
-7 -202 -207 0
-8 -203 -208 0
-9 -204 -209 0
-10 -205 -210 0
-6 -216 -231 0
-7 -217 -232 0
-8 -218 -233 0
-9 -219 -234 0
-10 -220 -235 0
-6 -221 -226 0
-7 -222 -227 0
-8 -223 -228 0
-9 -224 -229 0
-10 -225 -230 0
-6 -236 -251 0
-7 -237 -252 0
-8 -238 -253 0
-9 -239 -254 0
-10 -240 -255 0
-6 -241 -246 0
-7 -242 -247 0
-8 -243 -248 0
-9 -244 -249 0
-10 -245 -250 0
-6 -256 -271 0
-7 -257 -272 0
-8 -258 -273 0
-9 -259 -274 0
-10 -260 -275 0
-6 -261 -266 0
-7 -262 -267 0
-8 -263 -268 0
-9 -264 -269 0
-10 -265 -270 0
-6 -276 -291 0
-7 -277 -292 0
-8 -278 -293 0
-9 -279 -294 0
-10 -280 -295 0
-6 -281 -286 0
-7 -282 -287 0
-8 -283 -288 0
-9 -284 -289 0
-10 -285 -290 0
-6 -296 -311 0
-7 -297 -312 0
-8 -298 -313 0
-9 -299 -314 0
-10 -300 -315 0
-6 -301 -306 0
-7 -302 -307 0
-8 -303 -308 0
-9 -304 -309 0
-10 -305 -310 0
-6 -316 -331 0
-7 -317 -332 0
-8 -318 -333 0
-9 -319 -334 0
-10 -320 -335 0
-6 -321 -326 0
-7 -322 -327 0
-8 -323 -328 0
-9 -324 -329 0
-10 -325 -330 0
-6 -336 -351 0
-7 -337 -352 0
-8 -338 -353 0
-9 -339 -354 0
-10 -340 -355 0
-6 -341 -346 0
-7 -342 -347 0
-8 -343 -348 0
-9 -344 -349 0
-10 -345 -350 0
-6 -356 -371 0
-7 -357 -372 0
-8 -358 -373 0
-9 -359 -374 0
-10 -360 -375 0
-6 -361 -366 0
-7 -362 -367 0
-8 -363 -368 0
-9 -364 -369 0
-10 -365 -370 0
-6 -376 -391 0
-7 -377 -392 0
-8 -378 -393 0
-9 -379 -394 0
-10 -380 -395 0
-6 -381 -386 0
-7 -382 -387 0
-8 -383 -388 0
-9 -384 -389 0
-10 -385 -390 0
-6 -396 -411 0
-7 -397 -412 0
-8 -398 -413 0
-9 -399 -414 0
-10 -400 -415 0
-6 -401 -406 0
-7 -402 -407 0
-8 -403 -408 0
-9 -404 -409 0
-10 -405 -410 0
-6 -416 -431 0
-7 -417 -432 0
-8 -418 -433 0
-9 -419 -434 0
-10 -420 -435 0
-6 -421 -426 0
-7 -422 -427 0
-8 -423 -428 0
-9 -424 -429 0
-10 -425 -430 0
-6 -436 -451 0
-7 -437 -452 0
-8 -438 -453 0
-9 -439 -454 0
-10 -440 -455 0
-6 -441 -446 0
-7 -442 -447 0
-8 -443 -448 0
-9 -444 -449 0
-10 -445 -450 0
-6 -456 -471 0
-7 -457 -472 0
-8 -458 -473 0
-9 -459 -474 0
-10 -460 -475 0
-6 -461 -466 0
-7 -462 -467 0
-8 -463 -468 0
-9 -464 -469 0
-10 -465 -470 0
-6 -476 -491 0
-7 -477 -492 0
-8 -478 -493 0
-9 -479 -494 0
-10 -480 -495 0
-6 -481 -486 0
-7 -482 -487 0
-8 -483 -488 0
-9 -484 -489 0
-10 -485 -490 0
-6 -496 -511 0
-7 -497 -512 0
-8 -498 -513 0
-9 -499 -514 0
-10 -500 -515 0
-6 -501 -506 0
-7 -502 -507 0
-8 -503 -508 0
-9 -504 -509 0
-10 -505 -510 0
-6 -516 -531 0
-7 -517 -532 0
-8 -518 -533 0
-9 -519 -534 0
-10 -520 -535 0
-6 -521 -526 0
-7 -522 -527 0
-8 -523 -528 0
-9 -524 -529 0
-10 -525 -530 0
-6 -536 -551 0
-7 -537 -552 0
-8 -538 -553 0
-9 -539 -554 0
-10 -540 -555 0
-6 -541 -546 0
-7 -542 -547 0
-8 -543 -548 0
-9 -544 -549 0
-10 -545 -550 0
-6 -556 -571 0
-7 -557 -572 0
-8 -558 -573 0
-9 -559 -574 0
-10 -560 -575 0
-6 -561 -566 0
-7 -562 -567 0
-8 -563 -568 0
-9 -564 -569 0
-10 -565 -570 0
-6 -576 -591 0
-7 -577 -592 0
-8 -578 -593 0
-9 -579 -594 0
-10 -580 -595 0
-6 -581 -586 0
-7 -582 -587 0
-8 -583 -588 0
-9 -584 -589 0
-10 -585 -590 0
-6 -596 -611 0
-7 -597 -612 0
-8 -598 -613 0
-9 -599 -614 0
-10 -600 -615 0
-6 -601 -606 0
-7 -602 -607 0
-8 -603 -608 0
-9 -604 -609 0
-10 -605 -610 0
-6 -616 -631 0
-7 -617 -632 0
-8 -618 -633 0
-9 -619 -634 0
-10 -620 -635 0
-6 -621 -626 0
-7 -622 -627 0
-8 -623 -628 0
-9 -624 -629 0
-10 -625 -630 0
-6 -636 -651 0
-7 -637 -652 0
-8 -638 -653 0
-9 -639 -654 0
-10 -640 -655 0
-6 -641 -646 0
-7 -642 -647 0
-8 -643 -648 0
-9 -644 -649 0
-10 -645 -650 0
-6 -656 -671 0
-7 -657 -672 0
-8 -658 -673 0
-9 -659 -674 0
-10 -660 -675 0
-6 -661 -666 0
-7 -662 -667 0
-8 -663 -668 0
-9 -664 -669 0
-10 -665 -670 0
-6 -676 -691 0
-7 -677 -692 0
-8 -678 -693 0
-9 -679 -694 0
-10 -680 -695 0
-6 -681 -686 0
-7 -682 -687 0
-8 -683 -688 0
-9 -684 -689 0
-10 -685 -690 0
-6 -696 -711 0
-7 -697 -712 0
-8 -698 -713 0
-9 -699 -714 0
-10 -700 -715 0
-6 -701 -706 0
-7 -702 -707 0
-8 -703 -708 0
-9 -704 -709 0
-10 -705 -710 0
-6 -716 -731 0
-7 -717 -732 0
-8 -718 -733 0
-9 -719 -734 0
-10 -720 -735 0
-6 -721 -726 0
-7 -722 -727 0
-8 -723 -728 0
-9 -724 -729 0
-10 -725 -730 0
-6 -736 -751 0
-7 -737 -752 0
-8 -738 -753 0
-9 -739 -754 0
-10 -740 -755 0
-6 -741 -746 0
-7 -742 -747 0
-8 -743 -748 0
-9 -744 -749 0
-10 -745 -750 0
-6 -756 -771 0
-7 -757 -772 0
-8 -758 -773 0
-9 -759 -774 0
-10 -760 -775 0
-6 -761 -766 0
-7 -762 -767 0
-8 -763 -768 0
-9 -764 -769 0
-10 -765 -770 0
-6 -776 -791 0
-7 -777 -792 0
-8 -778 -793 0
-9 -779 -794 0
-10 -780 -795 0
-6 -781 -786 0
-7 -782 -787 0
-8 -783 -788 0
-9 -784 -789 0
-10 -785 -790 0
-11 -156 -176 0
-12 -157 -177 0
-13 -158 -178 0
-14 -159 -179 0
-15 -160 -180 0
-11 -161 -181 0
-12 -162 -182 0
-13 -163 -183 0
-14 -164 -184 0
-15 -165 -185 0
-11 -166 -186 0
-12 -167 -187 0
-13 -168 -188 0
-14 -169 -189 0
-15 -170 -190 0
-11 -171 -191 0
-12 -172 -192 0
-13 -173 -193 0
-14 -174 -194 0
-15 -175 -195 0
-11 -196 -216 0
-12 -197 -217 0
-13 -198 -218 0
-14 -199 -219 0
-15 -200 -220 0
-11 -201 -221 0
-12 -202 -222 0
-13 -203 -223 0
-14 -204 -224 0
-15 -205 -225 0
-11 -206 -226 0
-12 -207 -227 0
-13 -208 -228 0
-14 -209 -229 0
-15 -210 -230 0
-11 -211 -231 0
-12 -212 -232 0
-13 -213 -233 0
-14 -214 -234 0
-15 -215 -235 0
-11 -236 -256 0
-12 -237 -257 0
-13 -238 -258 0
-14 -239 -259 0
-15 -240 -260 0
-11 -241 -261 0
-12 -242 -262 0
-13 -243 -263 0
-14 -244 -264 0
-15 -245 -265 0
-11 -246 -266 0
-12 -247 -267 0
-13 -248 -268 0
-14 -249 -269 0
-15 -250 -270 0
-11 -251 -271 0
-12 -252 -272 0
-13 -253 -273 0
-14 -254 -274 0
-15 -255 -275 0
-11 -276 -296 0
-12 -277 -297 0
-13 -278 -298 0
-14 -279 -299 0
-15 -280 -300 0
-11 -281 -301 0
-12 -282 -302 0
-13 -283 -303 0
-14 -284 -304 0
-15 -285 -305 0
-11 -286 -306 0
-12 -287 -307 0
-13 -288 -308 0
-14 -289 -309 0
-15 -290 -310 0
-11 -291 -311 0
-12 -292 -312 0
-13 -293 -313 0
-14 -294 -314 0
-15 -295 -315 0
-11 -316 -336 0
-12 -317 -337 0
-13 -318 -338 0
-14 -319 -339 0
-15 -320 -340 0
-11 -321 -341 0
-12 -322 -342 0
-13 -323 -343 0
-14 -324 -344 0
-15 -325 -345 0
-11 -326 -346 0
-12 -327 -347 0
-13 -328 -348 0
-14 -329 -349 0
-15 -330 -350 0
-11 -331 -351 0
-12 -332 -352 0
-13 -333 -353 0
-14 -334 -354 0
-15 -335 -355 0
-11 -356 -376 0
-12 -357 -377 0
-13 -358 -378 0
-14 -359 -379 0
-15 -360 -380 0
-11 -361 -381 0
-12 -362 -382 0
-13 -363 -383 0
-14 -364 -384 0
-15 -365 -385 0
-11 -366 -386 0
-12 -367 -387 0
-13 -368 -388 0
-14 -369 -389 0
-15 -370 -390 0
-11 -371 -391 0
-12 -372 -392 0
-13 -373 -393 0
-14 -374 -394 0
-15 -375 -395 0
-11 -396 -416 0
-12 -397 -417 0
-13 -398 -418 0
-14 -399 -419 0
-15 -400 -420 0
-11 -401 -421 0
-12 -402 -422 0
-13 -403 -423 0
-14 -404 -424 0
-15 -405 -425 0
-11 -406 -426 0
-12 -407 -427 0
-13 -408 -428 0
-14 -409 -429 0
-15 -410 -430 0
-11 -411 -431 0
-12 -412 -432 0
-13 -413 -433 0
-14 -414 -434 0
-15 -415 -435 0
-11 -436 -456 0
-12 -437 -457 0
-13 -438 -458 0
-14 -439 -459 0
-15 -440 -460 0
-11 -441 -461 0
-12 -442 -462 0
-13 -443 -463 0
-14 -444 -464 0
-15 -445 -465 0
-11 -446 -466 0
-12 -447 -467 0
-13 -448 -468 0
-14 -449 -469 0
-15 -450 -470 0
-11 -451 -471 0
-12 -452 -472 0
-13 -453 -473 0
-14 -454 -474 0
-15 -455 -475 0
-11 -476 -496 0
-12 -477 -497 0
-13 -478 -498 0
-14 -479 -499 0
-15 -480 -500 0
-11 -481 -501 0
-12 -482 -502 0
-13 -483 -503 0
-14 -484 -504 0
-15 -485 -505 0
-11 -486 -506 0
-12 -487 -507 0
-13 -488 -508 0
-14 -489 -509 0
-15 -490 -510 0
-11 -491 -511 0
-12 -492 -512 0
-13 -493 -513 0
-14 -494 -514 0
-15 -495 -515 0
-11 -516 -536 0
-12 -517 -537 0
-13 -518 -538 0
-14 -519 -539 0
-15 -520 -540 0
-11 -521 -541 0
-12 -522 -542 0
-13 -523 -543 0
-14 -524 -544 0
-15 -525 -545 0
-11 -526 -546 0
-12 -527 -547 0
-13 -528 -548 0
-14 -529 -549 0
-15 -530 -550 0
-11 -531 -551 0
-12 -532 -552 0
-13 -533 -553 0
-14 -534 -554 0
-15 -535 -555 0
-11 -556 -576 0
-12 -557 -577 0
-13 -558 -578 0
-14 -559 -579 0
-15 -560 -580 0
-11 -561 -581 0
-12 -562 -582 0
-13 -563 -583 0
-14 -564 -584 0
-15 -565 -585 0
-11 -566 -586 0
-12 -567 -587 0
-13 -568 -588 0
-14 -569 -589 0
-15 -570 -590 0
-11 -571 -591 0
-12 -572 -592 0
-13 -573 -593 0
-14 -574 -594 0
-15 -575 -595 0
-11 -596 -616 0
-12 -597 -617 0
-13 -598 -618 0
-14 -599 -619 0
-15 -600 -620 0
-11 -601 -621 0
-12 -602 -622 0
-13 -603 -623 0
-14 -604 -624 0
-15 -605 -625 0
-11 -606 -626 0
-12 -607 -627 0
-13 -608 -628 0
-14 -609 -629 0
-15 -610 -630 0
-11 -611 -631 0
-12 -612 -632 0
-13 -613 -633 0
-14 -614 -634 0
-15 -615 -635 0
-11 -636 -656 0
-12 -637 -657 0
-13 -638 -658 0
-14 -639 -659 0
-15 -640 -660 0
-11 -641 -661 0
-12 -642 -662 0
-13 -643 -663 0
-14 -644 -664 0
-15 -645 -665 0
-11 -646 -666 0
-12 -647 -667 0
-13 -648 -668 0
-14 -649 -669 0
-15 -650 -670 0
-11 -651 -671 0
-12 -652 -672 0
-13 -653 -673 0
-14 -654 -674 0
-15 -655 -675 0
-11 -676 -696 0
-12 -677 -697 0
-13 -678 -698 0
-14 -679 -699 0
-15 -680 -700 0
-11 -681 -701 0
-12 -682 -702 0
-13 -683 -703 0
-14 -684 -704 0
-15 -685 -705 0
-11 -686 -706 0
-12 -687 -707 0
-13 -688 -708 0
-14 -689 -709 0
-15 -690 -710 0
-11 -691 -711 0
-12 -692 -712 0
-13 -693 -713 0
-14 -694 -714 0
-15 -695 -715 0
-11 -716 -736 0
-12 -717 -737 0
-13 -718 -738 0
-14 -719 -739 0
-15 -720 -740 0
-11 -721 -741 0
-12 -722 -742 0
-13 -723 -743 0
-14 -724 -744 0
-15 -725 -745 0
-11 -726 -746 0
-12 -727 -747 0
-13 -728 -748 0
-14 -729 -749 0
-15 -730 -750 0
-11 -731 -751 0
-12 -732 -752 0
-13 -733 -753 0
-14 -734 -754 0
-15 -735 -755 0
-11 -756 -776 0
-12 -757 -777 0
-13 -758 -778 0
-14 -759 -779 0
-15 -760 -780 0
-11 -761 -781 0
-12 -762 -782 0
-13 -763 -783 0
-14 -764 -784 0
-15 -765 -785 0
-11 -766 -786 0
-12 -767 -787 0
-13 -768 -788 0
-14 -769 -789 0
-15 -770 -790 0
-11 -771 -791 0
-12 -772 -792 0
-13 -773 -793 0
-14 -774 -794 0
-15 -775 -795 0
-11 -156 -181 0
-12 -157 -182 0
-13 -158 -183 0
-14 -159 -184 0
-15 -160 -185 0
-11 -161 -176 0
-12 -162 -177 0
-13 -163 -178 0
-14 -164 -179 0
-15 -165 -180 0
-11 -166 -191 0
-12 -167 -192 0
-13 -168 -193 0
-14 -169 -194 0
-15 -170 -195 0
-11 -171 -186 0
-12 -172 -187 0
-13 -173 -188 0
-14 -174 -189 0
-15 -175 -190 0
-11 -196 -221 0
-12 -197 -222 0
-13 -198 -223 0
-14 -199 -224 0
-15 -200 -225 0
-11 -201 -216 0
-12 -202 -217 0
-13 -203 -218 0
-14 -204 -219 0
-15 -205 -220 0
-11 -206 -231 0
-12 -207 -232 0
-13 -208 -233 0
-14 -209 -234 0
-15 -210 -235 0
-11 -211 -226 0
-12 -212 -227 0
-13 -213 -228 0
-14 -214 -229 0
-15 -215 -230 0
-11 -236 -261 0
-12 -237 -262 0
-13 -238 -263 0
-14 -239 -264 0
-15 -240 -265 0
-11 -241 -256 0
-12 -242 -257 0
-13 -243 -258 0
-14 -244 -259 0
-15 -245 -260 0
-11 -246 -271 0
-12 -247 -272 0
-13 -248 -273 0
-14 -249 -274 0
-15 -250 -275 0
-11 -251 -266 0
-12 -252 -267 0
-13 -253 -268 0
-14 -254 -269 0
-15 -255 -270 0
-11 -276 -301 0
-12 -277 -302 0
-13 -278 -303 0
-14 -279 -304 0
-15 -280 -305 0
-11 -281 -296 0
-12 -282 -297 0
-13 -283 -298 0
-14 -284 -299 0
-15 -285 -300 0
-11 -286 -311 0
-12 -287 -312 0
-13 -288 -313 0
-14 -289 -314 0
-15 -290 -315 0
-11 -291 -306 0
-12 -292 -307 0
-13 -293 -308 0
-14 -294 -309 0
-15 -295 -310 0
-11 -316 -341 0
-12 -317 -342 0
-13 -318 -343 0
-14 -319 -344 0
-15 -320 -345 0
-11 -321 -336 0
-12 -322 -337 0
-13 -323 -338 0
-14 -324 -339 0
-15 -325 -340 0
-11 -326 -351 0
-12 -327 -352 0
-13 -328 -353 0
-14 -329 -354 0
-15 -330 -355 0
-11 -331 -346 0
-12 -332 -347 0
-13 -333 -348 0
-14 -334 -349 0
-15 -335 -350 0
-11 -356 -381 0
-12 -357 -382 0
-13 -358 -383 0
-14 -359 -384 0
-15 -360 -385 0
-11 -361 -376 0
-12 -362 -377 0
-13 -363 -378 0
-14 -364 -379 0
-15 -365 -380 0
-11 -366 -391 0
-12 -367 -392 0
-13 -368 -393 0
-14 -369 -394 0
-15 -370 -395 0
-11 -371 -386 0
-12 -372 -387 0
-13 -373 -388 0
-14 -374 -389 0
-15 -375 -390 0
-11 -396 -421 0
-12 -397 -422 0
-13 -398 -423 0
-14 -399 -424 0
-15 -400 -425 0
-11 -401 -416 0
-12 -402 -417 0
-13 -403 -418 0
-14 -404 -419 0
-15 -405 -420 0
-11 -406 -431 0
-12 -407 -432 0
-13 -408 -433 0
-14 -409 -434 0
-15 -410 -435 0
-11 -411 -426 0
-12 -412 -427 0
-13 -413 -428 0
-14 -414 -429 0
-15 -415 -430 0
-11 -436 -461 0
-12 -437 -462 0
-13 -438 -463 0
-14 -439 -464 0
-15 -440 -465 0
-11 -441 -456 0
-12 -442 -457 0
-13 -443 -458 0
-14 -444 -459 0
-15 -445 -460 0
-11 -446 -471 0
-12 -447 -472 0
-13 -448 -473 0
-14 -449 -474 0
-15 -450 -475 0
-11 -451 -466 0
-12 -452 -467 0
-13 -453 -468 0
-14 -454 -469 0
-15 -455 -470 0
-11 -476 -501 0
-12 -477 -502 0
-13 -478 -503 0
-14 -479 -504 0
-15 -480 -505 0
-11 -481 -496 0
-12 -482 -497 0
-13 -483 -498 0
-14 -484 -499 0
-15 -485 -500 0
-11 -486 -511 0
-12 -487 -512 0
-13 -488 -513 0
-14 -489 -514 0
-15 -490 -515 0
-11 -491 -506 0
-12 -492 -507 0
-13 -493 -508 0
-14 -494 -509 0
-15 -495 -510 0
-11 -516 -541 0
-12 -517 -542 0
-13 -518 -543 0
-14 -519 -544 0
-15 -520 -545 0
-11 -521 -536 0
-12 -522 -537 0
-13 -523 -538 0
-14 -524 -539 0
-15 -525 -540 0
-11 -526 -551 0
-12 -527 -552 0
-13 -528 -553 0
-14 -529 -554 0
-15 -530 -555 0
-11 -531 -546 0
-12 -532 -547 0
-13 -533 -548 0
-14 -534 -549 0
-15 -535 -550 0
-11 -556 -581 0
-12 -557 -582 0
-13 -558 -583 0
-14 -559 -584 0
-15 -560 -585 0
-11 -561 -576 0
-12 -562 -577 0
-13 -563 -578 0
-14 -564 -579 0
-15 -565 -580 0
-11 -566 -591 0
-12 -567 -592 0
-13 -568 -593 0
-14 -569 -594 0
-15 -570 -595 0
-11 -571 -586 0
-12 -572 -587 0
-13 -573 -588 0
-14 -574 -589 0
-15 -575 -590 0
-11 -596 -621 0
-12 -597 -622 0
-13 -598 -623 0
-14 -599 -624 0
-15 -600 -625 0
-11 -601 -616 0
-12 -602 -617 0
-13 -603 -618 0
-14 -604 -619 0
-15 -605 -620 0
-11 -606 -631 0
-12 -607 -632 0
-13 -608 -633 0
-14 -609 -634 0
-15 -610 -635 0
-11 -611 -626 0
-12 -612 -627 0
-13 -613 -628 0
-14 -614 -629 0
-15 -615 -630 0
-11 -636 -661 0
-12 -637 -662 0
-13 -638 -663 0
-14 -639 -664 0
-15 -640 -665 0
-11 -641 -656 0
-12 -642 -657 0
-13 -643 -658 0
-14 -644 -659 0
-15 -645 -660 0
-11 -646 -671 0
-12 -647 -672 0
-13 -648 -673 0
-14 -649 -674 0
-15 -650 -675 0
-11 -651 -666 0
-12 -652 -667 0
-13 -653 -668 0
-14 -654 -669 0
-15 -655 -670 0
-11 -676 -701 0
-12 -677 -702 0
-13 -678 -703 0
-14 -679 -704 0
-15 -680 -705 0
-11 -681 -696 0
-12 -682 -697 0
-13 -683 -698 0
-14 -684 -699 0
-15 -685 -700 0
-11 -686 -711 0
-12 -687 -712 0
-13 -688 -713 0
-14 -689 -714 0
-15 -690 -715 0
-11 -691 -706 0
-12 -692 -707 0
-13 -693 -708 0
-14 -694 -709 0
-15 -695 -710 0
-11 -716 -741 0
-12 -717 -742 0
-13 -718 -743 0
-14 -719 -744 0
-15 -720 -745 0
-11 -721 -736 0
-12 -722 -737 0
-13 -723 -738 0
-14 -724 -739 0
-15 -725 -740 0
-11 -726 -751 0
-12 -727 -752 0
-13 -728 -753 0
-14 -729 -754 0
-15 -730 -755 0
-11 -731 -746 0
-12 -732 -747 0
-13 -733 -748 0
-14 -734 -749 0
-15 -735 -750 0
-11 -756 -781 0
-12 -757 -782 0
-13 -758 -783 0
-14 -759 -784 0
-15 -760 -785 0
-11 -761 -776 0
-12 -762 -777 0
-13 -763 -778 0
-14 -764 -779 0
-15 -765 -780 0
-11 -766 -791 0
-12 -767 -792 0
-13 -768 -793 0
-14 -769 -794 0
-15 -770 -795 0
-11 -771 -786 0
-12 -772 -787 0
-13 -773 -788 0
-14 -774 -789 0
-15 -775 -790 0
-11 -156 -186 0
-12 -157 -187 0
-13 -158 -188 0
-14 -159 -189 0
-15 -160 -190 0
-11 -161 -191 0
-12 -162 -192 0
-13 -163 -193 0
-14 -164 -194 0
-15 -165 -195 0
-11 -166 -176 0
-12 -167 -177 0
-13 -168 -178 0
-14 -169 -179 0
-15 -170 -180 0
-11 -171 -181 0
-12 -172 -182 0
-13 -173 -183 0
-14 -174 -184 0
-15 -175 -185 0
-11 -196 -226 0
-12 -197 -227 0
-13 -198 -228 0
-14 -199 -229 0
-15 -200 -230 0
-11 -201 -231 0
-12 -202 -232 0
-13 -203 -233 0
-14 -204 -234 0
-15 -205 -235 0
-11 -206 -216 0
-12 -207 -217 0
-13 -208 -218 0
-14 -209 -219 0
-15 -210 -220 0
-11 -211 -221 0
-12 -212 -222 0
-13 -213 -223 0
-14 -214 -224 0
-15 -215 -225 0
-11 -236 -266 0
-12 -237 -267 0
-13 -238 -268 0
-14 -239 -269 0
-15 -240 -270 0
-11 -241 -271 0
-12 -242 -272 0
-13 -243 -273 0
-14 -244 -274 0
-15 -245 -275 0
-11 -246 -256 0
-12 -247 -257 0
-13 -248 -258 0
-14 -249 -259 0
-15 -250 -260 0
-11 -251 -261 0
-12 -252 -262 0
-13 -253 -263 0
-14 -254 -264 0
-15 -255 -265 0
-11 -276 -306 0
-12 -277 -307 0
-13 -278 -308 0
-14 -279 -309 0
-15 -280 -310 0
-11 -281 -311 0
-12 -282 -312 0
-13 -283 -313 0
-14 -284 -314 0
-15 -285 -315 0
-11 -286 -296 0
-12 -287 -297 0
-13 -288 -298 0
-14 -289 -299 0
-15 -290 -300 0
-11 -291 -301 0
-12 -292 -302 0
-13 -293 -303 0
-14 -294 -304 0
-15 -295 -305 0
-11 -316 -346 0
-12 -317 -347 0
-13 -318 -348 0
-14 -319 -349 0
-15 -320 -350 0
-11 -321 -351 0
-12 -322 -352 0
-13 -323 -353 0
-14 -324 -354 0
-15 -325 -355 0
-11 -326 -336 0
-12 -327 -337 0
-13 -328 -338 0
-14 -329 -339 0
-15 -330 -340 0
-11 -331 -341 0
-12 -332 -342 0
-13 -333 -343 0
-14 -334 -344 0
-15 -335 -345 0
-11 -356 -386 0
-12 -357 -387 0
-13 -358 -388 0
-14 -359 -389 0
-15 -360 -390 0
-11 -361 -391 0
-12 -362 -392 0
-13 -363 -393 0
-14 -364 -394 0
-15 -365 -395 0
-11 -366 -376 0
-12 -367 -377 0
-13 -368 -378 0
-14 -369 -379 0
-15 -370 -380 0
-11 -371 -381 0
-12 -372 -382 0
-13 -373 -383 0
-14 -374 -384 0
-15 -375 -385 0
-11 -396 -426 0
-12 -397 -427 0
-13 -398 -428 0
-14 -399 -429 0
-15 -400 -430 0
-11 -401 -431 0
-12 -402 -432 0
-13 -403 -433 0
-14 -404 -434 0
-15 -405 -435 0
-11 -406 -416 0
-12 -407 -417 0
-13 -408 -418 0
-14 -409 -419 0
-15 -410 -420 0
-11 -411 -421 0
-12 -412 -422 0
-13 -413 -423 0
-14 -414 -424 0
-15 -415 -425 0
-11 -436 -466 0
-12 -437 -467 0
-13 -438 -468 0
-14 -439 -469 0
-15 -440 -470 0
-11 -441 -471 0
-12 -442 -472 0
-13 -443 -473 0
-14 -444 -474 0
-15 -445 -475 0
-11 -446 -456 0
-12 -447 -457 0
-13 -448 -458 0
-14 -449 -459 0
-15 -450 -460 0
-11 -451 -461 0
-12 -452 -462 0
-13 -453 -463 0
-14 -454 -464 0
-15 -455 -465 0
-11 -476 -506 0
-12 -477 -507 0
-13 -478 -508 0
-14 -479 -509 0
-15 -480 -510 0
-11 -481 -511 0
-12 -482 -512 0
-13 -483 -513 0
-14 -484 -514 0
-15 -485 -515 0
-11 -486 -496 0
-12 -487 -497 0
-13 -488 -498 0
-14 -489 -499 0
-15 -490 -500 0
-11 -491 -501 0
-12 -492 -502 0
-13 -493 -503 0
-14 -494 -504 0
-15 -495 -505 0
-11 -516 -546 0
-12 -517 -547 0
-13 -518 -548 0
-14 -519 -549 0
-15 -520 -550 0
-11 -521 -551 0
-12 -522 -552 0
-13 -523 -553 0
-14 -524 -554 0
-15 -525 -555 0
-11 -526 -536 0
-12 -527 -537 0
-13 -528 -538 0
-14 -529 -539 0
-15 -530 -540 0
-11 -531 -541 0
-12 -532 -542 0
-13 -533 -543 0
-14 -534 -544 0
-15 -535 -545 0
-11 -556 -586 0
-12 -557 -587 0
-13 -558 -588 0
-14 -559 -589 0
-15 -560 -590 0
-11 -561 -591 0
-12 -562 -592 0
-13 -563 -593 0
-14 -564 -594 0
-15 -565 -595 0
-11 -566 -576 0
-12 -567 -577 0
-13 -568 -578 0
-14 -569 -579 0
-15 -570 -580 0
-11 -571 -581 0
-12 -572 -582 0
-13 -573 -583 0
-14 -574 -584 0
-15 -575 -585 0
-11 -596 -626 0
-12 -597 -627 0
-13 -598 -628 0
-14 -599 -629 0
-15 -600 -630 0
-11 -601 -631 0
-12 -602 -632 0
-13 -603 -633 0
-14 -604 -634 0
-15 -605 -635 0
-11 -606 -616 0
-12 -607 -617 0
-13 -608 -618 0
-14 -609 -619 0
-15 -610 -620 0
-11 -611 -621 0
-12 -612 -622 0
-13 -613 -623 0
-14 -614 -624 0
-15 -615 -625 0
-11 -636 -666 0
-12 -637 -667 0
-13 -638 -668 0
-14 -639 -669 0
-15 -640 -670 0
-11 -641 -671 0
-12 -642 -672 0
-13 -643 -673 0
-14 -644 -674 0
-15 -645 -675 0
-11 -646 -656 0
-12 -647 -657 0
-13 -648 -658 0
-14 -649 -659 0
-15 -650 -660 0
-11 -651 -661 0
-12 -652 -662 0
-13 -653 -663 0
-14 -654 -664 0
-15 -655 -665 0
-11 -676 -706 0
-12 -677 -707 0
-13 -678 -708 0
-14 -679 -709 0
-15 -680 -710 0
-11 -681 -711 0
-12 -682 -712 0
-13 -683 -713 0
-14 -684 -714 0
-15 -685 -715 0
-11 -686 -696 0
-12 -687 -697 0
-13 -688 -698 0
-14 -689 -699 0
-15 -690 -700 0
-11 -691 -701 0
-12 -692 -702 0
-13 -693 -703 0
-14 -694 -704 0
-15 -695 -705 0
-11 -716 -746 0
-12 -717 -747 0
-13 -718 -748 0
-14 -719 -749 0
-15 -720 -750 0
-11 -721 -751 0
-12 -722 -752 0
-13 -723 -753 0
-14 -724 -754 0
-15 -725 -755 0
-11 -726 -736 0
-12 -727 -737 0
-13 -728 -738 0
-14 -729 -739 0
-15 -730 -740 0
-11 -731 -741 0
-12 -732 -742 0
-13 -733 -743 0
-14 -734 -744 0
-15 -735 -745 0
-11 -756 -786 0
-12 -757 -787 0
-13 -758 -788 0
-14 -759 -789 0
-15 -760 -790 0
-11 -761 -791 0
-12 -762 -792 0
-13 -763 -793 0
-14 -764 -794 0
-15 -765 -795 0
-11 -766 -776 0
-12 -767 -777 0
-13 -768 -778 0
-14 -769 -779 0
-15 -770 -780 0
-11 -771 -781 0
-12 -772 -782 0
-13 -773 -783 0
-14 -774 -784 0
-15 -775 -785 0
-6 -156 -191 0
-7 -157 -192 0
-8 -158 -193 0
-9 -159 -194 0
-10 -160 -195 0
-6 -161 -186 0
-7 -162 -187 0
-8 -163 -188 0
-9 -164 -189 0
-10 -165 -190 0
-6 -166 -181 0
-7 -167 -182 0
-8 -168 -183 0
-9 -169 -184 0
-10 -170 -185 0
-6 -171 -176 0
-7 -172 -177 0
-8 -173 -178 0
-9 -174 -179 0
-10 -175 -180 0
-6 -196 -231 0
-7 -197 -232 0
-8 -198 -233 0
-9 -199 -234 0
-10 -200 -235 0
-6 -201 -226 0
-7 -202 -227 0
-8 -203 -228 0
-9 -204 -229 0
-10 -205 -230 0
-6 -206 -221 0
-7 -207 -222 0
-8 -208 -223 0
-9 -209 -224 0
-10 -210 -225 0
-6 -211 -216 0
-7 -212 -217 0
-8 -213 -218 0
-9 -214 -219 0
-10 -215 -220 0
-6 -236 -271 0
-7 -237 -272 0
-8 -238 -273 0
-9 -239 -274 0
-10 -240 -275 0
-6 -241 -266 0
-7 -242 -267 0
-8 -243 -268 0
-9 -244 -269 0
-10 -245 -270 0
-6 -246 -261 0
-7 -247 -262 0
-8 -248 -263 0
-9 -249 -264 0
-10 -250 -265 0
-6 -251 -256 0
-7 -252 -257 0
-8 -253 -258 0
-9 -254 -259 0
-10 -255 -260 0
-6 -276 -311 0
-7 -277 -312 0
-8 -278 -313 0
-9 -279 -314 0
-10 -280 -315 0
-6 -281 -306 0
-7 -282 -307 0
-8 -283 -308 0
-9 -284 -309 0
-10 -285 -310 0
-6 -286 -301 0
-7 -287 -302 0
-8 -288 -303 0
-9 -289 -304 0
-10 -290 -305 0
-6 -291 -296 0
-7 -292 -297 0
-8 -293 -298 0
-9 -294 -299 0
-10 -295 -300 0
-6 -316 -351 0
-7 -317 -352 0
-8 -318 -353 0
-9 -319 -354 0
-10 -320 -355 0
-6 -321 -346 0
-7 -322 -347 0
-8 -323 -348 0
-9 -324 -349 0
-10 -325 -350 0
-6 -326 -341 0
-7 -327 -342 0
-8 -328 -343 0
-9 -329 -344 0
-10 -330 -345 0
-6 -331 -336 0
-7 -332 -337 0
-8 -333 -338 0
-9 -334 -339 0
-10 -335 -340 0
-6 -356 -391 0
-7 -357 -392 0
-8 -358 -393 0
-9 -359 -394 0
-10 -360 -395 0
-6 -361 -386 0
-7 -362 -387 0
-8 -363 -388 0
-9 -364 -389 0
-10 -365 -390 0
-6 -366 -381 0
-7 -367 -382 0
-8 -368 -383 0
-9 -369 -384 0
-10 -370 -385 0
-6 -371 -376 0
-7 -372 -377 0
-8 -373 -378 0
-9 -374 -379 0
-10 -375 -380 0
-6 -396 -431 0
-7 -397 -432 0
-8 -398 -433 0
-9 -399 -434 0
-10 -400 -435 0
-6 -401 -426 0
-7 -402 -427 0
-8 -403 -428 0
-9 -404 -429 0
-10 -405 -430 0
-6 -406 -421 0
-7 -407 -422 0
-8 -408 -423 0
-9 -409 -424 0
-10 -410 -425 0
-6 -411 -416 0
-7 -412 -417 0
-8 -413 -418 0
-9 -414 -419 0
-10 -415 -420 0
-6 -436 -471 0
-7 -437 -472 0
-8 -438 -473 0
-9 -439 -474 0
-10 -440 -475 0
-6 -441 -466 0
-7 -442 -467 0
-8 -443 -468 0
-9 -444 -469 0
-10 -445 -470 0
-6 -446 -461 0
-7 -447 -462 0
-8 -448 -463 0
-9 -449 -464 0
-10 -450 -465 0
-6 -451 -456 0
-7 -452 -457 0
-8 -453 -458 0
-9 -454 -459 0
-10 -455 -460 0
-6 -476 -511 0
-7 -477 -512 0
-8 -478 -513 0
-9 -479 -514 0
-10 -480 -515 0
-6 -481 -506 0
-7 -482 -507 0
-8 -483 -508 0
-9 -484 -509 0
-10 -485 -510 0
-6 -486 -501 0
-7 -487 -502 0
-8 -488 -503 0
-9 -489 -504 0
-10 -490 -505 0
-6 -491 -496 0
-7 -492 -497 0
-8 -493 -498 0
-9 -494 -499 0
-10 -495 -500 0
-6 -516 -551 0
-7 -517 -552 0
-8 -518 -553 0
-9 -519 -554 0
-10 -520 -555 0
-6 -521 -546 0
-7 -522 -547 0
-8 -523 -548 0
-9 -524 -549 0
-10 -525 -550 0
-6 -526 -541 0
-7 -527 -542 0
-8 -528 -543 0
-9 -529 -544 0
-10 -530 -545 0
-6 -531 -536 0
-7 -532 -537 0
-8 -533 -538 0
-9 -534 -539 0
-10 -535 -540 0
-6 -556 -591 0
-7 -557 -592 0
-8 -558 -593 0
-9 -559 -594 0
-10 -560 -595 0
-6 -561 -586 0
-7 -562 -587 0
-8 -563 -588 0
-9 -564 -589 0
-10 -565 -590 0
-6 -566 -581 0
-7 -567 -582 0
-8 -568 -583 0
-9 -569 -584 0
-10 -570 -585 0
-6 -571 -576 0
-7 -572 -577 0
-8 -573 -578 0
-9 -574 -579 0
-10 -575 -580 0
-6 -596 -631 0
-7 -597 -632 0
-8 -598 -633 0
-9 -599 -634 0
-10 -600 -635 0
-6 -601 -626 0
-7 -602 -627 0
-8 -603 -628 0
-9 -604 -629 0
-10 -605 -630 0
-6 -606 -621 0
-7 -607 -622 0
-8 -608 -623 0
-9 -609 -624 0
-10 -610 -625 0
-6 -611 -616 0
-7 -612 -617 0
-8 -613 -618 0
-9 -614 -619 0
-10 -615 -620 0
-6 -636 -671 0
-7 -637 -672 0
-8 -638 -673 0
-9 -639 -674 0
-10 -640 -675 0
-6 -641 -666 0
-7 -642 -667 0
-8 -643 -668 0
-9 -644 -669 0
-10 -645 -670 0
-6 -646 -661 0
-7 -647 -662 0
-8 -648 -663 0
-9 -649 -664 0
-10 -650 -665 0
-6 -651 -656 0
-7 -652 -657 0
-8 -653 -658 0
-9 -654 -659 0
-10 -655 -660 0
-6 -676 -711 0
-7 -677 -712 0
-8 -678 -713 0
-9 -679 -714 0
-10 -680 -715 0
-6 -681 -706 0
-7 -682 -707 0
-8 -683 -708 0
-9 -684 -709 0
-10 -685 -710 0
-6 -686 -701 0
-7 -687 -702 0
-8 -688 -703 0
-9 -689 -704 0
-10 -690 -705 0
-6 -691 -696 0
-7 -692 -697 0
-8 -693 -698 0
-9 -694 -699 0
-10 -695 -700 0
-6 -716 -751 0
-7 -717 -752 0
-8 -718 -753 0
-9 -719 -754 0
-10 -720 -755 0
-6 -721 -746 0
-7 -722 -747 0
-8 -723 -748 0
-9 -724 -749 0
-10 -725 -750 0
-6 -726 -741 0
-7 -727 -742 0
-8 -728 -743 0
-9 -729 -744 0
-10 -730 -745 0
-6 -731 -736 0
-7 -732 -737 0
-8 -733 -738 0
-9 -734 -739 0
-10 -735 -740 0
-6 -756 -791 0
-7 -757 -792 0
-8 -758 -793 0
-9 -759 -794 0
-10 -760 -795 0
-6 -761 -786 0
-7 -762 -787 0
-8 -763 -788 0
-9 -764 -789 0
-10 -765 -790 0
-6 -766 -781 0
-7 -767 -782 0
-8 -768 -783 0
-9 -769 -784 0
-10 -770 -785 0
-6 -771 -776 0
-7 -772 -777 0
-8 -773 -778 0
-9 -774 -779 0
-10 -775 -780 0
-1 -156 -196 0
-2 -157 -197 0
-3 -158 -198 0
-4 -159 -199 0
-5 -160 -200 0
-1 -161 -201 0
-2 -162 -202 0
-3 -163 -203 0
-4 -164 -204 0
-5 -165 -205 0
-1 -166 -206 0
-2 -167 -207 0
-3 -168 -208 0
-4 -169 -209 0
-5 -170 -210 0
-1 -171 -211 0
-2 -172 -212 0
-3 -173 -213 0
-4 -174 -214 0
-5 -175 -215 0
-1 -176 -216 0
-2 -177 -217 0
-3 -178 -218 0
-4 -179 -219 0
-5 -180 -220 0
-1 -181 -221 0
-2 -182 -222 0
-3 -183 -223 0
-4 -184 -224 0
-5 -185 -225 0
-1 -186 -226 0
-2 -187 -227 0
-3 -188 -228 0
-4 -189 -229 0
-5 -190 -230 0
-1 -191 -231 0
-2 -192 -232 0
-3 -193 -233 0
-4 -194 -234 0
-5 -195 -235 0
-1 -236 -276 0
-2 -237 -277 0
-3 -238 -278 0
-4 -239 -279 0
-5 -240 -280 0
-1 -241 -281 0
-2 -242 -282 0
-3 -243 -283 0
-4 -244 -284 0
-5 -245 -285 0
-1 -246 -286 0
-2 -247 -287 0
-3 -248 -288 0
-4 -249 -289 0
-5 -250 -290 0
-1 -251 -291 0
-2 -252 -292 0
-3 -253 -293 0
-4 -254 -294 0
-5 -255 -295 0
-1 -256 -296 0
-2 -257 -297 0
-3 -258 -298 0
-4 -259 -299 0
-5 -260 -300 0
-1 -261 -301 0
-2 -262 -302 0
-3 -263 -303 0
-4 -264 -304 0
-5 -265 -305 0
-1 -266 -306 0
-2 -267 -307 0
-3 -268 -308 0
-4 -269 -309 0
-5 -270 -310 0
-1 -271 -311 0
-2 -272 -312 0
-3 -273 -313 0
-4 -274 -314 0
-5 -275 -315 0
-1 -316 -356 0
-2 -317 -357 0
-3 -318 -358 0
-4 -319 -359 0
-5 -320 -360 0
-1 -321 -361 0
-2 -322 -362 0
-3 -323 -363 0
-4 -324 -364 0
-5 -325 -365 0
-1 -326 -366 0
-2 -327 -367 0
-3 -328 -368 0
-4 -329 -369 0
-5 -330 -370 0
-1 -331 -371 0
-2 -332 -372 0
-3 -333 -373 0
-4 -334 -374 0
-5 -335 -375 0
-1 -336 -376 0
-2 -337 -377 0
-3 -338 -378 0
-4 -339 -379 0
-5 -340 -380 0
-1 -341 -381 0
-2 -342 -382 0
-3 -343 -383 0
-4 -344 -384 0
-5 -345 -385 0
-1 -346 -386 0
-2 -347 -387 0
-3 -348 -388 0
-4 -349 -389 0
-5 -350 -390 0
-1 -351 -391 0
-2 -352 -392 0
-3 -353 -393 0
-4 -354 -394 0
-5 -355 -395 0
-1 -396 -436 0
-2 -397 -437 0
-3 -398 -438 0
-4 -399 -439 0
-5 -400 -440 0
-1 -401 -441 0
-2 -402 -442 0
-3 -403 -443 0
-4 -404 -444 0
-5 -405 -445 0
-1 -406 -446 0
-2 -407 -447 0
-3 -408 -448 0
-4 -409 -449 0
-5 -410 -450 0
-1 -411 -451 0
-2 -412 -452 0
-3 -413 -453 0
-4 -414 -454 0
-5 -415 -455 0
-1 -416 -456 0
-2 -417 -457 0
-3 -418 -458 0
-4 -419 -459 0
-5 -420 -460 0
-1 -421 -461 0
-2 -422 -462 0
-3 -423 -463 0
-4 -424 -464 0
-5 -425 -465 0
-1 -426 -466 0
-2 -427 -467 0
-3 -428 -468 0
-4 -429 -469 0
-5 -430 -470 0
-1 -431 -471 0
-2 -432 -472 0
-3 -433 -473 0
-4 -434 -474 0
-5 -435 -475 0
-1 -476 -516 0
-2 -477 -517 0
-3 -478 -518 0
-4 -479 -519 0
-5 -480 -520 0
-1 -481 -521 0
-2 -482 -522 0
-3 -483 -523 0
-4 -484 -524 0
-5 -485 -525 0
-1 -486 -526 0
-2 -487 -527 0
-3 -488 -528 0
-4 -489 -529 0
-5 -490 -530 0
-1 -491 -531 0
-2 -492 -532 0
-3 -493 -533 0
-4 -494 -534 0
-5 -495 -535 0
-1 -496 -536 0
-2 -497 -537 0
-3 -498 -538 0
-4 -499 -539 0
-5 -500 -540 0
-1 -501 -541 0
-2 -502 -542 0
-3 -503 -543 0
-4 -504 -544 0
-5 -505 -545 0
-1 -506 -546 0
-2 -507 -547 0
-3 -508 -548 0
-4 -509 -549 0
-5 -510 -550 0
-1 -511 -551 0
-2 -512 -552 0
-3 -513 -553 0
-4 -514 -554 0
-5 -515 -555 0
-1 -556 -596 0
-2 -557 -597 0
-3 -558 -598 0
-4 -559 -599 0
-5 -560 -600 0
-1 -561 -601 0
-2 -562 -602 0
-3 -563 -603 0
-4 -564 -604 0
-5 -565 -605 0
-1 -566 -606 0
-2 -567 -607 0
-3 -568 -608 0
-4 -569 -609 0
-5 -570 -610 0
-1 -571 -611 0
-2 -572 -612 0
-3 -573 -613 0
-4 -574 -614 0
-5 -575 -615 0
-1 -576 -616 0
-2 -577 -617 0
-3 -578 -618 0
-4 -579 -619 0
-5 -580 -620 0
-1 -581 -621 0
-2 -582 -622 0
-3 -583 -623 0
-4 -584 -624 0
-5 -585 -625 0
-1 -586 -626 0
-2 -587 -627 0
-3 -588 -628 0
-4 -589 -629 0
-5 -590 -630 0
-1 -591 -631 0
-2 -592 -632 0
-3 -593 -633 0
-4 -594 -634 0
-5 -595 -635 0
-1 -636 -676 0
-2 -637 -677 0
-3 -638 -678 0
-4 -639 -679 0
-5 -640 -680 0
-1 -641 -681 0
-2 -642 -682 0
-3 -643 -683 0
-4 -644 -684 0
-5 -645 -685 0
-1 -646 -686 0
-2 -647 -687 0
-3 -648 -688 0
-4 -649 -689 0
-5 -650 -690 0
-1 -651 -691 0
-2 -652 -692 0
-3 -653 -693 0
-4 -654 -694 0
-5 -655 -695 0
-1 -656 -696 0
-2 -657 -697 0
-3 -658 -698 0
-4 -659 -699 0
-5 -660 -700 0
-1 -661 -701 0
-2 -662 -702 0
-3 -663 -703 0
-4 -664 -704 0
-5 -665 -705 0
-1 -666 -706 0
-2 -667 -707 0
-3 -668 -708 0
-4 -669 -709 0
-5 -670 -710 0
-1 -671 -711 0
-2 -672 -712 0
-3 -673 -713 0
-4 -674 -714 0
-5 -675 -715 0
-1 -716 -756 0
-2 -717 -757 0
-3 -718 -758 0
-4 -719 -759 0
-5 -720 -760 0
-1 -721 -761 0
-2 -722 -762 0
-3 -723 -763 0
-4 -724 -764 0
-5 -725 -765 0
-1 -726 -766 0
-2 -727 -767 0
-3 -728 -768 0
-4 -729 -769 0
-5 -730 -770 0
-1 -731 -771 0
-2 -732 -772 0
-3 -733 -773 0
-4 -734 -774 0
-5 -735 -775 0
-1 -736 -776 0
-2 -737 -777 0
-3 -738 -778 0
-4 -739 -779 0
-5 -740 -780 0
-1 -741 -781 0
-2 -742 -782 0
-3 -743 -783 0
-4 -744 -784 0
-5 -745 -785 0
-1 -746 -786 0
-2 -747 -787 0
-3 -748 -788 0
-4 -749 -789 0
-5 -750 -790 0
-1 -751 -791 0
-2 -752 -792 0
-3 -753 -793 0
-4 -754 -794 0
-5 -755 -795 0
-11 -156 -201 0
-12 -157 -202 0
-13 -158 -203 0
-14 -159 -204 0
-15 -160 -205 0
-11 -161 -196 0
-12 -162 -197 0
-13 -163 -198 0
-14 -164 -199 0
-15 -165 -200 0
-11 -166 -211 0
-12 -167 -212 0
-13 -168 -213 0
-14 -169 -214 0
-15 -170 -215 0
-11 -171 -206 0
-12 -172 -207 0
-13 -173 -208 0
-14 -174 -209 0
-15 -175 -210 0
-11 -176 -221 0
-12 -177 -222 0
-13 -178 -223 0
-14 -179 -224 0
-15 -180 -225 0
-11 -181 -216 0
-12 -182 -217 0
-13 -183 -218 0
-14 -184 -219 0
-15 -185 -220 0
-11 -186 -231 0
-12 -187 -232 0
-13 -188 -233 0
-14 -189 -234 0
-15 -190 -235 0
-11 -191 -226 0
-12 -192 -227 0
-13 -193 -228 0
-14 -194 -229 0
-15 -195 -230 0
-11 -236 -281 0
-12 -237 -282 0
-13 -238 -283 0
-14 -239 -284 0
-15 -240 -285 0
-11 -241 -276 0
-12 -242 -277 0
-13 -243 -278 0
-14 -244 -279 0
-15 -245 -280 0
-11 -246 -291 0
-12 -247 -292 0
-13 -248 -293 0
-14 -249 -294 0
-15 -250 -295 0
-11 -251 -286 0
-12 -252 -287 0
-13 -253 -288 0
-14 -254 -289 0
-15 -255 -290 0
-11 -256 -301 0
-12 -257 -302 0
-13 -258 -303 0
-14 -259 -304 0
-15 -260 -305 0
-11 -261 -296 0
-12 -262 -297 0
-13 -263 -298 0
-14 -264 -299 0
-15 -265 -300 0
-11 -266 -311 0
-12 -267 -312 0
-13 -268 -313 0
-14 -269 -314 0
-15 -270 -315 0
-11 -271 -306 0
-12 -272 -307 0
-13 -273 -308 0
-14 -274 -309 0
-15 -275 -310 0
-11 -316 -361 0
-12 -317 -362 0
-13 -318 -363 0
-14 -319 -364 0
-15 -320 -365 0
-11 -321 -356 0
-12 -322 -357 0
-13 -323 -358 0
-14 -324 -359 0
-15 -325 -360 0
-11 -326 -371 0
-12 -327 -372 0
-13 -328 -373 0
-14 -329 -374 0
-15 -330 -375 0
-11 -331 -366 0
-12 -332 -367 0
-13 -333 -368 0
-14 -334 -369 0
-15 -335 -370 0
-11 -336 -381 0
-12 -337 -382 0
-13 -338 -383 0
-14 -339 -384 0
-15 -340 -385 0
-11 -341 -376 0
-12 -342 -377 0
-13 -343 -378 0
-14 -344 -379 0
-15 -345 -380 0
-11 -346 -391 0
-12 -347 -392 0
-13 -348 -393 0
-14 -349 -394 0
-15 -350 -395 0
-11 -351 -386 0
-12 -352 -387 0
-13 -353 -388 0
-14 -354 -389 0
-15 -355 -390 0
-11 -396 -441 0
-12 -397 -442 0
-13 -398 -443 0
-14 -399 -444 0
-15 -400 -445 0
-11 -401 -436 0
-12 -402 -437 0
-13 -403 -438 0
-14 -404 -439 0
-15 -405 -440 0
-11 -406 -451 0
-12 -407 -452 0
-13 -408 -453 0
-14 -409 -454 0
-15 -410 -455 0
-11 -411 -446 0
-12 -412 -447 0
-13 -413 -448 0
-14 -414 -449 0
-15 -415 -450 0
-11 -416 -461 0
-12 -417 -462 0
-13 -418 -463 0
-14 -419 -464 0
-15 -420 -465 0
-11 -421 -456 0
-12 -422 -457 0
-13 -423 -458 0
-14 -424 -459 0
-15 -425 -460 0
-11 -426 -471 0
-12 -427 -472 0
-13 -428 -473 0
-14 -429 -474 0
-15 -430 -475 0
-11 -431 -466 0
-12 -432 -467 0
-13 -433 -468 0
-14 -434 -469 0
-15 -435 -470 0
-11 -476 -521 0
-12 -477 -522 0
-13 -478 -523 0
-14 -479 -524 0
-15 -480 -525 0
-11 -481 -516 0
-12 -482 -517 0
-13 -483 -518 0
-14 -484 -519 0
-15 -485 -520 0
-11 -486 -531 0
-12 -487 -532 0
-13 -488 -533 0
-14 -489 -534 0
-15 -490 -535 0
-11 -491 -526 0
-12 -492 -527 0
-13 -493 -528 0
-14 -494 -529 0
-15 -495 -530 0
-11 -496 -541 0
-12 -497 -542 0
-13 -498 -543 0
-14 -499 -544 0
-15 -500 -545 0
-11 -501 -536 0
-12 -502 -537 0
-13 -503 -538 0
-14 -504 -539 0
-15 -505 -540 0
-11 -506 -551 0
-12 -507 -552 0
-13 -508 -553 0
-14 -509 -554 0
-15 -510 -555 0
-11 -511 -546 0
-12 -512 -547 0
-13 -513 -548 0
-14 -514 -549 0
-15 -515 -550 0
-11 -556 -601 0
-12 -557 -602 0
-13 -558 -603 0
-14 -559 -604 0
-15 -560 -605 0
-11 -561 -596 0
-12 -562 -597 0
-13 -563 -598 0
-14 -564 -599 0
-15 -565 -600 0
-11 -566 -611 0
-12 -567 -612 0
-13 -568 -613 0
-14 -569 -614 0
-15 -570 -615 0
-11 -571 -606 0
-12 -572 -607 0
-13 -573 -608 0
-14 -574 -609 0
-15 -575 -610 0
-11 -576 -621 0
-12 -577 -622 0
-13 -578 -623 0
-14 -579 -624 0
-15 -580 -625 0
-11 -581 -616 0
-12 -582 -617 0
-13 -583 -618 0
-14 -584 -619 0
-15 -585 -620 0
-11 -586 -631 0
-12 -587 -632 0
-13 -588 -633 0
-14 -589 -634 0
-15 -590 -635 0
-11 -591 -626 0
-12 -592 -627 0
-13 -593 -628 0
-14 -594 -629 0
-15 -595 -630 0
-11 -636 -681 0
-12 -637 -682 0
-13 -638 -683 0
-14 -639 -684 0
-15 -640 -685 0
-11 -641 -676 0
-12 -642 -677 0
-13 -643 -678 0
-14 -644 -679 0
-15 -645 -680 0
-11 -646 -691 0
-12 -647 -692 0
-13 -648 -693 0
-14 -649 -694 0
-15 -650 -695 0
-11 -651 -686 0
-12 -652 -687 0
-13 -653 -688 0
-14 -654 -689 0
-15 -655 -690 0
-11 -656 -701 0
-12 -657 -702 0
-13 -658 -703 0
-14 -659 -704 0
-15 -660 -705 0
-11 -661 -696 0
-12 -662 -697 0
-13 -663 -698 0
-14 -664 -699 0
-15 -665 -700 0
-11 -666 -711 0
-12 -667 -712 0
-13 -668 -713 0
-14 -669 -714 0
-15 -670 -715 0
-11 -671 -706 0
-12 -672 -707 0
-13 -673 -708 0
-14 -674 -709 0
-15 -675 -710 0
-11 -716 -761 0
-12 -717 -762 0
-13 -718 -763 0
-14 -719 -764 0
-15 -720 -765 0
-11 -721 -756 0
-12 -722 -757 0
-13 -723 -758 0
-14 -724 -759 0
-15 -725 -760 0
-11 -726 -771 0
-12 -727 -772 0
-13 -728 -773 0
-14 -729 -774 0
-15 -730 -775 0
-11 -731 -766 0
-12 -732 -767 0
-13 -733 -768 0
-14 -734 -769 0
-15 -735 -770 0
-11 -736 -781 0
-12 -737 -782 0
-13 -738 -783 0
-14 -739 -784 0
-15 -740 -785 0
-11 -741 -776 0
-12 -742 -777 0
-13 -743 -778 0
-14 -744 -779 0
-15 -745 -780 0
-11 -746 -791 0
-12 -747 -792 0
-13 -748 -793 0
-14 -749 -794 0
-15 -750 -795 0
-11 -751 -786 0
-12 -752 -787 0
-13 -753 -788 0
-14 -754 -789 0
-15 -755 -790 0
-1 -156 -206 0
-2 -157 -207 0
-3 -158 -208 0
-4 -159 -209 0
-5 -160 -210 0
-1 -161 -211 0
-2 -162 -212 0
-3 -163 -213 0
-4 -164 -214 0
-5 -165 -215 0
-1 -166 -196 0
-2 -167 -197 0
-3 -168 -198 0
-4 -169 -199 0
-5 -170 -200 0
-1 -171 -201 0
-2 -172 -202 0
-3 -173 -203 0
-4 -174 -204 0
-5 -175 -205 0
-1 -176 -226 0
-2 -177 -227 0
-3 -178 -228 0
-4 -179 -229 0
-5 -180 -230 0
-1 -181 -231 0
-2 -182 -232 0
-3 -183 -233 0
-4 -184 -234 0
-5 -185 -235 0
-1 -186 -216 0
-2 -187 -217 0
-3 -188 -218 0
-4 -189 -219 0
-5 -190 -220 0
-1 -191 -221 0
-2 -192 -222 0
-3 -193 -223 0
-4 -194 -224 0
-5 -195 -225 0
-1 -236 -286 0
-2 -237 -287 0
-3 -238 -288 0
-4 -239 -289 0
-5 -240 -290 0
-1 -241 -291 0
-2 -242 -292 0
-3 -243 -293 0
-4 -244 -294 0
-5 -245 -295 0
-1 -246 -276 0
-2 -247 -277 0
-3 -248 -278 0
-4 -249 -279 0
-5 -250 -280 0
-1 -251 -281 0
-2 -252 -282 0
-3 -253 -283 0
-4 -254 -284 0
-5 -255 -285 0
-1 -256 -306 0
-2 -257 -307 0
-3 -258 -308 0
-4 -259 -309 0
-5 -260 -310 0
-1 -261 -311 0
-2 -262 -312 0
-3 -263 -313 0
-4 -264 -314 0
-5 -265 -315 0
-1 -266 -296 0
-2 -267 -297 0
-3 -268 -298 0
-4 -269 -299 0
-5 -270 -300 0
-1 -271 -301 0
-2 -272 -302 0
-3 -273 -303 0
-4 -274 -304 0
-5 -275 -305 0
-1 -316 -366 0
-2 -317 -367 0
-3 -318 -368 0
-4 -319 -369 0
-5 -320 -370 0
-1 -321 -371 0
-2 -322 -372 0
-3 -323 -373 0
-4 -324 -374 0
-5 -325 -375 0
-1 -326 -356 0
-2 -327 -357 0
-3 -328 -358 0
-4 -329 -359 0
-5 -330 -360 0
-1 -331 -361 0
-2 -332 -362 0
-3 -333 -363 0
-4 -334 -364 0
-5 -335 -365 0
-1 -336 -386 0
-2 -337 -387 0
-3 -338 -388 0
-4 -339 -389 0
-5 -340 -390 0
-1 -341 -391 0
-2 -342 -392 0
-3 -343 -393 0
-4 -344 -394 0
-5 -345 -395 0
-1 -346 -376 0
-2 -347 -377 0
-3 -348 -378 0
-4 -349 -379 0
-5 -350 -380 0
-1 -351 -381 0
-2 -352 -382 0
-3 -353 -383 0
-4 -354 -384 0
-5 -355 -385 0
-1 -396 -446 0
-2 -397 -447 0
-3 -398 -448 0
-4 -399 -449 0
-5 -400 -450 0
-1 -401 -451 0
-2 -402 -452 0
-3 -403 -453 0
-4 -404 -454 0
-5 -405 -455 0
-1 -406 -436 0
-2 -407 -437 0
-3 -408 -438 0
-4 -409 -439 0
-5 -410 -440 0
-1 -411 -441 0
-2 -412 -442 0
-3 -413 -443 0
-4 -414 -444 0
-5 -415 -445 0
-1 -416 -466 0
-2 -417 -467 0
-3 -418 -468 0
-4 -419 -469 0
-5 -420 -470 0
-1 -421 -471 0
-2 -422 -472 0
-3 -423 -473 0
-4 -424 -474 0
-5 -425 -475 0
-1 -426 -456 0
-2 -427 -457 0
-3 -428 -458 0
-4 -429 -459 0
-5 -430 -460 0
-1 -431 -461 0
-2 -432 -462 0
-3 -433 -463 0
-4 -434 -464 0
-5 -435 -465 0
-1 -476 -526 0
-2 -477 -527 0
-3 -478 -528 0
-4 -479 -529 0
-5 -480 -530 0
-1 -481 -531 0
-2 -482 -532 0
-3 -483 -533 0
-4 -484 -534 0
-5 -485 -535 0
-1 -486 -516 0
-2 -487 -517 0
-3 -488 -518 0
-4 -489 -519 0
-5 -490 -520 0
-1 -491 -521 0
-2 -492 -522 0
-3 -493 -523 0
-4 -494 -524 0
-5 -495 -525 0
-1 -496 -546 0
-2 -497 -547 0
-3 -498 -548 0
-4 -499 -549 0
-5 -500 -550 0
-1 -501 -551 0
-2 -502 -552 0
-3 -503 -553 0
-4 -504 -554 0
-5 -505 -555 0
-1 -506 -536 0
-2 -507 -537 0
-3 -508 -538 0
-4 -509 -539 0
-5 -510 -540 0
-1 -511 -541 0
-2 -512 -542 0
-3 -513 -543 0
-4 -514 -544 0
-5 -515 -545 0
-1 -556 -606 0
-2 -557 -607 0
-3 -558 -608 0
-4 -559 -609 0
-5 -560 -610 0
-1 -561 -611 0
-2 -562 -612 0
-3 -563 -613 0
-4 -564 -614 0
-5 -565 -615 0
-1 -566 -596 0
-2 -567 -597 0
-3 -568 -598 0
-4 -569 -599 0
-5 -570 -600 0
-1 -571 -601 0
-2 -572 -602 0
-3 -573 -603 0
-4 -574 -604 0
-5 -575 -605 0
-1 -576 -626 0
-2 -577 -627 0
-3 -578 -628 0
-4 -579 -629 0
-5 -580 -630 0
-1 -581 -631 0
-2 -582 -632 0
-3 -583 -633 0
-4 -584 -634 0
-5 -585 -635 0
-1 -586 -616 0
-2 -587 -617 0
-3 -588 -618 0
-4 -589 -619 0
-5 -590 -620 0
-1 -591 -621 0
-2 -592 -622 0
-3 -593 -623 0
-4 -594 -624 0
-5 -595 -625 0
-1 -636 -686 0
-2 -637 -687 0
-3 -638 -688 0
-4 -639 -689 0
-5 -640 -690 0
-1 -641 -691 0
-2 -642 -692 0
-3 -643 -693 0
-4 -644 -694 0
-5 -645 -695 0
-1 -646 -676 0
-2 -647 -677 0
-3 -648 -678 0
-4 -649 -679 0
-5 -650 -680 0
-1 -651 -681 0
-2 -652 -682 0
-3 -653 -683 0
-4 -654 -684 0
-5 -655 -685 0
-1 -656 -706 0
-2 -657 -707 0
-3 -658 -708 0
-4 -659 -709 0
-5 -660 -710 0
-1 -661 -711 0
-2 -662 -712 0
-3 -663 -713 0
-4 -664 -714 0
-5 -665 -715 0
-1 -666 -696 0
-2 -667 -697 0
-3 -668 -698 0
-4 -669 -699 0
-5 -670 -700 0
-1 -671 -701 0
-2 -672 -702 0
-3 -673 -703 0
-4 -674 -704 0
-5 -675 -705 0
-1 -716 -766 0
-2 -717 -767 0
-3 -718 -768 0
-4 -719 -769 0
-5 -720 -770 0
-1 -721 -771 0
-2 -722 -772 0
-3 -723 -773 0
-4 -724 -774 0
-5 -725 -775 0
-1 -726 -756 0
-2 -727 -757 0
-3 -728 -758 0
-4 -729 -759 0
-5 -730 -760 0
-1 -731 -761 0
-2 -732 -762 0
-3 -733 -763 0
-4 -734 -764 0
-5 -735 -765 0
-1 -736 -786 0
-2 -737 -787 0
-3 -738 -788 0
-4 -739 -789 0
-5 -740 -790 0
-1 -741 -791 0
-2 -742 -792 0
-3 -743 -793 0
-4 -744 -794 0
-5 -745 -795 0
-1 -746 -776 0
-2 -747 -777 0
-3 -748 -778 0
-4 -749 -779 0
-5 -750 -780 0
-1 -751 -781 0
-2 -752 -782 0
-3 -753 -783 0
-4 -754 -784 0
-5 -755 -785 0
-6 -156 -211 0
-7 -157 -212 0
-8 -158 -213 0
-9 -159 -214 0
-10 -160 -215 0
-6 -161 -206 0
-7 -162 -207 0
-8 -163 -208 0
-9 -164 -209 0
-10 -165 -210 0
-6 -166 -201 0
-7 -167 -202 0
-8 -168 -203 0
-9 -169 -204 0
-10 -170 -205 0
-6 -171 -196 0
-7 -172 -197 0
-8 -173 -198 0
-9 -174 -199 0
-10 -175 -200 0
-6 -176 -231 0
-7 -177 -232 0
-8 -178 -233 0
-9 -179 -234 0
-10 -180 -235 0
-6 -181 -226 0
-7 -182 -227 0
-8 -183 -228 0
-9 -184 -229 0
-10 -185 -230 0
-6 -186 -221 0
-7 -187 -222 0
-8 -188 -223 0
-9 -189 -224 0
-10 -190 -225 0
-6 -191 -216 0
-7 -192 -217 0
-8 -193 -218 0
-9 -194 -219 0
-10 -195 -220 0
-6 -236 -291 0
-7 -237 -292 0
-8 -238 -293 0
-9 -239 -294 0
-10 -240 -295 0
-6 -241 -286 0
-7 -242 -287 0
-8 -243 -288 0
-9 -244 -289 0
-10 -245 -290 0
-6 -246 -281 0
-7 -247 -282 0
-8 -248 -283 0
-9 -249 -284 0
-10 -250 -285 0
-6 -251 -276 0
-7 -252 -277 0
-8 -253 -278 0
-9 -254 -279 0
-10 -255 -280 0
-6 -256 -311 0
-7 -257 -312 0
-8 -258 -313 0
-9 -259 -314 0
-10 -260 -315 0
-6 -261 -306 0
-7 -262 -307 0
-8 -263 -308 0
-9 -264 -309 0
-10 -265 -310 0
-6 -266 -301 0
-7 -267 -302 0
-8 -268 -303 0
-9 -269 -304 0
-10 -270 -305 0
-6 -271 -296 0
-7 -272 -297 0
-8 -273 -298 0
-9 -274 -299 0
-10 -275 -300 0
-6 -316 -371 0
-7 -317 -372 0
-8 -318 -373 0
-9 -319 -374 0
-10 -320 -375 0
-6 -321 -366 0
-7 -322 -367 0
-8 -323 -368 0
-9 -324 -369 0
-10 -325 -370 0
-6 -326 -361 0
-7 -327 -362 0
-8 -328 -363 0
-9 -329 -364 0
-10 -330 -365 0
-6 -331 -356 0
-7 -332 -357 0
-8 -333 -358 0
-9 -334 -359 0
-10 -335 -360 0
-6 -336 -391 0
-7 -337 -392 0
-8 -338 -393 0
-9 -339 -394 0
-10 -340 -395 0
-6 -341 -386 0
-7 -342 -387 0
-8 -343 -388 0
-9 -344 -389 0
-10 -345 -390 0
-6 -346 -381 0
-7 -347 -382 0
-8 -348 -383 0
-9 -349 -384 0
-10 -350 -385 0
-6 -351 -376 0
-7 -352 -377 0
-8 -353 -378 0
-9 -354 -379 0
-10 -355 -380 0
-6 -396 -451 0
-7 -397 -452 0
-8 -398 -453 0
-9 -399 -454 0
-10 -400 -455 0
-6 -401 -446 0
-7 -402 -447 0
-8 -403 -448 0
-9 -404 -449 0
-10 -405 -450 0
-6 -406 -441 0
-7 -407 -442 0
-8 -408 -443 0
-9 -409 -444 0
-10 -410 -445 0
-6 -411 -436 0
-7 -412 -437 0
-8 -413 -438 0
-9 -414 -439 0
-10 -415 -440 0
-6 -416 -471 0
-7 -417 -472 0
-8 -418 -473 0
-9 -419 -474 0
-10 -420 -475 0
-6 -421 -466 0
-7 -422 -467 0
-8 -423 -468 0
-9 -424 -469 0
-10 -425 -470 0
-6 -426 -461 0
-7 -427 -462 0
-8 -428 -463 0
-9 -429 -464 0
-10 -430 -465 0
-6 -431 -456 0
-7 -432 -457 0
-8 -433 -458 0
-9 -434 -459 0
-10 -435 -460 0
-6 -476 -531 0
-7 -477 -532 0
-8 -478 -533 0
-9 -479 -534 0
-10 -480 -535 0
-6 -481 -526 0
-7 -482 -527 0
-8 -483 -528 0
-9 -484 -529 0
-10 -485 -530 0
-6 -486 -521 0
-7 -487 -522 0
-8 -488 -523 0
-9 -489 -524 0
-10 -490 -525 0
-6 -491 -516 0
-7 -492 -517 0
-8 -493 -518 0
-9 -494 -519 0
-10 -495 -520 0
-6 -496 -551 0
-7 -497 -552 0
-8 -498 -553 0
-9 -499 -554 0
-10 -500 -555 0
-6 -501 -546 0
-7 -502 -547 0
-8 -503 -548 0
-9 -504 -549 0
-10 -505 -550 0
-6 -506 -541 0
-7 -507 -542 0
-8 -508 -543 0
-9 -509 -544 0
-10 -510 -545 0
-6 -511 -536 0
-7 -512 -537 0
-8 -513 -538 0
-9 -514 -539 0
-10 -515 -540 0
-6 -556 -611 0
-7 -557 -612 0
-8 -558 -613 0
-9 -559 -614 0
-10 -560 -615 0
-6 -561 -606 0
-7 -562 -607 0
-8 -563 -608 0
-9 -564 -609 0
-10 -565 -610 0
-6 -566 -601 0
-7 -567 -602 0
-8 -568 -603 0
-9 -569 -604 0
-10 -570 -605 0
-6 -571 -596 0
-7 -572 -597 0
-8 -573 -598 0
-9 -574 -599 0
-10 -575 -600 0
-6 -576 -631 0
-7 -577 -632 0
-8 -578 -633 0
-9 -579 -634 0
-10 -580 -635 0
-6 -581 -626 0
-7 -582 -627 0
-8 -583 -628 0
-9 -584 -629 0
-10 -585 -630 0
-6 -586 -621 0
-7 -587 -622 0
-8 -588 -623 0
-9 -589 -624 0
-10 -590 -625 0
-6 -591 -616 0
-7 -592 -617 0
-8 -593 -618 0
-9 -594 -619 0
-10 -595 -620 0
-6 -636 -691 0
-7 -637 -692 0
-8 -638 -693 0
-9 -639 -694 0
-10 -640 -695 0
-6 -641 -686 0
-7 -642 -687 0
-8 -643 -688 0
-9 -644 -689 0
-10 -645 -690 0
-6 -646 -681 0
-7 -647 -682 0
-8 -648 -683 0
-9 -649 -684 0
-10 -650 -685 0
-6 -651 -676 0
-7 -652 -677 0
-8 -653 -678 0
-9 -654 -679 0
-10 -655 -680 0
-6 -656 -711 0
-7 -657 -712 0
-8 -658 -713 0
-9 -659 -714 0
-10 -660 -715 0
-6 -661 -706 0
-7 -662 -707 0
-8 -663 -708 0
-9 -664 -709 0
-10 -665 -710 0
-6 -666 -701 0
-7 -667 -702 0
-8 -668 -703 0
-9 -669 -704 0
-10 -670 -705 0
-6 -671 -696 0
-7 -672 -697 0
-8 -673 -698 0
-9 -674 -699 0
-10 -675 -700 0
-6 -716 -771 0
-7 -717 -772 0
-8 -718 -773 0
-9 -719 -774 0
-10 -720 -775 0
-6 -721 -766 0
-7 -722 -767 0
-8 -723 -768 0
-9 -724 -769 0
-10 -725 -770 0
-6 -726 -761 0
-7 -727 -762 0
-8 -728 -763 0
-9 -729 -764 0
-10 -730 -765 0
-6 -731 -756 0
-7 -732 -757 0
-8 -733 -758 0
-9 -734 -759 0
-10 -735 -760 0
-6 -736 -791 0
-7 -737 -792 0
-8 -738 -793 0
-9 -739 -794 0
-10 -740 -795 0
-6 -741 -786 0
-7 -742 -787 0
-8 -743 -788 0
-9 -744 -789 0
-10 -745 -790 0
-6 -746 -781 0
-7 -747 -782 0
-8 -748 -783 0
-9 -749 -784 0
-10 -750 -785 0
-6 -751 -776 0
-7 -752 -777 0
-8 -753 -778 0
-9 -754 -779 0
-10 -755 -780 0
-1 -156 -216 0
-2 -157 -217 0
-3 -158 -218 0
-4 -159 -219 0
-5 -160 -220 0
-1 -161 -221 0
-2 -162 -222 0
-3 -163 -223 0
-4 -164 -224 0
-5 -165 -225 0
-1 -166 -226 0
-2 -167 -227 0
-3 -168 -228 0
-4 -169 -229 0
-5 -170 -230 0
-1 -171 -231 0
-2 -172 -232 0
-3 -173 -233 0
-4 -174 -234 0
-5 -175 -235 0
-1 -176 -196 0
-2 -177 -197 0
-3 -178 -198 0
-4 -179 -199 0
-5 -180 -200 0
-1 -181 -201 0
-2 -182 -202 0
-3 -183 -203 0
-4 -184 -204 0
-5 -185 -205 0
-1 -186 -206 0
-2 -187 -207 0
-3 -188 -208 0
-4 -189 -209 0
-5 -190 -210 0
-1 -191 -211 0
-2 -192 -212 0
-3 -193 -213 0
-4 -194 -214 0
-5 -195 -215 0
-1 -236 -296 0
-2 -237 -297 0
-3 -238 -298 0
-4 -239 -299 0
-5 -240 -300 0
-1 -241 -301 0
-2 -242 -302 0
-3 -243 -303 0
-4 -244 -304 0
-5 -245 -305 0
-1 -246 -306 0
-2 -247 -307 0
-3 -248 -308 0
-4 -249 -309 0
-5 -250 -310 0
-1 -251 -311 0
-2 -252 -312 0
-3 -253 -313 0
-4 -254 -314 0
-5 -255 -315 0
-1 -256 -276 0
-2 -257 -277 0
-3 -258 -278 0
-4 -259 -279 0
-5 -260 -280 0
-1 -261 -281 0
-2 -262 -282 0
-3 -263 -283 0
-4 -264 -284 0
-5 -265 -285 0
-1 -266 -286 0
-2 -267 -287 0
-3 -268 -288 0
-4 -269 -289 0
-5 -270 -290 0
-1 -271 -291 0
-2 -272 -292 0
-3 -273 -293 0
-4 -274 -294 0
-5 -275 -295 0
-1 -316 -376 0
-2 -317 -377 0
-3 -318 -378 0
-4 -319 -379 0
-5 -320 -380 0
-1 -321 -381 0
-2 -322 -382 0
-3 -323 -383 0
-4 -324 -384 0
-5 -325 -385 0
-1 -326 -386 0
-2 -327 -387 0
-3 -328 -388 0
-4 -329 -389 0
-5 -330 -390 0
-1 -331 -391 0
-2 -332 -392 0
-3 -333 -393 0
-4 -334 -394 0
-5 -335 -395 0
-1 -336 -356 0
-2 -337 -357 0
-3 -338 -358 0
-4 -339 -359 0
-5 -340 -360 0
-1 -341 -361 0
-2 -342 -362 0
-3 -343 -363 0
-4 -344 -364 0
-5 -345 -365 0
-1 -346 -366 0
-2 -347 -367 0
-3 -348 -368 0
-4 -349 -369 0
-5 -350 -370 0
-1 -351 -371 0
-2 -352 -372 0
-3 -353 -373 0
-4 -354 -374 0
-5 -355 -375 0
-1 -396 -456 0
-2 -397 -457 0
-3 -398 -458 0
-4 -399 -459 0
-5 -400 -460 0
-1 -401 -461 0
-2 -402 -462 0
-3 -403 -463 0
-4 -404 -464 0
-5 -405 -465 0
-1 -406 -466 0
-2 -407 -467 0
-3 -408 -468 0
-4 -409 -469 0
-5 -410 -470 0
-1 -411 -471 0
-2 -412 -472 0
-3 -413 -473 0
-4 -414 -474 0
-5 -415 -475 0
-1 -416 -436 0
-2 -417 -437 0
-3 -418 -438 0
-4 -419 -439 0
-5 -420 -440 0
-1 -421 -441 0
-2 -422 -442 0
-3 -423 -443 0
-4 -424 -444 0
-5 -425 -445 0
-1 -426 -446 0
-2 -427 -447 0
-3 -428 -448 0
-4 -429 -449 0
-5 -430 -450 0
-1 -431 -451 0
-2 -432 -452 0
-3 -433 -453 0
-4 -434 -454 0
-5 -435 -455 0
-1 -476 -536 0
-2 -477 -537 0
-3 -478 -538 0
-4 -479 -539 0
-5 -480 -540 0
-1 -481 -541 0
-2 -482 -542 0
-3 -483 -543 0
-4 -484 -544 0
-5 -485 -545 0
-1 -486 -546 0
-2 -487 -547 0
-3 -488 -548 0
-4 -489 -549 0
-5 -490 -550 0
-1 -491 -551 0
-2 -492 -552 0
-3 -493 -553 0
-4 -494 -554 0
-5 -495 -555 0
-1 -496 -516 0
-2 -497 -517 0
-3 -498 -518 0
-4 -499 -519 0
-5 -500 -520 0
-1 -501 -521 0
-2 -502 -522 0
-3 -503 -523 0
-4 -504 -524 0
-5 -505 -525 0
-1 -506 -526 0
-2 -507 -527 0
-3 -508 -528 0
-4 -509 -529 0
-5 -510 -530 0
-1 -511 -531 0
-2 -512 -532 0
-3 -513 -533 0
-4 -514 -534 0
-5 -515 -535 0
-1 -556 -616 0
-2 -557 -617 0
-3 -558 -618 0
-4 -559 -619 0
-5 -560 -620 0
-1 -561 -621 0
-2 -562 -622 0
-3 -563 -623 0
-4 -564 -624 0
-5 -565 -625 0
-1 -566 -626 0
-2 -567 -627 0
-3 -568 -628 0
-4 -569 -629 0
-5 -570 -630 0
-1 -571 -631 0
-2 -572 -632 0
-3 -573 -633 0
-4 -574 -634 0
-5 -575 -635 0
-1 -576 -596 0
-2 -577 -597 0
-3 -578 -598 0
-4 -579 -599 0
-5 -580 -600 0
-1 -581 -601 0
-2 -582 -602 0
-3 -583 -603 0
-4 -584 -604 0
-5 -585 -605 0
-1 -586 -606 0
-2 -587 -607 0
-3 -588 -608 0
-4 -589 -609 0
-5 -590 -610 0
-1 -591 -611 0
-2 -592 -612 0
-3 -593 -613 0
-4 -594 -614 0
-5 -595 -615 0
-1 -636 -696 0
-2 -637 -697 0
-3 -638 -698 0
-4 -639 -699 0
-5 -640 -700 0
-1 -641 -701 0
-2 -642 -702 0
-3 -643 -703 0
-4 -644 -704 0
-5 -645 -705 0
-1 -646 -706 0
-2 -647 -707 0
-3 -648 -708 0
-4 -649 -709 0
-5 -650 -710 0
-1 -651 -711 0
-2 -652 -712 0
-3 -653 -713 0
-4 -654 -714 0
-5 -655 -715 0
-1 -656 -676 0
-2 -657 -677 0
-3 -658 -678 0
-4 -659 -679 0
-5 -660 -680 0
-1 -661 -681 0
-2 -662 -682 0
-3 -663 -683 0
-4 -664 -684 0
-5 -665 -685 0
-1 -666 -686 0
-2 -667 -687 0
-3 -668 -688 0
-4 -669 -689 0
-5 -670 -690 0
-1 -671 -691 0
-2 -672 -692 0
-3 -673 -693 0
-4 -674 -694 0
-5 -675 -695 0
-1 -716 -776 0
-2 -717 -777 0
-3 -718 -778 0
-4 -719 -779 0
-5 -720 -780 0
-1 -721 -781 0
-2 -722 -782 0
-3 -723 -783 0
-4 -724 -784 0
-5 -725 -785 0
-1 -726 -786 0
-2 -727 -787 0
-3 -728 -788 0
-4 -729 -789 0
-5 -730 -790 0
-1 -731 -791 0
-2 -732 -792 0
-3 -733 -793 0
-4 -734 -794 0
-5 -735 -795 0
-1 -736 -756 0
-2 -737 -757 0
-3 -738 -758 0
-4 -739 -759 0
-5 -740 -760 0
-1 -741 -761 0
-2 -742 -762 0
-3 -743 -763 0
-4 -744 -764 0
-5 -745 -765 0
-1 -746 -766 0
-2 -747 -767 0
-3 -748 -768 0
-4 -749 -769 0
-5 -750 -770 0
-1 -751 -771 0
-2 -752 -772 0
-3 -753 -773 0
-4 -754 -774 0
-5 -755 -775 0
-6 -156 -221 0
-7 -157 -222 0
-8 -158 -223 0
-9 -159 -224 0
-10 -160 -225 0
-6 -161 -216 0
-7 -162 -217 0
-8 -163 -218 0
-9 -164 -219 0
-10 -165 -220 0
-6 -166 -231 0
-7 -167 -232 0
-8 -168 -233 0
-9 -169 -234 0
-10 -170 -235 0
-6 -171 -226 0
-7 -172 -227 0
-8 -173 -228 0
-9 -174 -229 0
-10 -175 -230 0
-6 -176 -201 0
-7 -177 -202 0
-8 -178 -203 0
-9 -179 -204 0
-10 -180 -205 0
-6 -181 -196 0
-7 -182 -197 0
-8 -183 -198 0
-9 -184 -199 0
-10 -185 -200 0
-6 -186 -211 0
-7 -187 -212 0
-8 -188 -213 0
-9 -189 -214 0
-10 -190 -215 0
-6 -191 -206 0
-7 -192 -207 0
-8 -193 -208 0
-9 -194 -209 0
-10 -195 -210 0
-6 -236 -301 0
-7 -237 -302 0
-8 -238 -303 0
-9 -239 -304 0
-10 -240 -305 0
-6 -241 -296 0
-7 -242 -297 0
-8 -243 -298 0
-9 -244 -299 0
-10 -245 -300 0
-6 -246 -311 0
-7 -247 -312 0
-8 -248 -313 0
-9 -249 -314 0
-10 -250 -315 0
-6 -251 -306 0
-7 -252 -307 0
-8 -253 -308 0
-9 -254 -309 0
-10 -255 -310 0
-6 -256 -281 0
-7 -257 -282 0
-8 -258 -283 0
-9 -259 -284 0
-10 -260 -285 0
-6 -261 -276 0
-7 -262 -277 0
-8 -263 -278 0
-9 -264 -279 0
-10 -265 -280 0
-6 -266 -291 0
-7 -267 -292 0
-8 -268 -293 0
-9 -269 -294 0
-10 -270 -295 0
-6 -271 -286 0
-7 -272 -287 0
-8 -273 -288 0
-9 -274 -289 0
-10 -275 -290 0
-6 -316 -381 0
-7 -317 -382 0
-8 -318 -383 0
-9 -319 -384 0
-10 -320 -385 0
-6 -321 -376 0
-7 -322 -377 0
-8 -323 -378 0
-9 -324 -379 0
-10 -325 -380 0
-6 -326 -391 0
-7 -327 -392 0
-8 -328 -393 0
-9 -329 -394 0
-10 -330 -395 0
-6 -331 -386 0
-7 -332 -387 0
-8 -333 -388 0
-9 -334 -389 0
-10 -335 -390 0
-6 -336 -361 0
-7 -337 -362 0
-8 -338 -363 0
-9 -339 -364 0
-10 -340 -365 0
-6 -341 -356 0
-7 -342 -357 0
-8 -343 -358 0
-9 -344 -359 0
-10 -345 -360 0
-6 -346 -371 0
-7 -347 -372 0
-8 -348 -373 0
-9 -349 -374 0
-10 -350 -375 0
-6 -351 -366 0
-7 -352 -367 0
-8 -353 -368 0
-9 -354 -369 0
-10 -355 -370 0
-6 -396 -461 0
-7 -397 -462 0
-8 -398 -463 0
-9 -399 -464 0
-10 -400 -465 0
-6 -401 -456 0
-7 -402 -457 0
-8 -403 -458 0
-9 -404 -459 0
-10 -405 -460 0
-6 -406 -471 0
-7 -407 -472 0
-8 -408 -473 0
-9 -409 -474 0
-10 -410 -475 0
-6 -411 -466 0
-7 -412 -467 0
-8 -413 -468 0
-9 -414 -469 0
-10 -415 -470 0
-6 -416 -441 0
-7 -417 -442 0
-8 -418 -443 0
-9 -419 -444 0
-10 -420 -445 0
-6 -421 -436 0
-7 -422 -437 0
-8 -423 -438 0
-9 -424 -439 0
-10 -425 -440 0
-6 -426 -451 0
-7 -427 -452 0
-8 -428 -453 0
-9 -429 -454 0
-10 -430 -455 0
-6 -431 -446 0
-7 -432 -447 0
-8 -433 -448 0
-9 -434 -449 0
-10 -435 -450 0
-6 -476 -541 0
-7 -477 -542 0
-8 -478 -543 0
-9 -479 -544 0
-10 -480 -545 0
-6 -481 -536 0
-7 -482 -537 0
-8 -483 -538 0
-9 -484 -539 0
-10 -485 -540 0
-6 -486 -551 0
-7 -487 -552 0
-8 -488 -553 0
-9 -489 -554 0
-10 -490 -555 0
-6 -491 -546 0
-7 -492 -547 0
-8 -493 -548 0
-9 -494 -549 0
-10 -495 -550 0
-6 -496 -521 0
-7 -497 -522 0
-8 -498 -523 0
-9 -499 -524 0
-10 -500 -525 0
-6 -501 -516 0
-7 -502 -517 0
-8 -503 -518 0
-9 -504 -519 0
-10 -505 -520 0
-6 -506 -531 0
-7 -507 -532 0
-8 -508 -533 0
-9 -509 -534 0
-10 -510 -535 0
-6 -511 -526 0
-7 -512 -527 0
-8 -513 -528 0
-9 -514 -529 0
-10 -515 -530 0
-6 -556 -621 0
-7 -557 -622 0
-8 -558 -623 0
-9 -559 -624 0
-10 -560 -625 0
-6 -561 -616 0
-7 -562 -617 0
-8 -563 -618 0
-9 -564 -619 0
-10 -565 -620 0
-6 -566 -631 0
-7 -567 -632 0
-8 -568 -633 0
-9 -569 -634 0
-10 -570 -635 0
-6 -571 -626 0
-7 -572 -627 0
-8 -573 -628 0
-9 -574 -629 0
-10 -575 -630 0
-6 -576 -601 0
-7 -577 -602 0
-8 -578 -603 0
-9 -579 -604 0
-10 -580 -605 0
-6 -581 -596 0
-7 -582 -597 0
-8 -583 -598 0
-9 -584 -599 0
-10 -585 -600 0
-6 -586 -611 0
-7 -587 -612 0
-8 -588 -613 0
-9 -589 -614 0
-10 -590 -615 0
-6 -591 -606 0
-7 -592 -607 0
-8 -593 -608 0
-9 -594 -609 0
-10 -595 -610 0
-6 -636 -701 0
-7 -637 -702 0
-8 -638 -703 0
-9 -639 -704 0
-10 -640 -705 0
-6 -641 -696 0
-7 -642 -697 0
-8 -643 -698 0
-9 -644 -699 0
-10 -645 -700 0
-6 -646 -711 0
-7 -647 -712 0
-8 -648 -713 0
-9 -649 -714 0
-10 -650 -715 0
-6 -651 -706 0
-7 -652 -707 0
-8 -653 -708 0
-9 -654 -709 0
-10 -655 -710 0
-6 -656 -681 0
-7 -657 -682 0
-8 -658 -683 0
-9 -659 -684 0
-10 -660 -685 0
-6 -661 -676 0
-7 -662 -677 0
-8 -663 -678 0
-9 -664 -679 0
-10 -665 -680 0
-6 -666 -691 0
-7 -667 -692 0
-8 -668 -693 0
-9 -669 -694 0
-10 -670 -695 0
-6 -671 -686 0
-7 -672 -687 0
-8 -673 -688 0
-9 -674 -689 0
-10 -675 -690 0
-6 -716 -781 0
-7 -717 -782 0
-8 -718 -783 0
-9 -719 -784 0
-10 -720 -785 0
-6 -721 -776 0
-7 -722 -777 0
-8 -723 -778 0
-9 -724 -779 0
-10 -725 -780 0
-6 -726 -791 0
-7 -727 -792 0
-8 -728 -793 0
-9 -729 -794 0
-10 -730 -795 0
-6 -731 -786 0
-7 -732 -787 0
-8 -733 -788 0
-9 -734 -789 0
-10 -735 -790 0
-6 -736 -761 0
-7 -737 -762 0
-8 -738 -763 0
-9 -739 -764 0
-10 -740 -765 0
-6 -741 -756 0
-7 -742 -757 0
-8 -743 -758 0
-9 -744 -759 0
-10 -745 -760 0
-6 -746 -771 0
-7 -747 -772 0
-8 -748 -773 0
-9 -749 -774 0
-10 -750 -775 0
-6 -751 -766 0
-7 -752 -767 0
-8 -753 -768 0
-9 -754 -769 0
-10 -755 -770 0
-11 -156 -226 0
-12 -157 -227 0
-13 -158 -228 0
-14 -159 -229 0
-15 -160 -230 0
-11 -161 -231 0
-12 -162 -232 0
-13 -163 -233 0
-14 -164 -234 0
-15 -165 -235 0
-11 -166 -216 0
-12 -167 -217 0
-13 -168 -218 0
-14 -169 -219 0
-15 -170 -220 0
-11 -171 -221 0
-12 -172 -222 0
-13 -173 -223 0
-14 -174 -224 0
-15 -175 -225 0
-11 -176 -206 0
-12 -177 -207 0
-13 -178 -208 0
-14 -179 -209 0
-15 -180 -210 0
-11 -181 -211 0
-12 -182 -212 0
-13 -183 -213 0
-14 -184 -214 0
-15 -185 -215 0
-11 -186 -196 0
-12 -187 -197 0
-13 -188 -198 0
-14 -189 -199 0
-15 -190 -200 0
-11 -191 -201 0
-12 -192 -202 0
-13 -193 -203 0
-14 -194 -204 0
-15 -195 -205 0
-11 -236 -306 0
-12 -237 -307 0
-13 -238 -308 0
-14 -239 -309 0
-15 -240 -310 0
-11 -241 -311 0
-12 -242 -312 0
-13 -243 -313 0
-14 -244 -314 0
-15 -245 -315 0
-11 -246 -296 0
-12 -247 -297 0
-13 -248 -298 0
-14 -249 -299 0
-15 -250 -300 0
-11 -251 -301 0
-12 -252 -302 0
-13 -253 -303 0
-14 -254 -304 0
-15 -255 -305 0
-11 -256 -286 0
-12 -257 -287 0
-13 -258 -288 0
-14 -259 -289 0
-15 -260 -290 0
-11 -261 -291 0
-12 -262 -292 0
-13 -263 -293 0
-14 -264 -294 0
-15 -265 -295 0
-11 -266 -276 0
-12 -267 -277 0
-13 -268 -278 0
-14 -269 -279 0
-15 -270 -280 0
-11 -271 -281 0
-12 -272 -282 0
-13 -273 -283 0
-14 -274 -284 0
-15 -275 -285 0
-11 -316 -386 0
-12 -317 -387 0
-13 -318 -388 0
-14 -319 -389 0
-15 -320 -390 0
-11 -321 -391 0
-12 -322 -392 0
-13 -323 -393 0
-14 -324 -394 0
-15 -325 -395 0
-11 -326 -376 0
-12 -327 -377 0
-13 -328 -378 0
-14 -329 -379 0
-15 -330 -380 0
-11 -331 -381 0
-12 -332 -382 0
-13 -333 -383 0
-14 -334 -384 0
-15 -335 -385 0
-11 -336 -366 0
-12 -337 -367 0
-13 -338 -368 0
-14 -339 -369 0
-15 -340 -370 0
-11 -341 -371 0
-12 -342 -372 0
-13 -343 -373 0
-14 -344 -374 0
-15 -345 -375 0
-11 -346 -356 0
-12 -347 -357 0
-13 -348 -358 0
-14 -349 -359 0
-15 -350 -360 0
-11 -351 -361 0
-12 -352 -362 0
-13 -353 -363 0
-14 -354 -364 0
-15 -355 -365 0
-11 -396 -466 0
-12 -397 -467 0
-13 -398 -468 0
-14 -399 -469 0
-15 -400 -470 0
-11 -401 -471 0
-12 -402 -472 0
-13 -403 -473 0
-14 -404 -474 0
-15 -405 -475 0
-11 -406 -456 0
-12 -407 -457 0
-13 -408 -458 0
-14 -409 -459 0
-15 -410 -460 0
-11 -411 -461 0
-12 -412 -462 0
-13 -413 -463 0
-14 -414 -464 0
-15 -415 -465 0
-11 -416 -446 0
-12 -417 -447 0
-13 -418 -448 0
-14 -419 -449 0
-15 -420 -450 0
-11 -421 -451 0
-12 -422 -452 0
-13 -423 -453 0
-14 -424 -454 0
-15 -425 -455 0
-11 -426 -436 0
-12 -427 -437 0
-13 -428 -438 0
-14 -429 -439 0
-15 -430 -440 0
-11 -431 -441 0
-12 -432 -442 0
-13 -433 -443 0
-14 -434 -444 0
-15 -435 -445 0
-11 -476 -546 0
-12 -477 -547 0
-13 -478 -548 0
-14 -479 -549 0
-15 -480 -550 0
-11 -481 -551 0
-12 -482 -552 0
-13 -483 -553 0
-14 -484 -554 0
-15 -485 -555 0
-11 -486 -536 0
-12 -487 -537 0
-13 -488 -538 0
-14 -489 -539 0
-15 -490 -540 0
-11 -491 -541 0
-12 -492 -542 0
-13 -493 -543 0
-14 -494 -544 0
-15 -495 -545 0
-11 -496 -526 0
-12 -497 -527 0
-13 -498 -528 0
-14 -499 -529 0
-15 -500 -530 0
-11 -501 -531 0
-12 -502 -532 0
-13 -503 -533 0
-14 -504 -534 0
-15 -505 -535 0
-11 -506 -516 0
-12 -507 -517 0
-13 -508 -518 0
-14 -509 -519 0
-15 -510 -520 0
-11 -511 -521 0
-12 -512 -522 0
-13 -513 -523 0
-14 -514 -524 0
-15 -515 -525 0
-11 -556 -626 0
-12 -557 -627 0
-13 -558 -628 0
-14 -559 -629 0
-15 -560 -630 0
-11 -561 -631 0
-12 -562 -632 0
-13 -563 -633 0
-14 -564 -634 0
-15 -565 -635 0
-11 -566 -616 0
-12 -567 -617 0
-13 -568 -618 0
-14 -569 -619 0
-15 -570 -620 0
-11 -571 -621 0
-12 -572 -622 0
-13 -573 -623 0
-14 -574 -624 0
-15 -575 -625 0
-11 -576 -606 0
-12 -577 -607 0
-13 -578 -608 0
-14 -579 -609 0
-15 -580 -610 0
-11 -581 -611 0
-12 -582 -612 0
-13 -583 -613 0
-14 -584 -614 0
-15 -585 -615 0
-11 -586 -596 0
-12 -587 -597 0
-13 -588 -598 0
-14 -589 -599 0
-15 -590 -600 0
-11 -591 -601 0
-12 -592 -602 0
-13 -593 -603 0
-14 -594 -604 0
-15 -595 -605 0
-11 -636 -706 0
-12 -637 -707 0
-13 -638 -708 0
-14 -639 -709 0
-15 -640 -710 0
-11 -641 -711 0
-12 -642 -712 0
-13 -643 -713 0
-14 -644 -714 0
-15 -645 -715 0
-11 -646 -696 0
-12 -647 -697 0
-13 -648 -698 0
-14 -649 -699 0
-15 -650 -700 0
-11 -651 -701 0
-12 -652 -702 0
-13 -653 -703 0
-14 -654 -704 0
-15 -655 -705 0
-11 -656 -686 0
-12 -657 -687 0
-13 -658 -688 0
-14 -659 -689 0
-15 -660 -690 0
-11 -661 -691 0
-12 -662 -692 0
-13 -663 -693 0
-14 -664 -694 0
-15 -665 -695 0
-11 -666 -676 0
-12 -667 -677 0
-13 -668 -678 0
-14 -669 -679 0
-15 -670 -680 0
-11 -671 -681 0
-12 -672 -682 0
-13 -673 -683 0
-14 -674 -684 0
-15 -675 -685 0
-11 -716 -786 0
-12 -717 -787 0
-13 -718 -788 0
-14 -719 -789 0
-15 -720 -790 0
-11 -721 -791 0
-12 -722 -792 0
-13 -723 -793 0
-14 -724 -794 0
-15 -725 -795 0
-11 -726 -776 0
-12 -727 -777 0
-13 -728 -778 0
-14 -729 -779 0
-15 -730 -780 0
-11 -731 -781 0
-12 -732 -782 0
-13 -733 -783 0
-14 -734 -784 0
-15 -735 -785 0
-11 -736 -766 0
-12 -737 -767 0
-13 -738 -768 0
-14 -739 -769 0
-15 -740 -770 0
-11 -741 -771 0
-12 -742 -772 0
-13 -743 -773 0
-14 -744 -774 0
-15 -745 -775 0
-11 -746 -756 0
-12 -747 -757 0
-13 -748 -758 0
-14 -749 -759 0
-15 -750 -760 0
-11 -751 -761 0
-12 -752 -762 0
-13 -753 -763 0
-14 -754 -764 0
-15 -755 -765 0
-1 -156 -231 0
-2 -157 -232 0
-3 -158 -233 0
-4 -159 -234 0
-5 -160 -235 0
-1 -161 -226 0
-2 -162 -227 0
-3 -163 -228 0
-4 -164 -229 0
-5 -165 -230 0
-1 -166 -221 0
-2 -167 -222 0
-3 -168 -223 0
-4 -169 -224 0
-5 -170 -225 0
-1 -171 -216 0
-2 -172 -217 0
-3 -173 -218 0
-4 -174 -219 0
-5 -175 -220 0
-1 -176 -211 0
-2 -177 -212 0
-3 -178 -213 0
-4 -179 -214 0
-5 -180 -215 0
-1 -181 -206 0
-2 -182 -207 0
-3 -183 -208 0
-4 -184 -209 0
-5 -185 -210 0
-1 -186 -201 0
-2 -187 -202 0
-3 -188 -203 0
-4 -189 -204 0
-5 -190 -205 0
-1 -191 -196 0
-2 -192 -197 0
-3 -193 -198 0
-4 -194 -199 0
-5 -195 -200 0
-1 -236 -311 0
-2 -237 -312 0
-3 -238 -313 0
-4 -239 -314 0
-5 -240 -315 0
-1 -241 -306 0
-2 -242 -307 0
-3 -243 -308 0
-4 -244 -309 0
-5 -245 -310 0
-1 -246 -301 0
-2 -247 -302 0
-3 -248 -303 0
-4 -249 -304 0
-5 -250 -305 0
-1 -251 -296 0
-2 -252 -297 0
-3 -253 -298 0
-4 -254 -299 0
-5 -255 -300 0
-1 -256 -291 0
-2 -257 -292 0
-3 -258 -293 0
-4 -259 -294 0
-5 -260 -295 0
-1 -261 -286 0
-2 -262 -287 0
-3 -263 -288 0
-4 -264 -289 0
-5 -265 -290 0
-1 -266 -281 0
-2 -267 -282 0
-3 -268 -283 0
-4 -269 -284 0
-5 -270 -285 0
-1 -271 -276 0
-2 -272 -277 0
-3 -273 -278 0
-4 -274 -279 0
-5 -275 -280 0
-1 -316 -391 0
-2 -317 -392 0
-3 -318 -393 0
-4 -319 -394 0
-5 -320 -395 0
-1 -321 -386 0
-2 -322 -387 0
-3 -323 -388 0
-4 -324 -389 0
-5 -325 -390 0
-1 -326 -381 0
-2 -327 -382 0
-3 -328 -383 0
-4 -329 -384 0
-5 -330 -385 0
-1 -331 -376 0
-2 -332 -377 0
-3 -333 -378 0
-4 -334 -379 0
-5 -335 -380 0
-1 -336 -371 0
-2 -337 -372 0
-3 -338 -373 0
-4 -339 -374 0
-5 -340 -375 0
-1 -341 -366 0
-2 -342 -367 0
-3 -343 -368 0
-4 -344 -369 0
-5 -345 -370 0
-1 -346 -361 0
-2 -347 -362 0
-3 -348 -363 0
-4 -349 -364 0
-5 -350 -365 0
-1 -351 -356 0
-2 -352 -357 0
-3 -353 -358 0
-4 -354 -359 0
-5 -355 -360 0
-1 -396 -471 0
-2 -397 -472 0
-3 -398 -473 0
-4 -399 -474 0
-5 -400 -475 0
-1 -401 -466 0
-2 -402 -467 0
-3 -403 -468 0
-4 -404 -469 0
-5 -405 -470 0
-1 -406 -461 0
-2 -407 -462 0
-3 -408 -463 0
-4 -409 -464 0
-5 -410 -465 0
-1 -411 -456 0
-2 -412 -457 0
-3 -413 -458 0
-4 -414 -459 0
-5 -415 -460 0
-1 -416 -451 0
-2 -417 -452 0
-3 -418 -453 0
-4 -419 -454 0
-5 -420 -455 0
-1 -421 -446 0
-2 -422 -447 0
-3 -423 -448 0
-4 -424 -449 0
-5 -425 -450 0
-1 -426 -441 0
-2 -427 -442 0
-3 -428 -443 0
-4 -429 -444 0
-5 -430 -445 0
-1 -431 -436 0
-2 -432 -437 0
-3 -433 -438 0
-4 -434 -439 0
-5 -435 -440 0
-1 -476 -551 0
-2 -477 -552 0
-3 -478 -553 0
-4 -479 -554 0
-5 -480 -555 0
-1 -481 -546 0
-2 -482 -547 0
-3 -483 -548 0
-4 -484 -549 0
-5 -485 -550 0
-1 -486 -541 0
-2 -487 -542 0
-3 -488 -543 0
-4 -489 -544 0
-5 -490 -545 0
-1 -491 -536 0
-2 -492 -537 0
-3 -493 -538 0
-4 -494 -539 0
-5 -495 -540 0
-1 -496 -531 0
-2 -497 -532 0
-3 -498 -533 0
-4 -499 -534 0
-5 -500 -535 0
-1 -501 -526 0
-2 -502 -527 0
-3 -503 -528 0
-4 -504 -529 0
-5 -505 -530 0
-1 -506 -521 0
-2 -507 -522 0
-3 -508 -523 0
-4 -509 -524 0
-5 -510 -525 0
-1 -511 -516 0
-2 -512 -517 0
-3 -513 -518 0
-4 -514 -519 0
-5 -515 -520 0
-1 -556 -631 0
-2 -557 -632 0
-3 -558 -633 0
-4 -559 -634 0
-5 -560 -635 0
-1 -561 -626 0
-2 -562 -627 0
-3 -563 -628 0
-4 -564 -629 0
-5 -565 -630 0
-1 -566 -621 0
-2 -567 -622 0
-3 -568 -623 0
-4 -569 -624 0
-5 -570 -625 0
-1 -571 -616 0
-2 -572 -617 0
-3 -573 -618 0
-4 -574 -619 0
-5 -575 -620 0
-1 -576 -611 0
-2 -577 -612 0
-3 -578 -613 0
-4 -579 -614 0
-5 -580 -615 0
-1 -581 -606 0
-2 -582 -607 0
-3 -583 -608 0
-4 -584 -609 0
-5 -585 -610 0
-1 -586 -601 0
-2 -587 -602 0
-3 -588 -603 0
-4 -589 -604 0
-5 -590 -605 0
-1 -591 -596 0
-2 -592 -597 0
-3 -593 -598 0
-4 -594 -599 0
-5 -595 -600 0
-1 -636 -711 0
-2 -637 -712 0
-3 -638 -713 0
-4 -639 -714 0
-5 -640 -715 0
-1 -641 -706 0
-2 -642 -707 0
-3 -643 -708 0
-4 -644 -709 0
-5 -645 -710 0
-1 -646 -701 0
-2 -647 -702 0
-3 -648 -703 0
-4 -649 -704 0
-5 -650 -705 0
-1 -651 -696 0
-2 -652 -697 0
-3 -653 -698 0
-4 -654 -699 0
-5 -655 -700 0
-1 -656 -691 0
-2 -657 -692 0
-3 -658 -693 0
-4 -659 -694 0
-5 -660 -695 0
-1 -661 -686 0
-2 -662 -687 0
-3 -663 -688 0
-4 -664 -689 0
-5 -665 -690 0
-1 -666 -681 0
-2 -667 -682 0
-3 -668 -683 0
-4 -669 -684 0
-5 -670 -685 0
-1 -671 -676 0
-2 -672 -677 0
-3 -673 -678 0
-4 -674 -679 0
-5 -675 -680 0
-1 -716 -791 0
-2 -717 -792 0
-3 -718 -793 0
-4 -719 -794 0
-5 -720 -795 0
-1 -721 -786 0
-2 -722 -787 0
-3 -723 -788 0
-4 -724 -789 0
-5 -725 -790 0
-1 -726 -781 0
-2 -727 -782 0
-3 -728 -783 0
-4 -729 -784 0
-5 -730 -785 0
-1 -731 -776 0
-2 -732 -777 0
-3 -733 -778 0
-4 -734 -779 0
-5 -735 -780 0
-1 -736 -771 0
-2 -737 -772 0
-3 -738 -773 0
-4 -739 -774 0
-5 -740 -775 0
-1 -741 -766 0
-2 -742 -767 0
-3 -743 -768 0
-4 -744 -769 0
-5 -745 -770 0
-1 -746 -761 0
-2 -747 -762 0
-3 -748 -763 0
-4 -749 -764 0
-5 -750 -765 0
-1 -751 -756 0
-2 -752 -757 0
-3 -753 -758 0
-4 -754 -759 0
-5 -755 -760 0
-16 -156 -236 0
-17 -157 -237 0
-18 -158 -238 0
-19 -159 -239 0
-20 -160 -240 0
-16 -161 -241 0
-17 -162 -242 0
-18 -163 -243 0
-19 -164 -244 0
-20 -165 -245 0
-16 -166 -246 0
-17 -167 -247 0
-18 -168 -248 0
-19 -169 -249 0
-20 -170 -250 0
-16 -171 -251 0
-17 -172 -252 0
-18 -173 -253 0
-19 -174 -254 0
-20 -175 -255 0
-16 -176 -256 0
-17 -177 -257 0
-18 -178 -258 0
-19 -179 -259 0
-20 -180 -260 0
-16 -181 -261 0
-17 -182 -262 0
-18 -183 -263 0
-19 -184 -264 0
-20 -185 -265 0
-16 -186 -266 0
-17 -187 -267 0
-18 -188 -268 0
-19 -189 -269 0
-20 -190 -270 0
-16 -191 -271 0
-17 -192 -272 0
-18 -193 -273 0
-19 -194 -274 0
-20 -195 -275 0
-16 -196 -276 0
-17 -197 -277 0
-18 -198 -278 0
-19 -199 -279 0
-20 -200 -280 0
-16 -201 -281 0
-17 -202 -282 0
-18 -203 -283 0
-19 -204 -284 0
-20 -205 -285 0
-16 -206 -286 0
-17 -207 -287 0
-18 -208 -288 0
-19 -209 -289 0
-20 -210 -290 0
-16 -211 -291 0
-17 -212 -292 0
-18 -213 -293 0
-19 -214 -294 0
-20 -215 -295 0
-16 -216 -296 0
-17 -217 -297 0
-18 -218 -298 0
-19 -219 -299 0
-20 -220 -300 0
-16 -221 -301 0
-17 -222 -302 0
-18 -223 -303 0
-19 -224 -304 0
-20 -225 -305 0
-16 -226 -306 0
-17 -227 -307 0
-18 -228 -308 0
-19 -229 -309 0
-20 -230 -310 0
-16 -231 -311 0
-17 -232 -312 0
-18 -233 -313 0
-19 -234 -314 0
-20 -235 -315 0
-16 -316 -396 0
-17 -317 -397 0
-18 -318 -398 0
-19 -319 -399 0
-20 -320 -400 0
-16 -321 -401 0
-17 -322 -402 0
-18 -323 -403 0
-19 -324 -404 0
-20 -325 -405 0
-16 -326 -406 0
-17 -327 -407 0
-18 -328 -408 0
-19 -329 -409 0
-20 -330 -410 0
-16 -331 -411 0
-17 -332 -412 0
-18 -333 -413 0
-19 -334 -414 0
-20 -335 -415 0
-16 -336 -416 0
-17 -337 -417 0
-18 -338 -418 0
-19 -339 -419 0
-20 -340 -420 0
-16 -341 -421 0
-17 -342 -422 0
-18 -343 -423 0
-19 -344 -424 0
-20 -345 -425 0
-16 -346 -426 0
-17 -347 -427 0
-18 -348 -428 0
-19 -349 -429 0
-20 -350 -430 0
-16 -351 -431 0
-17 -352 -432 0
-18 -353 -433 0
-19 -354 -434 0
-20 -355 -435 0
-16 -356 -436 0
-17 -357 -437 0
-18 -358 -438 0
-19 -359 -439 0
-20 -360 -440 0
-16 -361 -441 0
-17 -362 -442 0
-18 -363 -443 0
-19 -364 -444 0
-20 -365 -445 0
-16 -366 -446 0
-17 -367 -447 0
-18 -368 -448 0
-19 -369 -449 0
-20 -370 -450 0
-16 -371 -451 0
-17 -372 -452 0
-18 -373 -453 0
-19 -374 -454 0
-20 -375 -455 0
-16 -376 -456 0
-17 -377 -457 0
-18 -378 -458 0
-19 -379 -459 0
-20 -380 -460 0
-16 -381 -461 0
-17 -382 -462 0
-18 -383 -463 0
-19 -384 -464 0
-20 -385 -465 0
-16 -386 -466 0
-17 -387 -467 0
-18 -388 -468 0
-19 -389 -469 0
-20 -390 -470 0
-16 -391 -471 0
-17 -392 -472 0
-18 -393 -473 0
-19 -394 -474 0
-20 -395 -475 0
-16 -476 -556 0
-17 -477 -557 0
-18 -478 -558 0
-19 -479 -559 0
-20 -480 -560 0
-16 -481 -561 0
-17 -482 -562 0
-18 -483 -563 0
-19 -484 -564 0
-20 -485 -565 0
-16 -486 -566 0
-17 -487 -567 0
-18 -488 -568 0
-19 -489 -569 0
-20 -490 -570 0
-16 -491 -571 0
-17 -492 -572 0
-18 -493 -573 0
-19 -494 -574 0
-20 -495 -575 0
-16 -496 -576 0
-17 -497 -577 0
-18 -498 -578 0
-19 -499 -579 0
-20 -500 -580 0
-16 -501 -581 0
-17 -502 -582 0
-18 -503 -583 0
-19 -504 -584 0
-20 -505 -585 0
-16 -506 -586 0
-17 -507 -587 0
-18 -508 -588 0
-19 -509 -589 0
-20 -510 -590 0
-16 -511 -591 0
-17 -512 -592 0
-18 -513 -593 0
-19 -514 -594 0
-20 -515 -595 0
-16 -516 -596 0
-17 -517 -597 0
-18 -518 -598 0
-19 -519 -599 0
-20 -520 -600 0
-16 -521 -601 0
-17 -522 -602 0
-18 -523 -603 0
-19 -524 -604 0
-20 -525 -605 0
-16 -526 -606 0
-17 -527 -607 0
-18 -528 -608 0
-19 -529 -609 0
-20 -530 -610 0
-16 -531 -611 0
-17 -532 -612 0
-18 -533 -613 0
-19 -534 -614 0
-20 -535 -615 0
-16 -536 -616 0
-17 -537 -617 0
-18 -538 -618 0
-19 -539 -619 0
-20 -540 -620 0
-16 -541 -621 0
-17 -542 -622 0
-18 -543 -623 0
-19 -544 -624 0
-20 -545 -625 0
-16 -546 -626 0
-17 -547 -627 0
-18 -548 -628 0
-19 -549 -629 0
-20 -550 -630 0
-16 -551 -631 0
-17 -552 -632 0
-18 -553 -633 0
-19 -554 -634 0
-20 -555 -635 0
-16 -636 -716 0
-17 -637 -717 0
-18 -638 -718 0
-19 -639 -719 0
-20 -640 -720 0
-16 -641 -721 0
-17 -642 -722 0
-18 -643 -723 0
-19 -644 -724 0
-20 -645 -725 0
-16 -646 -726 0
-17 -647 -727 0
-18 -648 -728 0
-19 -649 -729 0
-20 -650 -730 0
-16 -651 -731 0
-17 -652 -732 0
-18 -653 -733 0
-19 -654 -734 0
-20 -655 -735 0
-16 -656 -736 0
-17 -657 -737 0
-18 -658 -738 0
-19 -659 -739 0
-20 -660 -740 0
-16 -661 -741 0
-17 -662 -742 0
-18 -663 -743 0
-19 -664 -744 0
-20 -665 -745 0
-16 -666 -746 0
-17 -667 -747 0
-18 -668 -748 0
-19 -669 -749 0
-20 -670 -750 0
-16 -671 -751 0
-17 -672 -752 0
-18 -673 -753 0
-19 -674 -754 0
-20 -675 -755 0
-16 -676 -756 0
-17 -677 -757 0
-18 -678 -758 0
-19 -679 -759 0
-20 -680 -760 0
-16 -681 -761 0
-17 -682 -762 0
-18 -683 -763 0
-19 -684 -764 0
-20 -685 -765 0
-16 -686 -766 0
-17 -687 -767 0
-18 -688 -768 0
-19 -689 -769 0
-20 -690 -770 0
-16 -691 -771 0
-17 -692 -772 0
-18 -693 -773 0
-19 -694 -774 0
-20 -695 -775 0
-16 -696 -776 0
-17 -697 -777 0
-18 -698 -778 0
-19 -699 -779 0
-20 -700 -780 0
-16 -701 -781 0
-17 -702 -782 0
-18 -703 -783 0
-19 -704 -784 0
-20 -705 -785 0
-16 -706 -786 0
-17 -707 -787 0
-18 -708 -788 0
-19 -709 -789 0
-20 -710 -790 0
-16 -711 -791 0
-17 -712 -792 0
-18 -713 -793 0
-19 -714 -794 0
-20 -715 -795 0
-21 -156 -241 0
-22 -157 -242 0
-23 -158 -243 0
-24 -159 -244 0
-25 -160 -245 0
-21 -161 -236 0
-22 -162 -237 0
-23 -163 -238 0
-24 -164 -239 0
-25 -165 -240 0
-21 -166 -251 0
-22 -167 -252 0
-23 -168 -253 0
-24 -169 -254 0
-25 -170 -255 0
-21 -171 -246 0
-22 -172 -247 0
-23 -173 -248 0
-24 -174 -249 0
-25 -175 -250 0
-21 -176 -261 0
-22 -177 -262 0
-23 -178 -263 0
-24 -179 -264 0
-25 -180 -265 0
-21 -181 -256 0
-22 -182 -257 0
-23 -183 -258 0
-24 -184 -259 0
-25 -185 -260 0
-21 -186 -271 0
-22 -187 -272 0
-23 -188 -273 0
-24 -189 -274 0
-25 -190 -275 0
-21 -191 -266 0
-22 -192 -267 0
-23 -193 -268 0
-24 -194 -269 0
-25 -195 -270 0
-21 -196 -281 0
-22 -197 -282 0
-23 -198 -283 0
-24 -199 -284 0
-25 -200 -285 0
-21 -201 -276 0
-22 -202 -277 0
-23 -203 -278 0
-24 -204 -279 0
-25 -205 -280 0
-21 -206 -291 0
-22 -207 -292 0
-23 -208 -293 0
-24 -209 -294 0
-25 -210 -295 0
-21 -211 -286 0
-22 -212 -287 0
-23 -213 -288 0
-24 -214 -289 0
-25 -215 -290 0
-21 -216 -301 0
-22 -217 -302 0
-23 -218 -303 0
-24 -219 -304 0
-25 -220 -305 0
-21 -221 -296 0
-22 -222 -297 0
-23 -223 -298 0
-24 -224 -299 0
-25 -225 -300 0
-21 -226 -311 0
-22 -227 -312 0
-23 -228 -313 0
-24 -229 -314 0
-25 -230 -315 0
-21 -231 -306 0
-22 -232 -307 0
-23 -233 -308 0
-24 -234 -309 0
-25 -235 -310 0
-21 -316 -401 0
-22 -317 -402 0
-23 -318 -403 0
-24 -319 -404 0
-25 -320 -405 0
-21 -321 -396 0
-22 -322 -397 0
-23 -323 -398 0
-24 -324 -399 0
-25 -325 -400 0
-21 -326 -411 0
-22 -327 -412 0
-23 -328 -413 0
-24 -329 -414 0
-25 -330 -415 0
-21 -331 -406 0
-22 -332 -407 0
-23 -333 -408 0
-24 -334 -409 0
-25 -335 -410 0
-21 -336 -421 0
-22 -337 -422 0
-23 -338 -423 0
-24 -339 -424 0
-25 -340 -425 0
-21 -341 -416 0
-22 -342 -417 0
-23 -343 -418 0
-24 -344 -419 0
-25 -345 -420 0
-21 -346 -431 0
-22 -347 -432 0
-23 -348 -433 0
-24 -349 -434 0
-25 -350 -435 0
-21 -351 -426 0
-22 -352 -427 0
-23 -353 -428 0
-24 -354 -429 0
-25 -355 -430 0
-21 -356 -441 0
-22 -357 -442 0
-23 -358 -443 0
-24 -359 -444 0
-25 -360 -445 0
-21 -361 -436 0
-22 -362 -437 0
-23 -363 -438 0
-24 -364 -439 0
-25 -365 -440 0
-21 -366 -451 0
-22 -367 -452 0
-23 -368 -453 0
-24 -369 -454 0
-25 -370 -455 0
-21 -371 -446 0
-22 -372 -447 0
-23 -373 -448 0
-24 -374 -449 0
-25 -375 -450 0
-21 -376 -461 0
-22 -377 -462 0
-23 -378 -463 0
-24 -379 -464 0
-25 -380 -465 0
-21 -381 -456 0
-22 -382 -457 0
-23 -383 -458 0
-24 -384 -459 0
-25 -385 -460 0
-21 -386 -471 0
-22 -387 -472 0
-23 -388 -473 0
-24 -389 -474 0
-25 -390 -475 0
-21 -391 -466 0
-22 -392 -467 0
-23 -393 -468 0
-24 -394 -469 0
-25 -395 -470 0
-21 -476 -561 0
-22 -477 -562 0
-23 -478 -563 0
-24 -479 -564 0
-25 -480 -565 0
-21 -481 -556 0
-22 -482 -557 0
-23 -483 -558 0
-24 -484 -559 0
-25 -485 -560 0
-21 -486 -571 0
-22 -487 -572 0
-23 -488 -573 0
-24 -489 -574 0
-25 -490 -575 0
-21 -491 -566 0
-22 -492 -567 0
-23 -493 -568 0
-24 -494 -569 0
-25 -495 -570 0
-21 -496 -581 0
-22 -497 -582 0
-23 -498 -583 0
-24 -499 -584 0
-25 -500 -585 0
-21 -501 -576 0
-22 -502 -577 0
-23 -503 -578 0
-24 -504 -579 0
-25 -505 -580 0
-21 -506 -591 0
-22 -507 -592 0
-23 -508 -593 0
-24 -509 -594 0
-25 -510 -595 0
-21 -511 -586 0
-22 -512 -587 0
-23 -513 -588 0
-24 -514 -589 0
-25 -515 -590 0
-21 -516 -601 0
-22 -517 -602 0
-23 -518 -603 0
-24 -519 -604 0
-25 -520 -605 0
-21 -521 -596 0
-22 -522 -597 0
-23 -523 -598 0
-24 -524 -599 0
-25 -525 -600 0
-21 -526 -611 0
-22 -527 -612 0
-23 -528 -613 0
-24 -529 -614 0
-25 -530 -615 0
-21 -531 -606 0
-22 -532 -607 0
-23 -533 -608 0
-24 -534 -609 0
-25 -535 -610 0
-21 -536 -621 0
-22 -537 -622 0
-23 -538 -623 0
-24 -539 -624 0
-25 -540 -625 0
-21 -541 -616 0
-22 -542 -617 0
-23 -543 -618 0
-24 -544 -619 0
-25 -545 -620 0
-21 -546 -631 0
-22 -547 -632 0
-23 -548 -633 0
-24 -549 -634 0
-25 -550 -635 0
-21 -551 -626 0
-22 -552 -627 0
-23 -553 -628 0
-24 -554 -629 0
-25 -555 -630 0
-21 -636 -721 0
-22 -637 -722 0
-23 -638 -723 0
-24 -639 -724 0
-25 -640 -725 0
-21 -641 -716 0
-22 -642 -717 0
-23 -643 -718 0
-24 -644 -719 0
-25 -645 -720 0
-21 -646 -731 0
-22 -647 -732 0
-23 -648 -733 0
-24 -649 -734 0
-25 -650 -735 0
-21 -651 -726 0
-22 -652 -727 0
-23 -653 -728 0
-24 -654 -729 0
-25 -655 -730 0
-21 -656 -741 0
-22 -657 -742 0
-23 -658 -743 0
-24 -659 -744 0
-25 -660 -745 0
-21 -661 -736 0
-22 -662 -737 0
-23 -663 -738 0
-24 -664 -739 0
-25 -665 -740 0
-21 -666 -751 0
-22 -667 -752 0
-23 -668 -753 0
-24 -669 -754 0
-25 -670 -755 0
-21 -671 -746 0
-22 -672 -747 0
-23 -673 -748 0
-24 -674 -749 0
-25 -675 -750 0
-21 -676 -761 0
-22 -677 -762 0
-23 -678 -763 0
-24 -679 -764 0
-25 -680 -765 0
-21 -681 -756 0
-22 -682 -757 0
-23 -683 -758 0
-24 -684 -759 0
-25 -685 -760 0
-21 -686 -771 0
-22 -687 -772 0
-23 -688 -773 0
-24 -689 -774 0
-25 -690 -775 0
-21 -691 -766 0
-22 -692 -767 0
-23 -693 -768 0
-24 -694 -769 0
-25 -695 -770 0
-21 -696 -781 0
-22 -697 -782 0
-23 -698 -783 0
-24 -699 -784 0
-25 -700 -785 0
-21 -701 -776 0
-22 -702 -777 0
-23 -703 -778 0
-24 -704 -779 0
-25 -705 -780 0
-21 -706 -791 0
-22 -707 -792 0
-23 -708 -793 0
-24 -709 -794 0
-25 -710 -795 0
-21 -711 -786 0
-22 -712 -787 0
-23 -713 -788 0
-24 -714 -789 0
-25 -715 -790 0
-26 -156 -246 0
-27 -157 -247 0
-28 -158 -248 0
-29 -159 -249 0
-30 -160 -250 0
-26 -161 -251 0
-27 -162 -252 0
-28 -163 -253 0
-29 -164 -254 0
-30 -165 -255 0
-26 -166 -236 0
-27 -167 -237 0
-28 -168 -238 0
-29 -169 -239 0
-30 -170 -240 0
-26 -171 -241 0
-27 -172 -242 0
-28 -173 -243 0
-29 -174 -244 0
-30 -175 -245 0
-26 -176 -266 0
-27 -177 -267 0
-28 -178 -268 0
-29 -179 -269 0
-30 -180 -270 0
-26 -181 -271 0
-27 -182 -272 0
-28 -183 -273 0
-29 -184 -274 0
-30 -185 -275 0
-26 -186 -256 0
-27 -187 -257 0
-28 -188 -258 0
-29 -189 -259 0
-30 -190 -260 0
-26 -191 -261 0
-27 -192 -262 0
-28 -193 -263 0
-29 -194 -264 0
-30 -195 -265 0
-26 -196 -286 0
-27 -197 -287 0
-28 -198 -288 0
-29 -199 -289 0
-30 -200 -290 0
-26 -201 -291 0
-27 -202 -292 0
-28 -203 -293 0
-29 -204 -294 0
-30 -205 -295 0
-26 -206 -276 0
-27 -207 -277 0
-28 -208 -278 0
-29 -209 -279 0
-30 -210 -280 0
-26 -211 -281 0
-27 -212 -282 0
-28 -213 -283 0
-29 -214 -284 0
-30 -215 -285 0
-26 -216 -306 0
-27 -217 -307 0
-28 -218 -308 0
-29 -219 -309 0
-30 -220 -310 0
-26 -221 -311 0
-27 -222 -312 0
-28 -223 -313 0
-29 -224 -314 0
-30 -225 -315 0
-26 -226 -296 0
-27 -227 -297 0
-28 -228 -298 0
-29 -229 -299 0
-30 -230 -300 0
-26 -231 -301 0
-27 -232 -302 0
-28 -233 -303 0
-29 -234 -304 0
-30 -235 -305 0
-26 -316 -406 0
-27 -317 -407 0
-28 -318 -408 0
-29 -319 -409 0
-30 -320 -410 0
-26 -321 -411 0
-27 -322 -412 0
-28 -323 -413 0
-29 -324 -414 0
-30 -325 -415 0
-26 -326 -396 0
-27 -327 -397 0
-28 -328 -398 0
-29 -329 -399 0
-30 -330 -400 0
-26 -331 -401 0
-27 -332 -402 0
-28 -333 -403 0
-29 -334 -404 0
-30 -335 -405 0
-26 -336 -426 0
-27 -337 -427 0
-28 -338 -428 0
-29 -339 -429 0
-30 -340 -430 0
-26 -341 -431 0
-27 -342 -432 0
-28 -343 -433 0
-29 -344 -434 0
-30 -345 -435 0
-26 -346 -416 0
-27 -347 -417 0
-28 -348 -418 0
-29 -349 -419 0
-30 -350 -420 0
-26 -351 -421 0
-27 -352 -422 0
-28 -353 -423 0
-29 -354 -424 0
-30 -355 -425 0
-26 -356 -446 0
-27 -357 -447 0
-28 -358 -448 0
-29 -359 -449 0
-30 -360 -450 0
-26 -361 -451 0
-27 -362 -452 0
-28 -363 -453 0
-29 -364 -454 0
-30 -365 -455 0
-26 -366 -436 0
-27 -367 -437 0
-28 -368 -438 0
-29 -369 -439 0
-30 -370 -440 0
-26 -371 -441 0
-27 -372 -442 0
-28 -373 -443 0
-29 -374 -444 0
-30 -375 -445 0
-26 -376 -466 0
-27 -377 -467 0
-28 -378 -468 0
-29 -379 -469 0
-30 -380 -470 0
-26 -381 -471 0
-27 -382 -472 0
-28 -383 -473 0
-29 -384 -474 0
-30 -385 -475 0
-26 -386 -456 0
-27 -387 -457 0
-28 -388 -458 0
-29 -389 -459 0
-30 -390 -460 0
-26 -391 -461 0
-27 -392 -462 0
-28 -393 -463 0
-29 -394 -464 0
-30 -395 -465 0
-26 -476 -566 0
-27 -477 -567 0
-28 -478 -568 0
-29 -479 -569 0
-30 -480 -570 0
-26 -481 -571 0
-27 -482 -572 0
-28 -483 -573 0
-29 -484 -574 0
-30 -485 -575 0
-26 -486 -556 0
-27 -487 -557 0
-28 -488 -558 0
-29 -489 -559 0
-30 -490 -560 0
-26 -491 -561 0
-27 -492 -562 0
-28 -493 -563 0
-29 -494 -564 0
-30 -495 -565 0
-26 -496 -586 0
-27 -497 -587 0
-28 -498 -588 0
-29 -499 -589 0
-30 -500 -590 0
-26 -501 -591 0
-27 -502 -592 0
-28 -503 -593 0
-29 -504 -594 0
-30 -505 -595 0
-26 -506 -576 0
-27 -507 -577 0
-28 -508 -578 0
-29 -509 -579 0
-30 -510 -580 0
-26 -511 -581 0
-27 -512 -582 0
-28 -513 -583 0
-29 -514 -584 0
-30 -515 -585 0
-26 -516 -606 0
-27 -517 -607 0
-28 -518 -608 0
-29 -519 -609 0
-30 -520 -610 0
-26 -521 -611 0
-27 -522 -612 0
-28 -523 -613 0
-29 -524 -614 0
-30 -525 -615 0
-26 -526 -596 0
-27 -527 -597 0
-28 -528 -598 0
-29 -529 -599 0
-30 -530 -600 0
-26 -531 -601 0
-27 -532 -602 0
-28 -533 -603 0
-29 -534 -604 0
-30 -535 -605 0
-26 -536 -626 0
-27 -537 -627 0
-28 -538 -628 0
-29 -539 -629 0
-30 -540 -630 0
-26 -541 -631 0
-27 -542 -632 0
-28 -543 -633 0
-29 -544 -634 0
-30 -545 -635 0
-26 -546 -616 0
-27 -547 -617 0
-28 -548 -618 0
-29 -549 -619 0
-30 -550 -620 0
-26 -551 -621 0
-27 -552 -622 0
-28 -553 -623 0
-29 -554 -624 0
-30 -555 -625 0
-26 -636 -726 0
-27 -637 -727 0
-28 -638 -728 0
-29 -639 -729 0
-30 -640 -730 0
-26 -641 -731 0
-27 -642 -732 0
-28 -643 -733 0
-29 -644 -734 0
-30 -645 -735 0
-26 -646 -716 0
-27 -647 -717 0
-28 -648 -718 0
-29 -649 -719 0
-30 -650 -720 0
-26 -651 -721 0
-27 -652 -722 0
-28 -653 -723 0
-29 -654 -724 0
-30 -655 -725 0
-26 -656 -746 0
-27 -657 -747 0
-28 -658 -748 0
-29 -659 -749 0
-30 -660 -750 0
-26 -661 -751 0
-27 -662 -752 0
-28 -663 -753 0
-29 -664 -754 0
-30 -665 -755 0
-26 -666 -736 0
-27 -667 -737 0
-28 -668 -738 0
-29 -669 -739 0
-30 -670 -740 0
-26 -671 -741 0
-27 -672 -742 0
-28 -673 -743 0
-29 -674 -744 0
-30 -675 -745 0
-26 -676 -766 0
-27 -677 -767 0
-28 -678 -768 0
-29 -679 -769 0
-30 -680 -770 0
-26 -681 -771 0
-27 -682 -772 0
-28 -683 -773 0
-29 -684 -774 0
-30 -685 -775 0
-26 -686 -756 0
-27 -687 -757 0
-28 -688 -758 0
-29 -689 -759 0
-30 -690 -760 0
-26 -691 -761 0
-27 -692 -762 0
-28 -693 -763 0
-29 -694 -764 0
-30 -695 -765 0
-26 -696 -786 0
-27 -697 -787 0
-28 -698 -788 0
-29 -699 -789 0
-30 -700 -790 0
-26 -701 -791 0
-27 -702 -792 0
-28 -703 -793 0
-29 -704 -794 0
-30 -705 -795 0
-26 -706 -776 0
-27 -707 -777 0
-28 -708 -778 0
-29 -709 -779 0
-30 -710 -780 0
-26 -711 -781 0
-27 -712 -782 0
-28 -713 -783 0
-29 -714 -784 0
-30 -715 -785 0
-26 -156 -251 0
-27 -157 -252 0
-28 -158 -253 0
-29 -159 -254 0
-30 -160 -255 0
-26 -161 -246 0
-27 -162 -247 0
-28 -163 -248 0
-29 -164 -249 0
-30 -165 -250 0
-26 -166 -241 0
-27 -167 -242 0
-28 -168 -243 0
-29 -169 -244 0
-30 -170 -245 0
-26 -171 -236 0
-27 -172 -237 0
-28 -173 -238 0
-29 -174 -239 0
-30 -175 -240 0
-26 -176 -271 0
-27 -177 -272 0
-28 -178 -273 0
-29 -179 -274 0
-30 -180 -275 0
-26 -181 -266 0
-27 -182 -267 0
-28 -183 -268 0
-29 -184 -269 0
-30 -185 -270 0
-26 -186 -261 0
-27 -187 -262 0
-28 -188 -263 0
-29 -189 -264 0
-30 -190 -265 0
-26 -191 -256 0
-27 -192 -257 0
-28 -193 -258 0
-29 -194 -259 0
-30 -195 -260 0
-26 -196 -291 0
-27 -197 -292 0
-28 -198 -293 0
-29 -199 -294 0
-30 -200 -295 0
-26 -201 -286 0
-27 -202 -287 0
-28 -203 -288 0
-29 -204 -289 0
-30 -205 -290 0
-26 -206 -281 0
-27 -207 -282 0
-28 -208 -283 0
-29 -209 -284 0
-30 -210 -285 0
-26 -211 -276 0
-27 -212 -277 0
-28 -213 -278 0
-29 -214 -279 0
-30 -215 -280 0
-26 -216 -311 0
-27 -217 -312 0
-28 -218 -313 0
-29 -219 -314 0
-30 -220 -315 0
-26 -221 -306 0
-27 -222 -307 0
-28 -223 -308 0
-29 -224 -309 0
-30 -225 -310 0
-26 -226 -301 0
-27 -227 -302 0
-28 -228 -303 0
-29 -229 -304 0
-30 -230 -305 0
-26 -231 -296 0
-27 -232 -297 0
-28 -233 -298 0
-29 -234 -299 0
-30 -235 -300 0
-26 -316 -411 0
-27 -317 -412 0
-28 -318 -413 0
-29 -319 -414 0
-30 -320 -415 0
-26 -321 -406 0
-27 -322 -407 0
-28 -323 -408 0
-29 -324 -409 0
-30 -325 -410 0
-26 -326 -401 0
-27 -327 -402 0
-28 -328 -403 0
-29 -329 -404 0
-30 -330 -405 0
-26 -331 -396 0
-27 -332 -397 0
-28 -333 -398 0
-29 -334 -399 0
-30 -335 -400 0
-26 -336 -431 0
-27 -337 -432 0
-28 -338 -433 0
-29 -339 -434 0
-30 -340 -435 0
-26 -341 -426 0
-27 -342 -427 0
-28 -343 -428 0
-29 -344 -429 0
-30 -345 -430 0
-26 -346 -421 0
-27 -347 -422 0
-28 -348 -423 0
-29 -349 -424 0
-30 -350 -425 0
-26 -351 -416 0
-27 -352 -417 0
-28 -353 -418 0
-29 -354 -419 0
-30 -355 -420 0
-26 -356 -451 0
-27 -357 -452 0
-28 -358 -453 0
-29 -359 -454 0
-30 -360 -455 0
-26 -361 -446 0
-27 -362 -447 0
-28 -363 -448 0
-29 -364 -449 0
-30 -365 -450 0
-26 -366 -441 0
-27 -367 -442 0
-28 -368 -443 0
-29 -369 -444 0
-30 -370 -445 0
-26 -371 -436 0
-27 -372 -437 0
-28 -373 -438 0
-29 -374 -439 0
-30 -375 -440 0
-26 -376 -471 0
-27 -377 -472 0
-28 -378 -473 0
-29 -379 -474 0
-30 -380 -475 0
-26 -381 -466 0
-27 -382 -467 0
-28 -383 -468 0
-29 -384 -469 0
-30 -385 -470 0
-26 -386 -461 0
-27 -387 -462 0
-28 -388 -463 0
-29 -389 -464 0
-30 -390 -465 0
-26 -391 -456 0
-27 -392 -457 0
-28 -393 -458 0
-29 -394 -459 0
-30 -395 -460 0
-26 -476 -571 0
-27 -477 -572 0
-28 -478 -573 0
-29 -479 -574 0
-30 -480 -575 0
-26 -481 -566 0
-27 -482 -567 0
-28 -483 -568 0
-29 -484 -569 0
-30 -485 -570 0
-26 -486 -561 0
-27 -487 -562 0
-28 -488 -563 0
-29 -489 -564 0
-30 -490 -565 0
-26 -491 -556 0
-27 -492 -557 0
-28 -493 -558 0
-29 -494 -559 0
-30 -495 -560 0
-26 -496 -591 0
-27 -497 -592 0
-28 -498 -593 0
-29 -499 -594 0
-30 -500 -595 0
-26 -501 -586 0
-27 -502 -587 0
-28 -503 -588 0
-29 -504 -589 0
-30 -505 -590 0
-26 -506 -581 0
-27 -507 -582 0
-28 -508 -583 0
-29 -509 -584 0
-30 -510 -585 0
-26 -511 -576 0
-27 -512 -577 0
-28 -513 -578 0
-29 -514 -579 0
-30 -515 -580 0
-26 -516 -611 0
-27 -517 -612 0
-28 -518 -613 0
-29 -519 -614 0
-30 -520 -615 0
-26 -521 -606 0
-27 -522 -607 0
-28 -523 -608 0
-29 -524 -609 0
-30 -525 -610 0
-26 -526 -601 0
-27 -527 -602 0
-28 -528 -603 0
-29 -529 -604 0
-30 -530 -605 0
-26 -531 -596 0
-27 -532 -597 0
-28 -533 -598 0
-29 -534 -599 0
-30 -535 -600 0
-26 -536 -631 0
-27 -537 -632 0
-28 -538 -633 0
-29 -539 -634 0
-30 -540 -635 0
-26 -541 -626 0
-27 -542 -627 0
-28 -543 -628 0
-29 -544 -629 0
-30 -545 -630 0
-26 -546 -621 0
-27 -547 -622 0
-28 -548 -623 0
-29 -549 -624 0
-30 -550 -625 0
-26 -551 -616 0
-27 -552 -617 0
-28 -553 -618 0
-29 -554 -619 0
-30 -555 -620 0
-26 -636 -731 0
-27 -637 -732 0
-28 -638 -733 0
-29 -639 -734 0
-30 -640 -735 0
-26 -641 -726 0
-27 -642 -727 0
-28 -643 -728 0
-29 -644 -729 0
-30 -645 -730 0
-26 -646 -721 0
-27 -647 -722 0
-28 -648 -723 0
-29 -649 -724 0
-30 -650 -725 0
-26 -651 -716 0
-27 -652 -717 0
-28 -653 -718 0
-29 -654 -719 0
-30 -655 -720 0
-26 -656 -751 0
-27 -657 -752 0
-28 -658 -753 0
-29 -659 -754 0
-30 -660 -755 0
-26 -661 -746 0
-27 -662 -747 0
-28 -663 -748 0
-29 -664 -749 0
-30 -665 -750 0
-26 -666 -741 0
-27 -667 -742 0
-28 -668 -743 0
-29 -669 -744 0
-30 -670 -745 0
-26 -671 -736 0
-27 -672 -737 0
-28 -673 -738 0
-29 -674 -739 0
-30 -675 -740 0
-26 -676 -771 0
-27 -677 -772 0
-28 -678 -773 0
-29 -679 -774 0
-30 -680 -775 0
-26 -681 -766 0
-27 -682 -767 0
-28 -683 -768 0
-29 -684 -769 0
-30 -685 -770 0
-26 -686 -761 0
-27 -687 -762 0
-28 -688 -763 0
-29 -689 -764 0
-30 -690 -765 0
-26 -691 -756 0
-27 -692 -757 0
-28 -693 -758 0
-29 -694 -759 0
-30 -695 -760 0
-26 -696 -791 0
-27 -697 -792 0
-28 -698 -793 0
-29 -699 -794 0
-30 -700 -795 0
-26 -701 -786 0
-27 -702 -787 0
-28 -703 -788 0
-29 -704 -789 0
-30 -705 -790 0
-26 -706 -781 0
-27 -707 -782 0
-28 -708 -783 0
-29 -709 -784 0
-30 -710 -785 0
-26 -711 -776 0
-27 -712 -777 0
-28 -713 -778 0
-29 -714 -779 0
-30 -715 -780 0
-31 -156 -256 0
-32 -157 -257 0
-33 -158 -258 0
-34 -159 -259 0
-35 -160 -260 0
-31 -161 -261 0
-32 -162 -262 0
-33 -163 -263 0
-34 -164 -264 0
-35 -165 -265 0
-31 -166 -266 0
-32 -167 -267 0
-33 -168 -268 0
-34 -169 -269 0
-35 -170 -270 0
-31 -171 -271 0
-32 -172 -272 0
-33 -173 -273 0
-34 -174 -274 0
-35 -175 -275 0
-31 -176 -236 0
-32 -177 -237 0
-33 -178 -238 0
-34 -179 -239 0
-35 -180 -240 0
-31 -181 -241 0
-32 -182 -242 0
-33 -183 -243 0
-34 -184 -244 0
-35 -185 -245 0
-31 -186 -246 0
-32 -187 -247 0
-33 -188 -248 0
-34 -189 -249 0
-35 -190 -250 0
-31 -191 -251 0
-32 -192 -252 0
-33 -193 -253 0
-34 -194 -254 0
-35 -195 -255 0
-31 -196 -296 0
-32 -197 -297 0
-33 -198 -298 0
-34 -199 -299 0
-35 -200 -300 0
-31 -201 -301 0
-32 -202 -302 0
-33 -203 -303 0
-34 -204 -304 0
-35 -205 -305 0
-31 -206 -306 0
-32 -207 -307 0
-33 -208 -308 0
-34 -209 -309 0
-35 -210 -310 0
-31 -211 -311 0
-32 -212 -312 0
-33 -213 -313 0
-34 -214 -314 0
-35 -215 -315 0
-31 -216 -276 0
-32 -217 -277 0
-33 -218 -278 0
-34 -219 -279 0
-35 -220 -280 0
-31 -221 -281 0
-32 -222 -282 0
-33 -223 -283 0
-34 -224 -284 0
-35 -225 -285 0
-31 -226 -286 0
-32 -227 -287 0
-33 -228 -288 0
-34 -229 -289 0
-35 -230 -290 0
-31 -231 -291 0
-32 -232 -292 0
-33 -233 -293 0
-34 -234 -294 0
-35 -235 -295 0
-31 -316 -416 0
-32 -317 -417 0
-33 -318 -418 0
-34 -319 -419 0
-35 -320 -420 0
-31 -321 -421 0
-32 -322 -422 0
-33 -323 -423 0
-34 -324 -424 0
-35 -325 -425 0
-31 -326 -426 0
-32 -327 -427 0
-33 -328 -428 0
-34 -329 -429 0
-35 -330 -430 0
-31 -331 -431 0
-32 -332 -432 0
-33 -333 -433 0
-34 -334 -434 0
-35 -335 -435 0
-31 -336 -396 0
-32 -337 -397 0
-33 -338 -398 0
-34 -339 -399 0
-35 -340 -400 0
-31 -341 -401 0
-32 -342 -402 0
-33 -343 -403 0
-34 -344 -404 0
-35 -345 -405 0
-31 -346 -406 0
-32 -347 -407 0
-33 -348 -408 0
-34 -349 -409 0
-35 -350 -410 0
-31 -351 -411 0
-32 -352 -412 0
-33 -353 -413 0
-34 -354 -414 0
-35 -355 -415 0
-31 -356 -456 0
-32 -357 -457 0
-33 -358 -458 0
-34 -359 -459 0
-35 -360 -460 0
-31 -361 -461 0
-32 -362 -462 0
-33 -363 -463 0
-34 -364 -464 0
-35 -365 -465 0
-31 -366 -466 0
-32 -367 -467 0
-33 -368 -468 0
-34 -369 -469 0
-35 -370 -470 0
-31 -371 -471 0
-32 -372 -472 0
-33 -373 -473 0
-34 -374 -474 0
-35 -375 -475 0
-31 -376 -436 0
-32 -377 -437 0
-33 -378 -438 0
-34 -379 -439 0
-35 -380 -440 0
-31 -381 -441 0
-32 -382 -442 0
-33 -383 -443 0
-34 -384 -444 0
-35 -385 -445 0
-31 -386 -446 0
-32 -387 -447 0
-33 -388 -448 0
-34 -389 -449 0
-35 -390 -450 0
-31 -391 -451 0
-32 -392 -452 0
-33 -393 -453 0
-34 -394 -454 0
-35 -395 -455 0
-31 -476 -576 0
-32 -477 -577 0
-33 -478 -578 0
-34 -479 -579 0
-35 -480 -580 0
-31 -481 -581 0
-32 -482 -582 0
-33 -483 -583 0
-34 -484 -584 0
-35 -485 -585 0
-31 -486 -586 0
-32 -487 -587 0
-33 -488 -588 0
-34 -489 -589 0
-35 -490 -590 0
-31 -491 -591 0
-32 -492 -592 0
-33 -493 -593 0
-34 -494 -594 0
-35 -495 -595 0
-31 -496 -556 0
-32 -497 -557 0
-33 -498 -558 0
-34 -499 -559 0
-35 -500 -560 0
-31 -501 -561 0
-32 -502 -562 0
-33 -503 -563 0
-34 -504 -564 0
-35 -505 -565 0
-31 -506 -566 0
-32 -507 -567 0
-33 -508 -568 0
-34 -509 -569 0
-35 -510 -570 0
-31 -511 -571 0
-32 -512 -572 0
-33 -513 -573 0
-34 -514 -574 0
-35 -515 -575 0
-31 -516 -616 0
-32 -517 -617 0
-33 -518 -618 0
-34 -519 -619 0
-35 -520 -620 0
-31 -521 -621 0
-32 -522 -622 0
-33 -523 -623 0
-34 -524 -624 0
-35 -525 -625 0
-31 -526 -626 0
-32 -527 -627 0
-33 -528 -628 0
-34 -529 -629 0
-35 -530 -630 0
-31 -531 -631 0
-32 -532 -632 0
-33 -533 -633 0
-34 -534 -634 0
-35 -535 -635 0
-31 -536 -596 0
-32 -537 -597 0
-33 -538 -598 0
-34 -539 -599 0
-35 -540 -600 0
-31 -541 -601 0
-32 -542 -602 0
-33 -543 -603 0
-34 -544 -604 0
-35 -545 -605 0
-31 -546 -606 0
-32 -547 -607 0
-33 -548 -608 0
-34 -549 -609 0
-35 -550 -610 0
-31 -551 -611 0
-32 -552 -612 0
-33 -553 -613 0
-34 -554 -614 0
-35 -555 -615 0
-31 -636 -736 0
-32 -637 -737 0
-33 -638 -738 0
-34 -639 -739 0
-35 -640 -740 0
-31 -641 -741 0
-32 -642 -742 0
-33 -643 -743 0
-34 -644 -744 0
-35 -645 -745 0
-31 -646 -746 0
-32 -647 -747 0
-33 -648 -748 0
-34 -649 -749 0
-35 -650 -750 0
-31 -651 -751 0
-32 -652 -752 0
-33 -653 -753 0
-34 -654 -754 0
-35 -655 -755 0
-31 -656 -716 0
-32 -657 -717 0
-33 -658 -718 0
-34 -659 -719 0
-35 -660 -720 0
-31 -661 -721 0
-32 -662 -722 0
-33 -663 -723 0
-34 -664 -724 0
-35 -665 -725 0
-31 -666 -726 0
-32 -667 -727 0
-33 -668 -728 0
-34 -669 -729 0
-35 -670 -730 0
-31 -671 -731 0
-32 -672 -732 0
-33 -673 -733 0
-34 -674 -734 0
-35 -675 -735 0
-31 -676 -776 0
-32 -677 -777 0
-33 -678 -778 0
-34 -679 -779 0
-35 -680 -780 0
-31 -681 -781 0
-32 -682 -782 0
-33 -683 -783 0
-34 -684 -784 0
-35 -685 -785 0
-31 -686 -786 0
-32 -687 -787 0
-33 -688 -788 0
-34 -689 -789 0
-35 -690 -790 0
-31 -691 -791 0
-32 -692 -792 0
-33 -693 -793 0
-34 -694 -794 0
-35 -695 -795 0
-31 -696 -756 0
-32 -697 -757 0
-33 -698 -758 0
-34 -699 -759 0
-35 -700 -760 0
-31 -701 -761 0
-32 -702 -762 0
-33 -703 -763 0
-34 -704 -764 0
-35 -705 -765 0
-31 -706 -766 0
-32 -707 -767 0
-33 -708 -768 0
-34 -709 -769 0
-35 -710 -770 0
-31 -711 -771 0
-32 -712 -772 0
-33 -713 -773 0
-34 -714 -774 0
-35 -715 -775 0
-31 -156 -261 0
-32 -157 -262 0
-33 -158 -263 0
-34 -159 -264 0
-35 -160 -265 0
-31 -161 -256 0
-32 -162 -257 0
-33 -163 -258 0
-34 -164 -259 0
-35 -165 -260 0
-31 -166 -271 0
-32 -167 -272 0
-33 -168 -273 0
-34 -169 -274 0
-35 -170 -275 0
-31 -171 -266 0
-32 -172 -267 0
-33 -173 -268 0
-34 -174 -269 0
-35 -175 -270 0
-31 -176 -241 0
-32 -177 -242 0
-33 -178 -243 0
-34 -179 -244 0
-35 -180 -245 0
-31 -181 -236 0
-32 -182 -237 0
-33 -183 -238 0
-34 -184 -239 0
-35 -185 -240 0
-31 -186 -251 0
-32 -187 -252 0
-33 -188 -253 0
-34 -189 -254 0
-35 -190 -255 0
-31 -191 -246 0
-32 -192 -247 0
-33 -193 -248 0
-34 -194 -249 0
-35 -195 -250 0
-31 -196 -301 0
-32 -197 -302 0
-33 -198 -303 0
-34 -199 -304 0
-35 -200 -305 0
-31 -201 -296 0
-32 -202 -297 0
-33 -203 -298 0
-34 -204 -299 0
-35 -205 -300 0
-31 -206 -311 0
-32 -207 -312 0
-33 -208 -313 0
-34 -209 -314 0
-35 -210 -315 0
-31 -211 -306 0
-32 -212 -307 0
-33 -213 -308 0
-34 -214 -309 0
-35 -215 -310 0
-31 -216 -281 0
-32 -217 -282 0
-33 -218 -283 0
-34 -219 -284 0
-35 -220 -285 0
-31 -221 -276 0
-32 -222 -277 0
-33 -223 -278 0
-34 -224 -279 0
-35 -225 -280 0
-31 -226 -291 0
-32 -227 -292 0
-33 -228 -293 0
-34 -229 -294 0
-35 -230 -295 0
-31 -231 -286 0
-32 -232 -287 0
-33 -233 -288 0
-34 -234 -289 0
-35 -235 -290 0
-31 -316 -421 0
-32 -317 -422 0
-33 -318 -423 0
-34 -319 -424 0
-35 -320 -425 0
-31 -321 -416 0
-32 -322 -417 0
-33 -323 -418 0
-34 -324 -419 0
-35 -325 -420 0
-31 -326 -431 0
-32 -327 -432 0
-33 -328 -433 0
-34 -329 -434 0
-35 -330 -435 0
-31 -331 -426 0
-32 -332 -427 0
-33 -333 -428 0
-34 -334 -429 0
-35 -335 -430 0
-31 -336 -401 0
-32 -337 -402 0
-33 -338 -403 0
-34 -339 -404 0
-35 -340 -405 0
-31 -341 -396 0
-32 -342 -397 0
-33 -343 -398 0
-34 -344 -399 0
-35 -345 -400 0
-31 -346 -411 0
-32 -347 -412 0
-33 -348 -413 0
-34 -349 -414 0
-35 -350 -415 0
-31 -351 -406 0
-32 -352 -407 0
-33 -353 -408 0
-34 -354 -409 0
-35 -355 -410 0
-31 -356 -461 0
-32 -357 -462 0
-33 -358 -463 0
-34 -359 -464 0
-35 -360 -465 0
-31 -361 -456 0
-32 -362 -457 0
-33 -363 -458 0
-34 -364 -459 0
-35 -365 -460 0
-31 -366 -471 0
-32 -367 -472 0
-33 -368 -473 0
-34 -369 -474 0
-35 -370 -475 0
-31 -371 -466 0
-32 -372 -467 0
-33 -373 -468 0
-34 -374 -469 0
-35 -375 -470 0
-31 -376 -441 0
-32 -377 -442 0
-33 -378 -443 0
-34 -379 -444 0
-35 -380 -445 0
-31 -381 -436 0
-32 -382 -437 0
-33 -383 -438 0
-34 -384 -439 0
-35 -385 -440 0
-31 -386 -451 0
-32 -387 -452 0
-33 -388 -453 0
-34 -389 -454 0
-35 -390 -455 0
-31 -391 -446 0
-32 -392 -447 0
-33 -393 -448 0
-34 -394 -449 0
-35 -395 -450 0
-31 -476 -581 0
-32 -477 -582 0
-33 -478 -583 0
-34 -479 -584 0
-35 -480 -585 0
-31 -481 -576 0
-32 -482 -577 0
-33 -483 -578 0
-34 -484 -579 0
-35 -485 -580 0
-31 -486 -591 0
-32 -487 -592 0
-33 -488 -593 0
-34 -489 -594 0
-35 -490 -595 0
-31 -491 -586 0
-32 -492 -587 0
-33 -493 -588 0
-34 -494 -589 0
-35 -495 -590 0
-31 -496 -561 0
-32 -497 -562 0
-33 -498 -563 0
-34 -499 -564 0
-35 -500 -565 0
-31 -501 -556 0
-32 -502 -557 0
-33 -503 -558 0
-34 -504 -559 0
-35 -505 -560 0
-31 -506 -571 0
-32 -507 -572 0
-33 -508 -573 0
-34 -509 -574 0
-35 -510 -575 0
-31 -511 -566 0
-32 -512 -567 0
-33 -513 -568 0
-34 -514 -569 0
-35 -515 -570 0
-31 -516 -621 0
-32 -517 -622 0
-33 -518 -623 0
-34 -519 -624 0
-35 -520 -625 0
-31 -521 -616 0
-32 -522 -617 0
-33 -523 -618 0
-34 -524 -619 0
-35 -525 -620 0
-31 -526 -631 0
-32 -527 -632 0
-33 -528 -633 0
-34 -529 -634 0
-35 -530 -635 0
-31 -531 -626 0
-32 -532 -627 0
-33 -533 -628 0
-34 -534 -629 0
-35 -535 -630 0
-31 -536 -601 0
-32 -537 -602 0
-33 -538 -603 0
-34 -539 -604 0
-35 -540 -605 0
-31 -541 -596 0
-32 -542 -597 0
-33 -543 -598 0
-34 -544 -599 0
-35 -545 -600 0
-31 -546 -611 0
-32 -547 -612 0
-33 -548 -613 0
-34 -549 -614 0
-35 -550 -615 0
-31 -551 -606 0
-32 -552 -607 0
-33 -553 -608 0
-34 -554 -609 0
-35 -555 -610 0
-31 -636 -741 0
-32 -637 -742 0
-33 -638 -743 0
-34 -639 -744 0
-35 -640 -745 0
-31 -641 -736 0
-32 -642 -737 0
-33 -643 -738 0
-34 -644 -739 0
-35 -645 -740 0
-31 -646 -751 0
-32 -647 -752 0
-33 -648 -753 0
-34 -649 -754 0
-35 -650 -755 0
-31 -651 -746 0
-32 -652 -747 0
-33 -653 -748 0
-34 -654 -749 0
-35 -655 -750 0
-31 -656 -721 0
-32 -657 -722 0
-33 -658 -723 0
-34 -659 -724 0
-35 -660 -725 0
-31 -661 -716 0
-32 -662 -717 0
-33 -663 -718 0
-34 -664 -719 0
-35 -665 -720 0
-31 -666 -731 0
-32 -667 -732 0
-33 -668 -733 0
-34 -669 -734 0
-35 -670 -735 0
-31 -671 -726 0
-32 -672 -727 0
-33 -673 -728 0
-34 -674 -729 0
-35 -675 -730 0
-31 -676 -781 0
-32 -677 -782 0
-33 -678 -783 0
-34 -679 -784 0
-35 -680 -785 0
-31 -681 -776 0
-32 -682 -777 0
-33 -683 -778 0
-34 -684 -779 0
-35 -685 -780 0
-31 -686 -791 0
-32 -687 -792 0
-33 -688 -793 0
-34 -689 -794 0
-35 -690 -795 0
-31 -691 -786 0
-32 -692 -787 0
-33 -693 -788 0
-34 -694 -789 0
-35 -695 -790 0
-31 -696 -761 0
-32 -697 -762 0
-33 -698 -763 0
-34 -699 -764 0
-35 -700 -765 0
-31 -701 -756 0
-32 -702 -757 0
-33 -703 -758 0
-34 -704 -759 0
-35 -705 -760 0
-31 -706 -771 0
-32 -707 -772 0
-33 -708 -773 0
-34 -709 -774 0
-35 -710 -775 0
-31 -711 -766 0
-32 -712 -767 0
-33 -713 -768 0
-34 -714 -769 0
-35 -715 -770 0
-31 -156 -266 0
-32 -157 -267 0
-33 -158 -268 0
-34 -159 -269 0
-35 -160 -270 0
-31 -161 -271 0
-32 -162 -272 0
-33 -163 -273 0
-34 -164 -274 0
-35 -165 -275 0
-31 -166 -256 0
-32 -167 -257 0
-33 -168 -258 0
-34 -169 -259 0
-35 -170 -260 0
-31 -171 -261 0
-32 -172 -262 0
-33 -173 -263 0
-34 -174 -264 0
-35 -175 -265 0
-31 -176 -246 0
-32 -177 -247 0
-33 -178 -248 0
-34 -179 -249 0
-35 -180 -250 0
-31 -181 -251 0
-32 -182 -252 0
-33 -183 -253 0
-34 -184 -254 0
-35 -185 -255 0
-31 -186 -236 0
-32 -187 -237 0
-33 -188 -238 0
-34 -189 -239 0
-35 -190 -240 0
-31 -191 -241 0
-32 -192 -242 0
-33 -193 -243 0
-34 -194 -244 0
-35 -195 -245 0
-31 -196 -306 0
-32 -197 -307 0
-33 -198 -308 0
-34 -199 -309 0
-35 -200 -310 0
-31 -201 -311 0
-32 -202 -312 0
-33 -203 -313 0
-34 -204 -314 0
-35 -205 -315 0
-31 -206 -296 0
-32 -207 -297 0
-33 -208 -298 0
-34 -209 -299 0
-35 -210 -300 0
-31 -211 -301 0
-32 -212 -302 0
-33 -213 -303 0
-34 -214 -304 0
-35 -215 -305 0
-31 -216 -286 0
-32 -217 -287 0
-33 -218 -288 0
-34 -219 -289 0
-35 -220 -290 0
-31 -221 -291 0
-32 -222 -292 0
-33 -223 -293 0
-34 -224 -294 0
-35 -225 -295 0
-31 -226 -276 0
-32 -227 -277 0
-33 -228 -278 0
-34 -229 -279 0
-35 -230 -280 0
-31 -231 -281 0
-32 -232 -282 0
-33 -233 -283 0
-34 -234 -284 0
-35 -235 -285 0
-31 -316 -426 0
-32 -317 -427 0
-33 -318 -428 0
-34 -319 -429 0
-35 -320 -430 0
-31 -321 -431 0
-32 -322 -432 0
-33 -323 -433 0
-34 -324 -434 0
-35 -325 -435 0
-31 -326 -416 0
-32 -327 -417 0
-33 -328 -418 0
-34 -329 -419 0
-35 -330 -420 0
-31 -331 -421 0
-32 -332 -422 0
-33 -333 -423 0
-34 -334 -424 0
-35 -335 -425 0
-31 -336 -406 0
-32 -337 -407 0
-33 -338 -408 0
-34 -339 -409 0
-35 -340 -410 0
-31 -341 -411 0
-32 -342 -412 0
-33 -343 -413 0
-34 -344 -414 0
-35 -345 -415 0
-31 -346 -396 0
-32 -347 -397 0
-33 -348 -398 0
-34 -349 -399 0
-35 -350 -400 0
-31 -351 -401 0
-32 -352 -402 0
-33 -353 -403 0
-34 -354 -404 0
-35 -355 -405 0
-31 -356 -466 0
-32 -357 -467 0
-33 -358 -468 0
-34 -359 -469 0
-35 -360 -470 0
-31 -361 -471 0
-32 -362 -472 0
-33 -363 -473 0
-34 -364 -474 0
-35 -365 -475 0
-31 -366 -456 0
-32 -367 -457 0
-33 -368 -458 0
-34 -369 -459 0
-35 -370 -460 0
-31 -371 -461 0
-32 -372 -462 0
-33 -373 -463 0
-34 -374 -464 0
-35 -375 -465 0
-31 -376 -446 0
-32 -377 -447 0
-33 -378 -448 0
-34 -379 -449 0
-35 -380 -450 0
-31 -381 -451 0
-32 -382 -452 0
-33 -383 -453 0
-34 -384 -454 0
-35 -385 -455 0
-31 -386 -436 0
-32 -387 -437 0
-33 -388 -438 0
-34 -389 -439 0
-35 -390 -440 0
-31 -391 -441 0
-32 -392 -442 0
-33 -393 -443 0
-34 -394 -444 0
-35 -395 -445 0
-31 -476 -586 0
-32 -477 -587 0
-33 -478 -588 0
-34 -479 -589 0
-35 -480 -590 0
-31 -481 -591 0
-32 -482 -592 0
-33 -483 -593 0
-34 -484 -594 0
-35 -485 -595 0
-31 -486 -576 0
-32 -487 -577 0
-33 -488 -578 0
-34 -489 -579 0
-35 -490 -580 0
-31 -491 -581 0
-32 -492 -582 0
-33 -493 -583 0
-34 -494 -584 0
-35 -495 -585 0
-31 -496 -566 0
-32 -497 -567 0
-33 -498 -568 0
-34 -499 -569 0
-35 -500 -570 0
-31 -501 -571 0
-32 -502 -572 0
-33 -503 -573 0
-34 -504 -574 0
-35 -505 -575 0
-31 -506 -556 0
-32 -507 -557 0
-33 -508 -558 0
-34 -509 -559 0
-35 -510 -560 0
-31 -511 -561 0
-32 -512 -562 0
-33 -513 -563 0
-34 -514 -564 0
-35 -515 -565 0
-31 -516 -626 0
-32 -517 -627 0
-33 -518 -628 0
-34 -519 -629 0
-35 -520 -630 0
-31 -521 -631 0
-32 -522 -632 0
-33 -523 -633 0
-34 -524 -634 0
-35 -525 -635 0
-31 -526 -616 0
-32 -527 -617 0
-33 -528 -618 0
-34 -529 -619 0
-35 -530 -620 0
-31 -531 -621 0
-32 -532 -622 0
-33 -533 -623 0
-34 -534 -624 0
-35 -535 -625 0
-31 -536 -606 0
-32 -537 -607 0
-33 -538 -608 0
-34 -539 -609 0
-35 -540 -610 0
-31 -541 -611 0
-32 -542 -612 0
-33 -543 -613 0
-34 -544 -614 0
-35 -545 -615 0
-31 -546 -596 0
-32 -547 -597 0
-33 -548 -598 0
-34 -549 -599 0
-35 -550 -600 0
-31 -551 -601 0
-32 -552 -602 0
-33 -553 -603 0
-34 -554 -604 0
-35 -555 -605 0
-31 -636 -746 0
-32 -637 -747 0
-33 -638 -748 0
-34 -639 -749 0
-35 -640 -750 0
-31 -641 -751 0
-32 -642 -752 0
-33 -643 -753 0
-34 -644 -754 0
-35 -645 -755 0
-31 -646 -736 0
-32 -647 -737 0
-33 -648 -738 0
-34 -649 -739 0
-35 -650 -740 0
-31 -651 -741 0
-32 -652 -742 0
-33 -653 -743 0
-34 -654 -744 0
-35 -655 -745 0
-31 -656 -726 0
-32 -657 -727 0
-33 -658 -728 0
-34 -659 -729 0
-35 -660 -730 0
-31 -661 -731 0
-32 -662 -732 0
-33 -663 -733 0
-34 -664 -734 0
-35 -665 -735 0
-31 -666 -716 0
-32 -667 -717 0
-33 -668 -718 0
-34 -669 -719 0
-35 -670 -720 0
-31 -671 -721 0
-32 -672 -722 0
-33 -673 -723 0
-34 -674 -724 0
-35 -675 -725 0
-31 -676 -786 0
-32 -677 -787 0
-33 -678 -788 0
-34 -679 -789 0
-35 -680 -790 0
-31 -681 -791 0
-32 -682 -792 0
-33 -683 -793 0
-34 -684 -794 0
-35 -685 -795 0
-31 -686 -776 0
-32 -687 -777 0
-33 -688 -778 0
-34 -689 -779 0
-35 -690 -780 0
-31 -691 -781 0
-32 -692 -782 0
-33 -693 -783 0
-34 -694 -784 0
-35 -695 -785 0
-31 -696 -766 0
-32 -697 -767 0
-33 -698 -768 0
-34 -699 -769 0
-35 -700 -770 0
-31 -701 -771 0
-32 -702 -772 0
-33 -703 -773 0
-34 -704 -774 0
-35 -705 -775 0
-31 -706 -756 0
-32 -707 -757 0
-33 -708 -758 0
-34 -709 -759 0
-35 -710 -760 0
-31 -711 -761 0
-32 -712 -762 0
-33 -713 -763 0
-34 -714 -764 0
-35 -715 -765 0
-26 -156 -271 0
-27 -157 -272 0
-28 -158 -273 0
-29 -159 -274 0
-30 -160 -275 0
-26 -161 -266 0
-27 -162 -267 0
-28 -163 -268 0
-29 -164 -269 0
-30 -165 -270 0
-26 -166 -261 0
-27 -167 -262 0
-28 -168 -263 0
-29 -169 -264 0
-30 -170 -265 0
-26 -171 -256 0
-27 -172 -257 0
-28 -173 -258 0
-29 -174 -259 0
-30 -175 -260 0
-26 -176 -251 0
-27 -177 -252 0
-28 -178 -253 0
-29 -179 -254 0
-30 -180 -255 0
-26 -181 -246 0
-27 -182 -247 0
-28 -183 -248 0
-29 -184 -249 0
-30 -185 -250 0
-26 -186 -241 0
-27 -187 -242 0
-28 -188 -243 0
-29 -189 -244 0
-30 -190 -245 0
-26 -191 -236 0
-27 -192 -237 0
-28 -193 -238 0
-29 -194 -239 0
-30 -195 -240 0
-26 -196 -311 0
-27 -197 -312 0
-28 -198 -313 0
-29 -199 -314 0
-30 -200 -315 0
-26 -201 -306 0
-27 -202 -307 0
-28 -203 -308 0
-29 -204 -309 0
-30 -205 -310 0
-26 -206 -301 0
-27 -207 -302 0
-28 -208 -303 0
-29 -209 -304 0
-30 -210 -305 0
-26 -211 -296 0
-27 -212 -297 0
-28 -213 -298 0
-29 -214 -299 0
-30 -215 -300 0
-26 -216 -291 0
-27 -217 -292 0
-28 -218 -293 0
-29 -219 -294 0
-30 -220 -295 0
-26 -221 -286 0
-27 -222 -287 0
-28 -223 -288 0
-29 -224 -289 0
-30 -225 -290 0
-26 -226 -281 0
-27 -227 -282 0
-28 -228 -283 0
-29 -229 -284 0
-30 -230 -285 0
-26 -231 -276 0
-27 -232 -277 0
-28 -233 -278 0
-29 -234 -279 0
-30 -235 -280 0
-26 -316 -431 0
-27 -317 -432 0
-28 -318 -433 0
-29 -319 -434 0
-30 -320 -435 0
-26 -321 -426 0
-27 -322 -427 0
-28 -323 -428 0
-29 -324 -429 0
-30 -325 -430 0
-26 -326 -421 0
-27 -327 -422 0
-28 -328 -423 0
-29 -329 -424 0
-30 -330 -425 0
-26 -331 -416 0
-27 -332 -417 0
-28 -333 -418 0
-29 -334 -419 0
-30 -335 -420 0
-26 -336 -411 0
-27 -337 -412 0
-28 -338 -413 0
-29 -339 -414 0
-30 -340 -415 0
-26 -341 -406 0
-27 -342 -407 0
-28 -343 -408 0
-29 -344 -409 0
-30 -345 -410 0
-26 -346 -401 0
-27 -347 -402 0
-28 -348 -403 0
-29 -349 -404 0
-30 -350 -405 0
-26 -351 -396 0
-27 -352 -397 0
-28 -353 -398 0
-29 -354 -399 0
-30 -355 -400 0
-26 -356 -471 0
-27 -357 -472 0
-28 -358 -473 0
-29 -359 -474 0
-30 -360 -475 0
-26 -361 -466 0
-27 -362 -467 0
-28 -363 -468 0
-29 -364 -469 0
-30 -365 -470 0
-26 -366 -461 0
-27 -367 -462 0
-28 -368 -463 0
-29 -369 -464 0
-30 -370 -465 0
-26 -371 -456 0
-27 -372 -457 0
-28 -373 -458 0
-29 -374 -459 0
-30 -375 -460 0
-26 -376 -451 0
-27 -377 -452 0
-28 -378 -453 0
-29 -379 -454 0
-30 -380 -455 0
-26 -381 -446 0
-27 -382 -447 0
-28 -383 -448 0
-29 -384 -449 0
-30 -385 -450 0
-26 -386 -441 0
-27 -387 -442 0
-28 -388 -443 0
-29 -389 -444 0
-30 -390 -445 0
-26 -391 -436 0
-27 -392 -437 0
-28 -393 -438 0
-29 -394 -439 0
-30 -395 -440 0
-26 -476 -591 0
-27 -477 -592 0
-28 -478 -593 0
-29 -479 -594 0
-30 -480 -595 0
-26 -481 -586 0
-27 -482 -587 0
-28 -483 -588 0
-29 -484 -589 0
-30 -485 -590 0
-26 -486 -581 0
-27 -487 -582 0
-28 -488 -583 0
-29 -489 -584 0
-30 -490 -585 0
-26 -491 -576 0
-27 -492 -577 0
-28 -493 -578 0
-29 -494 -579 0
-30 -495 -580 0
-26 -496 -571 0
-27 -497 -572 0
-28 -498 -573 0
-29 -499 -574 0
-30 -500 -575 0
-26 -501 -566 0
-27 -502 -567 0
-28 -503 -568 0
-29 -504 -569 0
-30 -505 -570 0
-26 -506 -561 0
-27 -507 -562 0
-28 -508 -563 0
-29 -509 -564 0
-30 -510 -565 0
-26 -511 -556 0
-27 -512 -557 0
-28 -513 -558 0
-29 -514 -559 0
-30 -515 -560 0
-26 -516 -631 0
-27 -517 -632 0
-28 -518 -633 0
-29 -519 -634 0
-30 -520 -635 0
-26 -521 -626 0
-27 -522 -627 0
-28 -523 -628 0
-29 -524 -629 0
-30 -525 -630 0
-26 -526 -621 0
-27 -527 -622 0
-28 -528 -623 0
-29 -529 -624 0
-30 -530 -625 0
-26 -531 -616 0
-27 -532 -617 0
-28 -533 -618 0
-29 -534 -619 0
-30 -535 -620 0
-26 -536 -611 0
-27 -537 -612 0
-28 -538 -613 0
-29 -539 -614 0
-30 -540 -615 0
-26 -541 -606 0
-27 -542 -607 0
-28 -543 -608 0
-29 -544 -609 0
-30 -545 -610 0
-26 -546 -601 0
-27 -547 -602 0
-28 -548 -603 0
-29 -549 -604 0
-30 -550 -605 0
-26 -551 -596 0
-27 -552 -597 0
-28 -553 -598 0
-29 -554 -599 0
-30 -555 -600 0
-26 -636 -751 0
-27 -637 -752 0
-28 -638 -753 0
-29 -639 -754 0
-30 -640 -755 0
-26 -641 -746 0
-27 -642 -747 0
-28 -643 -748 0
-29 -644 -749 0
-30 -645 -750 0
-26 -646 -741 0
-27 -647 -742 0
-28 -648 -743 0
-29 -649 -744 0
-30 -650 -745 0
-26 -651 -736 0
-27 -652 -737 0
-28 -653 -738 0
-29 -654 -739 0
-30 -655 -740 0
-26 -656 -731 0
-27 -657 -732 0
-28 -658 -733 0
-29 -659 -734 0
-30 -660 -735 0
-26 -661 -726 0
-27 -662 -727 0
-28 -663 -728 0
-29 -664 -729 0
-30 -665 -730 0
-26 -666 -721 0
-27 -667 -722 0
-28 -668 -723 0
-29 -669 -724 0
-30 -670 -725 0
-26 -671 -716 0
-27 -672 -717 0
-28 -673 -718 0
-29 -674 -719 0
-30 -675 -720 0
-26 -676 -791 0
-27 -677 -792 0
-28 -678 -793 0
-29 -679 -794 0
-30 -680 -795 0
-26 -681 -786 0
-27 -682 -787 0
-28 -683 -788 0
-29 -684 -789 0
-30 -685 -790 0
-26 -686 -781 0
-27 -687 -782 0
-28 -688 -783 0
-29 -689 -784 0
-30 -690 -785 0
-26 -691 -776 0
-27 -692 -777 0
-28 -693 -778 0
-29 -694 -779 0
-30 -695 -780 0
-26 -696 -771 0
-27 -697 -772 0
-28 -698 -773 0
-29 -699 -774 0
-30 -700 -775 0
-26 -701 -766 0
-27 -702 -767 0
-28 -703 -768 0
-29 -704 -769 0
-30 -705 -770 0
-26 -706 -761 0
-27 -707 -762 0
-28 -708 -763 0
-29 -709 -764 0
-30 -710 -765 0
-26 -711 -756 0
-27 -712 -757 0
-28 -713 -758 0
-29 -714 -759 0
-30 -715 -760 0
-21 -156 -276 0
-22 -157 -277 0
-23 -158 -278 0
-24 -159 -279 0
-25 -160 -280 0
-21 -161 -281 0
-22 -162 -282 0
-23 -163 -283 0
-24 -164 -284 0
-25 -165 -285 0
-21 -166 -286 0
-22 -167 -287 0
-23 -168 -288 0
-24 -169 -289 0
-25 -170 -290 0
-21 -171 -291 0
-22 -172 -292 0
-23 -173 -293 0
-24 -174 -294 0
-25 -175 -295 0
-21 -176 -296 0
-22 -177 -297 0
-23 -178 -298 0
-24 -179 -299 0
-25 -180 -300 0
-21 -181 -301 0
-22 -182 -302 0
-23 -183 -303 0
-24 -184 -304 0
-25 -185 -305 0
-21 -186 -306 0
-22 -187 -307 0
-23 -188 -308 0
-24 -189 -309 0
-25 -190 -310 0
-21 -191 -311 0
-22 -192 -312 0
-23 -193 -313 0
-24 -194 -314 0
-25 -195 -315 0
-21 -196 -236 0
-22 -197 -237 0
-23 -198 -238 0
-24 -199 -239 0
-25 -200 -240 0
-21 -201 -241 0
-22 -202 -242 0
-23 -203 -243 0
-24 -204 -244 0
-25 -205 -245 0
-21 -206 -246 0
-22 -207 -247 0
-23 -208 -248 0
-24 -209 -249 0
-25 -210 -250 0
-21 -211 -251 0
-22 -212 -252 0
-23 -213 -253 0
-24 -214 -254 0
-25 -215 -255 0
-21 -216 -256 0
-22 -217 -257 0
-23 -218 -258 0
-24 -219 -259 0
-25 -220 -260 0
-21 -221 -261 0
-22 -222 -262 0
-23 -223 -263 0
-24 -224 -264 0
-25 -225 -265 0
-21 -226 -266 0
-22 -227 -267 0
-23 -228 -268 0
-24 -229 -269 0
-25 -230 -270 0
-21 -231 -271 0
-22 -232 -272 0
-23 -233 -273 0
-24 -234 -274 0
-25 -235 -275 0
-21 -316 -436 0
-22 -317 -437 0
-23 -318 -438 0
-24 -319 -439 0
-25 -320 -440 0
-21 -321 -441 0
-22 -322 -442 0
-23 -323 -443 0
-24 -324 -444 0
-25 -325 -445 0
-21 -326 -446 0
-22 -327 -447 0
-23 -328 -448 0
-24 -329 -449 0
-25 -330 -450 0
-21 -331 -451 0
-22 -332 -452 0
-23 -333 -453 0
-24 -334 -454 0
-25 -335 -455 0
-21 -336 -456 0
-22 -337 -457 0
-23 -338 -458 0
-24 -339 -459 0
-25 -340 -460 0
-21 -341 -461 0
-22 -342 -462 0
-23 -343 -463 0
-24 -344 -464 0
-25 -345 -465 0
-21 -346 -466 0
-22 -347 -467 0
-23 -348 -468 0
-24 -349 -469 0
-25 -350 -470 0
-21 -351 -471 0
-22 -352 -472 0
-23 -353 -473 0
-24 -354 -474 0
-25 -355 -475 0
-21 -356 -396 0
-22 -357 -397 0
-23 -358 -398 0
-24 -359 -399 0
-25 -360 -400 0
-21 -361 -401 0
-22 -362 -402 0
-23 -363 -403 0
-24 -364 -404 0
-25 -365 -405 0
-21 -366 -406 0
-22 -367 -407 0
-23 -368 -408 0
-24 -369 -409 0
-25 -370 -410 0
-21 -371 -411 0
-22 -372 -412 0
-23 -373 -413 0
-24 -374 -414 0
-25 -375 -415 0
-21 -376 -416 0
-22 -377 -417 0
-23 -378 -418 0
-24 -379 -419 0
-25 -380 -420 0
-21 -381 -421 0
-22 -382 -422 0
-23 -383 -423 0
-24 -384 -424 0
-25 -385 -425 0
-21 -386 -426 0
-22 -387 -427 0
-23 -388 -428 0
-24 -389 -429 0
-25 -390 -430 0
-21 -391 -431 0
-22 -392 -432 0
-23 -393 -433 0
-24 -394 -434 0
-25 -395 -435 0
-21 -476 -596 0
-22 -477 -597 0
-23 -478 -598 0
-24 -479 -599 0
-25 -480 -600 0
-21 -481 -601 0
-22 -482 -602 0
-23 -483 -603 0
-24 -484 -604 0
-25 -485 -605 0
-21 -486 -606 0
-22 -487 -607 0
-23 -488 -608 0
-24 -489 -609 0
-25 -490 -610 0
-21 -491 -611 0
-22 -492 -612 0
-23 -493 -613 0
-24 -494 -614 0
-25 -495 -615 0
-21 -496 -616 0
-22 -497 -617 0
-23 -498 -618 0
-24 -499 -619 0
-25 -500 -620 0
-21 -501 -621 0
-22 -502 -622 0
-23 -503 -623 0
-24 -504 -624 0
-25 -505 -625 0
-21 -506 -626 0
-22 -507 -627 0
-23 -508 -628 0
-24 -509 -629 0
-25 -510 -630 0
-21 -511 -631 0
-22 -512 -632 0
-23 -513 -633 0
-24 -514 -634 0
-25 -515 -635 0
-21 -516 -556 0
-22 -517 -557 0
-23 -518 -558 0
-24 -519 -559 0
-25 -520 -560 0
-21 -521 -561 0
-22 -522 -562 0
-23 -523 -563 0
-24 -524 -564 0
-25 -525 -565 0
-21 -526 -566 0
-22 -527 -567 0
-23 -528 -568 0
-24 -529 -569 0
-25 -530 -570 0
-21 -531 -571 0
-22 -532 -572 0
-23 -533 -573 0
-24 -534 -574 0
-25 -535 -575 0
-21 -536 -576 0
-22 -537 -577 0
-23 -538 -578 0
-24 -539 -579 0
-25 -540 -580 0
-21 -541 -581 0
-22 -542 -582 0
-23 -543 -583 0
-24 -544 -584 0
-25 -545 -585 0
-21 -546 -586 0
-22 -547 -587 0
-23 -548 -588 0
-24 -549 -589 0
-25 -550 -590 0
-21 -551 -591 0
-22 -552 -592 0
-23 -553 -593 0
-24 -554 -594 0
-25 -555 -595 0
-21 -636 -756 0
-22 -637 -757 0
-23 -638 -758 0
-24 -639 -759 0
-25 -640 -760 0
-21 -641 -761 0
-22 -642 -762 0
-23 -643 -763 0
-24 -644 -764 0
-25 -645 -765 0
-21 -646 -766 0
-22 -647 -767 0
-23 -648 -768 0
-24 -649 -769 0
-25 -650 -770 0
-21 -651 -771 0
-22 -652 -772 0
-23 -653 -773 0
-24 -654 -774 0
-25 -655 -775 0
-21 -656 -776 0
-22 -657 -777 0
-23 -658 -778 0
-24 -659 -779 0
-25 -660 -780 0
-21 -661 -781 0
-22 -662 -782 0
-23 -663 -783 0
-24 -664 -784 0
-25 -665 -785 0
-21 -666 -786 0
-22 -667 -787 0
-23 -668 -788 0
-24 -669 -789 0
-25 -670 -790 0
-21 -671 -791 0
-22 -672 -792 0
-23 -673 -793 0
-24 -674 -794 0
-25 -675 -795 0
-21 -676 -716 0
-22 -677 -717 0
-23 -678 -718 0
-24 -679 -719 0
-25 -680 -720 0
-21 -681 -721 0
-22 -682 -722 0
-23 -683 -723 0
-24 -684 -724 0
-25 -685 -725 0
-21 -686 -726 0
-22 -687 -727 0
-23 -688 -728 0
-24 -689 -729 0
-25 -690 -730 0
-21 -691 -731 0
-22 -692 -732 0
-23 -693 -733 0
-24 -694 -734 0
-25 -695 -735 0
-21 -696 -736 0
-22 -697 -737 0
-23 -698 -738 0
-24 -699 -739 0
-25 -700 -740 0
-21 -701 -741 0
-22 -702 -742 0
-23 -703 -743 0
-24 -704 -744 0
-25 -705 -745 0
-21 -706 -746 0
-22 -707 -747 0
-23 -708 -748 0
-24 -709 -749 0
-25 -710 -750 0
-21 -711 -751 0
-22 -712 -752 0
-23 -713 -753 0
-24 -714 -754 0
-25 -715 -755 0
-31 -156 -281 0
-32 -157 -282 0
-33 -158 -283 0
-34 -159 -284 0
-35 -160 -285 0
-31 -161 -276 0
-32 -162 -277 0
-33 -163 -278 0
-34 -164 -279 0
-35 -165 -280 0
-31 -166 -291 0
-32 -167 -292 0
-33 -168 -293 0
-34 -169 -294 0
-35 -170 -295 0
-31 -171 -286 0
-32 -172 -287 0
-33 -173 -288 0
-34 -174 -289 0
-35 -175 -290 0
-31 -176 -301 0
-32 -177 -302 0
-33 -178 -303 0
-34 -179 -304 0
-35 -180 -305 0
-31 -181 -296 0
-32 -182 -297 0
-33 -183 -298 0
-34 -184 -299 0
-35 -185 -300 0
-31 -186 -311 0
-32 -187 -312 0
-33 -188 -313 0
-34 -189 -314 0
-35 -190 -315 0
-31 -191 -306 0
-32 -192 -307 0
-33 -193 -308 0
-34 -194 -309 0
-35 -195 -310 0
-31 -196 -241 0
-32 -197 -242 0
-33 -198 -243 0
-34 -199 -244 0
-35 -200 -245 0
-31 -201 -236 0
-32 -202 -237 0
-33 -203 -238 0
-34 -204 -239 0
-35 -205 -240 0
-31 -206 -251 0
-32 -207 -252 0
-33 -208 -253 0
-34 -209 -254 0
-35 -210 -255 0
-31 -211 -246 0
-32 -212 -247 0
-33 -213 -248 0
-34 -214 -249 0
-35 -215 -250 0
-31 -216 -261 0
-32 -217 -262 0
-33 -218 -263 0
-34 -219 -264 0
-35 -220 -265 0
-31 -221 -256 0
-32 -222 -257 0
-33 -223 -258 0
-34 -224 -259 0
-35 -225 -260 0
-31 -226 -271 0
-32 -227 -272 0
-33 -228 -273 0
-34 -229 -274 0
-35 -230 -275 0
-31 -231 -266 0
-32 -232 -267 0
-33 -233 -268 0
-34 -234 -269 0
-35 -235 -270 0
-31 -316 -441 0
-32 -317 -442 0
-33 -318 -443 0
-34 -319 -444 0
-35 -320 -445 0
-31 -321 -436 0
-32 -322 -437 0
-33 -323 -438 0
-34 -324 -439 0
-35 -325 -440 0
-31 -326 -451 0
-32 -327 -452 0
-33 -328 -453 0
-34 -329 -454 0
-35 -330 -455 0
-31 -331 -446 0
-32 -332 -447 0
-33 -333 -448 0
-34 -334 -449 0
-35 -335 -450 0
-31 -336 -461 0
-32 -337 -462 0
-33 -338 -463 0
-34 -339 -464 0
-35 -340 -465 0
-31 -341 -456 0
-32 -342 -457 0
-33 -343 -458 0
-34 -344 -459 0
-35 -345 -460 0
-31 -346 -471 0
-32 -347 -472 0
-33 -348 -473 0
-34 -349 -474 0
-35 -350 -475 0
-31 -351 -466 0
-32 -352 -467 0
-33 -353 -468 0
-34 -354 -469 0
-35 -355 -470 0
-31 -356 -401 0
-32 -357 -402 0
-33 -358 -403 0
-34 -359 -404 0
-35 -360 -405 0
-31 -361 -396 0
-32 -362 -397 0
-33 -363 -398 0
-34 -364 -399 0
-35 -365 -400 0
-31 -366 -411 0
-32 -367 -412 0
-33 -368 -413 0
-34 -369 -414 0
-35 -370 -415 0
-31 -371 -406 0
-32 -372 -407 0
-33 -373 -408 0
-34 -374 -409 0
-35 -375 -410 0
-31 -376 -421 0
-32 -377 -422 0
-33 -378 -423 0
-34 -379 -424 0
-35 -380 -425 0
-31 -381 -416 0
-32 -382 -417 0
-33 -383 -418 0
-34 -384 -419 0
-35 -385 -420 0
-31 -386 -431 0
-32 -387 -432 0
-33 -388 -433 0
-34 -389 -434 0
-35 -390 -435 0
-31 -391 -426 0
-32 -392 -427 0
-33 -393 -428 0
-34 -394 -429 0
-35 -395 -430 0
-31 -476 -601 0
-32 -477 -602 0
-33 -478 -603 0
-34 -479 -604 0
-35 -480 -605 0
-31 -481 -596 0
-32 -482 -597 0
-33 -483 -598 0
-34 -484 -599 0
-35 -485 -600 0
-31 -486 -611 0
-32 -487 -612 0
-33 -488 -613 0
-34 -489 -614 0
-35 -490 -615 0
-31 -491 -606 0
-32 -492 -607 0
-33 -493 -608 0
-34 -494 -609 0
-35 -495 -610 0
-31 -496 -621 0
-32 -497 -622 0
-33 -498 -623 0
-34 -499 -624 0
-35 -500 -625 0
-31 -501 -616 0
-32 -502 -617 0
-33 -503 -618 0
-34 -504 -619 0
-35 -505 -620 0
-31 -506 -631 0
-32 -507 -632 0
-33 -508 -633 0
-34 -509 -634 0
-35 -510 -635 0
-31 -511 -626 0
-32 -512 -627 0
-33 -513 -628 0
-34 -514 -629 0
-35 -515 -630 0
-31 -516 -561 0
-32 -517 -562 0
-33 -518 -563 0
-34 -519 -564 0
-35 -520 -565 0
-31 -521 -556 0
-32 -522 -557 0
-33 -523 -558 0
-34 -524 -559 0
-35 -525 -560 0
-31 -526 -571 0
-32 -527 -572 0
-33 -528 -573 0
-34 -529 -574 0
-35 -530 -575 0
-31 -531 -566 0
-32 -532 -567 0
-33 -533 -568 0
-34 -534 -569 0
-35 -535 -570 0
-31 -536 -581 0
-32 -537 -582 0
-33 -538 -583 0
-34 -539 -584 0
-35 -540 -585 0
-31 -541 -576 0
-32 -542 -577 0
-33 -543 -578 0
-34 -544 -579 0
-35 -545 -580 0
-31 -546 -591 0
-32 -547 -592 0
-33 -548 -593 0
-34 -549 -594 0
-35 -550 -595 0
-31 -551 -586 0
-32 -552 -587 0
-33 -553 -588 0
-34 -554 -589 0
-35 -555 -590 0
-31 -636 -761 0
-32 -637 -762 0
-33 -638 -763 0
-34 -639 -764 0
-35 -640 -765 0
-31 -641 -756 0
-32 -642 -757 0
-33 -643 -758 0
-34 -644 -759 0
-35 -645 -760 0
-31 -646 -771 0
-32 -647 -772 0
-33 -648 -773 0
-34 -649 -774 0
-35 -650 -775 0
-31 -651 -766 0
-32 -652 -767 0
-33 -653 -768 0
-34 -654 -769 0
-35 -655 -770 0
-31 -656 -781 0
-32 -657 -782 0
-33 -658 -783 0
-34 -659 -784 0
-35 -660 -785 0
-31 -661 -776 0
-32 -662 -777 0
-33 -663 -778 0
-34 -664 -779 0
-35 -665 -780 0
-31 -666 -791 0
-32 -667 -792 0
-33 -668 -793 0
-34 -669 -794 0
-35 -670 -795 0
-31 -671 -786 0
-32 -672 -787 0
-33 -673 -788 0
-34 -674 -789 0
-35 -675 -790 0
-31 -676 -721 0
-32 -677 -722 0
-33 -678 -723 0
-34 -679 -724 0
-35 -680 -725 0
-31 -681 -716 0
-32 -682 -717 0
-33 -683 -718 0
-34 -684 -719 0
-35 -685 -720 0
-31 -686 -731 0
-32 -687 -732 0
-33 -688 -733 0
-34 -689 -734 0
-35 -690 -735 0
-31 -691 -726 0
-32 -692 -727 0
-33 -693 -728 0
-34 -694 -729 0
-35 -695 -730 0
-31 -696 -741 0
-32 -697 -742 0
-33 -698 -743 0
-34 -699 -744 0
-35 -700 -745 0
-31 -701 -736 0
-32 -702 -737 0
-33 -703 -738 0
-34 -704 -739 0
-35 -705 -740 0
-31 -706 -751 0
-32 -707 -752 0
-33 -708 -753 0
-34 -709 -754 0
-35 -710 -755 0
-31 -711 -746 0
-32 -712 -747 0
-33 -713 -748 0
-34 -714 -749 0
-35 -715 -750 0
-21 -156 -286 0
-22 -157 -287 0
-23 -158 -288 0
-24 -159 -289 0
-25 -160 -290 0
-21 -161 -291 0
-22 -162 -292 0
-23 -163 -293 0
-24 -164 -294 0
-25 -165 -295 0
-21 -166 -276 0
-22 -167 -277 0
-23 -168 -278 0
-24 -169 -279 0
-25 -170 -280 0
-21 -171 -281 0
-22 -172 -282 0
-23 -173 -283 0
-24 -174 -284 0
-25 -175 -285 0
-21 -176 -306 0
-22 -177 -307 0
-23 -178 -308 0
-24 -179 -309 0
-25 -180 -310 0
-21 -181 -311 0
-22 -182 -312 0
-23 -183 -313 0
-24 -184 -314 0
-25 -185 -315 0
-21 -186 -296 0
-22 -187 -297 0
-23 -188 -298 0
-24 -189 -299 0
-25 -190 -300 0
-21 -191 -301 0
-22 -192 -302 0
-23 -193 -303 0
-24 -194 -304 0
-25 -195 -305 0
-21 -196 -246 0
-22 -197 -247 0
-23 -198 -248 0
-24 -199 -249 0
-25 -200 -250 0
-21 -201 -251 0
-22 -202 -252 0
-23 -203 -253 0
-24 -204 -254 0
-25 -205 -255 0
-21 -206 -236 0
-22 -207 -237 0
-23 -208 -238 0
-24 -209 -239 0
-25 -210 -240 0
-21 -211 -241 0
-22 -212 -242 0
-23 -213 -243 0
-24 -214 -244 0
-25 -215 -245 0
-21 -216 -266 0
-22 -217 -267 0
-23 -218 -268 0
-24 -219 -269 0
-25 -220 -270 0
-21 -221 -271 0
-22 -222 -272 0
-23 -223 -273 0
-24 -224 -274 0
-25 -225 -275 0
-21 -226 -256 0
-22 -227 -257 0
-23 -228 -258 0
-24 -229 -259 0
-25 -230 -260 0
-21 -231 -261 0
-22 -232 -262 0
-23 -233 -263 0
-24 -234 -264 0
-25 -235 -265 0
-21 -316 -446 0
-22 -317 -447 0
-23 -318 -448 0
-24 -319 -449 0
-25 -320 -450 0
-21 -321 -451 0
-22 -322 -452 0
-23 -323 -453 0
-24 -324 -454 0
-25 -325 -455 0
-21 -326 -436 0
-22 -327 -437 0
-23 -328 -438 0
-24 -329 -439 0
-25 -330 -440 0
-21 -331 -441 0
-22 -332 -442 0
-23 -333 -443 0
-24 -334 -444 0
-25 -335 -445 0
-21 -336 -466 0
-22 -337 -467 0
-23 -338 -468 0
-24 -339 -469 0
-25 -340 -470 0
-21 -341 -471 0
-22 -342 -472 0
-23 -343 -473 0
-24 -344 -474 0
-25 -345 -475 0
-21 -346 -456 0
-22 -347 -457 0
-23 -348 -458 0
-24 -349 -459 0
-25 -350 -460 0
-21 -351 -461 0
-22 -352 -462 0
-23 -353 -463 0
-24 -354 -464 0
-25 -355 -465 0
-21 -356 -406 0
-22 -357 -407 0
-23 -358 -408 0
-24 -359 -409 0
-25 -360 -410 0
-21 -361 -411 0
-22 -362 -412 0
-23 -363 -413 0
-24 -364 -414 0
-25 -365 -415 0
-21 -366 -396 0
-22 -367 -397 0
-23 -368 -398 0
-24 -369 -399 0
-25 -370 -400 0
-21 -371 -401 0
-22 -372 -402 0
-23 -373 -403 0
-24 -374 -404 0
-25 -375 -405 0
-21 -376 -426 0
-22 -377 -427 0
-23 -378 -428 0
-24 -379 -429 0
-25 -380 -430 0
-21 -381 -431 0
-22 -382 -432 0
-23 -383 -433 0
-24 -384 -434 0
-25 -385 -435 0
-21 -386 -416 0
-22 -387 -417 0
-23 -388 -418 0
-24 -389 -419 0
-25 -390 -420 0
-21 -391 -421 0
-22 -392 -422 0
-23 -393 -423 0
-24 -394 -424 0
-25 -395 -425 0
-21 -476 -606 0
-22 -477 -607 0
-23 -478 -608 0
-24 -479 -609 0
-25 -480 -610 0
-21 -481 -611 0
-22 -482 -612 0
-23 -483 -613 0
-24 -484 -614 0
-25 -485 -615 0
-21 -486 -596 0
-22 -487 -597 0
-23 -488 -598 0
-24 -489 -599 0
-25 -490 -600 0
-21 -491 -601 0
-22 -492 -602 0
-23 -493 -603 0
-24 -494 -604 0
-25 -495 -605 0
-21 -496 -626 0
-22 -497 -627 0
-23 -498 -628 0
-24 -499 -629 0
-25 -500 -630 0
-21 -501 -631 0
-22 -502 -632 0
-23 -503 -633 0
-24 -504 -634 0
-25 -505 -635 0
-21 -506 -616 0
-22 -507 -617 0
-23 -508 -618 0
-24 -509 -619 0
-25 -510 -620 0
-21 -511 -621 0
-22 -512 -622 0
-23 -513 -623 0
-24 -514 -624 0
-25 -515 -625 0
-21 -516 -566 0
-22 -517 -567 0
-23 -518 -568 0
-24 -519 -569 0
-25 -520 -570 0
-21 -521 -571 0
-22 -522 -572 0
-23 -523 -573 0
-24 -524 -574 0
-25 -525 -575 0
-21 -526 -556 0
-22 -527 -557 0
-23 -528 -558 0
-24 -529 -559 0
-25 -530 -560 0
-21 -531 -561 0
-22 -532 -562 0
-23 -533 -563 0
-24 -534 -564 0
-25 -535 -565 0
-21 -536 -586 0
-22 -537 -587 0
-23 -538 -588 0
-24 -539 -589 0
-25 -540 -590 0
-21 -541 -591 0
-22 -542 -592 0
-23 -543 -593 0
-24 -544 -594 0
-25 -545 -595 0
-21 -546 -576 0
-22 -547 -577 0
-23 -548 -578 0
-24 -549 -579 0
-25 -550 -580 0
-21 -551 -581 0
-22 -552 -582 0
-23 -553 -583 0
-24 -554 -584 0
-25 -555 -585 0
-21 -636 -766 0
-22 -637 -767 0
-23 -638 -768 0
-24 -639 -769 0
-25 -640 -770 0
-21 -641 -771 0
-22 -642 -772 0
-23 -643 -773 0
-24 -644 -774 0
-25 -645 -775 0
-21 -646 -756 0
-22 -647 -757 0
-23 -648 -758 0
-24 -649 -759 0
-25 -650 -760 0
-21 -651 -761 0
-22 -652 -762 0
-23 -653 -763 0
-24 -654 -764 0
-25 -655 -765 0
-21 -656 -786 0
-22 -657 -787 0
-23 -658 -788 0
-24 -659 -789 0
-25 -660 -790 0
-21 -661 -791 0
-22 -662 -792 0
-23 -663 -793 0
-24 -664 -794 0
-25 -665 -795 0
-21 -666 -776 0
-22 -667 -777 0
-23 -668 -778 0
-24 -669 -779 0
-25 -670 -780 0
-21 -671 -781 0
-22 -672 -782 0
-23 -673 -783 0
-24 -674 -784 0
-25 -675 -785 0
-21 -676 -726 0
-22 -677 -727 0
-23 -678 -728 0
-24 -679 -729 0
-25 -680 -730 0
-21 -681 -731 0
-22 -682 -732 0
-23 -683 -733 0
-24 -684 -734 0
-25 -685 -735 0
-21 -686 -716 0
-22 -687 -717 0
-23 -688 -718 0
-24 -689 -719 0
-25 -690 -720 0
-21 -691 -721 0
-22 -692 -722 0
-23 -693 -723 0
-24 -694 -724 0
-25 -695 -725 0
-21 -696 -746 0
-22 -697 -747 0
-23 -698 -748 0
-24 -699 -749 0
-25 -700 -750 0
-21 -701 -751 0
-22 -702 -752 0
-23 -703 -753 0
-24 -704 -754 0
-25 -705 -755 0
-21 -706 -736 0
-22 -707 -737 0
-23 -708 -738 0
-24 -709 -739 0
-25 -710 -740 0
-21 -711 -741 0
-22 -712 -742 0
-23 -713 -743 0
-24 -714 -744 0
-25 -715 -745 0
-26 -156 -291 0
-27 -157 -292 0
-28 -158 -293 0
-29 -159 -294 0
-30 -160 -295 0
-26 -161 -286 0
-27 -162 -287 0
-28 -163 -288 0
-29 -164 -289 0
-30 -165 -290 0
-26 -166 -281 0
-27 -167 -282 0
-28 -168 -283 0
-29 -169 -284 0
-30 -170 -285 0
-26 -171 -276 0
-27 -172 -277 0
-28 -173 -278 0
-29 -174 -279 0
-30 -175 -280 0
-26 -176 -311 0
-27 -177 -312 0
-28 -178 -313 0
-29 -179 -314 0
-30 -180 -315 0
-26 -181 -306 0
-27 -182 -307 0
-28 -183 -308 0
-29 -184 -309 0
-30 -185 -310 0
-26 -186 -301 0
-27 -187 -302 0
-28 -188 -303 0
-29 -189 -304 0
-30 -190 -305 0
-26 -191 -296 0
-27 -192 -297 0
-28 -193 -298 0
-29 -194 -299 0
-30 -195 -300 0
-26 -196 -251 0
-27 -197 -252 0
-28 -198 -253 0
-29 -199 -254 0
-30 -200 -255 0
-26 -201 -246 0
-27 -202 -247 0
-28 -203 -248 0
-29 -204 -249 0
-30 -205 -250 0
-26 -206 -241 0
-27 -207 -242 0
-28 -208 -243 0
-29 -209 -244 0
-30 -210 -245 0
-26 -211 -236 0
-27 -212 -237 0
-28 -213 -238 0
-29 -214 -239 0
-30 -215 -240 0
-26 -216 -271 0
-27 -217 -272 0
-28 -218 -273 0
-29 -219 -274 0
-30 -220 -275 0
-26 -221 -266 0
-27 -222 -267 0
-28 -223 -268 0
-29 -224 -269 0
-30 -225 -270 0
-26 -226 -261 0
-27 -227 -262 0
-28 -228 -263 0
-29 -229 -264 0
-30 -230 -265 0
-26 -231 -256 0
-27 -232 -257 0
-28 -233 -258 0
-29 -234 -259 0
-30 -235 -260 0
-26 -316 -451 0
-27 -317 -452 0
-28 -318 -453 0
-29 -319 -454 0
-30 -320 -455 0
-26 -321 -446 0
-27 -322 -447 0
-28 -323 -448 0
-29 -324 -449 0
-30 -325 -450 0
-26 -326 -441 0
-27 -327 -442 0
-28 -328 -443 0
-29 -329 -444 0
-30 -330 -445 0
-26 -331 -436 0
-27 -332 -437 0
-28 -333 -438 0
-29 -334 -439 0
-30 -335 -440 0
-26 -336 -471 0
-27 -337 -472 0
-28 -338 -473 0
-29 -339 -474 0
-30 -340 -475 0
-26 -341 -466 0
-27 -342 -467 0
-28 -343 -468 0
-29 -344 -469 0
-30 -345 -470 0
-26 -346 -461 0
-27 -347 -462 0
-28 -348 -463 0
-29 -349 -464 0
-30 -350 -465 0
-26 -351 -456 0
-27 -352 -457 0
-28 -353 -458 0
-29 -354 -459 0
-30 -355 -460 0
-26 -356 -411 0
-27 -357 -412 0
-28 -358 -413 0
-29 -359 -414 0
-30 -360 -415 0
-26 -361 -406 0
-27 -362 -407 0
-28 -363 -408 0
-29 -364 -409 0
-30 -365 -410 0
-26 -366 -401 0
-27 -367 -402 0
-28 -368 -403 0
-29 -369 -404 0
-30 -370 -405 0
-26 -371 -396 0
-27 -372 -397 0
-28 -373 -398 0
-29 -374 -399 0
-30 -375 -400 0
-26 -376 -431 0
-27 -377 -432 0
-28 -378 -433 0
-29 -379 -434 0
-30 -380 -435 0
-26 -381 -426 0
-27 -382 -427 0
-28 -383 -428 0
-29 -384 -429 0
-30 -385 -430 0
-26 -386 -421 0
-27 -387 -422 0
-28 -388 -423 0
-29 -389 -424 0
-30 -390 -425 0
-26 -391 -416 0
-27 -392 -417 0
-28 -393 -418 0
-29 -394 -419 0
-30 -395 -420 0
-26 -476 -611 0
-27 -477 -612 0
-28 -478 -613 0
-29 -479 -614 0
-30 -480 -615 0
-26 -481 -606 0
-27 -482 -607 0
-28 -483 -608 0
-29 -484 -609 0
-30 -485 -610 0
-26 -486 -601 0
-27 -487 -602 0
-28 -488 -603 0
-29 -489 -604 0
-30 -490 -605 0
-26 -491 -596 0
-27 -492 -597 0
-28 -493 -598 0
-29 -494 -599 0
-30 -495 -600 0
-26 -496 -631 0
-27 -497 -632 0
-28 -498 -633 0
-29 -499 -634 0
-30 -500 -635 0
-26 -501 -626 0
-27 -502 -627 0
-28 -503 -628 0
-29 -504 -629 0
-30 -505 -630 0
-26 -506 -621 0
-27 -507 -622 0
-28 -508 -623 0
-29 -509 -624 0
-30 -510 -625 0
-26 -511 -616 0
-27 -512 -617 0
-28 -513 -618 0
-29 -514 -619 0
-30 -515 -620 0
-26 -516 -571 0
-27 -517 -572 0
-28 -518 -573 0
-29 -519 -574 0
-30 -520 -575 0
-26 -521 -566 0
-27 -522 -567 0
-28 -523 -568 0
-29 -524 -569 0
-30 -525 -570 0
-26 -526 -561 0
-27 -527 -562 0
-28 -528 -563 0
-29 -529 -564 0
-30 -530 -565 0
-26 -531 -556 0
-27 -532 -557 0
-28 -533 -558 0
-29 -534 -559 0
-30 -535 -560 0
-26 -536 -591 0
-27 -537 -592 0
-28 -538 -593 0
-29 -539 -594 0
-30 -540 -595 0
-26 -541 -586 0
-27 -542 -587 0
-28 -543 -588 0
-29 -544 -589 0
-30 -545 -590 0
-26 -546 -581 0
-27 -547 -582 0
-28 -548 -583 0
-29 -549 -584 0
-30 -550 -585 0
-26 -551 -576 0
-27 -552 -577 0
-28 -553 -578 0
-29 -554 -579 0
-30 -555 -580 0
-26 -636 -771 0
-27 -637 -772 0
-28 -638 -773 0
-29 -639 -774 0
-30 -640 -775 0
-26 -641 -766 0
-27 -642 -767 0
-28 -643 -768 0
-29 -644 -769 0
-30 -645 -770 0
-26 -646 -761 0
-27 -647 -762 0
-28 -648 -763 0
-29 -649 -764 0
-30 -650 -765 0
-26 -651 -756 0
-27 -652 -757 0
-28 -653 -758 0
-29 -654 -759 0
-30 -655 -760 0
-26 -656 -791 0
-27 -657 -792 0
-28 -658 -793 0
-29 -659 -794 0
-30 -660 -795 0
-26 -661 -786 0
-27 -662 -787 0
-28 -663 -788 0
-29 -664 -789 0
-30 -665 -790 0
-26 -666 -781 0
-27 -667 -782 0
-28 -668 -783 0
-29 -669 -784 0
-30 -670 -785 0
-26 -671 -776 0
-27 -672 -777 0
-28 -673 -778 0
-29 -674 -779 0
-30 -675 -780 0
-26 -676 -731 0
-27 -677 -732 0
-28 -678 -733 0
-29 -679 -734 0
-30 -680 -735 0
-26 -681 -726 0
-27 -682 -727 0
-28 -683 -728 0
-29 -684 -729 0
-30 -685 -730 0
-26 -686 -721 0
-27 -687 -722 0
-28 -688 -723 0
-29 -689 -724 0
-30 -690 -725 0
-26 -691 -716 0
-27 -692 -717 0
-28 -693 -718 0
-29 -694 -719 0
-30 -695 -720 0
-26 -696 -751 0
-27 -697 -752 0
-28 -698 -753 0
-29 -699 -754 0
-30 -700 -755 0
-26 -701 -746 0
-27 -702 -747 0
-28 -703 -748 0
-29 -704 -749 0
-30 -705 -750 0
-26 -706 -741 0
-27 -707 -742 0
-28 -708 -743 0
-29 -709 -744 0
-30 -710 -745 0
-26 -711 -736 0
-27 -712 -737 0
-28 -713 -738 0
-29 -714 -739 0
-30 -715 -740 0
-21 -156 -296 0
-22 -157 -297 0
-23 -158 -298 0
-24 -159 -299 0
-25 -160 -300 0
-21 -161 -301 0
-22 -162 -302 0
-23 -163 -303 0
-24 -164 -304 0
-25 -165 -305 0
-21 -166 -306 0
-22 -167 -307 0
-23 -168 -308 0
-24 -169 -309 0
-25 -170 -310 0
-21 -171 -311 0
-22 -172 -312 0
-23 -173 -313 0
-24 -174 -314 0
-25 -175 -315 0
-21 -176 -276 0
-22 -177 -277 0
-23 -178 -278 0
-24 -179 -279 0
-25 -180 -280 0
-21 -181 -281 0
-22 -182 -282 0
-23 -183 -283 0
-24 -184 -284 0
-25 -185 -285 0
-21 -186 -286 0
-22 -187 -287 0
-23 -188 -288 0
-24 -189 -289 0
-25 -190 -290 0
-21 -191 -291 0
-22 -192 -292 0
-23 -193 -293 0
-24 -194 -294 0
-25 -195 -295 0
-21 -196 -256 0
-22 -197 -257 0
-23 -198 -258 0
-24 -199 -259 0
-25 -200 -260 0
-21 -201 -261 0
-22 -202 -262 0
-23 -203 -263 0
-24 -204 -264 0
-25 -205 -265 0
-21 -206 -266 0
-22 -207 -267 0
-23 -208 -268 0
-24 -209 -269 0
-25 -210 -270 0
-21 -211 -271 0
-22 -212 -272 0
-23 -213 -273 0
-24 -214 -274 0
-25 -215 -275 0
-21 -216 -236 0
-22 -217 -237 0
-23 -218 -238 0
-24 -219 -239 0
-25 -220 -240 0
-21 -221 -241 0
-22 -222 -242 0
-23 -223 -243 0
-24 -224 -244 0
-25 -225 -245 0
-21 -226 -246 0
-22 -227 -247 0
-23 -228 -248 0
-24 -229 -249 0
-25 -230 -250 0
-21 -231 -251 0
-22 -232 -252 0
-23 -233 -253 0
-24 -234 -254 0
-25 -235 -255 0
-21 -316 -456 0
-22 -317 -457 0
-23 -318 -458 0
-24 -319 -459 0
-25 -320 -460 0
-21 -321 -461 0
-22 -322 -462 0
-23 -323 -463 0
-24 -324 -464 0
-25 -325 -465 0
-21 -326 -466 0
-22 -327 -467 0
-23 -328 -468 0
-24 -329 -469 0
-25 -330 -470 0
-21 -331 -471 0
-22 -332 -472 0
-23 -333 -473 0
-24 -334 -474 0
-25 -335 -475 0
-21 -336 -436 0
-22 -337 -437 0
-23 -338 -438 0
-24 -339 -439 0
-25 -340 -440 0
-21 -341 -441 0
-22 -342 -442 0
-23 -343 -443 0
-24 -344 -444 0
-25 -345 -445 0
-21 -346 -446 0
-22 -347 -447 0
-23 -348 -448 0
-24 -349 -449 0
-25 -350 -450 0
-21 -351 -451 0
-22 -352 -452 0
-23 -353 -453 0
-24 -354 -454 0
-25 -355 -455 0
-21 -356 -416 0
-22 -357 -417 0
-23 -358 -418 0
-24 -359 -419 0
-25 -360 -420 0
-21 -361 -421 0
-22 -362 -422 0
-23 -363 -423 0
-24 -364 -424 0
-25 -365 -425 0
-21 -366 -426 0
-22 -367 -427 0
-23 -368 -428 0
-24 -369 -429 0
-25 -370 -430 0
-21 -371 -431 0
-22 -372 -432 0
-23 -373 -433 0
-24 -374 -434 0
-25 -375 -435 0
-21 -376 -396 0
-22 -377 -397 0
-23 -378 -398 0
-24 -379 -399 0
-25 -380 -400 0
-21 -381 -401 0
-22 -382 -402 0
-23 -383 -403 0
-24 -384 -404 0
-25 -385 -405 0
-21 -386 -406 0
-22 -387 -407 0
-23 -388 -408 0
-24 -389 -409 0
-25 -390 -410 0
-21 -391 -411 0
-22 -392 -412 0
-23 -393 -413 0
-24 -394 -414 0
-25 -395 -415 0
-21 -476 -616 0
-22 -477 -617 0
-23 -478 -618 0
-24 -479 -619 0
-25 -480 -620 0
-21 -481 -621 0
-22 -482 -622 0
-23 -483 -623 0
-24 -484 -624 0
-25 -485 -625 0
-21 -486 -626 0
-22 -487 -627 0
-23 -488 -628 0
-24 -489 -629 0
-25 -490 -630 0
-21 -491 -631 0
-22 -492 -632 0
-23 -493 -633 0
-24 -494 -634 0
-25 -495 -635 0
-21 -496 -596 0
-22 -497 -597 0
-23 -498 -598 0
-24 -499 -599 0
-25 -500 -600 0
-21 -501 -601 0
-22 -502 -602 0
-23 -503 -603 0
-24 -504 -604 0
-25 -505 -605 0
-21 -506 -606 0
-22 -507 -607 0
-23 -508 -608 0
-24 -509 -609 0
-25 -510 -610 0
-21 -511 -611 0
-22 -512 -612 0
-23 -513 -613 0
-24 -514 -614 0
-25 -515 -615 0
-21 -516 -576 0
-22 -517 -577 0
-23 -518 -578 0
-24 -519 -579 0
-25 -520 -580 0
-21 -521 -581 0
-22 -522 -582 0
-23 -523 -583 0
-24 -524 -584 0
-25 -525 -585 0
-21 -526 -586 0
-22 -527 -587 0
-23 -528 -588 0
-24 -529 -589 0
-25 -530 -590 0
-21 -531 -591 0
-22 -532 -592 0
-23 -533 -593 0
-24 -534 -594 0
-25 -535 -595 0
-21 -536 -556 0
-22 -537 -557 0
-23 -538 -558 0
-24 -539 -559 0
-25 -540 -560 0
-21 -541 -561 0
-22 -542 -562 0
-23 -543 -563 0
-24 -544 -564 0
-25 -545 -565 0
-21 -546 -566 0
-22 -547 -567 0
-23 -548 -568 0
-24 -549 -569 0
-25 -550 -570 0
-21 -551 -571 0
-22 -552 -572 0
-23 -553 -573 0
-24 -554 -574 0
-25 -555 -575 0
-21 -636 -776 0
-22 -637 -777 0
-23 -638 -778 0
-24 -639 -779 0
-25 -640 -780 0
-21 -641 -781 0
-22 -642 -782 0
-23 -643 -783 0
-24 -644 -784 0
-25 -645 -785 0
-21 -646 -786 0
-22 -647 -787 0
-23 -648 -788 0
-24 -649 -789 0
-25 -650 -790 0
-21 -651 -791 0
-22 -652 -792 0
-23 -653 -793 0
-24 -654 -794 0
-25 -655 -795 0
-21 -656 -756 0
-22 -657 -757 0
-23 -658 -758 0
-24 -659 -759 0
-25 -660 -760 0
-21 -661 -761 0
-22 -662 -762 0
-23 -663 -763 0
-24 -664 -764 0
-25 -665 -765 0
-21 -666 -766 0
-22 -667 -767 0
-23 -668 -768 0
-24 -669 -769 0
-25 -670 -770 0
-21 -671 -771 0
-22 -672 -772 0
-23 -673 -773 0
-24 -674 -774 0
-25 -675 -775 0
-21 -676 -736 0
-22 -677 -737 0
-23 -678 -738 0
-24 -679 -739 0
-25 -680 -740 0
-21 -681 -741 0
-22 -682 -742 0
-23 -683 -743 0
-24 -684 -744 0
-25 -685 -745 0
-21 -686 -746 0
-22 -687 -747 0
-23 -688 -748 0
-24 -689 -749 0
-25 -690 -750 0
-21 -691 -751 0
-22 -692 -752 0
-23 -693 -753 0
-24 -694 -754 0
-25 -695 -755 0
-21 -696 -716 0
-22 -697 -717 0
-23 -698 -718 0
-24 -699 -719 0
-25 -700 -720 0
-21 -701 -721 0
-22 -702 -722 0
-23 -703 -723 0
-24 -704 -724 0
-25 -705 -725 0
-21 -706 -726 0
-22 -707 -727 0
-23 -708 -728 0
-24 -709 -729 0
-25 -710 -730 0
-21 -711 -731 0
-22 -712 -732 0
-23 -713 -733 0
-24 -714 -734 0
-25 -715 -735 0
-26 -156 -301 0
-27 -157 -302 0
-28 -158 -303 0
-29 -159 -304 0
-30 -160 -305 0
-26 -161 -296 0
-27 -162 -297 0
-28 -163 -298 0
-29 -164 -299 0
-30 -165 -300 0
-26 -166 -311 0
-27 -167 -312 0
-28 -168 -313 0
-29 -169 -314 0
-30 -170 -315 0
-26 -171 -306 0
-27 -172 -307 0
-28 -173 -308 0
-29 -174 -309 0
-30 -175 -310 0
-26 -176 -281 0
-27 -177 -282 0
-28 -178 -283 0
-29 -179 -284 0
-30 -180 -285 0
-26 -181 -276 0
-27 -182 -277 0
-28 -183 -278 0
-29 -184 -279 0
-30 -185 -280 0
-26 -186 -291 0
-27 -187 -292 0
-28 -188 -293 0
-29 -189 -294 0
-30 -190 -295 0
-26 -191 -286 0
-27 -192 -287 0
-28 -193 -288 0
-29 -194 -289 0
-30 -195 -290 0
-26 -196 -261 0
-27 -197 -262 0
-28 -198 -263 0
-29 -199 -264 0
-30 -200 -265 0
-26 -201 -256 0
-27 -202 -257 0
-28 -203 -258 0
-29 -204 -259 0
-30 -205 -260 0
-26 -206 -271 0
-27 -207 -272 0
-28 -208 -273 0
-29 -209 -274 0
-30 -210 -275 0
-26 -211 -266 0
-27 -212 -267 0
-28 -213 -268 0
-29 -214 -269 0
-30 -215 -270 0
-26 -216 -241 0
-27 -217 -242 0
-28 -218 -243 0
-29 -219 -244 0
-30 -220 -245 0
-26 -221 -236 0
-27 -222 -237 0
-28 -223 -238 0
-29 -224 -239 0
-30 -225 -240 0
-26 -226 -251 0
-27 -227 -252 0
-28 -228 -253 0
-29 -229 -254 0
-30 -230 -255 0
-26 -231 -246 0
-27 -232 -247 0
-28 -233 -248 0
-29 -234 -249 0
-30 -235 -250 0
-26 -316 -461 0
-27 -317 -462 0
-28 -318 -463 0
-29 -319 -464 0
-30 -320 -465 0
-26 -321 -456 0
-27 -322 -457 0
-28 -323 -458 0
-29 -324 -459 0
-30 -325 -460 0
-26 -326 -471 0
-27 -327 -472 0
-28 -328 -473 0
-29 -329 -474 0
-30 -330 -475 0
-26 -331 -466 0
-27 -332 -467 0
-28 -333 -468 0
-29 -334 -469 0
-30 -335 -470 0
-26 -336 -441 0
-27 -337 -442 0
-28 -338 -443 0
-29 -339 -444 0
-30 -340 -445 0
-26 -341 -436 0
-27 -342 -437 0
-28 -343 -438 0
-29 -344 -439 0
-30 -345 -440 0
-26 -346 -451 0
-27 -347 -452 0
-28 -348 -453 0
-29 -349 -454 0
-30 -350 -455 0
-26 -351 -446 0
-27 -352 -447 0
-28 -353 -448 0
-29 -354 -449 0
-30 -355 -450 0
-26 -356 -421 0
-27 -357 -422 0
-28 -358 -423 0
-29 -359 -424 0
-30 -360 -425 0
-26 -361 -416 0
-27 -362 -417 0
-28 -363 -418 0
-29 -364 -419 0
-30 -365 -420 0
-26 -366 -431 0
-27 -367 -432 0
-28 -368 -433 0
-29 -369 -434 0
-30 -370 -435 0
-26 -371 -426 0
-27 -372 -427 0
-28 -373 -428 0
-29 -374 -429 0
-30 -375 -430 0
-26 -376 -401 0
-27 -377 -402 0
-28 -378 -403 0
-29 -379 -404 0
-30 -380 -405 0
-26 -381 -396 0
-27 -382 -397 0
-28 -383 -398 0
-29 -384 -399 0
-30 -385 -400 0
-26 -386 -411 0
-27 -387 -412 0
-28 -388 -413 0
-29 -389 -414 0
-30 -390 -415 0
-26 -391 -406 0
-27 -392 -407 0
-28 -393 -408 0
-29 -394 -409 0
-30 -395 -410 0
-26 -476 -621 0
-27 -477 -622 0
-28 -478 -623 0
-29 -479 -624 0
-30 -480 -625 0
-26 -481 -616 0
-27 -482 -617 0
-28 -483 -618 0
-29 -484 -619 0
-30 -485 -620 0
-26 -486 -631 0
-27 -487 -632 0
-28 -488 -633 0
-29 -489 -634 0
-30 -490 -635 0
-26 -491 -626 0
-27 -492 -627 0
-28 -493 -628 0
-29 -494 -629 0
-30 -495 -630 0
-26 -496 -601 0
-27 -497 -602 0
-28 -498 -603 0
-29 -499 -604 0
-30 -500 -605 0
-26 -501 -596 0
-27 -502 -597 0
-28 -503 -598 0
-29 -504 -599 0
-30 -505 -600 0
-26 -506 -611 0
-27 -507 -612 0
-28 -508 -613 0
-29 -509 -614 0
-30 -510 -615 0
-26 -511 -606 0
-27 -512 -607 0
-28 -513 -608 0
-29 -514 -609 0
-30 -515 -610 0
-26 -516 -581 0
-27 -517 -582 0
-28 -518 -583 0
-29 -519 -584 0
-30 -520 -585 0
-26 -521 -576 0
-27 -522 -577 0
-28 -523 -578 0
-29 -524 -579 0
-30 -525 -580 0
-26 -526 -591 0
-27 -527 -592 0
-28 -528 -593 0
-29 -529 -594 0
-30 -530 -595 0
-26 -531 -586 0
-27 -532 -587 0
-28 -533 -588 0
-29 -534 -589 0
-30 -535 -590 0
-26 -536 -561 0
-27 -537 -562 0
-28 -538 -563 0
-29 -539 -564 0
-30 -540 -565 0
-26 -541 -556 0
-27 -542 -557 0
-28 -543 -558 0
-29 -544 -559 0
-30 -545 -560 0
-26 -546 -571 0
-27 -547 -572 0
-28 -548 -573 0
-29 -549 -574 0
-30 -550 -575 0
-26 -551 -566 0
-27 -552 -567 0
-28 -553 -568 0
-29 -554 -569 0
-30 -555 -570 0
-26 -636 -781 0
-27 -637 -782 0
-28 -638 -783 0
-29 -639 -784 0
-30 -640 -785 0
-26 -641 -776 0
-27 -642 -777 0
-28 -643 -778 0
-29 -644 -779 0
-30 -645 -780 0
-26 -646 -791 0
-27 -647 -792 0
-28 -648 -793 0
-29 -649 -794 0
-30 -650 -795 0
-26 -651 -786 0
-27 -652 -787 0
-28 -653 -788 0
-29 -654 -789 0
-30 -655 -790 0
-26 -656 -761 0
-27 -657 -762 0
-28 -658 -763 0
-29 -659 -764 0
-30 -660 -765 0
-26 -661 -756 0
-27 -662 -757 0
-28 -663 -758 0
-29 -664 -759 0
-30 -665 -760 0
-26 -666 -771 0
-27 -667 -772 0
-28 -668 -773 0
-29 -669 -774 0
-30 -670 -775 0
-26 -671 -766 0
-27 -672 -767 0
-28 -673 -768 0
-29 -674 -769 0
-30 -675 -770 0
-26 -676 -741 0
-27 -677 -742 0
-28 -678 -743 0
-29 -679 -744 0
-30 -680 -745 0
-26 -681 -736 0
-27 -682 -737 0
-28 -683 -738 0
-29 -684 -739 0
-30 -685 -740 0
-26 -686 -751 0
-27 -687 -752 0
-28 -688 -753 0
-29 -689 -754 0
-30 -690 -755 0
-26 -691 -746 0
-27 -692 -747 0
-28 -693 -748 0
-29 -694 -749 0
-30 -695 -750 0
-26 -696 -721 0
-27 -697 -722 0
-28 -698 -723 0
-29 -699 -724 0
-30 -700 -725 0
-26 -701 -716 0
-27 -702 -717 0
-28 -703 -718 0
-29 -704 -719 0
-30 -705 -720 0
-26 -706 -731 0
-27 -707 -732 0
-28 -708 -733 0
-29 -709 -734 0
-30 -710 -735 0
-26 -711 -726 0
-27 -712 -727 0
-28 -713 -728 0
-29 -714 -729 0
-30 -715 -730 0
-31 -156 -306 0
-32 -157 -307 0
-33 -158 -308 0
-34 -159 -309 0
-35 -160 -310 0
-31 -161 -311 0
-32 -162 -312 0
-33 -163 -313 0
-34 -164 -314 0
-35 -165 -315 0
-31 -166 -296 0
-32 -167 -297 0
-33 -168 -298 0
-34 -169 -299 0
-35 -170 -300 0
-31 -171 -301 0
-32 -172 -302 0
-33 -173 -303 0
-34 -174 -304 0
-35 -175 -305 0
-31 -176 -286 0
-32 -177 -287 0
-33 -178 -288 0
-34 -179 -289 0
-35 -180 -290 0
-31 -181 -291 0
-32 -182 -292 0
-33 -183 -293 0
-34 -184 -294 0
-35 -185 -295 0
-31 -186 -276 0
-32 -187 -277 0
-33 -188 -278 0
-34 -189 -279 0
-35 -190 -280 0
-31 -191 -281 0
-32 -192 -282 0
-33 -193 -283 0
-34 -194 -284 0
-35 -195 -285 0
-31 -196 -266 0
-32 -197 -267 0
-33 -198 -268 0
-34 -199 -269 0
-35 -200 -270 0
-31 -201 -271 0
-32 -202 -272 0
-33 -203 -273 0
-34 -204 -274 0
-35 -205 -275 0
-31 -206 -256 0
-32 -207 -257 0
-33 -208 -258 0
-34 -209 -259 0
-35 -210 -260 0
-31 -211 -261 0
-32 -212 -262 0
-33 -213 -263 0
-34 -214 -264 0
-35 -215 -265 0
-31 -216 -246 0
-32 -217 -247 0
-33 -218 -248 0
-34 -219 -249 0
-35 -220 -250 0
-31 -221 -251 0
-32 -222 -252 0
-33 -223 -253 0
-34 -224 -254 0
-35 -225 -255 0
-31 -226 -236 0
-32 -227 -237 0
-33 -228 -238 0
-34 -229 -239 0
-35 -230 -240 0
-31 -231 -241 0
-32 -232 -242 0
-33 -233 -243 0
-34 -234 -244 0
-35 -235 -245 0
-31 -316 -466 0
-32 -317 -467 0
-33 -318 -468 0
-34 -319 -469 0
-35 -320 -470 0
-31 -321 -471 0
-32 -322 -472 0
-33 -323 -473 0
-34 -324 -474 0
-35 -325 -475 0
-31 -326 -456 0
-32 -327 -457 0
-33 -328 -458 0
-34 -329 -459 0
-35 -330 -460 0
-31 -331 -461 0
-32 -332 -462 0
-33 -333 -463 0
-34 -334 -464 0
-35 -335 -465 0
-31 -336 -446 0
-32 -337 -447 0
-33 -338 -448 0
-34 -339 -449 0
-35 -340 -450 0
-31 -341 -451 0
-32 -342 -452 0
-33 -343 -453 0
-34 -344 -454 0
-35 -345 -455 0
-31 -346 -436 0
-32 -347 -437 0
-33 -348 -438 0
-34 -349 -439 0
-35 -350 -440 0
-31 -351 -441 0
-32 -352 -442 0
-33 -353 -443 0
-34 -354 -444 0
-35 -355 -445 0
-31 -356 -426 0
-32 -357 -427 0
-33 -358 -428 0
-34 -359 -429 0
-35 -360 -430 0
-31 -361 -431 0
-32 -362 -432 0
-33 -363 -433 0
-34 -364 -434 0
-35 -365 -435 0
-31 -366 -416 0
-32 -367 -417 0
-33 -368 -418 0
-34 -369 -419 0
-35 -370 -420 0
-31 -371 -421 0
-32 -372 -422 0
-33 -373 -423 0
-34 -374 -424 0
-35 -375 -425 0
-31 -376 -406 0
-32 -377 -407 0
-33 -378 -408 0
-34 -379 -409 0
-35 -380 -410 0
-31 -381 -411 0
-32 -382 -412 0
-33 -383 -413 0
-34 -384 -414 0
-35 -385 -415 0
-31 -386 -396 0
-32 -387 -397 0
-33 -388 -398 0
-34 -389 -399 0
-35 -390 -400 0
-31 -391 -401 0
-32 -392 -402 0
-33 -393 -403 0
-34 -394 -404 0
-35 -395 -405 0
-31 -476 -626 0
-32 -477 -627 0
-33 -478 -628 0
-34 -479 -629 0
-35 -480 -630 0
-31 -481 -631 0
-32 -482 -632 0
-33 -483 -633 0
-34 -484 -634 0
-35 -485 -635 0
-31 -486 -616 0
-32 -487 -617 0
-33 -488 -618 0
-34 -489 -619 0
-35 -490 -620 0
-31 -491 -621 0
-32 -492 -622 0
-33 -493 -623 0
-34 -494 -624 0
-35 -495 -625 0
-31 -496 -606 0
-32 -497 -607 0
-33 -498 -608 0
-34 -499 -609 0
-35 -500 -610 0
-31 -501 -611 0
-32 -502 -612 0
-33 -503 -613 0
-34 -504 -614 0
-35 -505 -615 0
-31 -506 -596 0
-32 -507 -597 0
-33 -508 -598 0
-34 -509 -599 0
-35 -510 -600 0
-31 -511 -601 0
-32 -512 -602 0
-33 -513 -603 0
-34 -514 -604 0
-35 -515 -605 0
-31 -516 -586 0
-32 -517 -587 0
-33 -518 -588 0
-34 -519 -589 0
-35 -520 -590 0
-31 -521 -591 0
-32 -522 -592 0
-33 -523 -593 0
-34 -524 -594 0
-35 -525 -595 0
-31 -526 -576 0
-32 -527 -577 0
-33 -528 -578 0
-34 -529 -579 0
-35 -530 -580 0
-31 -531 -581 0
-32 -532 -582 0
-33 -533 -583 0
-34 -534 -584 0
-35 -535 -585 0
-31 -536 -566 0
-32 -537 -567 0
-33 -538 -568 0
-34 -539 -569 0
-35 -540 -570 0
-31 -541 -571 0
-32 -542 -572 0
-33 -543 -573 0
-34 -544 -574 0
-35 -545 -575 0
-31 -546 -556 0
-32 -547 -557 0
-33 -548 -558 0
-34 -549 -559 0
-35 -550 -560 0
-31 -551 -561 0
-32 -552 -562 0
-33 -553 -563 0
-34 -554 -564 0
-35 -555 -565 0
-31 -636 -786 0
-32 -637 -787 0
-33 -638 -788 0
-34 -639 -789 0
-35 -640 -790 0
-31 -641 -791 0
-32 -642 -792 0
-33 -643 -793 0
-34 -644 -794 0
-35 -645 -795 0
-31 -646 -776 0
-32 -647 -777 0
-33 -648 -778 0
-34 -649 -779 0
-35 -650 -780 0
-31 -651 -781 0
-32 -652 -782 0
-33 -653 -783 0
-34 -654 -784 0
-35 -655 -785 0
-31 -656 -766 0
-32 -657 -767 0
-33 -658 -768 0
-34 -659 -769 0
-35 -660 -770 0
-31 -661 -771 0
-32 -662 -772 0
-33 -663 -773 0
-34 -664 -774 0
-35 -665 -775 0
-31 -666 -756 0
-32 -667 -757 0
-33 -668 -758 0
-34 -669 -759 0
-35 -670 -760 0
-31 -671 -761 0
-32 -672 -762 0
-33 -673 -763 0
-34 -674 -764 0
-35 -675 -765 0
-31 -676 -746 0
-32 -677 -747 0
-33 -678 -748 0
-34 -679 -749 0
-35 -680 -750 0
-31 -681 -751 0
-32 -682 -752 0
-33 -683 -753 0
-34 -684 -754 0
-35 -685 -755 0
-31 -686 -736 0
-32 -687 -737 0
-33 -688 -738 0
-34 -689 -739 0
-35 -690 -740 0
-31 -691 -741 0
-32 -692 -742 0
-33 -693 -743 0
-34 -694 -744 0
-35 -695 -745 0
-31 -696 -726 0
-32 -697 -727 0
-33 -698 -728 0
-34 -699 -729 0
-35 -700 -730 0
-31 -701 -731 0
-32 -702 -732 0
-33 -703 -733 0
-34 -704 -734 0
-35 -705 -735 0
-31 -706 -716 0
-32 -707 -717 0
-33 -708 -718 0
-34 -709 -719 0
-35 -710 -720 0
-31 -711 -721 0
-32 -712 -722 0
-33 -713 -723 0
-34 -714 -724 0
-35 -715 -725 0
-21 -156 -311 0
-22 -157 -312 0
-23 -158 -313 0
-24 -159 -314 0
-25 -160 -315 0
-21 -161 -306 0
-22 -162 -307 0
-23 -163 -308 0
-24 -164 -309 0
-25 -165 -310 0
-21 -166 -301 0
-22 -167 -302 0
-23 -168 -303 0
-24 -169 -304 0
-25 -170 -305 0
-21 -171 -296 0
-22 -172 -297 0
-23 -173 -298 0
-24 -174 -299 0
-25 -175 -300 0
-21 -176 -291 0
-22 -177 -292 0
-23 -178 -293 0
-24 -179 -294 0
-25 -180 -295 0
-21 -181 -286 0
-22 -182 -287 0
-23 -183 -288 0
-24 -184 -289 0
-25 -185 -290 0
-21 -186 -281 0
-22 -187 -282 0
-23 -188 -283 0
-24 -189 -284 0
-25 -190 -285 0
-21 -191 -276 0
-22 -192 -277 0
-23 -193 -278 0
-24 -194 -279 0
-25 -195 -280 0
-21 -196 -271 0
-22 -197 -272 0
-23 -198 -273 0
-24 -199 -274 0
-25 -200 -275 0
-21 -201 -266 0
-22 -202 -267 0
-23 -203 -268 0
-24 -204 -269 0
-25 -205 -270 0
-21 -206 -261 0
-22 -207 -262 0
-23 -208 -263 0
-24 -209 -264 0
-25 -210 -265 0
-21 -211 -256 0
-22 -212 -257 0
-23 -213 -258 0
-24 -214 -259 0
-25 -215 -260 0
-21 -216 -251 0
-22 -217 -252 0
-23 -218 -253 0
-24 -219 -254 0
-25 -220 -255 0
-21 -221 -246 0
-22 -222 -247 0
-23 -223 -248 0
-24 -224 -249 0
-25 -225 -250 0
-21 -226 -241 0
-22 -227 -242 0
-23 -228 -243 0
-24 -229 -244 0
-25 -230 -245 0
-21 -231 -236 0
-22 -232 -237 0
-23 -233 -238 0
-24 -234 -239 0
-25 -235 -240 0
-21 -316 -471 0
-22 -317 -472 0
-23 -318 -473 0
-24 -319 -474 0
-25 -320 -475 0
-21 -321 -466 0
-22 -322 -467 0
-23 -323 -468 0
-24 -324 -469 0
-25 -325 -470 0
-21 -326 -461 0
-22 -327 -462 0
-23 -328 -463 0
-24 -329 -464 0
-25 -330 -465 0
-21 -331 -456 0
-22 -332 -457 0
-23 -333 -458 0
-24 -334 -459 0
-25 -335 -460 0
-21 -336 -451 0
-22 -337 -452 0
-23 -338 -453 0
-24 -339 -454 0
-25 -340 -455 0
-21 -341 -446 0
-22 -342 -447 0
-23 -343 -448 0
-24 -344 -449 0
-25 -345 -450 0
-21 -346 -441 0
-22 -347 -442 0
-23 -348 -443 0
-24 -349 -444 0
-25 -350 -445 0
-21 -351 -436 0
-22 -352 -437 0
-23 -353 -438 0
-24 -354 -439 0
-25 -355 -440 0
-21 -356 -431 0
-22 -357 -432 0
-23 -358 -433 0
-24 -359 -434 0
-25 -360 -435 0
-21 -361 -426 0
-22 -362 -427 0
-23 -363 -428 0
-24 -364 -429 0
-25 -365 -430 0
-21 -366 -421 0
-22 -367 -422 0
-23 -368 -423 0
-24 -369 -424 0
-25 -370 -425 0
-21 -371 -416 0
-22 -372 -417 0
-23 -373 -418 0
-24 -374 -419 0
-25 -375 -420 0
-21 -376 -411 0
-22 -377 -412 0
-23 -378 -413 0
-24 -379 -414 0
-25 -380 -415 0
-21 -381 -406 0
-22 -382 -407 0
-23 -383 -408 0
-24 -384 -409 0
-25 -385 -410 0
-21 -386 -401 0
-22 -387 -402 0
-23 -388 -403 0
-24 -389 -404 0
-25 -390 -405 0
-21 -391 -396 0
-22 -392 -397 0
-23 -393 -398 0
-24 -394 -399 0
-25 -395 -400 0
-21 -476 -631 0
-22 -477 -632 0
-23 -478 -633 0
-24 -479 -634 0
-25 -480 -635 0
-21 -481 -626 0
-22 -482 -627 0
-23 -483 -628 0
-24 -484 -629 0
-25 -485 -630 0
-21 -486 -621 0
-22 -487 -622 0
-23 -488 -623 0
-24 -489 -624 0
-25 -490 -625 0
-21 -491 -616 0
-22 -492 -617 0
-23 -493 -618 0
-24 -494 -619 0
-25 -495 -620 0
-21 -496 -611 0
-22 -497 -612 0
-23 -498 -613 0
-24 -499 -614 0
-25 -500 -615 0
-21 -501 -606 0
-22 -502 -607 0
-23 -503 -608 0
-24 -504 -609 0
-25 -505 -610 0
-21 -506 -601 0
-22 -507 -602 0
-23 -508 -603 0
-24 -509 -604 0
-25 -510 -605 0
-21 -511 -596 0
-22 -512 -597 0
-23 -513 -598 0
-24 -514 -599 0
-25 -515 -600 0
-21 -516 -591 0
-22 -517 -592 0
-23 -518 -593 0
-24 -519 -594 0
-25 -520 -595 0
-21 -521 -586 0
-22 -522 -587 0
-23 -523 -588 0
-24 -524 -589 0
-25 -525 -590 0
-21 -526 -581 0
-22 -527 -582 0
-23 -528 -583 0
-24 -529 -584 0
-25 -530 -585 0
-21 -531 -576 0
-22 -532 -577 0
-23 -533 -578 0
-24 -534 -579 0
-25 -535 -580 0
-21 -536 -571 0
-22 -537 -572 0
-23 -538 -573 0
-24 -539 -574 0
-25 -540 -575 0
-21 -541 -566 0
-22 -542 -567 0
-23 -543 -568 0
-24 -544 -569 0
-25 -545 -570 0
-21 -546 -561 0
-22 -547 -562 0
-23 -548 -563 0
-24 -549 -564 0
-25 -550 -565 0
-21 -551 -556 0
-22 -552 -557 0
-23 -553 -558 0
-24 -554 -559 0
-25 -555 -560 0
-21 -636 -791 0
-22 -637 -792 0
-23 -638 -793 0
-24 -639 -794 0
-25 -640 -795 0
-21 -641 -786 0
-22 -642 -787 0
-23 -643 -788 0
-24 -644 -789 0
-25 -645 -790 0
-21 -646 -781 0
-22 -647 -782 0
-23 -648 -783 0
-24 -649 -784 0
-25 -650 -785 0
-21 -651 -776 0
-22 -652 -777 0
-23 -653 -778 0
-24 -654 -779 0
-25 -655 -780 0
-21 -656 -771 0
-22 -657 -772 0
-23 -658 -773 0
-24 -659 -774 0
-25 -660 -775 0
-21 -661 -766 0
-22 -662 -767 0
-23 -663 -768 0
-24 -664 -769 0
-25 -665 -770 0
-21 -666 -761 0
-22 -667 -762 0
-23 -668 -763 0
-24 -669 -764 0
-25 -670 -765 0
-21 -671 -756 0
-22 -672 -757 0
-23 -673 -758 0
-24 -674 -759 0
-25 -675 -760 0
-21 -676 -751 0
-22 -677 -752 0
-23 -678 -753 0
-24 -679 -754 0
-25 -680 -755 0
-21 -681 -746 0
-22 -682 -747 0
-23 -683 -748 0
-24 -684 -749 0
-25 -685 -750 0
-21 -686 -741 0
-22 -687 -742 0
-23 -688 -743 0
-24 -689 -744 0
-25 -690 -745 0
-21 -691 -736 0
-22 -692 -737 0
-23 -693 -738 0
-24 -694 -739 0
-25 -695 -740 0
-21 -696 -731 0
-22 -697 -732 0
-23 -698 -733 0
-24 -699 -734 0
-25 -700 -735 0
-21 -701 -726 0
-22 -702 -727 0
-23 -703 -728 0
-24 -704 -729 0
-25 -705 -730 0
-21 -706 -721 0
-22 -707 -722 0
-23 -708 -723 0
-24 -709 -724 0
-25 -710 -725 0
-21 -711 -716 0
-22 -712 -717 0
-23 -713 -718 0
-24 -714 -719 0
-25 -715 -720 0
-36 -156 -316 0
-37 -157 -317 0
-38 -158 -318 0
-39 -159 -319 0
-40 -160 -320 0
-36 -161 -321 0
-37 -162 -322 0
-38 -163 -323 0
-39 -164 -324 0
-40 -165 -325 0
-36 -166 -326 0
-37 -167 -327 0
-38 -168 -328 0
-39 -169 -329 0
-40 -170 -330 0
-36 -171 -331 0
-37 -172 -332 0
-38 -173 -333 0
-39 -174 -334 0
-40 -175 -335 0
-36 -176 -336 0
-37 -177 -337 0
-38 -178 -338 0
-39 -179 -339 0
-40 -180 -340 0
-36 -181 -341 0
-37 -182 -342 0
-38 -183 -343 0
-39 -184 -344 0
-40 -185 -345 0
-36 -186 -346 0
-37 -187 -347 0
-38 -188 -348 0
-39 -189 -349 0
-40 -190 -350 0
-36 -191 -351 0
-37 -192 -352 0
-38 -193 -353 0
-39 -194 -354 0
-40 -195 -355 0
-36 -196 -356 0
-37 -197 -357 0
-38 -198 -358 0
-39 -199 -359 0
-40 -200 -360 0
-36 -201 -361 0
-37 -202 -362 0
-38 -203 -363 0
-39 -204 -364 0
-40 -205 -365 0
-36 -206 -366 0
-37 -207 -367 0
-38 -208 -368 0
-39 -209 -369 0
-40 -210 -370 0
-36 -211 -371 0
-37 -212 -372 0
-38 -213 -373 0
-39 -214 -374 0
-40 -215 -375 0
-36 -216 -376 0
-37 -217 -377 0
-38 -218 -378 0
-39 -219 -379 0
-40 -220 -380 0
-36 -221 -381 0
-37 -222 -382 0
-38 -223 -383 0
-39 -224 -384 0
-40 -225 -385 0
-36 -226 -386 0
-37 -227 -387 0
-38 -228 -388 0
-39 -229 -389 0
-40 -230 -390 0
-36 -231 -391 0
-37 -232 -392 0
-38 -233 -393 0
-39 -234 -394 0
-40 -235 -395 0
-36 -236 -396 0
-37 -237 -397 0
-38 -238 -398 0
-39 -239 -399 0
-40 -240 -400 0
-36 -241 -401 0
-37 -242 -402 0
-38 -243 -403 0
-39 -244 -404 0
-40 -245 -405 0
-36 -246 -406 0
-37 -247 -407 0
-38 -248 -408 0
-39 -249 -409 0
-40 -250 -410 0
-36 -251 -411 0
-37 -252 -412 0
-38 -253 -413 0
-39 -254 -414 0
-40 -255 -415 0
-36 -256 -416 0
-37 -257 -417 0
-38 -258 -418 0
-39 -259 -419 0
-40 -260 -420 0
-36 -261 -421 0
-37 -262 -422 0
-38 -263 -423 0
-39 -264 -424 0
-40 -265 -425 0
-36 -266 -426 0
-37 -267 -427 0
-38 -268 -428 0
-39 -269 -429 0
-40 -270 -430 0
-36 -271 -431 0
-37 -272 -432 0
-38 -273 -433 0
-39 -274 -434 0
-40 -275 -435 0
-36 -276 -436 0
-37 -277 -437 0
-38 -278 -438 0
-39 -279 -439 0
-40 -280 -440 0
-36 -281 -441 0
-37 -282 -442 0
-38 -283 -443 0
-39 -284 -444 0
-40 -285 -445 0
-36 -286 -446 0
-37 -287 -447 0
-38 -288 -448 0
-39 -289 -449 0
-40 -290 -450 0
-36 -291 -451 0
-37 -292 -452 0
-38 -293 -453 0
-39 -294 -454 0
-40 -295 -455 0
-36 -296 -456 0
-37 -297 -457 0
-38 -298 -458 0
-39 -299 -459 0
-40 -300 -460 0
-36 -301 -461 0
-37 -302 -462 0
-38 -303 -463 0
-39 -304 -464 0
-40 -305 -465 0
-36 -306 -466 0
-37 -307 -467 0
-38 -308 -468 0
-39 -309 -469 0
-40 -310 -470 0
-36 -311 -471 0
-37 -312 -472 0
-38 -313 -473 0
-39 -314 -474 0
-40 -315 -475 0
-36 -476 -636 0
-37 -477 -637 0
-38 -478 -638 0
-39 -479 -639 0
-40 -480 -640 0
-36 -481 -641 0
-37 -482 -642 0
-38 -483 -643 0
-39 -484 -644 0
-40 -485 -645 0
-36 -486 -646 0
-37 -487 -647 0
-38 -488 -648 0
-39 -489 -649 0
-40 -490 -650 0
-36 -491 -651 0
-37 -492 -652 0
-38 -493 -653 0
-39 -494 -654 0
-40 -495 -655 0
-36 -496 -656 0
-37 -497 -657 0
-38 -498 -658 0
-39 -499 -659 0
-40 -500 -660 0
-36 -501 -661 0
-37 -502 -662 0
-38 -503 -663 0
-39 -504 -664 0
-40 -505 -665 0
-36 -506 -666 0
-37 -507 -667 0
-38 -508 -668 0
-39 -509 -669 0
-40 -510 -670 0
-36 -511 -671 0
-37 -512 -672 0
-38 -513 -673 0
-39 -514 -674 0
-40 -515 -675 0
-36 -516 -676 0
-37 -517 -677 0
-38 -518 -678 0
-39 -519 -679 0
-40 -520 -680 0
-36 -521 -681 0
-37 -522 -682 0
-38 -523 -683 0
-39 -524 -684 0
-40 -525 -685 0
-36 -526 -686 0
-37 -527 -687 0
-38 -528 -688 0
-39 -529 -689 0
-40 -530 -690 0
-36 -531 -691 0
-37 -532 -692 0
-38 -533 -693 0
-39 -534 -694 0
-40 -535 -695 0
-36 -536 -696 0
-37 -537 -697 0
-38 -538 -698 0
-39 -539 -699 0
-40 -540 -700 0
-36 -541 -701 0
-37 -542 -702 0
-38 -543 -703 0
-39 -544 -704 0
-40 -545 -705 0
-36 -546 -706 0
-37 -547 -707 0
-38 -548 -708 0
-39 -549 -709 0
-40 -550 -710 0
-36 -551 -711 0
-37 -552 -712 0
-38 -553 -713 0
-39 -554 -714 0
-40 -555 -715 0
-36 -556 -716 0
-37 -557 -717 0
-38 -558 -718 0
-39 -559 -719 0
-40 -560 -720 0
-36 -561 -721 0
-37 -562 -722 0
-38 -563 -723 0
-39 -564 -724 0
-40 -565 -725 0
-36 -566 -726 0
-37 -567 -727 0
-38 -568 -728 0
-39 -569 -729 0
-40 -570 -730 0
-36 -571 -731 0
-37 -572 -732 0
-38 -573 -733 0
-39 -574 -734 0
-40 -575 -735 0
-36 -576 -736 0
-37 -577 -737 0
-38 -578 -738 0
-39 -579 -739 0
-40 -580 -740 0
-36 -581 -741 0
-37 -582 -742 0
-38 -583 -743 0
-39 -584 -744 0
-40 -585 -745 0
-36 -586 -746 0
-37 -587 -747 0
-38 -588 -748 0
-39 -589 -749 0
-40 -590 -750 0
-36 -591 -751 0
-37 -592 -752 0
-38 -593 -753 0
-39 -594 -754 0
-40 -595 -755 0
-36 -596 -756 0
-37 -597 -757 0
-38 -598 -758 0
-39 -599 -759 0
-40 -600 -760 0
-36 -601 -761 0
-37 -602 -762 0
-38 -603 -763 0
-39 -604 -764 0
-40 -605 -765 0
-36 -606 -766 0
-37 -607 -767 0
-38 -608 -768 0
-39 -609 -769 0
-40 -610 -770 0
-36 -611 -771 0
-37 -612 -772 0
-38 -613 -773 0
-39 -614 -774 0
-40 -615 -775 0
-36 -616 -776 0
-37 -617 -777 0
-38 -618 -778 0
-39 -619 -779 0
-40 -620 -780 0
-36 -621 -781 0
-37 -622 -782 0
-38 -623 -783 0
-39 -624 -784 0
-40 -625 -785 0
-36 -626 -786 0
-37 -627 -787 0
-38 -628 -788 0
-39 -629 -789 0
-40 -630 -790 0
-36 -631 -791 0
-37 -632 -792 0
-38 -633 -793 0
-39 -634 -794 0
-40 -635 -795 0
-41 -156 -321 0
-42 -157 -322 0
-43 -158 -323 0
-44 -159 -324 0
-45 -160 -325 0
-41 -161 -316 0
-42 -162 -317 0
-43 -163 -318 0
-44 -164 -319 0
-45 -165 -320 0
-41 -166 -331 0
-42 -167 -332 0
-43 -168 -333 0
-44 -169 -334 0
-45 -170 -335 0
-41 -171 -326 0
-42 -172 -327 0
-43 -173 -328 0
-44 -174 -329 0
-45 -175 -330 0
-41 -176 -341 0
-42 -177 -342 0
-43 -178 -343 0
-44 -179 -344 0
-45 -180 -345 0
-41 -181 -336 0
-42 -182 -337 0
-43 -183 -338 0
-44 -184 -339 0
-45 -185 -340 0
-41 -186 -351 0
-42 -187 -352 0
-43 -188 -353 0
-44 -189 -354 0
-45 -190 -355 0
-41 -191 -346 0
-42 -192 -347 0
-43 -193 -348 0
-44 -194 -349 0
-45 -195 -350 0
-41 -196 -361 0
-42 -197 -362 0
-43 -198 -363 0
-44 -199 -364 0
-45 -200 -365 0
-41 -201 -356 0
-42 -202 -357 0
-43 -203 -358 0
-44 -204 -359 0
-45 -205 -360 0
-41 -206 -371 0
-42 -207 -372 0
-43 -208 -373 0
-44 -209 -374 0
-45 -210 -375 0
-41 -211 -366 0
-42 -212 -367 0
-43 -213 -368 0
-44 -214 -369 0
-45 -215 -370 0
-41 -216 -381 0
-42 -217 -382 0
-43 -218 -383 0
-44 -219 -384 0
-45 -220 -385 0
-41 -221 -376 0
-42 -222 -377 0
-43 -223 -378 0
-44 -224 -379 0
-45 -225 -380 0
-41 -226 -391 0
-42 -227 -392 0
-43 -228 -393 0
-44 -229 -394 0
-45 -230 -395 0
-41 -231 -386 0
-42 -232 -387 0
-43 -233 -388 0
-44 -234 -389 0
-45 -235 -390 0
-41 -236 -401 0
-42 -237 -402 0
-43 -238 -403 0
-44 -239 -404 0
-45 -240 -405 0
-41 -241 -396 0
-42 -242 -397 0
-43 -243 -398 0
-44 -244 -399 0
-45 -245 -400 0
-41 -246 -411 0
-42 -247 -412 0
-43 -248 -413 0
-44 -249 -414 0
-45 -250 -415 0
-41 -251 -406 0
-42 -252 -407 0
-43 -253 -408 0
-44 -254 -409 0
-45 -255 -410 0
-41 -256 -421 0
-42 -257 -422 0
-43 -258 -423 0
-44 -259 -424 0
-45 -260 -425 0
-41 -261 -416 0
-42 -262 -417 0
-43 -263 -418 0
-44 -264 -419 0
-45 -265 -420 0
-41 -266 -431 0
-42 -267 -432 0
-43 -268 -433 0
-44 -269 -434 0
-45 -270 -435 0
-41 -271 -426 0
-42 -272 -427 0
-43 -273 -428 0
-44 -274 -429 0
-45 -275 -430 0
-41 -276 -441 0
-42 -277 -442 0
-43 -278 -443 0
-44 -279 -444 0
-45 -280 -445 0
-41 -281 -436 0
-42 -282 -437 0
-43 -283 -438 0
-44 -284 -439 0
-45 -285 -440 0
-41 -286 -451 0
-42 -287 -452 0
-43 -288 -453 0
-44 -289 -454 0
-45 -290 -455 0
-41 -291 -446 0
-42 -292 -447 0
-43 -293 -448 0
-44 -294 -449 0
-45 -295 -450 0
-41 -296 -461 0
-42 -297 -462 0
-43 -298 -463 0
-44 -299 -464 0
-45 -300 -465 0
-41 -301 -456 0
-42 -302 -457 0
-43 -303 -458 0
-44 -304 -459 0
-45 -305 -460 0
-41 -306 -471 0
-42 -307 -472 0
-43 -308 -473 0
-44 -309 -474 0
-45 -310 -475 0
-41 -311 -466 0
-42 -312 -467 0
-43 -313 -468 0
-44 -314 -469 0
-45 -315 -470 0
-41 -476 -641 0
-42 -477 -642 0
-43 -478 -643 0
-44 -479 -644 0
-45 -480 -645 0
-41 -481 -636 0
-42 -482 -637 0
-43 -483 -638 0
-44 -484 -639 0
-45 -485 -640 0
-41 -486 -651 0
-42 -487 -652 0
-43 -488 -653 0
-44 -489 -654 0
-45 -490 -655 0
-41 -491 -646 0
-42 -492 -647 0
-43 -493 -648 0
-44 -494 -649 0
-45 -495 -650 0
-41 -496 -661 0
-42 -497 -662 0
-43 -498 -663 0
-44 -499 -664 0
-45 -500 -665 0
-41 -501 -656 0
-42 -502 -657 0
-43 -503 -658 0
-44 -504 -659 0
-45 -505 -660 0
-41 -506 -671 0
-42 -507 -672 0
-43 -508 -673 0
-44 -509 -674 0
-45 -510 -675 0
-41 -511 -666 0
-42 -512 -667 0
-43 -513 -668 0
-44 -514 -669 0
-45 -515 -670 0
-41 -516 -681 0
-42 -517 -682 0
-43 -518 -683 0
-44 -519 -684 0
-45 -520 -685 0
-41 -521 -676 0
-42 -522 -677 0
-43 -523 -678 0
-44 -524 -679 0
-45 -525 -680 0
-41 -526 -691 0
-42 -527 -692 0
-43 -528 -693 0
-44 -529 -694 0
-45 -530 -695 0
-41 -531 -686 0
-42 -532 -687 0
-43 -533 -688 0
-44 -534 -689 0
-45 -535 -690 0
-41 -536 -701 0
-42 -537 -702 0
-43 -538 -703 0
-44 -539 -704 0
-45 -540 -705 0
-41 -541 -696 0
-42 -542 -697 0
-43 -543 -698 0
-44 -544 -699 0
-45 -545 -700 0
-41 -546 -711 0
-42 -547 -712 0
-43 -548 -713 0
-44 -549 -714 0
-45 -550 -715 0
-41 -551 -706 0
-42 -552 -707 0
-43 -553 -708 0
-44 -554 -709 0
-45 -555 -710 0
-41 -556 -721 0
-42 -557 -722 0
-43 -558 -723 0
-44 -559 -724 0
-45 -560 -725 0
-41 -561 -716 0
-42 -562 -717 0
-43 -563 -718 0
-44 -564 -719 0
-45 -565 -720 0
-41 -566 -731 0
-42 -567 -732 0
-43 -568 -733 0
-44 -569 -734 0
-45 -570 -735 0
-41 -571 -726 0
-42 -572 -727 0
-43 -573 -728 0
-44 -574 -729 0
-45 -575 -730 0
-41 -576 -741 0
-42 -577 -742 0
-43 -578 -743 0
-44 -579 -744 0
-45 -580 -745 0
-41 -581 -736 0
-42 -582 -737 0
-43 -583 -738 0
-44 -584 -739 0
-45 -585 -740 0
-41 -586 -751 0
-42 -587 -752 0
-43 -588 -753 0
-44 -589 -754 0
-45 -590 -755 0
-41 -591 -746 0
-42 -592 -747 0
-43 -593 -748 0
-44 -594 -749 0
-45 -595 -750 0
-41 -596 -761 0
-42 -597 -762 0
-43 -598 -763 0
-44 -599 -764 0
-45 -600 -765 0
-41 -601 -756 0
-42 -602 -757 0
-43 -603 -758 0
-44 -604 -759 0
-45 -605 -760 0
-41 -606 -771 0
-42 -607 -772 0
-43 -608 -773 0
-44 -609 -774 0
-45 -610 -775 0
-41 -611 -766 0
-42 -612 -767 0
-43 -613 -768 0
-44 -614 -769 0
-45 -615 -770 0
-41 -616 -781 0
-42 -617 -782 0
-43 -618 -783 0
-44 -619 -784 0
-45 -620 -785 0
-41 -621 -776 0
-42 -622 -777 0
-43 -623 -778 0
-44 -624 -779 0
-45 -625 -780 0
-41 -626 -791 0
-42 -627 -792 0
-43 -628 -793 0
-44 -629 -794 0
-45 -630 -795 0
-41 -631 -786 0
-42 -632 -787 0
-43 -633 -788 0
-44 -634 -789 0
-45 -635 -790 0
-46 -156 -326 0
-47 -157 -327 0
-48 -158 -328 0
-49 -159 -329 0
-50 -160 -330 0
-46 -161 -331 0
-47 -162 -332 0
-48 -163 -333 0
-49 -164 -334 0
-50 -165 -335 0
-46 -166 -316 0
-47 -167 -317 0
-48 -168 -318 0
-49 -169 -319 0
-50 -170 -320 0
-46 -171 -321 0
-47 -172 -322 0
-48 -173 -323 0
-49 -174 -324 0
-50 -175 -325 0
-46 -176 -346 0
-47 -177 -347 0
-48 -178 -348 0
-49 -179 -349 0
-50 -180 -350 0
-46 -181 -351 0
-47 -182 -352 0
-48 -183 -353 0
-49 -184 -354 0
-50 -185 -355 0
-46 -186 -336 0
-47 -187 -337 0
-48 -188 -338 0
-49 -189 -339 0
-50 -190 -340 0
-46 -191 -341 0
-47 -192 -342 0
-48 -193 -343 0
-49 -194 -344 0
-50 -195 -345 0
-46 -196 -366 0
-47 -197 -367 0
-48 -198 -368 0
-49 -199 -369 0
-50 -200 -370 0
-46 -201 -371 0
-47 -202 -372 0
-48 -203 -373 0
-49 -204 -374 0
-50 -205 -375 0
-46 -206 -356 0
-47 -207 -357 0
-48 -208 -358 0
-49 -209 -359 0
-50 -210 -360 0
-46 -211 -361 0
-47 -212 -362 0
-48 -213 -363 0
-49 -214 -364 0
-50 -215 -365 0
-46 -216 -386 0
-47 -217 -387 0
-48 -218 -388 0
-49 -219 -389 0
-50 -220 -390 0
-46 -221 -391 0
-47 -222 -392 0
-48 -223 -393 0
-49 -224 -394 0
-50 -225 -395 0
-46 -226 -376 0
-47 -227 -377 0
-48 -228 -378 0
-49 -229 -379 0
-50 -230 -380 0
-46 -231 -381 0
-47 -232 -382 0
-48 -233 -383 0
-49 -234 -384 0
-50 -235 -385 0
-46 -236 -406 0
-47 -237 -407 0
-48 -238 -408 0
-49 -239 -409 0
-50 -240 -410 0
-46 -241 -411 0
-47 -242 -412 0
-48 -243 -413 0
-49 -244 -414 0
-50 -245 -415 0
-46 -246 -396 0
-47 -247 -397 0
-48 -248 -398 0
-49 -249 -399 0
-50 -250 -400 0
-46 -251 -401 0
-47 -252 -402 0
-48 -253 -403 0
-49 -254 -404 0
-50 -255 -405 0
-46 -256 -426 0
-47 -257 -427 0
-48 -258 -428 0
-49 -259 -429 0
-50 -260 -430 0
-46 -261 -431 0
-47 -262 -432 0
-48 -263 -433 0
-49 -264 -434 0
-50 -265 -435 0
-46 -266 -416 0
-47 -267 -417 0
-48 -268 -418 0
-49 -269 -419 0
-50 -270 -420 0
-46 -271 -421 0
-47 -272 -422 0
-48 -273 -423 0
-49 -274 -424 0
-50 -275 -425 0
-46 -276 -446 0
-47 -277 -447 0
-48 -278 -448 0
-49 -279 -449 0
-50 -280 -450 0
-46 -281 -451 0
-47 -282 -452 0
-48 -283 -453 0
-49 -284 -454 0
-50 -285 -455 0
-46 -286 -436 0
-47 -287 -437 0
-48 -288 -438 0
-49 -289 -439 0
-50 -290 -440 0
-46 -291 -441 0
-47 -292 -442 0
-48 -293 -443 0
-49 -294 -444 0
-50 -295 -445 0
-46 -296 -466 0
-47 -297 -467 0
-48 -298 -468 0
-49 -299 -469 0
-50 -300 -470 0
-46 -301 -471 0
-47 -302 -472 0
-48 -303 -473 0
-49 -304 -474 0
-50 -305 -475 0
-46 -306 -456 0
-47 -307 -457 0
-48 -308 -458 0
-49 -309 -459 0
-50 -310 -460 0
-46 -311 -461 0
-47 -312 -462 0
-48 -313 -463 0
-49 -314 -464 0
-50 -315 -465 0
-46 -476 -646 0
-47 -477 -647 0
-48 -478 -648 0
-49 -479 -649 0
-50 -480 -650 0
-46 -481 -651 0
-47 -482 -652 0
-48 -483 -653 0
-49 -484 -654 0
-50 -485 -655 0
-46 -486 -636 0
-47 -487 -637 0
-48 -488 -638 0
-49 -489 -639 0
-50 -490 -640 0
-46 -491 -641 0
-47 -492 -642 0
-48 -493 -643 0
-49 -494 -644 0
-50 -495 -645 0
-46 -496 -666 0
-47 -497 -667 0
-48 -498 -668 0
-49 -499 -669 0
-50 -500 -670 0
-46 -501 -671 0
-47 -502 -672 0
-48 -503 -673 0
-49 -504 -674 0
-50 -505 -675 0
-46 -506 -656 0
-47 -507 -657 0
-48 -508 -658 0
-49 -509 -659 0
-50 -510 -660 0
-46 -511 -661 0
-47 -512 -662 0
-48 -513 -663 0
-49 -514 -664 0
-50 -515 -665 0
-46 -516 -686 0
-47 -517 -687 0
-48 -518 -688 0
-49 -519 -689 0
-50 -520 -690 0
-46 -521 -691 0
-47 -522 -692 0
-48 -523 -693 0
-49 -524 -694 0
-50 -525 -695 0
-46 -526 -676 0
-47 -527 -677 0
-48 -528 -678 0
-49 -529 -679 0
-50 -530 -680 0
-46 -531 -681 0
-47 -532 -682 0
-48 -533 -683 0
-49 -534 -684 0
-50 -535 -685 0
-46 -536 -706 0
-47 -537 -707 0
-48 -538 -708 0
-49 -539 -709 0
-50 -540 -710 0
-46 -541 -711 0
-47 -542 -712 0
-48 -543 -713 0
-49 -544 -714 0
-50 -545 -715 0
-46 -546 -696 0
-47 -547 -697 0
-48 -548 -698 0
-49 -549 -699 0
-50 -550 -700 0
-46 -551 -701 0
-47 -552 -702 0
-48 -553 -703 0
-49 -554 -704 0
-50 -555 -705 0
-46 -556 -726 0
-47 -557 -727 0
-48 -558 -728 0
-49 -559 -729 0
-50 -560 -730 0
-46 -561 -731 0
-47 -562 -732 0
-48 -563 -733 0
-49 -564 -734 0
-50 -565 -735 0
-46 -566 -716 0
-47 -567 -717 0
-48 -568 -718 0
-49 -569 -719 0
-50 -570 -720 0
-46 -571 -721 0
-47 -572 -722 0
-48 -573 -723 0
-49 -574 -724 0
-50 -575 -725 0
-46 -576 -746 0
-47 -577 -747 0
-48 -578 -748 0
-49 -579 -749 0
-50 -580 -750 0
-46 -581 -751 0
-47 -582 -752 0
-48 -583 -753 0
-49 -584 -754 0
-50 -585 -755 0
-46 -586 -736 0
-47 -587 -737 0
-48 -588 -738 0
-49 -589 -739 0
-50 -590 -740 0
-46 -591 -741 0
-47 -592 -742 0
-48 -593 -743 0
-49 -594 -744 0
-50 -595 -745 0
-46 -596 -766 0
-47 -597 -767 0
-48 -598 -768 0
-49 -599 -769 0
-50 -600 -770 0
-46 -601 -771 0
-47 -602 -772 0
-48 -603 -773 0
-49 -604 -774 0
-50 -605 -775 0
-46 -606 -756 0
-47 -607 -757 0
-48 -608 -758 0
-49 -609 -759 0
-50 -610 -760 0
-46 -611 -761 0
-47 -612 -762 0
-48 -613 -763 0
-49 -614 -764 0
-50 -615 -765 0
-46 -616 -786 0
-47 -617 -787 0
-48 -618 -788 0
-49 -619 -789 0
-50 -620 -790 0
-46 -621 -791 0
-47 -622 -792 0
-48 -623 -793 0
-49 -624 -794 0
-50 -625 -795 0
-46 -626 -776 0
-47 -627 -777 0
-48 -628 -778 0
-49 -629 -779 0
-50 -630 -780 0
-46 -631 -781 0
-47 -632 -782 0
-48 -633 -783 0
-49 -634 -784 0
-50 -635 -785 0
-46 -156 -331 0
-47 -157 -332 0
-48 -158 -333 0
-49 -159 -334 0
-50 -160 -335 0
-46 -161 -326 0
-47 -162 -327 0
-48 -163 -328 0
-49 -164 -329 0
-50 -165 -330 0
-46 -166 -321 0
-47 -167 -322 0
-48 -168 -323 0
-49 -169 -324 0
-50 -170 -325 0
-46 -171 -316 0
-47 -172 -317 0
-48 -173 -318 0
-49 -174 -319 0
-50 -175 -320 0
-46 -176 -351 0
-47 -177 -352 0
-48 -178 -353 0
-49 -179 -354 0
-50 -180 -355 0
-46 -181 -346 0
-47 -182 -347 0
-48 -183 -348 0
-49 -184 -349 0
-50 -185 -350 0
-46 -186 -341 0
-47 -187 -342 0
-48 -188 -343 0
-49 -189 -344 0
-50 -190 -345 0
-46 -191 -336 0
-47 -192 -337 0
-48 -193 -338 0
-49 -194 -339 0
-50 -195 -340 0
-46 -196 -371 0
-47 -197 -372 0
-48 -198 -373 0
-49 -199 -374 0
-50 -200 -375 0
-46 -201 -366 0
-47 -202 -367 0
-48 -203 -368 0
-49 -204 -369 0
-50 -205 -370 0
-46 -206 -361 0
-47 -207 -362 0
-48 -208 -363 0
-49 -209 -364 0
-50 -210 -365 0
-46 -211 -356 0
-47 -212 -357 0
-48 -213 -358 0
-49 -214 -359 0
-50 -215 -360 0
-46 -216 -391 0
-47 -217 -392 0
-48 -218 -393 0
-49 -219 -394 0
-50 -220 -395 0
-46 -221 -386 0
-47 -222 -387 0
-48 -223 -388 0
-49 -224 -389 0
-50 -225 -390 0
-46 -226 -381 0
-47 -227 -382 0
-48 -228 -383 0
-49 -229 -384 0
-50 -230 -385 0
-46 -231 -376 0
-47 -232 -377 0
-48 -233 -378 0
-49 -234 -379 0
-50 -235 -380 0
-46 -236 -411 0
-47 -237 -412 0
-48 -238 -413 0
-49 -239 -414 0
-50 -240 -415 0
-46 -241 -406 0
-47 -242 -407 0
-48 -243 -408 0
-49 -244 -409 0
-50 -245 -410 0
-46 -246 -401 0
-47 -247 -402 0
-48 -248 -403 0
-49 -249 -404 0
-50 -250 -405 0
-46 -251 -396 0
-47 -252 -397 0
-48 -253 -398 0
-49 -254 -399 0
-50 -255 -400 0
-46 -256 -431 0
-47 -257 -432 0
-48 -258 -433 0
-49 -259 -434 0
-50 -260 -435 0
-46 -261 -426 0
-47 -262 -427 0
-48 -263 -428 0
-49 -264 -429 0
-50 -265 -430 0
-46 -266 -421 0
-47 -267 -422 0
-48 -268 -423 0
-49 -269 -424 0
-50 -270 -425 0
-46 -271 -416 0
-47 -272 -417 0
-48 -273 -418 0
-49 -274 -419 0
-50 -275 -420 0
-46 -276 -451 0
-47 -277 -452 0
-48 -278 -453 0
-49 -279 -454 0
-50 -280 -455 0
-46 -281 -446 0
-47 -282 -447 0
-48 -283 -448 0
-49 -284 -449 0
-50 -285 -450 0
-46 -286 -441 0
-47 -287 -442 0
-48 -288 -443 0
-49 -289 -444 0
-50 -290 -445 0
-46 -291 -436 0
-47 -292 -437 0
-48 -293 -438 0
-49 -294 -439 0
-50 -295 -440 0
-46 -296 -471 0
-47 -297 -472 0
-48 -298 -473 0
-49 -299 -474 0
-50 -300 -475 0
-46 -301 -466 0
-47 -302 -467 0
-48 -303 -468 0
-49 -304 -469 0
-50 -305 -470 0
-46 -306 -461 0
-47 -307 -462 0
-48 -308 -463 0
-49 -309 -464 0
-50 -310 -465 0
-46 -311 -456 0
-47 -312 -457 0
-48 -313 -458 0
-49 -314 -459 0
-50 -315 -460 0
-46 -476 -651 0
-47 -477 -652 0
-48 -478 -653 0
-49 -479 -654 0
-50 -480 -655 0
-46 -481 -646 0
-47 -482 -647 0
-48 -483 -648 0
-49 -484 -649 0
-50 -485 -650 0
-46 -486 -641 0
-47 -487 -642 0
-48 -488 -643 0
-49 -489 -644 0
-50 -490 -645 0
-46 -491 -636 0
-47 -492 -637 0
-48 -493 -638 0
-49 -494 -639 0
-50 -495 -640 0
-46 -496 -671 0
-47 -497 -672 0
-48 -498 -673 0
-49 -499 -674 0
-50 -500 -675 0
-46 -501 -666 0
-47 -502 -667 0
-48 -503 -668 0
-49 -504 -669 0
-50 -505 -670 0
-46 -506 -661 0
-47 -507 -662 0
-48 -508 -663 0
-49 -509 -664 0
-50 -510 -665 0
-46 -511 -656 0
-47 -512 -657 0
-48 -513 -658 0
-49 -514 -659 0
-50 -515 -660 0
-46 -516 -691 0
-47 -517 -692 0
-48 -518 -693 0
-49 -519 -694 0
-50 -520 -695 0
-46 -521 -686 0
-47 -522 -687 0
-48 -523 -688 0
-49 -524 -689 0
-50 -525 -690 0
-46 -526 -681 0
-47 -527 -682 0
-48 -528 -683 0
-49 -529 -684 0
-50 -530 -685 0
-46 -531 -676 0
-47 -532 -677 0
-48 -533 -678 0
-49 -534 -679 0
-50 -535 -680 0
-46 -536 -711 0
-47 -537 -712 0
-48 -538 -713 0
-49 -539 -714 0
-50 -540 -715 0
-46 -541 -706 0
-47 -542 -707 0
-48 -543 -708 0
-49 -544 -709 0
-50 -545 -710 0
-46 -546 -701 0
-47 -547 -702 0
-48 -548 -703 0
-49 -549 -704 0
-50 -550 -705 0
-46 -551 -696 0
-47 -552 -697 0
-48 -553 -698 0
-49 -554 -699 0
-50 -555 -700 0
-46 -556 -731 0
-47 -557 -732 0
-48 -558 -733 0
-49 -559 -734 0
-50 -560 -735 0
-46 -561 -726 0
-47 -562 -727 0
-48 -563 -728 0
-49 -564 -729 0
-50 -565 -730 0
-46 -566 -721 0
-47 -567 -722 0
-48 -568 -723 0
-49 -569 -724 0
-50 -570 -725 0
-46 -571 -716 0
-47 -572 -717 0
-48 -573 -718 0
-49 -574 -719 0
-50 -575 -720 0
-46 -576 -751 0
-47 -577 -752 0
-48 -578 -753 0
-49 -579 -754 0
-50 -580 -755 0
-46 -581 -746 0
-47 -582 -747 0
-48 -583 -748 0
-49 -584 -749 0
-50 -585 -750 0
-46 -586 -741 0
-47 -587 -742 0
-48 -588 -743 0
-49 -589 -744 0
-50 -590 -745 0
-46 -591 -736 0
-47 -592 -737 0
-48 -593 -738 0
-49 -594 -739 0
-50 -595 -740 0
-46 -596 -771 0
-47 -597 -772 0
-48 -598 -773 0
-49 -599 -774 0
-50 -600 -775 0
-46 -601 -766 0
-47 -602 -767 0
-48 -603 -768 0
-49 -604 -769 0
-50 -605 -770 0
-46 -606 -761 0
-47 -607 -762 0
-48 -608 -763 0
-49 -609 -764 0
-50 -610 -765 0
-46 -611 -756 0
-47 -612 -757 0
-48 -613 -758 0
-49 -614 -759 0
-50 -615 -760 0
-46 -616 -791 0
-47 -617 -792 0
-48 -618 -793 0
-49 -619 -794 0
-50 -620 -795 0
-46 -621 -786 0
-47 -622 -787 0
-48 -623 -788 0
-49 -624 -789 0
-50 -625 -790 0
-46 -626 -781 0
-47 -627 -782 0
-48 -628 -783 0
-49 -629 -784 0
-50 -630 -785 0
-46 -631 -776 0
-47 -632 -777 0
-48 -633 -778 0
-49 -634 -779 0
-50 -635 -780 0
-51 -156 -336 0
-52 -157 -337 0
-53 -158 -338 0
-54 -159 -339 0
-55 -160 -340 0
-51 -161 -341 0
-52 -162 -342 0
-53 -163 -343 0
-54 -164 -344 0
-55 -165 -345 0
-51 -166 -346 0
-52 -167 -347 0
-53 -168 -348 0
-54 -169 -349 0
-55 -170 -350 0
-51 -171 -351 0
-52 -172 -352 0
-53 -173 -353 0
-54 -174 -354 0
-55 -175 -355 0
-51 -176 -316 0
-52 -177 -317 0
-53 -178 -318 0
-54 -179 -319 0
-55 -180 -320 0
-51 -181 -321 0
-52 -182 -322 0
-53 -183 -323 0
-54 -184 -324 0
-55 -185 -325 0
-51 -186 -326 0
-52 -187 -327 0
-53 -188 -328 0
-54 -189 -329 0
-55 -190 -330 0
-51 -191 -331 0
-52 -192 -332 0
-53 -193 -333 0
-54 -194 -334 0
-55 -195 -335 0
-51 -196 -376 0
-52 -197 -377 0
-53 -198 -378 0
-54 -199 -379 0
-55 -200 -380 0
-51 -201 -381 0
-52 -202 -382 0
-53 -203 -383 0
-54 -204 -384 0
-55 -205 -385 0
-51 -206 -386 0
-52 -207 -387 0
-53 -208 -388 0
-54 -209 -389 0
-55 -210 -390 0
-51 -211 -391 0
-52 -212 -392 0
-53 -213 -393 0
-54 -214 -394 0
-55 -215 -395 0
-51 -216 -356 0
-52 -217 -357 0
-53 -218 -358 0
-54 -219 -359 0
-55 -220 -360 0
-51 -221 -361 0
-52 -222 -362 0
-53 -223 -363 0
-54 -224 -364 0
-55 -225 -365 0
-51 -226 -366 0
-52 -227 -367 0
-53 -228 -368 0
-54 -229 -369 0
-55 -230 -370 0
-51 -231 -371 0
-52 -232 -372 0
-53 -233 -373 0
-54 -234 -374 0
-55 -235 -375 0
-51 -236 -416 0
-52 -237 -417 0
-53 -238 -418 0
-54 -239 -419 0
-55 -240 -420 0
-51 -241 -421 0
-52 -242 -422 0
-53 -243 -423 0
-54 -244 -424 0
-55 -245 -425 0
-51 -246 -426 0
-52 -247 -427 0
-53 -248 -428 0
-54 -249 -429 0
-55 -250 -430 0
-51 -251 -431 0
-52 -252 -432 0
-53 -253 -433 0
-54 -254 -434 0
-55 -255 -435 0
-51 -256 -396 0
-52 -257 -397 0
-53 -258 -398 0
-54 -259 -399 0
-55 -260 -400 0
-51 -261 -401 0
-52 -262 -402 0
-53 -263 -403 0
-54 -264 -404 0
-55 -265 -405 0
-51 -266 -406 0
-52 -267 -407 0
-53 -268 -408 0
-54 -269 -409 0
-55 -270 -410 0
-51 -271 -411 0
-52 -272 -412 0
-53 -273 -413 0
-54 -274 -414 0
-55 -275 -415 0
-51 -276 -456 0
-52 -277 -457 0
-53 -278 -458 0
-54 -279 -459 0
-55 -280 -460 0
-51 -281 -461 0
-52 -282 -462 0
-53 -283 -463 0
-54 -284 -464 0
-55 -285 -465 0
-51 -286 -466 0
-52 -287 -467 0
-53 -288 -468 0
-54 -289 -469 0
-55 -290 -470 0
-51 -291 -471 0
-52 -292 -472 0
-53 -293 -473 0
-54 -294 -474 0
-55 -295 -475 0
-51 -296 -436 0
-52 -297 -437 0
-53 -298 -438 0
-54 -299 -439 0
-55 -300 -440 0
-51 -301 -441 0
-52 -302 -442 0
-53 -303 -443 0
-54 -304 -444 0
-55 -305 -445 0
-51 -306 -446 0
-52 -307 -447 0
-53 -308 -448 0
-54 -309 -449 0
-55 -310 -450 0
-51 -311 -451 0
-52 -312 -452 0
-53 -313 -453 0
-54 -314 -454 0
-55 -315 -455 0
-51 -476 -656 0
-52 -477 -657 0
-53 -478 -658 0
-54 -479 -659 0
-55 -480 -660 0
-51 -481 -661 0
-52 -482 -662 0
-53 -483 -663 0
-54 -484 -664 0
-55 -485 -665 0
-51 -486 -666 0
-52 -487 -667 0
-53 -488 -668 0
-54 -489 -669 0
-55 -490 -670 0
-51 -491 -671 0
-52 -492 -672 0
-53 -493 -673 0
-54 -494 -674 0
-55 -495 -675 0
-51 -496 -636 0
-52 -497 -637 0
-53 -498 -638 0
-54 -499 -639 0
-55 -500 -640 0
-51 -501 -641 0
-52 -502 -642 0
-53 -503 -643 0
-54 -504 -644 0
-55 -505 -645 0
-51 -506 -646 0
-52 -507 -647 0
-53 -508 -648 0
-54 -509 -649 0
-55 -510 -650 0
-51 -511 -651 0
-52 -512 -652 0
-53 -513 -653 0
-54 -514 -654 0
-55 -515 -655 0
-51 -516 -696 0
-52 -517 -697 0
-53 -518 -698 0
-54 -519 -699 0
-55 -520 -700 0
-51 -521 -701 0
-52 -522 -702 0
-53 -523 -703 0
-54 -524 -704 0
-55 -525 -705 0
-51 -526 -706 0
-52 -527 -707 0
-53 -528 -708 0
-54 -529 -709 0
-55 -530 -710 0
-51 -531 -711 0
-52 -532 -712 0
-53 -533 -713 0
-54 -534 -714 0
-55 -535 -715 0
-51 -536 -676 0
-52 -537 -677 0
-53 -538 -678 0
-54 -539 -679 0
-55 -540 -680 0
-51 -541 -681 0
-52 -542 -682 0
-53 -543 -683 0
-54 -544 -684 0
-55 -545 -685 0
-51 -546 -686 0
-52 -547 -687 0
-53 -548 -688 0
-54 -549 -689 0
-55 -550 -690 0
-51 -551 -691 0
-52 -552 -692 0
-53 -553 -693 0
-54 -554 -694 0
-55 -555 -695 0
-51 -556 -736 0
-52 -557 -737 0
-53 -558 -738 0
-54 -559 -739 0
-55 -560 -740 0
-51 -561 -741 0
-52 -562 -742 0
-53 -563 -743 0
-54 -564 -744 0
-55 -565 -745 0
-51 -566 -746 0
-52 -567 -747 0
-53 -568 -748 0
-54 -569 -749 0
-55 -570 -750 0
-51 -571 -751 0
-52 -572 -752 0
-53 -573 -753 0
-54 -574 -754 0
-55 -575 -755 0
-51 -576 -716 0
-52 -577 -717 0
-53 -578 -718 0
-54 -579 -719 0
-55 -580 -720 0
-51 -581 -721 0
-52 -582 -722 0
-53 -583 -723 0
-54 -584 -724 0
-55 -585 -725 0
-51 -586 -726 0
-52 -587 -727 0
-53 -588 -728 0
-54 -589 -729 0
-55 -590 -730 0
-51 -591 -731 0
-52 -592 -732 0
-53 -593 -733 0
-54 -594 -734 0
-55 -595 -735 0
-51 -596 -776 0
-52 -597 -777 0
-53 -598 -778 0
-54 -599 -779 0
-55 -600 -780 0
-51 -601 -781 0
-52 -602 -782 0
-53 -603 -783 0
-54 -604 -784 0
-55 -605 -785 0
-51 -606 -786 0
-52 -607 -787 0
-53 -608 -788 0
-54 -609 -789 0
-55 -610 -790 0
-51 -611 -791 0
-52 -612 -792 0
-53 -613 -793 0
-54 -614 -794 0
-55 -615 -795 0
-51 -616 -756 0
-52 -617 -757 0
-53 -618 -758 0
-54 -619 -759 0
-55 -620 -760 0
-51 -621 -761 0
-52 -622 -762 0
-53 -623 -763 0
-54 -624 -764 0
-55 -625 -765 0
-51 -626 -766 0
-52 -627 -767 0
-53 -628 -768 0
-54 -629 -769 0
-55 -630 -770 0
-51 -631 -771 0
-52 -632 -772 0
-53 -633 -773 0
-54 -634 -774 0
-55 -635 -775 0
-51 -156 -341 0
-52 -157 -342 0
-53 -158 -343 0
-54 -159 -344 0
-55 -160 -345 0
-51 -161 -336 0
-52 -162 -337 0
-53 -163 -338 0
-54 -164 -339 0
-55 -165 -340 0
-51 -166 -351 0
-52 -167 -352 0
-53 -168 -353 0
-54 -169 -354 0
-55 -170 -355 0
-51 -171 -346 0
-52 -172 -347 0
-53 -173 -348 0
-54 -174 -349 0
-55 -175 -350 0
-51 -176 -321 0
-52 -177 -322 0
-53 -178 -323 0
-54 -179 -324 0
-55 -180 -325 0
-51 -181 -316 0
-52 -182 -317 0
-53 -183 -318 0
-54 -184 -319 0
-55 -185 -320 0
-51 -186 -331 0
-52 -187 -332 0
-53 -188 -333 0
-54 -189 -334 0
-55 -190 -335 0
-51 -191 -326 0
-52 -192 -327 0
-53 -193 -328 0
-54 -194 -329 0
-55 -195 -330 0
-51 -196 -381 0
-52 -197 -382 0
-53 -198 -383 0
-54 -199 -384 0
-55 -200 -385 0
-51 -201 -376 0
-52 -202 -377 0
-53 -203 -378 0
-54 -204 -379 0
-55 -205 -380 0
-51 -206 -391 0
-52 -207 -392 0
-53 -208 -393 0
-54 -209 -394 0
-55 -210 -395 0
-51 -211 -386 0
-52 -212 -387 0
-53 -213 -388 0
-54 -214 -389 0
-55 -215 -390 0
-51 -216 -361 0
-52 -217 -362 0
-53 -218 -363 0
-54 -219 -364 0
-55 -220 -365 0
-51 -221 -356 0
-52 -222 -357 0
-53 -223 -358 0
-54 -224 -359 0
-55 -225 -360 0
-51 -226 -371 0
-52 -227 -372 0
-53 -228 -373 0
-54 -229 -374 0
-55 -230 -375 0
-51 -231 -366 0
-52 -232 -367 0
-53 -233 -368 0
-54 -234 -369 0
-55 -235 -370 0
-51 -236 -421 0
-52 -237 -422 0
-53 -238 -423 0
-54 -239 -424 0
-55 -240 -425 0
-51 -241 -416 0
-52 -242 -417 0
-53 -243 -418 0
-54 -244 -419 0
-55 -245 -420 0
-51 -246 -431 0
-52 -247 -432 0
-53 -248 -433 0
-54 -249 -434 0
-55 -250 -435 0
-51 -251 -426 0
-52 -252 -427 0
-53 -253 -428 0
-54 -254 -429 0
-55 -255 -430 0
-51 -256 -401 0
-52 -257 -402 0
-53 -258 -403 0
-54 -259 -404 0
-55 -260 -405 0
-51 -261 -396 0
-52 -262 -397 0
-53 -263 -398 0
-54 -264 -399 0
-55 -265 -400 0
-51 -266 -411 0
-52 -267 -412 0
-53 -268 -413 0
-54 -269 -414 0
-55 -270 -415 0
-51 -271 -406 0
-52 -272 -407 0
-53 -273 -408 0
-54 -274 -409 0
-55 -275 -410 0
-51 -276 -461 0
-52 -277 -462 0
-53 -278 -463 0
-54 -279 -464 0
-55 -280 -465 0
-51 -281 -456 0
-52 -282 -457 0
-53 -283 -458 0
-54 -284 -459 0
-55 -285 -460 0
-51 -286 -471 0
-52 -287 -472 0
-53 -288 -473 0
-54 -289 -474 0
-55 -290 -475 0
-51 -291 -466 0
-52 -292 -467 0
-53 -293 -468 0
-54 -294 -469 0
-55 -295 -470 0
-51 -296 -441 0
-52 -297 -442 0
-53 -298 -443 0
-54 -299 -444 0
-55 -300 -445 0
-51 -301 -436 0
-52 -302 -437 0
-53 -303 -438 0
-54 -304 -439 0
-55 -305 -440 0
-51 -306 -451 0
-52 -307 -452 0
-53 -308 -453 0
-54 -309 -454 0
-55 -310 -455 0
-51 -311 -446 0
-52 -312 -447 0
-53 -313 -448 0
-54 -314 -449 0
-55 -315 -450 0
-51 -476 -661 0
-52 -477 -662 0
-53 -478 -663 0
-54 -479 -664 0
-55 -480 -665 0
-51 -481 -656 0
-52 -482 -657 0
-53 -483 -658 0
-54 -484 -659 0
-55 -485 -660 0
-51 -486 -671 0
-52 -487 -672 0
-53 -488 -673 0
-54 -489 -674 0
-55 -490 -675 0
-51 -491 -666 0
-52 -492 -667 0
-53 -493 -668 0
-54 -494 -669 0
-55 -495 -670 0
-51 -496 -641 0
-52 -497 -642 0
-53 -498 -643 0
-54 -499 -644 0
-55 -500 -645 0
-51 -501 -636 0
-52 -502 -637 0
-53 -503 -638 0
-54 -504 -639 0
-55 -505 -640 0
-51 -506 -651 0
-52 -507 -652 0
-53 -508 -653 0
-54 -509 -654 0
-55 -510 -655 0
-51 -511 -646 0
-52 -512 -647 0
-53 -513 -648 0
-54 -514 -649 0
-55 -515 -650 0
-51 -516 -701 0
-52 -517 -702 0
-53 -518 -703 0
-54 -519 -704 0
-55 -520 -705 0
-51 -521 -696 0
-52 -522 -697 0
-53 -523 -698 0
-54 -524 -699 0
-55 -525 -700 0
-51 -526 -711 0
-52 -527 -712 0
-53 -528 -713 0
-54 -529 -714 0
-55 -530 -715 0
-51 -531 -706 0
-52 -532 -707 0
-53 -533 -708 0
-54 -534 -709 0
-55 -535 -710 0
-51 -536 -681 0
-52 -537 -682 0
-53 -538 -683 0
-54 -539 -684 0
-55 -540 -685 0
-51 -541 -676 0
-52 -542 -677 0
-53 -543 -678 0
-54 -544 -679 0
-55 -545 -680 0
-51 -546 -691 0
-52 -547 -692 0
-53 -548 -693 0
-54 -549 -694 0
-55 -550 -695 0
-51 -551 -686 0
-52 -552 -687 0
-53 -553 -688 0
-54 -554 -689 0
-55 -555 -690 0
-51 -556 -741 0
-52 -557 -742 0
-53 -558 -743 0
-54 -559 -744 0
-55 -560 -745 0
-51 -561 -736 0
-52 -562 -737 0
-53 -563 -738 0
-54 -564 -739 0
-55 -565 -740 0
-51 -566 -751 0
-52 -567 -752 0
-53 -568 -753 0
-54 -569 -754 0
-55 -570 -755 0
-51 -571 -746 0
-52 -572 -747 0
-53 -573 -748 0
-54 -574 -749 0
-55 -575 -750 0
-51 -576 -721 0
-52 -577 -722 0
-53 -578 -723 0
-54 -579 -724 0
-55 -580 -725 0
-51 -581 -716 0
-52 -582 -717 0
-53 -583 -718 0
-54 -584 -719 0
-55 -585 -720 0
-51 -586 -731 0
-52 -587 -732 0
-53 -588 -733 0
-54 -589 -734 0
-55 -590 -735 0
-51 -591 -726 0
-52 -592 -727 0
-53 -593 -728 0
-54 -594 -729 0
-55 -595 -730 0
-51 -596 -781 0
-52 -597 -782 0
-53 -598 -783 0
-54 -599 -784 0
-55 -600 -785 0
-51 -601 -776 0
-52 -602 -777 0
-53 -603 -778 0
-54 -604 -779 0
-55 -605 -780 0
-51 -606 -791 0
-52 -607 -792 0
-53 -608 -793 0
-54 -609 -794 0
-55 -610 -795 0
-51 -611 -786 0
-52 -612 -787 0
-53 -613 -788 0
-54 -614 -789 0
-55 -615 -790 0
-51 -616 -761 0
-52 -617 -762 0
-53 -618 -763 0
-54 -619 -764 0
-55 -620 -765 0
-51 -621 -756 0
-52 -622 -757 0
-53 -623 -758 0
-54 -624 -759 0
-55 -625 -760 0
-51 -626 -771 0
-52 -627 -772 0
-53 -628 -773 0
-54 -629 -774 0
-55 -630 -775 0
-51 -631 -766 0
-52 -632 -767 0
-53 -633 -768 0
-54 -634 -769 0
-55 -635 -770 0
-51 -156 -346 0
-52 -157 -347 0
-53 -158 -348 0
-54 -159 -349 0
-55 -160 -350 0
-51 -161 -351 0
-52 -162 -352 0
-53 -163 -353 0
-54 -164 -354 0
-55 -165 -355 0
-51 -166 -336 0
-52 -167 -337 0
-53 -168 -338 0
-54 -169 -339 0
-55 -170 -340 0
-51 -171 -341 0
-52 -172 -342 0
-53 -173 -343 0
-54 -174 -344 0
-55 -175 -345 0
-51 -176 -326 0
-52 -177 -327 0
-53 -178 -328 0
-54 -179 -329 0
-55 -180 -330 0
-51 -181 -331 0
-52 -182 -332 0
-53 -183 -333 0
-54 -184 -334 0
-55 -185 -335 0
-51 -186 -316 0
-52 -187 -317 0
-53 -188 -318 0
-54 -189 -319 0
-55 -190 -320 0
-51 -191 -321 0
-52 -192 -322 0
-53 -193 -323 0
-54 -194 -324 0
-55 -195 -325 0
-51 -196 -386 0
-52 -197 -387 0
-53 -198 -388 0
-54 -199 -389 0
-55 -200 -390 0
-51 -201 -391 0
-52 -202 -392 0
-53 -203 -393 0
-54 -204 -394 0
-55 -205 -395 0
-51 -206 -376 0
-52 -207 -377 0
-53 -208 -378 0
-54 -209 -379 0
-55 -210 -380 0
-51 -211 -381 0
-52 -212 -382 0
-53 -213 -383 0
-54 -214 -384 0
-55 -215 -385 0
-51 -216 -366 0
-52 -217 -367 0
-53 -218 -368 0
-54 -219 -369 0
-55 -220 -370 0
-51 -221 -371 0
-52 -222 -372 0
-53 -223 -373 0
-54 -224 -374 0
-55 -225 -375 0
-51 -226 -356 0
-52 -227 -357 0
-53 -228 -358 0
-54 -229 -359 0
-55 -230 -360 0
-51 -231 -361 0
-52 -232 -362 0
-53 -233 -363 0
-54 -234 -364 0
-55 -235 -365 0
-51 -236 -426 0
-52 -237 -427 0
-53 -238 -428 0
-54 -239 -429 0
-55 -240 -430 0
-51 -241 -431 0
-52 -242 -432 0
-53 -243 -433 0
-54 -244 -434 0
-55 -245 -435 0
-51 -246 -416 0
-52 -247 -417 0
-53 -248 -418 0
-54 -249 -419 0
-55 -250 -420 0
-51 -251 -421 0
-52 -252 -422 0
-53 -253 -423 0
-54 -254 -424 0
-55 -255 -425 0
-51 -256 -406 0
-52 -257 -407 0
-53 -258 -408 0
-54 -259 -409 0
-55 -260 -410 0
-51 -261 -411 0
-52 -262 -412 0
-53 -263 -413 0
-54 -264 -414 0
-55 -265 -415 0
-51 -266 -396 0
-52 -267 -397 0
-53 -268 -398 0
-54 -269 -399 0
-55 -270 -400 0
-51 -271 -401 0
-52 -272 -402 0
-53 -273 -403 0
-54 -274 -404 0
-55 -275 -405 0
-51 -276 -466 0
-52 -277 -467 0
-53 -278 -468 0
-54 -279 -469 0
-55 -280 -470 0
-51 -281 -471 0
-52 -282 -472 0
-53 -283 -473 0
-54 -284 -474 0
-55 -285 -475 0
-51 -286 -456 0
-52 -287 -457 0
-53 -288 -458 0
-54 -289 -459 0
-55 -290 -460 0
-51 -291 -461 0
-52 -292 -462 0
-53 -293 -463 0
-54 -294 -464 0
-55 -295 -465 0
-51 -296 -446 0
-52 -297 -447 0
-53 -298 -448 0
-54 -299 -449 0
-55 -300 -450 0
-51 -301 -451 0
-52 -302 -452 0
-53 -303 -453 0
-54 -304 -454 0
-55 -305 -455 0
-51 -306 -436 0
-52 -307 -437 0
-53 -308 -438 0
-54 -309 -439 0
-55 -310 -440 0
-51 -311 -441 0
-52 -312 -442 0
-53 -313 -443 0
-54 -314 -444 0
-55 -315 -445 0
-51 -476 -666 0
-52 -477 -667 0
-53 -478 -668 0
-54 -479 -669 0
-55 -480 -670 0
-51 -481 -671 0
-52 -482 -672 0
-53 -483 -673 0
-54 -484 -674 0
-55 -485 -675 0
-51 -486 -656 0
-52 -487 -657 0
-53 -488 -658 0
-54 -489 -659 0
-55 -490 -660 0
-51 -491 -661 0
-52 -492 -662 0
-53 -493 -663 0
-54 -494 -664 0
-55 -495 -665 0
-51 -496 -646 0
-52 -497 -647 0
-53 -498 -648 0
-54 -499 -649 0
-55 -500 -650 0
-51 -501 -651 0
-52 -502 -652 0
-53 -503 -653 0
-54 -504 -654 0
-55 -505 -655 0
-51 -506 -636 0
-52 -507 -637 0
-53 -508 -638 0
-54 -509 -639 0
-55 -510 -640 0
-51 -511 -641 0
-52 -512 -642 0
-53 -513 -643 0
-54 -514 -644 0
-55 -515 -645 0
-51 -516 -706 0
-52 -517 -707 0
-53 -518 -708 0
-54 -519 -709 0
-55 -520 -710 0
-51 -521 -711 0
-52 -522 -712 0
-53 -523 -713 0
-54 -524 -714 0
-55 -525 -715 0
-51 -526 -696 0
-52 -527 -697 0
-53 -528 -698 0
-54 -529 -699 0
-55 -530 -700 0
-51 -531 -701 0
-52 -532 -702 0
-53 -533 -703 0
-54 -534 -704 0
-55 -535 -705 0
-51 -536 -686 0
-52 -537 -687 0
-53 -538 -688 0
-54 -539 -689 0
-55 -540 -690 0
-51 -541 -691 0
-52 -542 -692 0
-53 -543 -693 0
-54 -544 -694 0
-55 -545 -695 0
-51 -546 -676 0
-52 -547 -677 0
-53 -548 -678 0
-54 -549 -679 0
-55 -550 -680 0
-51 -551 -681 0
-52 -552 -682 0
-53 -553 -683 0
-54 -554 -684 0
-55 -555 -685 0
-51 -556 -746 0
-52 -557 -747 0
-53 -558 -748 0
-54 -559 -749 0
-55 -560 -750 0
-51 -561 -751 0
-52 -562 -752 0
-53 -563 -753 0
-54 -564 -754 0
-55 -565 -755 0
-51 -566 -736 0
-52 -567 -737 0
-53 -568 -738 0
-54 -569 -739 0
-55 -570 -740 0
-51 -571 -741 0
-52 -572 -742 0
-53 -573 -743 0
-54 -574 -744 0
-55 -575 -745 0
-51 -576 -726 0
-52 -577 -727 0
-53 -578 -728 0
-54 -579 -729 0
-55 -580 -730 0
-51 -581 -731 0
-52 -582 -732 0
-53 -583 -733 0
-54 -584 -734 0
-55 -585 -735 0
-51 -586 -716 0
-52 -587 -717 0
-53 -588 -718 0
-54 -589 -719 0
-55 -590 -720 0
-51 -591 -721 0
-52 -592 -722 0
-53 -593 -723 0
-54 -594 -724 0
-55 -595 -725 0
-51 -596 -786 0
-52 -597 -787 0
-53 -598 -788 0
-54 -599 -789 0
-55 -600 -790 0
-51 -601 -791 0
-52 -602 -792 0
-53 -603 -793 0
-54 -604 -794 0
-55 -605 -795 0
-51 -606 -776 0
-52 -607 -777 0
-53 -608 -778 0
-54 -609 -779 0
-55 -610 -780 0
-51 -611 -781 0
-52 -612 -782 0
-53 -613 -783 0
-54 -614 -784 0
-55 -615 -785 0
-51 -616 -766 0
-52 -617 -767 0
-53 -618 -768 0
-54 -619 -769 0
-55 -620 -770 0
-51 -621 -771 0
-52 -622 -772 0
-53 -623 -773 0
-54 -624 -774 0
-55 -625 -775 0
-51 -626 -756 0
-52 -627 -757 0
-53 -628 -758 0
-54 -629 -759 0
-55 -630 -760 0
-51 -631 -761 0
-52 -632 -762 0
-53 -633 -763 0
-54 -634 -764 0
-55 -635 -765 0
-46 -156 -351 0
-47 -157 -352 0
-48 -158 -353 0
-49 -159 -354 0
-50 -160 -355 0
-46 -161 -346 0
-47 -162 -347 0
-48 -163 -348 0
-49 -164 -349 0
-50 -165 -350 0
-46 -166 -341 0
-47 -167 -342 0
-48 -168 -343 0
-49 -169 -344 0
-50 -170 -345 0
-46 -171 -336 0
-47 -172 -337 0
-48 -173 -338 0
-49 -174 -339 0
-50 -175 -340 0
-46 -176 -331 0
-47 -177 -332 0
-48 -178 -333 0
-49 -179 -334 0
-50 -180 -335 0
-46 -181 -326 0
-47 -182 -327 0
-48 -183 -328 0
-49 -184 -329 0
-50 -185 -330 0
-46 -186 -321 0
-47 -187 -322 0
-48 -188 -323 0
-49 -189 -324 0
-50 -190 -325 0
-46 -191 -316 0
-47 -192 -317 0
-48 -193 -318 0
-49 -194 -319 0
-50 -195 -320 0
-46 -196 -391 0
-47 -197 -392 0
-48 -198 -393 0
-49 -199 -394 0
-50 -200 -395 0
-46 -201 -386 0
-47 -202 -387 0
-48 -203 -388 0
-49 -204 -389 0
-50 -205 -390 0
-46 -206 -381 0
-47 -207 -382 0
-48 -208 -383 0
-49 -209 -384 0
-50 -210 -385 0
-46 -211 -376 0
-47 -212 -377 0
-48 -213 -378 0
-49 -214 -379 0
-50 -215 -380 0
-46 -216 -371 0
-47 -217 -372 0
-48 -218 -373 0
-49 -219 -374 0
-50 -220 -375 0
-46 -221 -366 0
-47 -222 -367 0
-48 -223 -368 0
-49 -224 -369 0
-50 -225 -370 0
-46 -226 -361 0
-47 -227 -362 0
-48 -228 -363 0
-49 -229 -364 0
-50 -230 -365 0
-46 -231 -356 0
-47 -232 -357 0
-48 -233 -358 0
-49 -234 -359 0
-50 -235 -360 0
-46 -236 -431 0
-47 -237 -432 0
-48 -238 -433 0
-49 -239 -434 0
-50 -240 -435 0
-46 -241 -426 0
-47 -242 -427 0
-48 -243 -428 0
-49 -244 -429 0
-50 -245 -430 0
-46 -246 -421 0
-47 -247 -422 0
-48 -248 -423 0
-49 -249 -424 0
-50 -250 -425 0
-46 -251 -416 0
-47 -252 -417 0
-48 -253 -418 0
-49 -254 -419 0
-50 -255 -420 0
-46 -256 -411 0
-47 -257 -412 0
-48 -258 -413 0
-49 -259 -414 0
-50 -260 -415 0
-46 -261 -406 0
-47 -262 -407 0
-48 -263 -408 0
-49 -264 -409 0
-50 -265 -410 0
-46 -266 -401 0
-47 -267 -402 0
-48 -268 -403 0
-49 -269 -404 0
-50 -270 -405 0
-46 -271 -396 0
-47 -272 -397 0
-48 -273 -398 0
-49 -274 -399 0
-50 -275 -400 0
-46 -276 -471 0
-47 -277 -472 0
-48 -278 -473 0
-49 -279 -474 0
-50 -280 -475 0
-46 -281 -466 0
-47 -282 -467 0
-48 -283 -468 0
-49 -284 -469 0
-50 -285 -470 0
-46 -286 -461 0
-47 -287 -462 0
-48 -288 -463 0
-49 -289 -464 0
-50 -290 -465 0
-46 -291 -456 0
-47 -292 -457 0
-48 -293 -458 0
-49 -294 -459 0
-50 -295 -460 0
-46 -296 -451 0
-47 -297 -452 0
-48 -298 -453 0
-49 -299 -454 0
-50 -300 -455 0
-46 -301 -446 0
-47 -302 -447 0
-48 -303 -448 0
-49 -304 -449 0
-50 -305 -450 0
-46 -306 -441 0
-47 -307 -442 0
-48 -308 -443 0
-49 -309 -444 0
-50 -310 -445 0
-46 -311 -436 0
-47 -312 -437 0
-48 -313 -438 0
-49 -314 -439 0
-50 -315 -440 0
-46 -476 -671 0
-47 -477 -672 0
-48 -478 -673 0
-49 -479 -674 0
-50 -480 -675 0
-46 -481 -666 0
-47 -482 -667 0
-48 -483 -668 0
-49 -484 -669 0
-50 -485 -670 0
-46 -486 -661 0
-47 -487 -662 0
-48 -488 -663 0
-49 -489 -664 0
-50 -490 -665 0
-46 -491 -656 0
-47 -492 -657 0
-48 -493 -658 0
-49 -494 -659 0
-50 -495 -660 0
-46 -496 -651 0
-47 -497 -652 0
-48 -498 -653 0
-49 -499 -654 0
-50 -500 -655 0
-46 -501 -646 0
-47 -502 -647 0
-48 -503 -648 0
-49 -504 -649 0
-50 -505 -650 0
-46 -506 -641 0
-47 -507 -642 0
-48 -508 -643 0
-49 -509 -644 0
-50 -510 -645 0
-46 -511 -636 0
-47 -512 -637 0
-48 -513 -638 0
-49 -514 -639 0
-50 -515 -640 0
-46 -516 -711 0
-47 -517 -712 0
-48 -518 -713 0
-49 -519 -714 0
-50 -520 -715 0
-46 -521 -706 0
-47 -522 -707 0
-48 -523 -708 0
-49 -524 -709 0
-50 -525 -710 0
-46 -526 -701 0
-47 -527 -702 0
-48 -528 -703 0
-49 -529 -704 0
-50 -530 -705 0
-46 -531 -696 0
-47 -532 -697 0
-48 -533 -698 0
-49 -534 -699 0
-50 -535 -700 0
-46 -536 -691 0
-47 -537 -692 0
-48 -538 -693 0
-49 -539 -694 0
-50 -540 -695 0
-46 -541 -686 0
-47 -542 -687 0
-48 -543 -688 0
-49 -544 -689 0
-50 -545 -690 0
-46 -546 -681 0
-47 -547 -682 0
-48 -548 -683 0
-49 -549 -684 0
-50 -550 -685 0
-46 -551 -676 0
-47 -552 -677 0
-48 -553 -678 0
-49 -554 -679 0
-50 -555 -680 0
-46 -556 -751 0
-47 -557 -752 0
-48 -558 -753 0
-49 -559 -754 0
-50 -560 -755 0
-46 -561 -746 0
-47 -562 -747 0
-48 -563 -748 0
-49 -564 -749 0
-50 -565 -750 0
-46 -566 -741 0
-47 -567 -742 0
-48 -568 -743 0
-49 -569 -744 0
-50 -570 -745 0
-46 -571 -736 0
-47 -572 -737 0
-48 -573 -738 0
-49 -574 -739 0
-50 -575 -740 0
-46 -576 -731 0
-47 -577 -732 0
-48 -578 -733 0
-49 -579 -734 0
-50 -580 -735 0
-46 -581 -726 0
-47 -582 -727 0
-48 -583 -728 0
-49 -584 -729 0
-50 -585 -730 0
-46 -586 -721 0
-47 -587 -722 0
-48 -588 -723 0
-49 -589 -724 0
-50 -590 -725 0
-46 -591 -716 0
-47 -592 -717 0
-48 -593 -718 0
-49 -594 -719 0
-50 -595 -720 0
-46 -596 -791 0
-47 -597 -792 0
-48 -598 -793 0
-49 -599 -794 0
-50 -600 -795 0
-46 -601 -786 0
-47 -602 -787 0
-48 -603 -788 0
-49 -604 -789 0
-50 -605 -790 0
-46 -606 -781 0
-47 -607 -782 0
-48 -608 -783 0
-49 -609 -784 0
-50 -610 -785 0
-46 -611 -776 0
-47 -612 -777 0
-48 -613 -778 0
-49 -614 -779 0
-50 -615 -780 0
-46 -616 -771 0
-47 -617 -772 0
-48 -618 -773 0
-49 -619 -774 0
-50 -620 -775 0
-46 -621 -766 0
-47 -622 -767 0
-48 -623 -768 0
-49 -624 -769 0
-50 -625 -770 0
-46 -626 -761 0
-47 -627 -762 0
-48 -628 -763 0
-49 -629 -764 0
-50 -630 -765 0
-46 -631 -756 0
-47 -632 -757 0
-48 -633 -758 0
-49 -634 -759 0
-50 -635 -760 0
-41 -156 -356 0
-42 -157 -357 0
-43 -158 -358 0
-44 -159 -359 0
-45 -160 -360 0
-41 -161 -361 0
-42 -162 -362 0
-43 -163 -363 0
-44 -164 -364 0
-45 -165 -365 0
-41 -166 -366 0
-42 -167 -367 0
-43 -168 -368 0
-44 -169 -369 0
-45 -170 -370 0
-41 -171 -371 0
-42 -172 -372 0
-43 -173 -373 0
-44 -174 -374 0
-45 -175 -375 0
-41 -176 -376 0
-42 -177 -377 0
-43 -178 -378 0
-44 -179 -379 0
-45 -180 -380 0
-41 -181 -381 0
-42 -182 -382 0
-43 -183 -383 0
-44 -184 -384 0
-45 -185 -385 0
-41 -186 -386 0
-42 -187 -387 0
-43 -188 -388 0
-44 -189 -389 0
-45 -190 -390 0
-41 -191 -391 0
-42 -192 -392 0
-43 -193 -393 0
-44 -194 -394 0
-45 -195 -395 0
-41 -196 -316 0
-42 -197 -317 0
-43 -198 -318 0
-44 -199 -319 0
-45 -200 -320 0
-41 -201 -321 0
-42 -202 -322 0
-43 -203 -323 0
-44 -204 -324 0
-45 -205 -325 0
-41 -206 -326 0
-42 -207 -327 0
-43 -208 -328 0
-44 -209 -329 0
-45 -210 -330 0
-41 -211 -331 0
-42 -212 -332 0
-43 -213 -333 0
-44 -214 -334 0
-45 -215 -335 0
-41 -216 -336 0
-42 -217 -337 0
-43 -218 -338 0
-44 -219 -339 0
-45 -220 -340 0
-41 -221 -341 0
-42 -222 -342 0
-43 -223 -343 0
-44 -224 -344 0
-45 -225 -345 0
-41 -226 -346 0
-42 -227 -347 0
-43 -228 -348 0
-44 -229 -349 0
-45 -230 -350 0
-41 -231 -351 0
-42 -232 -352 0
-43 -233 -353 0
-44 -234 -354 0
-45 -235 -355 0
-41 -236 -436 0
-42 -237 -437 0
-43 -238 -438 0
-44 -239 -439 0
-45 -240 -440 0
-41 -241 -441 0
-42 -242 -442 0
-43 -243 -443 0
-44 -244 -444 0
-45 -245 -445 0
-41 -246 -446 0
-42 -247 -447 0
-43 -248 -448 0
-44 -249 -449 0
-45 -250 -450 0
-41 -251 -451 0
-42 -252 -452 0
-43 -253 -453 0
-44 -254 -454 0
-45 -255 -455 0
-41 -256 -456 0
-42 -257 -457 0
-43 -258 -458 0
-44 -259 -459 0
-45 -260 -460 0
-41 -261 -461 0
-42 -262 -462 0
-43 -263 -463 0
-44 -264 -464 0
-45 -265 -465 0
-41 -266 -466 0
-42 -267 -467 0
-43 -268 -468 0
-44 -269 -469 0
-45 -270 -470 0
-41 -271 -471 0
-42 -272 -472 0
-43 -273 -473 0
-44 -274 -474 0
-45 -275 -475 0
-41 -276 -396 0
-42 -277 -397 0
-43 -278 -398 0
-44 -279 -399 0
-45 -280 -400 0
-41 -281 -401 0
-42 -282 -402 0
-43 -283 -403 0
-44 -284 -404 0
-45 -285 -405 0
-41 -286 -406 0
-42 -287 -407 0
-43 -288 -408 0
-44 -289 -409 0
-45 -290 -410 0
-41 -291 -411 0
-42 -292 -412 0
-43 -293 -413 0
-44 -294 -414 0
-45 -295 -415 0
-41 -296 -416 0
-42 -297 -417 0
-43 -298 -418 0
-44 -299 -419 0
-45 -300 -420 0
-41 -301 -421 0
-42 -302 -422 0
-43 -303 -423 0
-44 -304 -424 0
-45 -305 -425 0
-41 -306 -426 0
-42 -307 -427 0
-43 -308 -428 0
-44 -309 -429 0
-45 -310 -430 0
-41 -311 -431 0
-42 -312 -432 0
-43 -313 -433 0
-44 -314 -434 0
-45 -315 -435 0
-41 -476 -676 0
-42 -477 -677 0
-43 -478 -678 0
-44 -479 -679 0
-45 -480 -680 0
-41 -481 -681 0
-42 -482 -682 0
-43 -483 -683 0
-44 -484 -684 0
-45 -485 -685 0
-41 -486 -686 0
-42 -487 -687 0
-43 -488 -688 0
-44 -489 -689 0
-45 -490 -690 0
-41 -491 -691 0
-42 -492 -692 0
-43 -493 -693 0
-44 -494 -694 0
-45 -495 -695 0
-41 -496 -696 0
-42 -497 -697 0
-43 -498 -698 0
-44 -499 -699 0
-45 -500 -700 0
-41 -501 -701 0
-42 -502 -702 0
-43 -503 -703 0
-44 -504 -704 0
-45 -505 -705 0
-41 -506 -706 0
-42 -507 -707 0
-43 -508 -708 0
-44 -509 -709 0
-45 -510 -710 0
-41 -511 -711 0
-42 -512 -712 0
-43 -513 -713 0
-44 -514 -714 0
-45 -515 -715 0
-41 -516 -636 0
-42 -517 -637 0
-43 -518 -638 0
-44 -519 -639 0
-45 -520 -640 0
-41 -521 -641 0
-42 -522 -642 0
-43 -523 -643 0
-44 -524 -644 0
-45 -525 -645 0
-41 -526 -646 0
-42 -527 -647 0
-43 -528 -648 0
-44 -529 -649 0
-45 -530 -650 0
-41 -531 -651 0
-42 -532 -652 0
-43 -533 -653 0
-44 -534 -654 0
-45 -535 -655 0
-41 -536 -656 0
-42 -537 -657 0
-43 -538 -658 0
-44 -539 -659 0
-45 -540 -660 0
-41 -541 -661 0
-42 -542 -662 0
-43 -543 -663 0
-44 -544 -664 0
-45 -545 -665 0
-41 -546 -666 0
-42 -547 -667 0
-43 -548 -668 0
-44 -549 -669 0
-45 -550 -670 0
-41 -551 -671 0
-42 -552 -672 0
-43 -553 -673 0
-44 -554 -674 0
-45 -555 -675 0
-41 -556 -756 0
-42 -557 -757 0
-43 -558 -758 0
-44 -559 -759 0
-45 -560 -760 0
-41 -561 -761 0
-42 -562 -762 0
-43 -563 -763 0
-44 -564 -764 0
-45 -565 -765 0
-41 -566 -766 0
-42 -567 -767 0
-43 -568 -768 0
-44 -569 -769 0
-45 -570 -770 0
-41 -571 -771 0
-42 -572 -772 0
-43 -573 -773 0
-44 -574 -774 0
-45 -575 -775 0
-41 -576 -776 0
-42 -577 -777 0
-43 -578 -778 0
-44 -579 -779 0
-45 -580 -780 0
-41 -581 -781 0
-42 -582 -782 0
-43 -583 -783 0
-44 -584 -784 0
-45 -585 -785 0
-41 -586 -786 0
-42 -587 -787 0
-43 -588 -788 0
-44 -589 -789 0
-45 -590 -790 0
-41 -591 -791 0
-42 -592 -792 0
-43 -593 -793 0
-44 -594 -794 0
-45 -595 -795 0
-41 -596 -716 0
-42 -597 -717 0
-43 -598 -718 0
-44 -599 -719 0
-45 -600 -720 0
-41 -601 -721 0
-42 -602 -722 0
-43 -603 -723 0
-44 -604 -724 0
-45 -605 -725 0
-41 -606 -726 0
-42 -607 -727 0
-43 -608 -728 0
-44 -609 -729 0
-45 -610 -730 0
-41 -611 -731 0
-42 -612 -732 0
-43 -613 -733 0
-44 -614 -734 0
-45 -615 -735 0
-41 -616 -736 0
-42 -617 -737 0
-43 -618 -738 0
-44 -619 -739 0
-45 -620 -740 0
-41 -621 -741 0
-42 -622 -742 0
-43 -623 -743 0
-44 -624 -744 0
-45 -625 -745 0
-41 -626 -746 0
-42 -627 -747 0
-43 -628 -748 0
-44 -629 -749 0
-45 -630 -750 0
-41 -631 -751 0
-42 -632 -752 0
-43 -633 -753 0
-44 -634 -754 0
-45 -635 -755 0
-51 -156 -361 0
-52 -157 -362 0
-53 -158 -363 0
-54 -159 -364 0
-55 -160 -365 0
-51 -161 -356 0
-52 -162 -357 0
-53 -163 -358 0
-54 -164 -359 0
-55 -165 -360 0
-51 -166 -371 0
-52 -167 -372 0
-53 -168 -373 0
-54 -169 -374 0
-55 -170 -375 0
-51 -171 -366 0
-52 -172 -367 0
-53 -173 -368 0
-54 -174 -369 0
-55 -175 -370 0
-51 -176 -381 0
-52 -177 -382 0
-53 -178 -383 0
-54 -179 -384 0
-55 -180 -385 0
-51 -181 -376 0
-52 -182 -377 0
-53 -183 -378 0
-54 -184 -379 0
-55 -185 -380 0
-51 -186 -391 0
-52 -187 -392 0
-53 -188 -393 0
-54 -189 -394 0
-55 -190 -395 0
-51 -191 -386 0
-52 -192 -387 0
-53 -193 -388 0
-54 -194 -389 0
-55 -195 -390 0
-51 -196 -321 0
-52 -197 -322 0
-53 -198 -323 0
-54 -199 -324 0
-55 -200 -325 0
-51 -201 -316 0
-52 -202 -317 0
-53 -203 -318 0
-54 -204 -319 0
-55 -205 -320 0
-51 -206 -331 0
-52 -207 -332 0
-53 -208 -333 0
-54 -209 -334 0
-55 -210 -335 0
-51 -211 -326 0
-52 -212 -327 0
-53 -213 -328 0
-54 -214 -329 0
-55 -215 -330 0
-51 -216 -341 0
-52 -217 -342 0
-53 -218 -343 0
-54 -219 -344 0
-55 -220 -345 0
-51 -221 -336 0
-52 -222 -337 0
-53 -223 -338 0
-54 -224 -339 0
-55 -225 -340 0
-51 -226 -351 0
-52 -227 -352 0
-53 -228 -353 0
-54 -229 -354 0
-55 -230 -355 0
-51 -231 -346 0
-52 -232 -347 0
-53 -233 -348 0
-54 -234 -349 0
-55 -235 -350 0
-51 -236 -441 0
-52 -237 -442 0
-53 -238 -443 0
-54 -239 -444 0
-55 -240 -445 0
-51 -241 -436 0
-52 -242 -437 0
-53 -243 -438 0
-54 -244 -439 0
-55 -245 -440 0
-51 -246 -451 0
-52 -247 -452 0
-53 -248 -453 0
-54 -249 -454 0
-55 -250 -455 0
-51 -251 -446 0
-52 -252 -447 0
-53 -253 -448 0
-54 -254 -449 0
-55 -255 -450 0
-51 -256 -461 0
-52 -257 -462 0
-53 -258 -463 0
-54 -259 -464 0
-55 -260 -465 0
-51 -261 -456 0
-52 -262 -457 0
-53 -263 -458 0
-54 -264 -459 0
-55 -265 -460 0
-51 -266 -471 0
-52 -267 -472 0
-53 -268 -473 0
-54 -269 -474 0
-55 -270 -475 0
-51 -271 -466 0
-52 -272 -467 0
-53 -273 -468 0
-54 -274 -469 0
-55 -275 -470 0
-51 -276 -401 0
-52 -277 -402 0
-53 -278 -403 0
-54 -279 -404 0
-55 -280 -405 0
-51 -281 -396 0
-52 -282 -397 0
-53 -283 -398 0
-54 -284 -399 0
-55 -285 -400 0
-51 -286 -411 0
-52 -287 -412 0
-53 -288 -413 0
-54 -289 -414 0
-55 -290 -415 0
-51 -291 -406 0
-52 -292 -407 0
-53 -293 -408 0
-54 -294 -409 0
-55 -295 -410 0
-51 -296 -421 0
-52 -297 -422 0
-53 -298 -423 0
-54 -299 -424 0
-55 -300 -425 0
-51 -301 -416 0
-52 -302 -417 0
-53 -303 -418 0
-54 -304 -419 0
-55 -305 -420 0
-51 -306 -431 0
-52 -307 -432 0
-53 -308 -433 0
-54 -309 -434 0
-55 -310 -435 0
-51 -311 -426 0
-52 -312 -427 0
-53 -313 -428 0
-54 -314 -429 0
-55 -315 -430 0
-51 -476 -681 0
-52 -477 -682 0
-53 -478 -683 0
-54 -479 -684 0
-55 -480 -685 0
-51 -481 -676 0
-52 -482 -677 0
-53 -483 -678 0
-54 -484 -679 0
-55 -485 -680 0
-51 -486 -691 0
-52 -487 -692 0
-53 -488 -693 0
-54 -489 -694 0
-55 -490 -695 0
-51 -491 -686 0
-52 -492 -687 0
-53 -493 -688 0
-54 -494 -689 0
-55 -495 -690 0
-51 -496 -701 0
-52 -497 -702 0
-53 -498 -703 0
-54 -499 -704 0
-55 -500 -705 0
-51 -501 -696 0
-52 -502 -697 0
-53 -503 -698 0
-54 -504 -699 0
-55 -505 -700 0
-51 -506 -711 0
-52 -507 -712 0
-53 -508 -713 0
-54 -509 -714 0
-55 -510 -715 0
-51 -511 -706 0
-52 -512 -707 0
-53 -513 -708 0
-54 -514 -709 0
-55 -515 -710 0
-51 -516 -641 0
-52 -517 -642 0
-53 -518 -643 0
-54 -519 -644 0
-55 -520 -645 0
-51 -521 -636 0
-52 -522 -637 0
-53 -523 -638 0
-54 -524 -639 0
-55 -525 -640 0
-51 -526 -651 0
-52 -527 -652 0
-53 -528 -653 0
-54 -529 -654 0
-55 -530 -655 0
-51 -531 -646 0
-52 -532 -647 0
-53 -533 -648 0
-54 -534 -649 0
-55 -535 -650 0
-51 -536 -661 0
-52 -537 -662 0
-53 -538 -663 0
-54 -539 -664 0
-55 -540 -665 0
-51 -541 -656 0
-52 -542 -657 0
-53 -543 -658 0
-54 -544 -659 0
-55 -545 -660 0
-51 -546 -671 0
-52 -547 -672 0
-53 -548 -673 0
-54 -549 -674 0
-55 -550 -675 0
-51 -551 -666 0
-52 -552 -667 0
-53 -553 -668 0
-54 -554 -669 0
-55 -555 -670 0
-51 -556 -761 0
-52 -557 -762 0
-53 -558 -763 0
-54 -559 -764 0
-55 -560 -765 0
-51 -561 -756 0
-52 -562 -757 0
-53 -563 -758 0
-54 -564 -759 0
-55 -565 -760 0
-51 -566 -771 0
-52 -567 -772 0
-53 -568 -773 0
-54 -569 -774 0
-55 -570 -775 0
-51 -571 -766 0
-52 -572 -767 0
-53 -573 -768 0
-54 -574 -769 0
-55 -575 -770 0
-51 -576 -781 0
-52 -577 -782 0
-53 -578 -783 0
-54 -579 -784 0
-55 -580 -785 0
-51 -581 -776 0
-52 -582 -777 0
-53 -583 -778 0
-54 -584 -779 0
-55 -585 -780 0
-51 -586 -791 0
-52 -587 -792 0
-53 -588 -793 0
-54 -589 -794 0
-55 -590 -795 0
-51 -591 -786 0
-52 -592 -787 0
-53 -593 -788 0
-54 -594 -789 0
-55 -595 -790 0
-51 -596 -721 0
-52 -597 -722 0
-53 -598 -723 0
-54 -599 -724 0
-55 -600 -725 0
-51 -601 -716 0
-52 -602 -717 0
-53 -603 -718 0
-54 -604 -719 0
-55 -605 -720 0
-51 -606 -731 0
-52 -607 -732 0
-53 -608 -733 0
-54 -609 -734 0
-55 -610 -735 0
-51 -611 -726 0
-52 -612 -727 0
-53 -613 -728 0
-54 -614 -729 0
-55 -615 -730 0
-51 -616 -741 0
-52 -617 -742 0
-53 -618 -743 0
-54 -619 -744 0
-55 -620 -745 0
-51 -621 -736 0
-52 -622 -737 0
-53 -623 -738 0
-54 -624 -739 0
-55 -625 -740 0
-51 -626 -751 0
-52 -627 -752 0
-53 -628 -753 0
-54 -629 -754 0
-55 -630 -755 0
-51 -631 -746 0
-52 -632 -747 0
-53 -633 -748 0
-54 -634 -749 0
-55 -635 -750 0
-41 -156 -366 0
-42 -157 -367 0
-43 -158 -368 0
-44 -159 -369 0
-45 -160 -370 0
-41 -161 -371 0
-42 -162 -372 0
-43 -163 -373 0
-44 -164 -374 0
-45 -165 -375 0
-41 -166 -356 0
-42 -167 -357 0
-43 -168 -358 0
-44 -169 -359 0
-45 -170 -360 0
-41 -171 -361 0
-42 -172 -362 0
-43 -173 -363 0
-44 -174 -364 0
-45 -175 -365 0
-41 -176 -386 0
-42 -177 -387 0
-43 -178 -388 0
-44 -179 -389 0
-45 -180 -390 0
-41 -181 -391 0
-42 -182 -392 0
-43 -183 -393 0
-44 -184 -394 0
-45 -185 -395 0
-41 -186 -376 0
-42 -187 -377 0
-43 -188 -378 0
-44 -189 -379 0
-45 -190 -380 0
-41 -191 -381 0
-42 -192 -382 0
-43 -193 -383 0
-44 -194 -384 0
-45 -195 -385 0
-41 -196 -326 0
-42 -197 -327 0
-43 -198 -328 0
-44 -199 -329 0
-45 -200 -330 0
-41 -201 -331 0
-42 -202 -332 0
-43 -203 -333 0
-44 -204 -334 0
-45 -205 -335 0
-41 -206 -316 0
-42 -207 -317 0
-43 -208 -318 0
-44 -209 -319 0
-45 -210 -320 0
-41 -211 -321 0
-42 -212 -322 0
-43 -213 -323 0
-44 -214 -324 0
-45 -215 -325 0
-41 -216 -346 0
-42 -217 -347 0
-43 -218 -348 0
-44 -219 -349 0
-45 -220 -350 0
-41 -221 -351 0
-42 -222 -352 0
-43 -223 -353 0
-44 -224 -354 0
-45 -225 -355 0
-41 -226 -336 0
-42 -227 -337 0
-43 -228 -338 0
-44 -229 -339 0
-45 -230 -340 0
-41 -231 -341 0
-42 -232 -342 0
-43 -233 -343 0
-44 -234 -344 0
-45 -235 -345 0
-41 -236 -446 0
-42 -237 -447 0
-43 -238 -448 0
-44 -239 -449 0
-45 -240 -450 0
-41 -241 -451 0
-42 -242 -452 0
-43 -243 -453 0
-44 -244 -454 0
-45 -245 -455 0
-41 -246 -436 0
-42 -247 -437 0
-43 -248 -438 0
-44 -249 -439 0
-45 -250 -440 0
-41 -251 -441 0
-42 -252 -442 0
-43 -253 -443 0
-44 -254 -444 0
-45 -255 -445 0
-41 -256 -466 0
-42 -257 -467 0
-43 -258 -468 0
-44 -259 -469 0
-45 -260 -470 0
-41 -261 -471 0
-42 -262 -472 0
-43 -263 -473 0
-44 -264 -474 0
-45 -265 -475 0
-41 -266 -456 0
-42 -267 -457 0
-43 -268 -458 0
-44 -269 -459 0
-45 -270 -460 0
-41 -271 -461 0
-42 -272 -462 0
-43 -273 -463 0
-44 -274 -464 0
-45 -275 -465 0
-41 -276 -406 0
-42 -277 -407 0
-43 -278 -408 0
-44 -279 -409 0
-45 -280 -410 0
-41 -281 -411 0
-42 -282 -412 0
-43 -283 -413 0
-44 -284 -414 0
-45 -285 -415 0
-41 -286 -396 0
-42 -287 -397 0
-43 -288 -398 0
-44 -289 -399 0
-45 -290 -400 0
-41 -291 -401 0
-42 -292 -402 0
-43 -293 -403 0
-44 -294 -404 0
-45 -295 -405 0
-41 -296 -426 0
-42 -297 -427 0
-43 -298 -428 0
-44 -299 -429 0
-45 -300 -430 0
-41 -301 -431 0
-42 -302 -432 0
-43 -303 -433 0
-44 -304 -434 0
-45 -305 -435 0
-41 -306 -416 0
-42 -307 -417 0
-43 -308 -418 0
-44 -309 -419 0
-45 -310 -420 0
-41 -311 -421 0
-42 -312 -422 0
-43 -313 -423 0
-44 -314 -424 0
-45 -315 -425 0
-41 -476 -686 0
-42 -477 -687 0
-43 -478 -688 0
-44 -479 -689 0
-45 -480 -690 0
-41 -481 -691 0
-42 -482 -692 0
-43 -483 -693 0
-44 -484 -694 0
-45 -485 -695 0
-41 -486 -676 0
-42 -487 -677 0
-43 -488 -678 0
-44 -489 -679 0
-45 -490 -680 0
-41 -491 -681 0
-42 -492 -682 0
-43 -493 -683 0
-44 -494 -684 0
-45 -495 -685 0
-41 -496 -706 0
-42 -497 -707 0
-43 -498 -708 0
-44 -499 -709 0
-45 -500 -710 0
-41 -501 -711 0
-42 -502 -712 0
-43 -503 -713 0
-44 -504 -714 0
-45 -505 -715 0
-41 -506 -696 0
-42 -507 -697 0
-43 -508 -698 0
-44 -509 -699 0
-45 -510 -700 0
-41 -511 -701 0
-42 -512 -702 0
-43 -513 -703 0
-44 -514 -704 0
-45 -515 -705 0
-41 -516 -646 0
-42 -517 -647 0
-43 -518 -648 0
-44 -519 -649 0
-45 -520 -650 0
-41 -521 -651 0
-42 -522 -652 0
-43 -523 -653 0
-44 -524 -654 0
-45 -525 -655 0
-41 -526 -636 0
-42 -527 -637 0
-43 -528 -638 0
-44 -529 -639 0
-45 -530 -640 0
-41 -531 -641 0
-42 -532 -642 0
-43 -533 -643 0
-44 -534 -644 0
-45 -535 -645 0
-41 -536 -666 0
-42 -537 -667 0
-43 -538 -668 0
-44 -539 -669 0
-45 -540 -670 0
-41 -541 -671 0
-42 -542 -672 0
-43 -543 -673 0
-44 -544 -674 0
-45 -545 -675 0
-41 -546 -656 0
-42 -547 -657 0
-43 -548 -658 0
-44 -549 -659 0
-45 -550 -660 0
-41 -551 -661 0
-42 -552 -662 0
-43 -553 -663 0
-44 -554 -664 0
-45 -555 -665 0
-41 -556 -766 0
-42 -557 -767 0
-43 -558 -768 0
-44 -559 -769 0
-45 -560 -770 0
-41 -561 -771 0
-42 -562 -772 0
-43 -563 -773 0
-44 -564 -774 0
-45 -565 -775 0
-41 -566 -756 0
-42 -567 -757 0
-43 -568 -758 0
-44 -569 -759 0
-45 -570 -760 0
-41 -571 -761 0
-42 -572 -762 0
-43 -573 -763 0
-44 -574 -764 0
-45 -575 -765 0
-41 -576 -786 0
-42 -577 -787 0
-43 -578 -788 0
-44 -579 -789 0
-45 -580 -790 0
-41 -581 -791 0
-42 -582 -792 0
-43 -583 -793 0
-44 -584 -794 0
-45 -585 -795 0
-41 -586 -776 0
-42 -587 -777 0
-43 -588 -778 0
-44 -589 -779 0
-45 -590 -780 0
-41 -591 -781 0
-42 -592 -782 0
-43 -593 -783 0
-44 -594 -784 0
-45 -595 -785 0
-41 -596 -726 0
-42 -597 -727 0
-43 -598 -728 0
-44 -599 -729 0
-45 -600 -730 0
-41 -601 -731 0
-42 -602 -732 0
-43 -603 -733 0
-44 -604 -734 0
-45 -605 -735 0
-41 -606 -716 0
-42 -607 -717 0
-43 -608 -718 0
-44 -609 -719 0
-45 -610 -720 0
-41 -611 -721 0
-42 -612 -722 0
-43 -613 -723 0
-44 -614 -724 0
-45 -615 -725 0
-41 -616 -746 0
-42 -617 -747 0
-43 -618 -748 0
-44 -619 -749 0
-45 -620 -750 0
-41 -621 -751 0
-42 -622 -752 0
-43 -623 -753 0
-44 -624 -754 0
-45 -625 -755 0
-41 -626 -736 0
-42 -627 -737 0
-43 -628 -738 0
-44 -629 -739 0
-45 -630 -740 0
-41 -631 -741 0
-42 -632 -742 0
-43 -633 -743 0
-44 -634 -744 0
-45 -635 -745 0
-46 -156 -371 0
-47 -157 -372 0
-48 -158 -373 0
-49 -159 -374 0
-50 -160 -375 0
-46 -161 -366 0
-47 -162 -367 0
-48 -163 -368 0
-49 -164 -369 0
-50 -165 -370 0
-46 -166 -361 0
-47 -167 -362 0
-48 -168 -363 0
-49 -169 -364 0
-50 -170 -365 0
-46 -171 -356 0
-47 -172 -357 0
-48 -173 -358 0
-49 -174 -359 0
-50 -175 -360 0
-46 -176 -391 0
-47 -177 -392 0
-48 -178 -393 0
-49 -179 -394 0
-50 -180 -395 0
-46 -181 -386 0
-47 -182 -387 0
-48 -183 -388 0
-49 -184 -389 0
-50 -185 -390 0
-46 -186 -381 0
-47 -187 -382 0
-48 -188 -383 0
-49 -189 -384 0
-50 -190 -385 0
-46 -191 -376 0
-47 -192 -377 0
-48 -193 -378 0
-49 -194 -379 0
-50 -195 -380 0
-46 -196 -331 0
-47 -197 -332 0
-48 -198 -333 0
-49 -199 -334 0
-50 -200 -335 0
-46 -201 -326 0
-47 -202 -327 0
-48 -203 -328 0
-49 -204 -329 0
-50 -205 -330 0
-46 -206 -321 0
-47 -207 -322 0
-48 -208 -323 0
-49 -209 -324 0
-50 -210 -325 0
-46 -211 -316 0
-47 -212 -317 0
-48 -213 -318 0
-49 -214 -319 0
-50 -215 -320 0
-46 -216 -351 0
-47 -217 -352 0
-48 -218 -353 0
-49 -219 -354 0
-50 -220 -355 0
-46 -221 -346 0
-47 -222 -347 0
-48 -223 -348 0
-49 -224 -349 0
-50 -225 -350 0
-46 -226 -341 0
-47 -227 -342 0
-48 -228 -343 0
-49 -229 -344 0
-50 -230 -345 0
-46 -231 -336 0
-47 -232 -337 0
-48 -233 -338 0
-49 -234 -339 0
-50 -235 -340 0
-46 -236 -451 0
-47 -237 -452 0
-48 -238 -453 0
-49 -239 -454 0
-50 -240 -455 0
-46 -241 -446 0
-47 -242 -447 0
-48 -243 -448 0
-49 -244 -449 0
-50 -245 -450 0
-46 -246 -441 0
-47 -247 -442 0
-48 -248 -443 0
-49 -249 -444 0
-50 -250 -445 0
-46 -251 -436 0
-47 -252 -437 0
-48 -253 -438 0
-49 -254 -439 0
-50 -255 -440 0
-46 -256 -471 0
-47 -257 -472 0
-48 -258 -473 0
-49 -259 -474 0
-50 -260 -475 0
-46 -261 -466 0
-47 -262 -467 0
-48 -263 -468 0
-49 -264 -469 0
-50 -265 -470 0
-46 -266 -461 0
-47 -267 -462 0
-48 -268 -463 0
-49 -269 -464 0
-50 -270 -465 0
-46 -271 -456 0
-47 -272 -457 0
-48 -273 -458 0
-49 -274 -459 0
-50 -275 -460 0
-46 -276 -411 0
-47 -277 -412 0
-48 -278 -413 0
-49 -279 -414 0
-50 -280 -415 0
-46 -281 -406 0
-47 -282 -407 0
-48 -283 -408 0
-49 -284 -409 0
-50 -285 -410 0
-46 -286 -401 0
-47 -287 -402 0
-48 -288 -403 0
-49 -289 -404 0
-50 -290 -405 0
-46 -291 -396 0
-47 -292 -397 0
-48 -293 -398 0
-49 -294 -399 0
-50 -295 -400 0
-46 -296 -431 0
-47 -297 -432 0
-48 -298 -433 0
-49 -299 -434 0
-50 -300 -435 0
-46 -301 -426 0
-47 -302 -427 0
-48 -303 -428 0
-49 -304 -429 0
-50 -305 -430 0
-46 -306 -421 0
-47 -307 -422 0
-48 -308 -423 0
-49 -309 -424 0
-50 -310 -425 0
-46 -311 -416 0
-47 -312 -417 0
-48 -313 -418 0
-49 -314 -419 0
-50 -315 -420 0
-46 -476 -691 0
-47 -477 -692 0
-48 -478 -693 0
-49 -479 -694 0
-50 -480 -695 0
-46 -481 -686 0
-47 -482 -687 0
-48 -483 -688 0
-49 -484 -689 0
-50 -485 -690 0
-46 -486 -681 0
-47 -487 -682 0
-48 -488 -683 0
-49 -489 -684 0
-50 -490 -685 0
-46 -491 -676 0
-47 -492 -677 0
-48 -493 -678 0
-49 -494 -679 0
-50 -495 -680 0
-46 -496 -711 0
-47 -497 -712 0
-48 -498 -713 0
-49 -499 -714 0
-50 -500 -715 0
-46 -501 -706 0
-47 -502 -707 0
-48 -503 -708 0
-49 -504 -709 0
-50 -505 -710 0
-46 -506 -701 0
-47 -507 -702 0
-48 -508 -703 0
-49 -509 -704 0
-50 -510 -705 0
-46 -511 -696 0
-47 -512 -697 0
-48 -513 -698 0
-49 -514 -699 0
-50 -515 -700 0
-46 -516 -651 0
-47 -517 -652 0
-48 -518 -653 0
-49 -519 -654 0
-50 -520 -655 0
-46 -521 -646 0
-47 -522 -647 0
-48 -523 -648 0
-49 -524 -649 0
-50 -525 -650 0
-46 -526 -641 0
-47 -527 -642 0
-48 -528 -643 0
-49 -529 -644 0
-50 -530 -645 0
-46 -531 -636 0
-47 -532 -637 0
-48 -533 -638 0
-49 -534 -639 0
-50 -535 -640 0
-46 -536 -671 0
-47 -537 -672 0
-48 -538 -673 0
-49 -539 -674 0
-50 -540 -675 0
-46 -541 -666 0
-47 -542 -667 0
-48 -543 -668 0
-49 -544 -669 0
-50 -545 -670 0
-46 -546 -661 0
-47 -547 -662 0
-48 -548 -663 0
-49 -549 -664 0
-50 -550 -665 0
-46 -551 -656 0
-47 -552 -657 0
-48 -553 -658 0
-49 -554 -659 0
-50 -555 -660 0
-46 -556 -771 0
-47 -557 -772 0
-48 -558 -773 0
-49 -559 -774 0
-50 -560 -775 0
-46 -561 -766 0
-47 -562 -767 0
-48 -563 -768 0
-49 -564 -769 0
-50 -565 -770 0
-46 -566 -761 0
-47 -567 -762 0
-48 -568 -763 0
-49 -569 -764 0
-50 -570 -765 0
-46 -571 -756 0
-47 -572 -757 0
-48 -573 -758 0
-49 -574 -759 0
-50 -575 -760 0
-46 -576 -791 0
-47 -577 -792 0
-48 -578 -793 0
-49 -579 -794 0
-50 -580 -795 0
-46 -581 -786 0
-47 -582 -787 0
-48 -583 -788 0
-49 -584 -789 0
-50 -585 -790 0
-46 -586 -781 0
-47 -587 -782 0
-48 -588 -783 0
-49 -589 -784 0
-50 -590 -785 0
-46 -591 -776 0
-47 -592 -777 0
-48 -593 -778 0
-49 -594 -779 0
-50 -595 -780 0
-46 -596 -731 0
-47 -597 -732 0
-48 -598 -733 0
-49 -599 -734 0
-50 -600 -735 0
-46 -601 -726 0
-47 -602 -727 0
-48 -603 -728 0
-49 -604 -729 0
-50 -605 -730 0
-46 -606 -721 0
-47 -607 -722 0
-48 -608 -723 0
-49 -609 -724 0
-50 -610 -725 0
-46 -611 -716 0
-47 -612 -717 0
-48 -613 -718 0
-49 -614 -719 0
-50 -615 -720 0
-46 -616 -751 0
-47 -617 -752 0
-48 -618 -753 0
-49 -619 -754 0
-50 -620 -755 0
-46 -621 -746 0
-47 -622 -747 0
-48 -623 -748 0
-49 -624 -749 0
-50 -625 -750 0
-46 -626 -741 0
-47 -627 -742 0
-48 -628 -743 0
-49 -629 -744 0
-50 -630 -745 0
-46 -631 -736 0
-47 -632 -737 0
-48 -633 -738 0
-49 -634 -739 0
-50 -635 -740 0
-41 -156 -376 0
-42 -157 -377 0
-43 -158 -378 0
-44 -159 -379 0
-45 -160 -380 0
-41 -161 -381 0
-42 -162 -382 0
-43 -163 -383 0
-44 -164 -384 0
-45 -165 -385 0
-41 -166 -386 0
-42 -167 -387 0
-43 -168 -388 0
-44 -169 -389 0
-45 -170 -390 0
-41 -171 -391 0
-42 -172 -392 0
-43 -173 -393 0
-44 -174 -394 0
-45 -175 -395 0
-41 -176 -356 0
-42 -177 -357 0
-43 -178 -358 0
-44 -179 -359 0
-45 -180 -360 0
-41 -181 -361 0
-42 -182 -362 0
-43 -183 -363 0
-44 -184 -364 0
-45 -185 -365 0
-41 -186 -366 0
-42 -187 -367 0
-43 -188 -368 0
-44 -189 -369 0
-45 -190 -370 0
-41 -191 -371 0
-42 -192 -372 0
-43 -193 -373 0
-44 -194 -374 0
-45 -195 -375 0
-41 -196 -336 0
-42 -197 -337 0
-43 -198 -338 0
-44 -199 -339 0
-45 -200 -340 0
-41 -201 -341 0
-42 -202 -342 0
-43 -203 -343 0
-44 -204 -344 0
-45 -205 -345 0
-41 -206 -346 0
-42 -207 -347 0
-43 -208 -348 0
-44 -209 -349 0
-45 -210 -350 0
-41 -211 -351 0
-42 -212 -352 0
-43 -213 -353 0
-44 -214 -354 0
-45 -215 -355 0
-41 -216 -316 0
-42 -217 -317 0
-43 -218 -318 0
-44 -219 -319 0
-45 -220 -320 0
-41 -221 -321 0
-42 -222 -322 0
-43 -223 -323 0
-44 -224 -324 0
-45 -225 -325 0
-41 -226 -326 0
-42 -227 -327 0
-43 -228 -328 0
-44 -229 -329 0
-45 -230 -330 0
-41 -231 -331 0
-42 -232 -332 0
-43 -233 -333 0
-44 -234 -334 0
-45 -235 -335 0
-41 -236 -456 0
-42 -237 -457 0
-43 -238 -458 0
-44 -239 -459 0
-45 -240 -460 0
-41 -241 -461 0
-42 -242 -462 0
-43 -243 -463 0
-44 -244 -464 0
-45 -245 -465 0
-41 -246 -466 0
-42 -247 -467 0
-43 -248 -468 0
-44 -249 -469 0
-45 -250 -470 0
-41 -251 -471 0
-42 -252 -472 0
-43 -253 -473 0
-44 -254 -474 0
-45 -255 -475 0
-41 -256 -436 0
-42 -257 -437 0
-43 -258 -438 0
-44 -259 -439 0
-45 -260 -440 0
-41 -261 -441 0
-42 -262 -442 0
-43 -263 -443 0
-44 -264 -444 0
-45 -265 -445 0
-41 -266 -446 0
-42 -267 -447 0
-43 -268 -448 0
-44 -269 -449 0
-45 -270 -450 0
-41 -271 -451 0
-42 -272 -452 0
-43 -273 -453 0
-44 -274 -454 0
-45 -275 -455 0
-41 -276 -416 0
-42 -277 -417 0
-43 -278 -418 0
-44 -279 -419 0
-45 -280 -420 0
-41 -281 -421 0
-42 -282 -422 0
-43 -283 -423 0
-44 -284 -424 0
-45 -285 -425 0
-41 -286 -426 0
-42 -287 -427 0
-43 -288 -428 0
-44 -289 -429 0
-45 -290 -430 0
-41 -291 -431 0
-42 -292 -432 0
-43 -293 -433 0
-44 -294 -434 0
-45 -295 -435 0
-41 -296 -396 0
-42 -297 -397 0
-43 -298 -398 0
-44 -299 -399 0
-45 -300 -400 0
-41 -301 -401 0
-42 -302 -402 0
-43 -303 -403 0
-44 -304 -404 0
-45 -305 -405 0
-41 -306 -406 0
-42 -307 -407 0
-43 -308 -408 0
-44 -309 -409 0
-45 -310 -410 0
-41 -311 -411 0
-42 -312 -412 0
-43 -313 -413 0
-44 -314 -414 0
-45 -315 -415 0
-41 -476 -696 0
-42 -477 -697 0
-43 -478 -698 0
-44 -479 -699 0
-45 -480 -700 0
-41 -481 -701 0
-42 -482 -702 0
-43 -483 -703 0
-44 -484 -704 0
-45 -485 -705 0
-41 -486 -706 0
-42 -487 -707 0
-43 -488 -708 0
-44 -489 -709 0
-45 -490 -710 0
-41 -491 -711 0
-42 -492 -712 0
-43 -493 -713 0
-44 -494 -714 0
-45 -495 -715 0
-41 -496 -676 0
-42 -497 -677 0
-43 -498 -678 0
-44 -499 -679 0
-45 -500 -680 0
-41 -501 -681 0
-42 -502 -682 0
-43 -503 -683 0
-44 -504 -684 0
-45 -505 -685 0
-41 -506 -686 0
-42 -507 -687 0
-43 -508 -688 0
-44 -509 -689 0
-45 -510 -690 0
-41 -511 -691 0
-42 -512 -692 0
-43 -513 -693 0
-44 -514 -694 0
-45 -515 -695 0
-41 -516 -656 0
-42 -517 -657 0
-43 -518 -658 0
-44 -519 -659 0
-45 -520 -660 0
-41 -521 -661 0
-42 -522 -662 0
-43 -523 -663 0
-44 -524 -664 0
-45 -525 -665 0
-41 -526 -666 0
-42 -527 -667 0
-43 -528 -668 0
-44 -529 -669 0
-45 -530 -670 0
-41 -531 -671 0
-42 -532 -672 0
-43 -533 -673 0
-44 -534 -674 0
-45 -535 -675 0
-41 -536 -636 0
-42 -537 -637 0
-43 -538 -638 0
-44 -539 -639 0
-45 -540 -640 0
-41 -541 -641 0
-42 -542 -642 0
-43 -543 -643 0
-44 -544 -644 0
-45 -545 -645 0
-41 -546 -646 0
-42 -547 -647 0
-43 -548 -648 0
-44 -549 -649 0
-45 -550 -650 0
-41 -551 -651 0
-42 -552 -652 0
-43 -553 -653 0
-44 -554 -654 0
-45 -555 -655 0
-41 -556 -776 0
-42 -557 -777 0
-43 -558 -778 0
-44 -559 -779 0
-45 -560 -780 0
-41 -561 -781 0
-42 -562 -782 0
-43 -563 -783 0
-44 -564 -784 0
-45 -565 -785 0
-41 -566 -786 0
-42 -567 -787 0
-43 -568 -788 0
-44 -569 -789 0
-45 -570 -790 0
-41 -571 -791 0
-42 -572 -792 0
-43 -573 -793 0
-44 -574 -794 0
-45 -575 -795 0
-41 -576 -756 0
-42 -577 -757 0
-43 -578 -758 0
-44 -579 -759 0
-45 -580 -760 0
-41 -581 -761 0
-42 -582 -762 0
-43 -583 -763 0
-44 -584 -764 0
-45 -585 -765 0
-41 -586 -766 0
-42 -587 -767 0
-43 -588 -768 0
-44 -589 -769 0
-45 -590 -770 0
-41 -591 -771 0
-42 -592 -772 0
-43 -593 -773 0
-44 -594 -774 0
-45 -595 -775 0
-41 -596 -736 0
-42 -597 -737 0
-43 -598 -738 0
-44 -599 -739 0
-45 -600 -740 0
-41 -601 -741 0
-42 -602 -742 0
-43 -603 -743 0
-44 -604 -744 0
-45 -605 -745 0
-41 -606 -746 0
-42 -607 -747 0
-43 -608 -748 0
-44 -609 -749 0
-45 -610 -750 0
-41 -611 -751 0
-42 -612 -752 0
-43 -613 -753 0
-44 -614 -754 0
-45 -615 -755 0
-41 -616 -716 0
-42 -617 -717 0
-43 -618 -718 0
-44 -619 -719 0
-45 -620 -720 0
-41 -621 -721 0
-42 -622 -722 0
-43 -623 -723 0
-44 -624 -724 0
-45 -625 -725 0
-41 -626 -726 0
-42 -627 -727 0
-43 -628 -728 0
-44 -629 -729 0
-45 -630 -730 0
-41 -631 -731 0
-42 -632 -732 0
-43 -633 -733 0
-44 -634 -734 0
-45 -635 -735 0
-46 -156 -381 0
-47 -157 -382 0
-48 -158 -383 0
-49 -159 -384 0
-50 -160 -385 0
-46 -161 -376 0
-47 -162 -377 0
-48 -163 -378 0
-49 -164 -379 0
-50 -165 -380 0
-46 -166 -391 0
-47 -167 -392 0
-48 -168 -393 0
-49 -169 -394 0
-50 -170 -395 0
-46 -171 -386 0
-47 -172 -387 0
-48 -173 -388 0
-49 -174 -389 0
-50 -175 -390 0
-46 -176 -361 0
-47 -177 -362 0
-48 -178 -363 0
-49 -179 -364 0
-50 -180 -365 0
-46 -181 -356 0
-47 -182 -357 0
-48 -183 -358 0
-49 -184 -359 0
-50 -185 -360 0
-46 -186 -371 0
-47 -187 -372 0
-48 -188 -373 0
-49 -189 -374 0
-50 -190 -375 0
-46 -191 -366 0
-47 -192 -367 0
-48 -193 -368 0
-49 -194 -369 0
-50 -195 -370 0
-46 -196 -341 0
-47 -197 -342 0
-48 -198 -343 0
-49 -199 -344 0
-50 -200 -345 0
-46 -201 -336 0
-47 -202 -337 0
-48 -203 -338 0
-49 -204 -339 0
-50 -205 -340 0
-46 -206 -351 0
-47 -207 -352 0
-48 -208 -353 0
-49 -209 -354 0
-50 -210 -355 0
-46 -211 -346 0
-47 -212 -347 0
-48 -213 -348 0
-49 -214 -349 0
-50 -215 -350 0
-46 -216 -321 0
-47 -217 -322 0
-48 -218 -323 0
-49 -219 -324 0
-50 -220 -325 0
-46 -221 -316 0
-47 -222 -317 0
-48 -223 -318 0
-49 -224 -319 0
-50 -225 -320 0
-46 -226 -331 0
-47 -227 -332 0
-48 -228 -333 0
-49 -229 -334 0
-50 -230 -335 0
-46 -231 -326 0
-47 -232 -327 0
-48 -233 -328 0
-49 -234 -329 0
-50 -235 -330 0
-46 -236 -461 0
-47 -237 -462 0
-48 -238 -463 0
-49 -239 -464 0
-50 -240 -465 0
-46 -241 -456 0
-47 -242 -457 0
-48 -243 -458 0
-49 -244 -459 0
-50 -245 -460 0
-46 -246 -471 0
-47 -247 -472 0
-48 -248 -473 0
-49 -249 -474 0
-50 -250 -475 0
-46 -251 -466 0
-47 -252 -467 0
-48 -253 -468 0
-49 -254 -469 0
-50 -255 -470 0
-46 -256 -441 0
-47 -257 -442 0
-48 -258 -443 0
-49 -259 -444 0
-50 -260 -445 0
-46 -261 -436 0
-47 -262 -437 0
-48 -263 -438 0
-49 -264 -439 0
-50 -265 -440 0
-46 -266 -451 0
-47 -267 -452 0
-48 -268 -453 0
-49 -269 -454 0
-50 -270 -455 0
-46 -271 -446 0
-47 -272 -447 0
-48 -273 -448 0
-49 -274 -449 0
-50 -275 -450 0
-46 -276 -421 0
-47 -277 -422 0
-48 -278 -423 0
-49 -279 -424 0
-50 -280 -425 0
-46 -281 -416 0
-47 -282 -417 0
-48 -283 -418 0
-49 -284 -419 0
-50 -285 -420 0
-46 -286 -431 0
-47 -287 -432 0
-48 -288 -433 0
-49 -289 -434 0
-50 -290 -435 0
-46 -291 -426 0
-47 -292 -427 0
-48 -293 -428 0
-49 -294 -429 0
-50 -295 -430 0
-46 -296 -401 0
-47 -297 -402 0
-48 -298 -403 0
-49 -299 -404 0
-50 -300 -405 0
-46 -301 -396 0
-47 -302 -397 0
-48 -303 -398 0
-49 -304 -399 0
-50 -305 -400 0
-46 -306 -411 0
-47 -307 -412 0
-48 -308 -413 0
-49 -309 -414 0
-50 -310 -415 0
-46 -311 -406 0
-47 -312 -407 0
-48 -313 -408 0
-49 -314 -409 0
-50 -315 -410 0
-46 -476 -701 0
-47 -477 -702 0
-48 -478 -703 0
-49 -479 -704 0
-50 -480 -705 0
-46 -481 -696 0
-47 -482 -697 0
-48 -483 -698 0
-49 -484 -699 0
-50 -485 -700 0
-46 -486 -711 0
-47 -487 -712 0
-48 -488 -713 0
-49 -489 -714 0
-50 -490 -715 0
-46 -491 -706 0
-47 -492 -707 0
-48 -493 -708 0
-49 -494 -709 0
-50 -495 -710 0
-46 -496 -681 0
-47 -497 -682 0
-48 -498 -683 0
-49 -499 -684 0
-50 -500 -685 0
-46 -501 -676 0
-47 -502 -677 0
-48 -503 -678 0
-49 -504 -679 0
-50 -505 -680 0
-46 -506 -691 0
-47 -507 -692 0
-48 -508 -693 0
-49 -509 -694 0
-50 -510 -695 0
-46 -511 -686 0
-47 -512 -687 0
-48 -513 -688 0
-49 -514 -689 0
-50 -515 -690 0
-46 -516 -661 0
-47 -517 -662 0
-48 -518 -663 0
-49 -519 -664 0
-50 -520 -665 0
-46 -521 -656 0
-47 -522 -657 0
-48 -523 -658 0
-49 -524 -659 0
-50 -525 -660 0
-46 -526 -671 0
-47 -527 -672 0
-48 -528 -673 0
-49 -529 -674 0
-50 -530 -675 0
-46 -531 -666 0
-47 -532 -667 0
-48 -533 -668 0
-49 -534 -669 0
-50 -535 -670 0
-46 -536 -641 0
-47 -537 -642 0
-48 -538 -643 0
-49 -539 -644 0
-50 -540 -645 0
-46 -541 -636 0
-47 -542 -637 0
-48 -543 -638 0
-49 -544 -639 0
-50 -545 -640 0
-46 -546 -651 0
-47 -547 -652 0
-48 -548 -653 0
-49 -549 -654 0
-50 -550 -655 0
-46 -551 -646 0
-47 -552 -647 0
-48 -553 -648 0
-49 -554 -649 0
-50 -555 -650 0
-46 -556 -781 0
-47 -557 -782 0
-48 -558 -783 0
-49 -559 -784 0
-50 -560 -785 0
-46 -561 -776 0
-47 -562 -777 0
-48 -563 -778 0
-49 -564 -779 0
-50 -565 -780 0
-46 -566 -791 0
-47 -567 -792 0
-48 -568 -793 0
-49 -569 -794 0
-50 -570 -795 0
-46 -571 -786 0
-47 -572 -787 0
-48 -573 -788 0
-49 -574 -789 0
-50 -575 -790 0
-46 -576 -761 0
-47 -577 -762 0
-48 -578 -763 0
-49 -579 -764 0
-50 -580 -765 0
-46 -581 -756 0
-47 -582 -757 0
-48 -583 -758 0
-49 -584 -759 0
-50 -585 -760 0
-46 -586 -771 0
-47 -587 -772 0
-48 -588 -773 0
-49 -589 -774 0
-50 -590 -775 0
-46 -591 -766 0
-47 -592 -767 0
-48 -593 -768 0
-49 -594 -769 0
-50 -595 -770 0
-46 -596 -741 0
-47 -597 -742 0
-48 -598 -743 0
-49 -599 -744 0
-50 -600 -745 0
-46 -601 -736 0
-47 -602 -737 0
-48 -603 -738 0
-49 -604 -739 0
-50 -605 -740 0
-46 -606 -751 0
-47 -607 -752 0
-48 -608 -753 0
-49 -609 -754 0
-50 -610 -755 0
-46 -611 -746 0
-47 -612 -747 0
-48 -613 -748 0
-49 -614 -749 0
-50 -615 -750 0
-46 -616 -721 0
-47 -617 -722 0
-48 -618 -723 0
-49 -619 -724 0
-50 -620 -725 0
-46 -621 -716 0
-47 -622 -717 0
-48 -623 -718 0
-49 -624 -719 0
-50 -625 -720 0
-46 -626 -731 0
-47 -627 -732 0
-48 -628 -733 0
-49 -629 -734 0
-50 -630 -735 0
-46 -631 -726 0
-47 -632 -727 0
-48 -633 -728 0
-49 -634 -729 0
-50 -635 -730 0
-51 -156 -386 0
-52 -157 -387 0
-53 -158 -388 0
-54 -159 -389 0
-55 -160 -390 0
-51 -161 -391 0
-52 -162 -392 0
-53 -163 -393 0
-54 -164 -394 0
-55 -165 -395 0
-51 -166 -376 0
-52 -167 -377 0
-53 -168 -378 0
-54 -169 -379 0
-55 -170 -380 0
-51 -171 -381 0
-52 -172 -382 0
-53 -173 -383 0
-54 -174 -384 0
-55 -175 -385 0
-51 -176 -366 0
-52 -177 -367 0
-53 -178 -368 0
-54 -179 -369 0
-55 -180 -370 0
-51 -181 -371 0
-52 -182 -372 0
-53 -183 -373 0
-54 -184 -374 0
-55 -185 -375 0
-51 -186 -356 0
-52 -187 -357 0
-53 -188 -358 0
-54 -189 -359 0
-55 -190 -360 0
-51 -191 -361 0
-52 -192 -362 0
-53 -193 -363 0
-54 -194 -364 0
-55 -195 -365 0
-51 -196 -346 0
-52 -197 -347 0
-53 -198 -348 0
-54 -199 -349 0
-55 -200 -350 0
-51 -201 -351 0
-52 -202 -352 0
-53 -203 -353 0
-54 -204 -354 0
-55 -205 -355 0
-51 -206 -336 0
-52 -207 -337 0
-53 -208 -338 0
-54 -209 -339 0
-55 -210 -340 0
-51 -211 -341 0
-52 -212 -342 0
-53 -213 -343 0
-54 -214 -344 0
-55 -215 -345 0
-51 -216 -326 0
-52 -217 -327 0
-53 -218 -328 0
-54 -219 -329 0
-55 -220 -330 0
-51 -221 -331 0
-52 -222 -332 0
-53 -223 -333 0
-54 -224 -334 0
-55 -225 -335 0
-51 -226 -316 0
-52 -227 -317 0
-53 -228 -318 0
-54 -229 -319 0
-55 -230 -320 0
-51 -231 -321 0
-52 -232 -322 0
-53 -233 -323 0
-54 -234 -324 0
-55 -235 -325 0
-51 -236 -466 0
-52 -237 -467 0
-53 -238 -468 0
-54 -239 -469 0
-55 -240 -470 0
-51 -241 -471 0
-52 -242 -472 0
-53 -243 -473 0
-54 -244 -474 0
-55 -245 -475 0
-51 -246 -456 0
-52 -247 -457 0
-53 -248 -458 0
-54 -249 -459 0
-55 -250 -460 0
-51 -251 -461 0
-52 -252 -462 0
-53 -253 -463 0
-54 -254 -464 0
-55 -255 -465 0
-51 -256 -446 0
-52 -257 -447 0
-53 -258 -448 0
-54 -259 -449 0
-55 -260 -450 0
-51 -261 -451 0
-52 -262 -452 0
-53 -263 -453 0
-54 -264 -454 0
-55 -265 -455 0
-51 -266 -436 0
-52 -267 -437 0
-53 -268 -438 0
-54 -269 -439 0
-55 -270 -440 0
-51 -271 -441 0
-52 -272 -442 0
-53 -273 -443 0
-54 -274 -444 0
-55 -275 -445 0
-51 -276 -426 0
-52 -277 -427 0
-53 -278 -428 0
-54 -279 -429 0
-55 -280 -430 0
-51 -281 -431 0
-52 -282 -432 0
-53 -283 -433 0
-54 -284 -434 0
-55 -285 -435 0
-51 -286 -416 0
-52 -287 -417 0
-53 -288 -418 0
-54 -289 -419 0
-55 -290 -420 0
-51 -291 -421 0
-52 -292 -422 0
-53 -293 -423 0
-54 -294 -424 0
-55 -295 -425 0
-51 -296 -406 0
-52 -297 -407 0
-53 -298 -408 0
-54 -299 -409 0
-55 -300 -410 0
-51 -301 -411 0
-52 -302 -412 0
-53 -303 -413 0
-54 -304 -414 0
-55 -305 -415 0
-51 -306 -396 0
-52 -307 -397 0
-53 -308 -398 0
-54 -309 -399 0
-55 -310 -400 0
-51 -311 -401 0
-52 -312 -402 0
-53 -313 -403 0
-54 -314 -404 0
-55 -315 -405 0
-51 -476 -706 0
-52 -477 -707 0
-53 -478 -708 0
-54 -479 -709 0
-55 -480 -710 0
-51 -481 -711 0
-52 -482 -712 0
-53 -483 -713 0
-54 -484 -714 0
-55 -485 -715 0
-51 -486 -696 0
-52 -487 -697 0
-53 -488 -698 0
-54 -489 -699 0
-55 -490 -700 0
-51 -491 -701 0
-52 -492 -702 0
-53 -493 -703 0
-54 -494 -704 0
-55 -495 -705 0
-51 -496 -686 0
-52 -497 -687 0
-53 -498 -688 0
-54 -499 -689 0
-55 -500 -690 0
-51 -501 -691 0
-52 -502 -692 0
-53 -503 -693 0
-54 -504 -694 0
-55 -505 -695 0
-51 -506 -676 0
-52 -507 -677 0
-53 -508 -678 0
-54 -509 -679 0
-55 -510 -680 0
-51 -511 -681 0
-52 -512 -682 0
-53 -513 -683 0
-54 -514 -684 0
-55 -515 -685 0
-51 -516 -666 0
-52 -517 -667 0
-53 -518 -668 0
-54 -519 -669 0
-55 -520 -670 0
-51 -521 -671 0
-52 -522 -672 0
-53 -523 -673 0
-54 -524 -674 0
-55 -525 -675 0
-51 -526 -656 0
-52 -527 -657 0
-53 -528 -658 0
-54 -529 -659 0
-55 -530 -660 0
-51 -531 -661 0
-52 -532 -662 0
-53 -533 -663 0
-54 -534 -664 0
-55 -535 -665 0
-51 -536 -646 0
-52 -537 -647 0
-53 -538 -648 0
-54 -539 -649 0
-55 -540 -650 0
-51 -541 -651 0
-52 -542 -652 0
-53 -543 -653 0
-54 -544 -654 0
-55 -545 -655 0
-51 -546 -636 0
-52 -547 -637 0
-53 -548 -638 0
-54 -549 -639 0
-55 -550 -640 0
-51 -551 -641 0
-52 -552 -642 0
-53 -553 -643 0
-54 -554 -644 0
-55 -555 -645 0
-51 -556 -786 0
-52 -557 -787 0
-53 -558 -788 0
-54 -559 -789 0
-55 -560 -790 0
-51 -561 -791 0
-52 -562 -792 0
-53 -563 -793 0
-54 -564 -794 0
-55 -565 -795 0
-51 -566 -776 0
-52 -567 -777 0
-53 -568 -778 0
-54 -569 -779 0
-55 -570 -780 0
-51 -571 -781 0
-52 -572 -782 0
-53 -573 -783 0
-54 -574 -784 0
-55 -575 -785 0
-51 -576 -766 0
-52 -577 -767 0
-53 -578 -768 0
-54 -579 -769 0
-55 -580 -770 0
-51 -581 -771 0
-52 -582 -772 0
-53 -583 -773 0
-54 -584 -774 0
-55 -585 -775 0
-51 -586 -756 0
-52 -587 -757 0
-53 -588 -758 0
-54 -589 -759 0
-55 -590 -760 0
-51 -591 -761 0
-52 -592 -762 0
-53 -593 -763 0
-54 -594 -764 0
-55 -595 -765 0
-51 -596 -746 0
-52 -597 -747 0
-53 -598 -748 0
-54 -599 -749 0
-55 -600 -750 0
-51 -601 -751 0
-52 -602 -752 0
-53 -603 -753 0
-54 -604 -754 0
-55 -605 -755 0
-51 -606 -736 0
-52 -607 -737 0
-53 -608 -738 0
-54 -609 -739 0
-55 -610 -740 0
-51 -611 -741 0
-52 -612 -742 0
-53 -613 -743 0
-54 -614 -744 0
-55 -615 -745 0
-51 -616 -726 0
-52 -617 -727 0
-53 -618 -728 0
-54 -619 -729 0
-55 -620 -730 0
-51 -621 -731 0
-52 -622 -732 0
-53 -623 -733 0
-54 -624 -734 0
-55 -625 -735 0
-51 -626 -716 0
-52 -627 -717 0
-53 -628 -718 0
-54 -629 -719 0
-55 -630 -720 0
-51 -631 -721 0
-52 -632 -722 0
-53 -633 -723 0
-54 -634 -724 0
-55 -635 -725 0
-41 -156 -391 0
-42 -157 -392 0
-43 -158 -393 0
-44 -159 -394 0
-45 -160 -395 0
-41 -161 -386 0
-42 -162 -387 0
-43 -163 -388 0
-44 -164 -389 0
-45 -165 -390 0
-41 -166 -381 0
-42 -167 -382 0
-43 -168 -383 0
-44 -169 -384 0
-45 -170 -385 0
-41 -171 -376 0
-42 -172 -377 0
-43 -173 -378 0
-44 -174 -379 0
-45 -175 -380 0
-41 -176 -371 0
-42 -177 -372 0
-43 -178 -373 0
-44 -179 -374 0
-45 -180 -375 0
-41 -181 -366 0
-42 -182 -367 0
-43 -183 -368 0
-44 -184 -369 0
-45 -185 -370 0
-41 -186 -361 0
-42 -187 -362 0
-43 -188 -363 0
-44 -189 -364 0
-45 -190 -365 0
-41 -191 -356 0
-42 -192 -357 0
-43 -193 -358 0
-44 -194 -359 0
-45 -195 -360 0
-41 -196 -351 0
-42 -197 -352 0
-43 -198 -353 0
-44 -199 -354 0
-45 -200 -355 0
-41 -201 -346 0
-42 -202 -347 0
-43 -203 -348 0
-44 -204 -349 0
-45 -205 -350 0
-41 -206 -341 0
-42 -207 -342 0
-43 -208 -343 0
-44 -209 -344 0
-45 -210 -345 0
-41 -211 -336 0
-42 -212 -337 0
-43 -213 -338 0
-44 -214 -339 0
-45 -215 -340 0
-41 -216 -331 0
-42 -217 -332 0
-43 -218 -333 0
-44 -219 -334 0
-45 -220 -335 0
-41 -221 -326 0
-42 -222 -327 0
-43 -223 -328 0
-44 -224 -329 0
-45 -225 -330 0
-41 -226 -321 0
-42 -227 -322 0
-43 -228 -323 0
-44 -229 -324 0
-45 -230 -325 0
-41 -231 -316 0
-42 -232 -317 0
-43 -233 -318 0
-44 -234 -319 0
-45 -235 -320 0
-41 -236 -471 0
-42 -237 -472 0
-43 -238 -473 0
-44 -239 -474 0
-45 -240 -475 0
-41 -241 -466 0
-42 -242 -467 0
-43 -243 -468 0
-44 -244 -469 0
-45 -245 -470 0
-41 -246 -461 0
-42 -247 -462 0
-43 -248 -463 0
-44 -249 -464 0
-45 -250 -465 0
-41 -251 -456 0
-42 -252 -457 0
-43 -253 -458 0
-44 -254 -459 0
-45 -255 -460 0
-41 -256 -451 0
-42 -257 -452 0
-43 -258 -453 0
-44 -259 -454 0
-45 -260 -455 0
-41 -261 -446 0
-42 -262 -447 0
-43 -263 -448 0
-44 -264 -449 0
-45 -265 -450 0
-41 -266 -441 0
-42 -267 -442 0
-43 -268 -443 0
-44 -269 -444 0
-45 -270 -445 0
-41 -271 -436 0
-42 -272 -437 0
-43 -273 -438 0
-44 -274 -439 0
-45 -275 -440 0
-41 -276 -431 0
-42 -277 -432 0
-43 -278 -433 0
-44 -279 -434 0
-45 -280 -435 0
-41 -281 -426 0
-42 -282 -427 0
-43 -283 -428 0
-44 -284 -429 0
-45 -285 -430 0
-41 -286 -421 0
-42 -287 -422 0
-43 -288 -423 0
-44 -289 -424 0
-45 -290 -425 0
-41 -291 -416 0
-42 -292 -417 0
-43 -293 -418 0
-44 -294 -419 0
-45 -295 -420 0
-41 -296 -411 0
-42 -297 -412 0
-43 -298 -413 0
-44 -299 -414 0
-45 -300 -415 0
-41 -301 -406 0
-42 -302 -407 0
-43 -303 -408 0
-44 -304 -409 0
-45 -305 -410 0
-41 -306 -401 0
-42 -307 -402 0
-43 -308 -403 0
-44 -309 -404 0
-45 -310 -405 0
-41 -311 -396 0
-42 -312 -397 0
-43 -313 -398 0
-44 -314 -399 0
-45 -315 -400 0
-41 -476 -711 0
-42 -477 -712 0
-43 -478 -713 0
-44 -479 -714 0
-45 -480 -715 0
-41 -481 -706 0
-42 -482 -707 0
-43 -483 -708 0
-44 -484 -709 0
-45 -485 -710 0
-41 -486 -701 0
-42 -487 -702 0
-43 -488 -703 0
-44 -489 -704 0
-45 -490 -705 0
-41 -491 -696 0
-42 -492 -697 0
-43 -493 -698 0
-44 -494 -699 0
-45 -495 -700 0
-41 -496 -691 0
-42 -497 -692 0
-43 -498 -693 0
-44 -499 -694 0
-45 -500 -695 0
-41 -501 -686 0
-42 -502 -687 0
-43 -503 -688 0
-44 -504 -689 0
-45 -505 -690 0
-41 -506 -681 0
-42 -507 -682 0
-43 -508 -683 0
-44 -509 -684 0
-45 -510 -685 0
-41 -511 -676 0
-42 -512 -677 0
-43 -513 -678 0
-44 -514 -679 0
-45 -515 -680 0
-41 -516 -671 0
-42 -517 -672 0
-43 -518 -673 0
-44 -519 -674 0
-45 -520 -675 0
-41 -521 -666 0
-42 -522 -667 0
-43 -523 -668 0
-44 -524 -669 0
-45 -525 -670 0
-41 -526 -661 0
-42 -527 -662 0
-43 -528 -663 0
-44 -529 -664 0
-45 -530 -665 0
-41 -531 -656 0
-42 -532 -657 0
-43 -533 -658 0
-44 -534 -659 0
-45 -535 -660 0
-41 -536 -651 0
-42 -537 -652 0
-43 -538 -653 0
-44 -539 -654 0
-45 -540 -655 0
-41 -541 -646 0
-42 -542 -647 0
-43 -543 -648 0
-44 -544 -649 0
-45 -545 -650 0
-41 -546 -641 0
-42 -547 -642 0
-43 -548 -643 0
-44 -549 -644 0
-45 -550 -645 0
-41 -551 -636 0
-42 -552 -637 0
-43 -553 -638 0
-44 -554 -639 0
-45 -555 -640 0
-41 -556 -791 0
-42 -557 -792 0
-43 -558 -793 0
-44 -559 -794 0
-45 -560 -795 0
-41 -561 -786 0
-42 -562 -787 0
-43 -563 -788 0
-44 -564 -789 0
-45 -565 -790 0
-41 -566 -781 0
-42 -567 -782 0
-43 -568 -783 0
-44 -569 -784 0
-45 -570 -785 0
-41 -571 -776 0
-42 -572 -777 0
-43 -573 -778 0
-44 -574 -779 0
-45 -575 -780 0
-41 -576 -771 0
-42 -577 -772 0
-43 -578 -773 0
-44 -579 -774 0
-45 -580 -775 0
-41 -581 -766 0
-42 -582 -767 0
-43 -583 -768 0
-44 -584 -769 0
-45 -585 -770 0
-41 -586 -761 0
-42 -587 -762 0
-43 -588 -763 0
-44 -589 -764 0
-45 -590 -765 0
-41 -591 -756 0
-42 -592 -757 0
-43 -593 -758 0
-44 -594 -759 0
-45 -595 -760 0
-41 -596 -751 0
-42 -597 -752 0
-43 -598 -753 0
-44 -599 -754 0
-45 -600 -755 0
-41 -601 -746 0
-42 -602 -747 0
-43 -603 -748 0
-44 -604 -749 0
-45 -605 -750 0
-41 -606 -741 0
-42 -607 -742 0
-43 -608 -743 0
-44 -609 -744 0
-45 -610 -745 0
-41 -611 -736 0
-42 -612 -737 0
-43 -613 -738 0
-44 -614 -739 0
-45 -615 -740 0
-41 -616 -731 0
-42 -617 -732 0
-43 -618 -733 0
-44 -619 -734 0
-45 -620 -735 0
-41 -621 -726 0
-42 -622 -727 0
-43 -623 -728 0
-44 -624 -729 0
-45 -625 -730 0
-41 -626 -721 0
-42 -627 -722 0
-43 -628 -723 0
-44 -629 -724 0
-45 -630 -725 0
-41 -631 -716 0
-42 -632 -717 0
-43 -633 -718 0
-44 -634 -719 0
-45 -635 -720 0
-56 -156 -396 0
-57 -157 -397 0
-58 -158 -398 0
-59 -159 -399 0
-60 -160 -400 0
-56 -161 -401 0
-57 -162 -402 0
-58 -163 -403 0
-59 -164 -404 0
-60 -165 -405 0
-56 -166 -406 0
-57 -167 -407 0
-58 -168 -408 0
-59 -169 -409 0
-60 -170 -410 0
-56 -171 -411 0
-57 -172 -412 0
-58 -173 -413 0
-59 -174 -414 0
-60 -175 -415 0
-56 -176 -416 0
-57 -177 -417 0
-58 -178 -418 0
-59 -179 -419 0
-60 -180 -420 0
-56 -181 -421 0
-57 -182 -422 0
-58 -183 -423 0
-59 -184 -424 0
-60 -185 -425 0
-56 -186 -426 0
-57 -187 -427 0
-58 -188 -428 0
-59 -189 -429 0
-60 -190 -430 0
-56 -191 -431 0
-57 -192 -432 0
-58 -193 -433 0
-59 -194 -434 0
-60 -195 -435 0
-56 -196 -436 0
-57 -197 -437 0
-58 -198 -438 0
-59 -199 -439 0
-60 -200 -440 0
-56 -201 -441 0
-57 -202 -442 0
-58 -203 -443 0
-59 -204 -444 0
-60 -205 -445 0
-56 -206 -446 0
-57 -207 -447 0
-58 -208 -448 0
-59 -209 -449 0
-60 -210 -450 0
-56 -211 -451 0
-57 -212 -452 0
-58 -213 -453 0
-59 -214 -454 0
-60 -215 -455 0
-56 -216 -456 0
-57 -217 -457 0
-58 -218 -458 0
-59 -219 -459 0
-60 -220 -460 0
-56 -221 -461 0
-57 -222 -462 0
-58 -223 -463 0
-59 -224 -464 0
-60 -225 -465 0
-56 -226 -466 0
-57 -227 -467 0
-58 -228 -468 0
-59 -229 -469 0
-60 -230 -470 0
-56 -231 -471 0
-57 -232 -472 0
-58 -233 -473 0
-59 -234 -474 0
-60 -235 -475 0
-56 -236 -316 0
-57 -237 -317 0
-58 -238 -318 0
-59 -239 -319 0
-60 -240 -320 0
-56 -241 -321 0
-57 -242 -322 0
-58 -243 -323 0
-59 -244 -324 0
-60 -245 -325 0
-56 -246 -326 0
-57 -247 -327 0
-58 -248 -328 0
-59 -249 -329 0
-60 -250 -330 0
-56 -251 -331 0
-57 -252 -332 0
-58 -253 -333 0
-59 -254 -334 0
-60 -255 -335 0
-56 -256 -336 0
-57 -257 -337 0
-58 -258 -338 0
-59 -259 -339 0
-60 -260 -340 0
-56 -261 -341 0
-57 -262 -342 0
-58 -263 -343 0
-59 -264 -344 0
-60 -265 -345 0
-56 -266 -346 0
-57 -267 -347 0
-58 -268 -348 0
-59 -269 -349 0
-60 -270 -350 0
-56 -271 -351 0
-57 -272 -352 0
-58 -273 -353 0
-59 -274 -354 0
-60 -275 -355 0
-56 -276 -356 0
-57 -277 -357 0
-58 -278 -358 0
-59 -279 -359 0
-60 -280 -360 0
-56 -281 -361 0
-57 -282 -362 0
-58 -283 -363 0
-59 -284 -364 0
-60 -285 -365 0
-56 -286 -366 0
-57 -287 -367 0
-58 -288 -368 0
-59 -289 -369 0
-60 -290 -370 0
-56 -291 -371 0
-57 -292 -372 0
-58 -293 -373 0
-59 -294 -374 0
-60 -295 -375 0
-56 -296 -376 0
-57 -297 -377 0
-58 -298 -378 0
-59 -299 -379 0
-60 -300 -380 0
-56 -301 -381 0
-57 -302 -382 0
-58 -303 -383 0
-59 -304 -384 0
-60 -305 -385 0
-56 -306 -386 0
-57 -307 -387 0
-58 -308 -388 0
-59 -309 -389 0
-60 -310 -390 0
-56 -311 -391 0
-57 -312 -392 0
-58 -313 -393 0
-59 -314 -394 0
-60 -315 -395 0
-56 -476 -716 0
-57 -477 -717 0
-58 -478 -718 0
-59 -479 -719 0
-60 -480 -720 0
-56 -481 -721 0
-57 -482 -722 0
-58 -483 -723 0
-59 -484 -724 0
-60 -485 -725 0
-56 -486 -726 0
-57 -487 -727 0
-58 -488 -728 0
-59 -489 -729 0
-60 -490 -730 0
-56 -491 -731 0
-57 -492 -732 0
-58 -493 -733 0
-59 -494 -734 0
-60 -495 -735 0
-56 -496 -736 0
-57 -497 -737 0
-58 -498 -738 0
-59 -499 -739 0
-60 -500 -740 0
-56 -501 -741 0
-57 -502 -742 0
-58 -503 -743 0
-59 -504 -744 0
-60 -505 -745 0
-56 -506 -746 0
-57 -507 -747 0
-58 -508 -748 0
-59 -509 -749 0
-60 -510 -750 0
-56 -511 -751 0
-57 -512 -752 0
-58 -513 -753 0
-59 -514 -754 0
-60 -515 -755 0
-56 -516 -756 0
-57 -517 -757 0
-58 -518 -758 0
-59 -519 -759 0
-60 -520 -760 0
-56 -521 -761 0
-57 -522 -762 0
-58 -523 -763 0
-59 -524 -764 0
-60 -525 -765 0
-56 -526 -766 0
-57 -527 -767 0
-58 -528 -768 0
-59 -529 -769 0
-60 -530 -770 0
-56 -531 -771 0
-57 -532 -772 0
-58 -533 -773 0
-59 -534 -774 0
-60 -535 -775 0
-56 -536 -776 0
-57 -537 -777 0
-58 -538 -778 0
-59 -539 -779 0
-60 -540 -780 0
-56 -541 -781 0
-57 -542 -782 0
-58 -543 -783 0
-59 -544 -784 0
-60 -545 -785 0
-56 -546 -786 0
-57 -547 -787 0
-58 -548 -788 0
-59 -549 -789 0
-60 -550 -790 0
-56 -551 -791 0
-57 -552 -792 0
-58 -553 -793 0
-59 -554 -794 0
-60 -555 -795 0
-56 -556 -636 0
-57 -557 -637 0
-58 -558 -638 0
-59 -559 -639 0
-60 -560 -640 0
-56 -561 -641 0
-57 -562 -642 0
-58 -563 -643 0
-59 -564 -644 0
-60 -565 -645 0
-56 -566 -646 0
-57 -567 -647 0
-58 -568 -648 0
-59 -569 -649 0
-60 -570 -650 0
-56 -571 -651 0
-57 -572 -652 0
-58 -573 -653 0
-59 -574 -654 0
-60 -575 -655 0
-56 -576 -656 0
-57 -577 -657 0
-58 -578 -658 0
-59 -579 -659 0
-60 -580 -660 0
-56 -581 -661 0
-57 -582 -662 0
-58 -583 -663 0
-59 -584 -664 0
-60 -585 -665 0
-56 -586 -666 0
-57 -587 -667 0
-58 -588 -668 0
-59 -589 -669 0
-60 -590 -670 0
-56 -591 -671 0
-57 -592 -672 0
-58 -593 -673 0
-59 -594 -674 0
-60 -595 -675 0
-56 -596 -676 0
-57 -597 -677 0
-58 -598 -678 0
-59 -599 -679 0
-60 -600 -680 0
-56 -601 -681 0
-57 -602 -682 0
-58 -603 -683 0
-59 -604 -684 0
-60 -605 -685 0
-56 -606 -686 0
-57 -607 -687 0
-58 -608 -688 0
-59 -609 -689 0
-60 -610 -690 0
-56 -611 -691 0
-57 -612 -692 0
-58 -613 -693 0
-59 -614 -694 0
-60 -615 -695 0
-56 -616 -696 0
-57 -617 -697 0
-58 -618 -698 0
-59 -619 -699 0
-60 -620 -700 0
-56 -621 -701 0
-57 -622 -702 0
-58 -623 -703 0
-59 -624 -704 0
-60 -625 -705 0
-56 -626 -706 0
-57 -627 -707 0
-58 -628 -708 0
-59 -629 -709 0
-60 -630 -710 0
-56 -631 -711 0
-57 -632 -712 0
-58 -633 -713 0
-59 -634 -714 0
-60 -635 -715 0
-61 -156 -401 0
-62 -157 -402 0
-63 -158 -403 0
-64 -159 -404 0
-65 -160 -405 0
-61 -161 -396 0
-62 -162 -397 0
-63 -163 -398 0
-64 -164 -399 0
-65 -165 -400 0
-61 -166 -411 0
-62 -167 -412 0
-63 -168 -413 0
-64 -169 -414 0
-65 -170 -415 0
-61 -171 -406 0
-62 -172 -407 0
-63 -173 -408 0
-64 -174 -409 0
-65 -175 -410 0
-61 -176 -421 0
-62 -177 -422 0
-63 -178 -423 0
-64 -179 -424 0
-65 -180 -425 0
-61 -181 -416 0
-62 -182 -417 0
-63 -183 -418 0
-64 -184 -419 0
-65 -185 -420 0
-61 -186 -431 0
-62 -187 -432 0
-63 -188 -433 0
-64 -189 -434 0
-65 -190 -435 0
-61 -191 -426 0
-62 -192 -427 0
-63 -193 -428 0
-64 -194 -429 0
-65 -195 -430 0
-61 -196 -441 0
-62 -197 -442 0
-63 -198 -443 0
-64 -199 -444 0
-65 -200 -445 0
-61 -201 -436 0
-62 -202 -437 0
-63 -203 -438 0
-64 -204 -439 0
-65 -205 -440 0
-61 -206 -451 0
-62 -207 -452 0
-63 -208 -453 0
-64 -209 -454 0
-65 -210 -455 0
-61 -211 -446 0
-62 -212 -447 0
-63 -213 -448 0
-64 -214 -449 0
-65 -215 -450 0
-61 -216 -461 0
-62 -217 -462 0
-63 -218 -463 0
-64 -219 -464 0
-65 -220 -465 0
-61 -221 -456 0
-62 -222 -457 0
-63 -223 -458 0
-64 -224 -459 0
-65 -225 -460 0
-61 -226 -471 0
-62 -227 -472 0
-63 -228 -473 0
-64 -229 -474 0
-65 -230 -475 0
-61 -231 -466 0
-62 -232 -467 0
-63 -233 -468 0
-64 -234 -469 0
-65 -235 -470 0
-61 -236 -321 0
-62 -237 -322 0
-63 -238 -323 0
-64 -239 -324 0
-65 -240 -325 0
-61 -241 -316 0
-62 -242 -317 0
-63 -243 -318 0
-64 -244 -319 0
-65 -245 -320 0
-61 -246 -331 0
-62 -247 -332 0
-63 -248 -333 0
-64 -249 -334 0
-65 -250 -335 0
-61 -251 -326 0
-62 -252 -327 0
-63 -253 -328 0
-64 -254 -329 0
-65 -255 -330 0
-61 -256 -341 0
-62 -257 -342 0
-63 -258 -343 0
-64 -259 -344 0
-65 -260 -345 0
-61 -261 -336 0
-62 -262 -337 0
-63 -263 -338 0
-64 -264 -339 0
-65 -265 -340 0
-61 -266 -351 0
-62 -267 -352 0
-63 -268 -353 0
-64 -269 -354 0
-65 -270 -355 0
-61 -271 -346 0
-62 -272 -347 0
-63 -273 -348 0
-64 -274 -349 0
-65 -275 -350 0
-61 -276 -361 0
-62 -277 -362 0
-63 -278 -363 0
-64 -279 -364 0
-65 -280 -365 0
-61 -281 -356 0
-62 -282 -357 0
-63 -283 -358 0
-64 -284 -359 0
-65 -285 -360 0
-61 -286 -371 0
-62 -287 -372 0
-63 -288 -373 0
-64 -289 -374 0
-65 -290 -375 0
-61 -291 -366 0
-62 -292 -367 0
-63 -293 -368 0
-64 -294 -369 0
-65 -295 -370 0
-61 -296 -381 0
-62 -297 -382 0
-63 -298 -383 0
-64 -299 -384 0
-65 -300 -385 0
-61 -301 -376 0
-62 -302 -377 0
-63 -303 -378 0
-64 -304 -379 0
-65 -305 -380 0
-61 -306 -391 0
-62 -307 -392 0
-63 -308 -393 0
-64 -309 -394 0
-65 -310 -395 0
-61 -311 -386 0
-62 -312 -387 0
-63 -313 -388 0
-64 -314 -389 0
-65 -315 -390 0
-61 -476 -721 0
-62 -477 -722 0
-63 -478 -723 0
-64 -479 -724 0
-65 -480 -725 0
-61 -481 -716 0
-62 -482 -717 0
-63 -483 -718 0
-64 -484 -719 0
-65 -485 -720 0
-61 -486 -731 0
-62 -487 -732 0
-63 -488 -733 0
-64 -489 -734 0
-65 -490 -735 0
-61 -491 -726 0
-62 -492 -727 0
-63 -493 -728 0
-64 -494 -729 0
-65 -495 -730 0
-61 -496 -741 0
-62 -497 -742 0
-63 -498 -743 0
-64 -499 -744 0
-65 -500 -745 0
-61 -501 -736 0
-62 -502 -737 0
-63 -503 -738 0
-64 -504 -739 0
-65 -505 -740 0
-61 -506 -751 0
-62 -507 -752 0
-63 -508 -753 0
-64 -509 -754 0
-65 -510 -755 0
-61 -511 -746 0
-62 -512 -747 0
-63 -513 -748 0
-64 -514 -749 0
-65 -515 -750 0
-61 -516 -761 0
-62 -517 -762 0
-63 -518 -763 0
-64 -519 -764 0
-65 -520 -765 0
-61 -521 -756 0
-62 -522 -757 0
-63 -523 -758 0
-64 -524 -759 0
-65 -525 -760 0
-61 -526 -771 0
-62 -527 -772 0
-63 -528 -773 0
-64 -529 -774 0
-65 -530 -775 0
-61 -531 -766 0
-62 -532 -767 0
-63 -533 -768 0
-64 -534 -769 0
-65 -535 -770 0
-61 -536 -781 0
-62 -537 -782 0
-63 -538 -783 0
-64 -539 -784 0
-65 -540 -785 0
-61 -541 -776 0
-62 -542 -777 0
-63 -543 -778 0
-64 -544 -779 0
-65 -545 -780 0
-61 -546 -791 0
-62 -547 -792 0
-63 -548 -793 0
-64 -549 -794 0
-65 -550 -795 0
-61 -551 -786 0
-62 -552 -787 0
-63 -553 -788 0
-64 -554 -789 0
-65 -555 -790 0
-61 -556 -641 0
-62 -557 -642 0
-63 -558 -643 0
-64 -559 -644 0
-65 -560 -645 0
-61 -561 -636 0
-62 -562 -637 0
-63 -563 -638 0
-64 -564 -639 0
-65 -565 -640 0
-61 -566 -651 0
-62 -567 -652 0
-63 -568 -653 0
-64 -569 -654 0
-65 -570 -655 0
-61 -571 -646 0
-62 -572 -647 0
-63 -573 -648 0
-64 -574 -649 0
-65 -575 -650 0
-61 -576 -661 0
-62 -577 -662 0
-63 -578 -663 0
-64 -579 -664 0
-65 -580 -665 0
-61 -581 -656 0
-62 -582 -657 0
-63 -583 -658 0
-64 -584 -659 0
-65 -585 -660 0
-61 -586 -671 0
-62 -587 -672 0
-63 -588 -673 0
-64 -589 -674 0
-65 -590 -675 0
-61 -591 -666 0
-62 -592 -667 0
-63 -593 -668 0
-64 -594 -669 0
-65 -595 -670 0
-61 -596 -681 0
-62 -597 -682 0
-63 -598 -683 0
-64 -599 -684 0
-65 -600 -685 0
-61 -601 -676 0
-62 -602 -677 0
-63 -603 -678 0
-64 -604 -679 0
-65 -605 -680 0
-61 -606 -691 0
-62 -607 -692 0
-63 -608 -693 0
-64 -609 -694 0
-65 -610 -695 0
-61 -611 -686 0
-62 -612 -687 0
-63 -613 -688 0
-64 -614 -689 0
-65 -615 -690 0
-61 -616 -701 0
-62 -617 -702 0
-63 -618 -703 0
-64 -619 -704 0
-65 -620 -705 0
-61 -621 -696 0
-62 -622 -697 0
-63 -623 -698 0
-64 -624 -699 0
-65 -625 -700 0
-61 -626 -711 0
-62 -627 -712 0
-63 -628 -713 0
-64 -629 -714 0
-65 -630 -715 0
-61 -631 -706 0
-62 -632 -707 0
-63 -633 -708 0
-64 -634 -709 0
-65 -635 -710 0
-66 -156 -406 0
-67 -157 -407 0
-68 -158 -408 0
-69 -159 -409 0
-70 -160 -410 0
-66 -161 -411 0
-67 -162 -412 0
-68 -163 -413 0
-69 -164 -414 0
-70 -165 -415 0
-66 -166 -396 0
-67 -167 -397 0
-68 -168 -398 0
-69 -169 -399 0
-70 -170 -400 0
-66 -171 -401 0
-67 -172 -402 0
-68 -173 -403 0
-69 -174 -404 0
-70 -175 -405 0
-66 -176 -426 0
-67 -177 -427 0
-68 -178 -428 0
-69 -179 -429 0
-70 -180 -430 0
-66 -181 -431 0
-67 -182 -432 0
-68 -183 -433 0
-69 -184 -434 0
-70 -185 -435 0
-66 -186 -416 0
-67 -187 -417 0
-68 -188 -418 0
-69 -189 -419 0
-70 -190 -420 0
-66 -191 -421 0
-67 -192 -422 0
-68 -193 -423 0
-69 -194 -424 0
-70 -195 -425 0
-66 -196 -446 0
-67 -197 -447 0
-68 -198 -448 0
-69 -199 -449 0
-70 -200 -450 0
-66 -201 -451 0
-67 -202 -452 0
-68 -203 -453 0
-69 -204 -454 0
-70 -205 -455 0
-66 -206 -436 0
-67 -207 -437 0
-68 -208 -438 0
-69 -209 -439 0
-70 -210 -440 0
-66 -211 -441 0
-67 -212 -442 0
-68 -213 -443 0
-69 -214 -444 0
-70 -215 -445 0
-66 -216 -466 0
-67 -217 -467 0
-68 -218 -468 0
-69 -219 -469 0
-70 -220 -470 0
-66 -221 -471 0
-67 -222 -472 0
-68 -223 -473 0
-69 -224 -474 0
-70 -225 -475 0
-66 -226 -456 0
-67 -227 -457 0
-68 -228 -458 0
-69 -229 -459 0
-70 -230 -460 0
-66 -231 -461 0
-67 -232 -462 0
-68 -233 -463 0
-69 -234 -464 0
-70 -235 -465 0
-66 -236 -326 0
-67 -237 -327 0
-68 -238 -328 0
-69 -239 -329 0
-70 -240 -330 0
-66 -241 -331 0
-67 -242 -332 0
-68 -243 -333 0
-69 -244 -334 0
-70 -245 -335 0
-66 -246 -316 0
-67 -247 -317 0
-68 -248 -318 0
-69 -249 -319 0
-70 -250 -320 0
-66 -251 -321 0
-67 -252 -322 0
-68 -253 -323 0
-69 -254 -324 0
-70 -255 -325 0
-66 -256 -346 0
-67 -257 -347 0
-68 -258 -348 0
-69 -259 -349 0
-70 -260 -350 0
-66 -261 -351 0
-67 -262 -352 0
-68 -263 -353 0
-69 -264 -354 0
-70 -265 -355 0
-66 -266 -336 0
-67 -267 -337 0
-68 -268 -338 0
-69 -269 -339 0
-70 -270 -340 0
-66 -271 -341 0
-67 -272 -342 0
-68 -273 -343 0
-69 -274 -344 0
-70 -275 -345 0
-66 -276 -366 0
-67 -277 -367 0
-68 -278 -368 0
-69 -279 -369 0
-70 -280 -370 0
-66 -281 -371 0
-67 -282 -372 0
-68 -283 -373 0
-69 -284 -374 0
-70 -285 -375 0
-66 -286 -356 0
-67 -287 -357 0
-68 -288 -358 0
-69 -289 -359 0
-70 -290 -360 0
-66 -291 -361 0
-67 -292 -362 0
-68 -293 -363 0
-69 -294 -364 0
-70 -295 -365 0
-66 -296 -386 0
-67 -297 -387 0
-68 -298 -388 0
-69 -299 -389 0
-70 -300 -390 0
-66 -301 -391 0
-67 -302 -392 0
-68 -303 -393 0
-69 -304 -394 0
-70 -305 -395 0
-66 -306 -376 0
-67 -307 -377 0
-68 -308 -378 0
-69 -309 -379 0
-70 -310 -380 0
-66 -311 -381 0
-67 -312 -382 0
-68 -313 -383 0
-69 -314 -384 0
-70 -315 -385 0
-66 -476 -726 0
-67 -477 -727 0
-68 -478 -728 0
-69 -479 -729 0
-70 -480 -730 0
-66 -481 -731 0
-67 -482 -732 0
-68 -483 -733 0
-69 -484 -734 0
-70 -485 -735 0
-66 -486 -716 0
-67 -487 -717 0
-68 -488 -718 0
-69 -489 -719 0
-70 -490 -720 0
-66 -491 -721 0
-67 -492 -722 0
-68 -493 -723 0
-69 -494 -724 0
-70 -495 -725 0
-66 -496 -746 0
-67 -497 -747 0
-68 -498 -748 0
-69 -499 -749 0
-70 -500 -750 0
-66 -501 -751 0
-67 -502 -752 0
-68 -503 -753 0
-69 -504 -754 0
-70 -505 -755 0
-66 -506 -736 0
-67 -507 -737 0
-68 -508 -738 0
-69 -509 -739 0
-70 -510 -740 0
-66 -511 -741 0
-67 -512 -742 0
-68 -513 -743 0
-69 -514 -744 0
-70 -515 -745 0
-66 -516 -766 0
-67 -517 -767 0
-68 -518 -768 0
-69 -519 -769 0
-70 -520 -770 0
-66 -521 -771 0
-67 -522 -772 0
-68 -523 -773 0
-69 -524 -774 0
-70 -525 -775 0
-66 -526 -756 0
-67 -527 -757 0
-68 -528 -758 0
-69 -529 -759 0
-70 -530 -760 0
-66 -531 -761 0
-67 -532 -762 0
-68 -533 -763 0
-69 -534 -764 0
-70 -535 -765 0
-66 -536 -786 0
-67 -537 -787 0
-68 -538 -788 0
-69 -539 -789 0
-70 -540 -790 0
-66 -541 -791 0
-67 -542 -792 0
-68 -543 -793 0
-69 -544 -794 0
-70 -545 -795 0
-66 -546 -776 0
-67 -547 -777 0
-68 -548 -778 0
-69 -549 -779 0
-70 -550 -780 0
-66 -551 -781 0
-67 -552 -782 0
-68 -553 -783 0
-69 -554 -784 0
-70 -555 -785 0
-66 -556 -646 0
-67 -557 -647 0
-68 -558 -648 0
-69 -559 -649 0
-70 -560 -650 0
-66 -561 -651 0
-67 -562 -652 0
-68 -563 -653 0
-69 -564 -654 0
-70 -565 -655 0
-66 -566 -636 0
-67 -567 -637 0
-68 -568 -638 0
-69 -569 -639 0
-70 -570 -640 0
-66 -571 -641 0
-67 -572 -642 0
-68 -573 -643 0
-69 -574 -644 0
-70 -575 -645 0
-66 -576 -666 0
-67 -577 -667 0
-68 -578 -668 0
-69 -579 -669 0
-70 -580 -670 0
-66 -581 -671 0
-67 -582 -672 0
-68 -583 -673 0
-69 -584 -674 0
-70 -585 -675 0
-66 -586 -656 0
-67 -587 -657 0
-68 -588 -658 0
-69 -589 -659 0
-70 -590 -660 0
-66 -591 -661 0
-67 -592 -662 0
-68 -593 -663 0
-69 -594 -664 0
-70 -595 -665 0
-66 -596 -686 0
-67 -597 -687 0
-68 -598 -688 0
-69 -599 -689 0
-70 -600 -690 0
-66 -601 -691 0
-67 -602 -692 0
-68 -603 -693 0
-69 -604 -694 0
-70 -605 -695 0
-66 -606 -676 0
-67 -607 -677 0
-68 -608 -678 0
-69 -609 -679 0
-70 -610 -680 0
-66 -611 -681 0
-67 -612 -682 0
-68 -613 -683 0
-69 -614 -684 0
-70 -615 -685 0
-66 -616 -706 0
-67 -617 -707 0
-68 -618 -708 0
-69 -619 -709 0
-70 -620 -710 0
-66 -621 -711 0
-67 -622 -712 0
-68 -623 -713 0
-69 -624 -714 0
-70 -625 -715 0
-66 -626 -696 0
-67 -627 -697 0
-68 -628 -698 0
-69 -629 -699 0
-70 -630 -700 0
-66 -631 -701 0
-67 -632 -702 0
-68 -633 -703 0
-69 -634 -704 0
-70 -635 -705 0
-66 -156 -411 0
-67 -157 -412 0
-68 -158 -413 0
-69 -159 -414 0
-70 -160 -415 0
-66 -161 -406 0
-67 -162 -407 0
-68 -163 -408 0
-69 -164 -409 0
-70 -165 -410 0
-66 -166 -401 0
-67 -167 -402 0
-68 -168 -403 0
-69 -169 -404 0
-70 -170 -405 0
-66 -171 -396 0
-67 -172 -397 0
-68 -173 -398 0
-69 -174 -399 0
-70 -175 -400 0
-66 -176 -431 0
-67 -177 -432 0
-68 -178 -433 0
-69 -179 -434 0
-70 -180 -435 0
-66 -181 -426 0
-67 -182 -427 0
-68 -183 -428 0
-69 -184 -429 0
-70 -185 -430 0
-66 -186 -421 0
-67 -187 -422 0
-68 -188 -423 0
-69 -189 -424 0
-70 -190 -425 0
-66 -191 -416 0
-67 -192 -417 0
-68 -193 -418 0
-69 -194 -419 0
-70 -195 -420 0
-66 -196 -451 0
-67 -197 -452 0
-68 -198 -453 0
-69 -199 -454 0
-70 -200 -455 0
-66 -201 -446 0
-67 -202 -447 0
-68 -203 -448 0
-69 -204 -449 0
-70 -205 -450 0
-66 -206 -441 0
-67 -207 -442 0
-68 -208 -443 0
-69 -209 -444 0
-70 -210 -445 0
-66 -211 -436 0
-67 -212 -437 0
-68 -213 -438 0
-69 -214 -439 0
-70 -215 -440 0
-66 -216 -471 0
-67 -217 -472 0
-68 -218 -473 0
-69 -219 -474 0
-70 -220 -475 0
-66 -221 -466 0
-67 -222 -467 0
-68 -223 -468 0
-69 -224 -469 0
-70 -225 -470 0
-66 -226 -461 0
-67 -227 -462 0
-68 -228 -463 0
-69 -229 -464 0
-70 -230 -465 0
-66 -231 -456 0
-67 -232 -457 0
-68 -233 -458 0
-69 -234 -459 0
-70 -235 -460 0
-66 -236 -331 0
-67 -237 -332 0
-68 -238 -333 0
-69 -239 -334 0
-70 -240 -335 0
-66 -241 -326 0
-67 -242 -327 0
-68 -243 -328 0
-69 -244 -329 0
-70 -245 -330 0
-66 -246 -321 0
-67 -247 -322 0
-68 -248 -323 0
-69 -249 -324 0
-70 -250 -325 0
-66 -251 -316 0
-67 -252 -317 0
-68 -253 -318 0
-69 -254 -319 0
-70 -255 -320 0
-66 -256 -351 0
-67 -257 -352 0
-68 -258 -353 0
-69 -259 -354 0
-70 -260 -355 0
-66 -261 -346 0
-67 -262 -347 0
-68 -263 -348 0
-69 -264 -349 0
-70 -265 -350 0
-66 -266 -341 0
-67 -267 -342 0
-68 -268 -343 0
-69 -269 -344 0
-70 -270 -345 0
-66 -271 -336 0
-67 -272 -337 0
-68 -273 -338 0
-69 -274 -339 0
-70 -275 -340 0
-66 -276 -371 0
-67 -277 -372 0
-68 -278 -373 0
-69 -279 -374 0
-70 -280 -375 0
-66 -281 -366 0
-67 -282 -367 0
-68 -283 -368 0
-69 -284 -369 0
-70 -285 -370 0
-66 -286 -361 0
-67 -287 -362 0
-68 -288 -363 0
-69 -289 -364 0
-70 -290 -365 0
-66 -291 -356 0
-67 -292 -357 0
-68 -293 -358 0
-69 -294 -359 0
-70 -295 -360 0
-66 -296 -391 0
-67 -297 -392 0
-68 -298 -393 0
-69 -299 -394 0
-70 -300 -395 0
-66 -301 -386 0
-67 -302 -387 0
-68 -303 -388 0
-69 -304 -389 0
-70 -305 -390 0
-66 -306 -381 0
-67 -307 -382 0
-68 -308 -383 0
-69 -309 -384 0
-70 -310 -385 0
-66 -311 -376 0
-67 -312 -377 0
-68 -313 -378 0
-69 -314 -379 0
-70 -315 -380 0
-66 -476 -731 0
-67 -477 -732 0
-68 -478 -733 0
-69 -479 -734 0
-70 -480 -735 0
-66 -481 -726 0
-67 -482 -727 0
-68 -483 -728 0
-69 -484 -729 0
-70 -485 -730 0
-66 -486 -721 0
-67 -487 -722 0
-68 -488 -723 0
-69 -489 -724 0
-70 -490 -725 0
-66 -491 -716 0
-67 -492 -717 0
-68 -493 -718 0
-69 -494 -719 0
-70 -495 -720 0
-66 -496 -751 0
-67 -497 -752 0
-68 -498 -753 0
-69 -499 -754 0
-70 -500 -755 0
-66 -501 -746 0
-67 -502 -747 0
-68 -503 -748 0
-69 -504 -749 0
-70 -505 -750 0
-66 -506 -741 0
-67 -507 -742 0
-68 -508 -743 0
-69 -509 -744 0
-70 -510 -745 0
-66 -511 -736 0
-67 -512 -737 0
-68 -513 -738 0
-69 -514 -739 0
-70 -515 -740 0
-66 -516 -771 0
-67 -517 -772 0
-68 -518 -773 0
-69 -519 -774 0
-70 -520 -775 0
-66 -521 -766 0
-67 -522 -767 0
-68 -523 -768 0
-69 -524 -769 0
-70 -525 -770 0
-66 -526 -761 0
-67 -527 -762 0
-68 -528 -763 0
-69 -529 -764 0
-70 -530 -765 0
-66 -531 -756 0
-67 -532 -757 0
-68 -533 -758 0
-69 -534 -759 0
-70 -535 -760 0
-66 -536 -791 0
-67 -537 -792 0
-68 -538 -793 0
-69 -539 -794 0
-70 -540 -795 0
-66 -541 -786 0
-67 -542 -787 0
-68 -543 -788 0
-69 -544 -789 0
-70 -545 -790 0
-66 -546 -781 0
-67 -547 -782 0
-68 -548 -783 0
-69 -549 -784 0
-70 -550 -785 0
-66 -551 -776 0
-67 -552 -777 0
-68 -553 -778 0
-69 -554 -779 0
-70 -555 -780 0
-66 -556 -651 0
-67 -557 -652 0
-68 -558 -653 0
-69 -559 -654 0
-70 -560 -655 0
-66 -561 -646 0
-67 -562 -647 0
-68 -563 -648 0
-69 -564 -649 0
-70 -565 -650 0
-66 -566 -641 0
-67 -567 -642 0
-68 -568 -643 0
-69 -569 -644 0
-70 -570 -645 0
-66 -571 -636 0
-67 -572 -637 0
-68 -573 -638 0
-69 -574 -639 0
-70 -575 -640 0
-66 -576 -671 0
-67 -577 -672 0
-68 -578 -673 0
-69 -579 -674 0
-70 -580 -675 0
-66 -581 -666 0
-67 -582 -667 0
-68 -583 -668 0
-69 -584 -669 0
-70 -585 -670 0
-66 -586 -661 0
-67 -587 -662 0
-68 -588 -663 0
-69 -589 -664 0
-70 -590 -665 0
-66 -591 -656 0
-67 -592 -657 0
-68 -593 -658 0
-69 -594 -659 0
-70 -595 -660 0
-66 -596 -691 0
-67 -597 -692 0
-68 -598 -693 0
-69 -599 -694 0
-70 -600 -695 0
-66 -601 -686 0
-67 -602 -687 0
-68 -603 -688 0
-69 -604 -689 0
-70 -605 -690 0
-66 -606 -681 0
-67 -607 -682 0
-68 -608 -683 0
-69 -609 -684 0
-70 -610 -685 0
-66 -611 -676 0
-67 -612 -677 0
-68 -613 -678 0
-69 -614 -679 0
-70 -615 -680 0
-66 -616 -711 0
-67 -617 -712 0
-68 -618 -713 0
-69 -619 -714 0
-70 -620 -715 0
-66 -621 -706 0
-67 -622 -707 0
-68 -623 -708 0
-69 -624 -709 0
-70 -625 -710 0
-66 -626 -701 0
-67 -627 -702 0
-68 -628 -703 0
-69 -629 -704 0
-70 -630 -705 0
-66 -631 -696 0
-67 -632 -697 0
-68 -633 -698 0
-69 -634 -699 0
-70 -635 -700 0
-71 -156 -416 0
-72 -157 -417 0
-73 -158 -418 0
-74 -159 -419 0
-75 -160 -420 0
-71 -161 -421 0
-72 -162 -422 0
-73 -163 -423 0
-74 -164 -424 0
-75 -165 -425 0
-71 -166 -426 0
-72 -167 -427 0
-73 -168 -428 0
-74 -169 -429 0
-75 -170 -430 0
-71 -171 -431 0
-72 -172 -432 0
-73 -173 -433 0
-74 -174 -434 0
-75 -175 -435 0
-71 -176 -396 0
-72 -177 -397 0
-73 -178 -398 0
-74 -179 -399 0
-75 -180 -400 0
-71 -181 -401 0
-72 -182 -402 0
-73 -183 -403 0
-74 -184 -404 0
-75 -185 -405 0
-71 -186 -406 0
-72 -187 -407 0
-73 -188 -408 0
-74 -189 -409 0
-75 -190 -410 0
-71 -191 -411 0
-72 -192 -412 0
-73 -193 -413 0
-74 -194 -414 0
-75 -195 -415 0
-71 -196 -456 0
-72 -197 -457 0
-73 -198 -458 0
-74 -199 -459 0
-75 -200 -460 0
-71 -201 -461 0
-72 -202 -462 0
-73 -203 -463 0
-74 -204 -464 0
-75 -205 -465 0
-71 -206 -466 0
-72 -207 -467 0
-73 -208 -468 0
-74 -209 -469 0
-75 -210 -470 0
-71 -211 -471 0
-72 -212 -472 0
-73 -213 -473 0
-74 -214 -474 0
-75 -215 -475 0
-71 -216 -436 0
-72 -217 -437 0
-73 -218 -438 0
-74 -219 -439 0
-75 -220 -440 0
-71 -221 -441 0
-72 -222 -442 0
-73 -223 -443 0
-74 -224 -444 0
-75 -225 -445 0
-71 -226 -446 0
-72 -227 -447 0
-73 -228 -448 0
-74 -229 -449 0
-75 -230 -450 0
-71 -231 -451 0
-72 -232 -452 0
-73 -233 -453 0
-74 -234 -454 0
-75 -235 -455 0
-71 -236 -336 0
-72 -237 -337 0
-73 -238 -338 0
-74 -239 -339 0
-75 -240 -340 0
-71 -241 -341 0
-72 -242 -342 0
-73 -243 -343 0
-74 -244 -344 0
-75 -245 -345 0
-71 -246 -346 0
-72 -247 -347 0
-73 -248 -348 0
-74 -249 -349 0
-75 -250 -350 0
-71 -251 -351 0
-72 -252 -352 0
-73 -253 -353 0
-74 -254 -354 0
-75 -255 -355 0
-71 -256 -316 0
-72 -257 -317 0
-73 -258 -318 0
-74 -259 -319 0
-75 -260 -320 0
-71 -261 -321 0
-72 -262 -322 0
-73 -263 -323 0
-74 -264 -324 0
-75 -265 -325 0
-71 -266 -326 0
-72 -267 -327 0
-73 -268 -328 0
-74 -269 -329 0
-75 -270 -330 0
-71 -271 -331 0
-72 -272 -332 0
-73 -273 -333 0
-74 -274 -334 0
-75 -275 -335 0
-71 -276 -376 0
-72 -277 -377 0
-73 -278 -378 0
-74 -279 -379 0
-75 -280 -380 0
-71 -281 -381 0
-72 -282 -382 0
-73 -283 -383 0
-74 -284 -384 0
-75 -285 -385 0
-71 -286 -386 0
-72 -287 -387 0
-73 -288 -388 0
-74 -289 -389 0
-75 -290 -390 0
-71 -291 -391 0
-72 -292 -392 0
-73 -293 -393 0
-74 -294 -394 0
-75 -295 -395 0
-71 -296 -356 0
-72 -297 -357 0
-73 -298 -358 0
-74 -299 -359 0
-75 -300 -360 0
-71 -301 -361 0
-72 -302 -362 0
-73 -303 -363 0
-74 -304 -364 0
-75 -305 -365 0
-71 -306 -366 0
-72 -307 -367 0
-73 -308 -368 0
-74 -309 -369 0
-75 -310 -370 0
-71 -311 -371 0
-72 -312 -372 0
-73 -313 -373 0
-74 -314 -374 0
-75 -315 -375 0
-71 -476 -736 0
-72 -477 -737 0
-73 -478 -738 0
-74 -479 -739 0
-75 -480 -740 0
-71 -481 -741 0
-72 -482 -742 0
-73 -483 -743 0
-74 -484 -744 0
-75 -485 -745 0
-71 -486 -746 0
-72 -487 -747 0
-73 -488 -748 0
-74 -489 -749 0
-75 -490 -750 0
-71 -491 -751 0
-72 -492 -752 0
-73 -493 -753 0
-74 -494 -754 0
-75 -495 -755 0
-71 -496 -716 0
-72 -497 -717 0
-73 -498 -718 0
-74 -499 -719 0
-75 -500 -720 0
-71 -501 -721 0
-72 -502 -722 0
-73 -503 -723 0
-74 -504 -724 0
-75 -505 -725 0
-71 -506 -726 0
-72 -507 -727 0
-73 -508 -728 0
-74 -509 -729 0
-75 -510 -730 0
-71 -511 -731 0
-72 -512 -732 0
-73 -513 -733 0
-74 -514 -734 0
-75 -515 -735 0
-71 -516 -776 0
-72 -517 -777 0
-73 -518 -778 0
-74 -519 -779 0
-75 -520 -780 0
-71 -521 -781 0
-72 -522 -782 0
-73 -523 -783 0
-74 -524 -784 0
-75 -525 -785 0
-71 -526 -786 0
-72 -527 -787 0
-73 -528 -788 0
-74 -529 -789 0
-75 -530 -790 0
-71 -531 -791 0
-72 -532 -792 0
-73 -533 -793 0
-74 -534 -794 0
-75 -535 -795 0
-71 -536 -756 0
-72 -537 -757 0
-73 -538 -758 0
-74 -539 -759 0
-75 -540 -760 0
-71 -541 -761 0
-72 -542 -762 0
-73 -543 -763 0
-74 -544 -764 0
-75 -545 -765 0
-71 -546 -766 0
-72 -547 -767 0
-73 -548 -768 0
-74 -549 -769 0
-75 -550 -770 0
-71 -551 -771 0
-72 -552 -772 0
-73 -553 -773 0
-74 -554 -774 0
-75 -555 -775 0
-71 -556 -656 0
-72 -557 -657 0
-73 -558 -658 0
-74 -559 -659 0
-75 -560 -660 0
-71 -561 -661 0
-72 -562 -662 0
-73 -563 -663 0
-74 -564 -664 0
-75 -565 -665 0
-71 -566 -666 0
-72 -567 -667 0
-73 -568 -668 0
-74 -569 -669 0
-75 -570 -670 0
-71 -571 -671 0
-72 -572 -672 0
-73 -573 -673 0
-74 -574 -674 0
-75 -575 -675 0
-71 -576 -636 0
-72 -577 -637 0
-73 -578 -638 0
-74 -579 -639 0
-75 -580 -640 0
-71 -581 -641 0
-72 -582 -642 0
-73 -583 -643 0
-74 -584 -644 0
-75 -585 -645 0
-71 -586 -646 0
-72 -587 -647 0
-73 -588 -648 0
-74 -589 -649 0
-75 -590 -650 0
-71 -591 -651 0
-72 -592 -652 0
-73 -593 -653 0
-74 -594 -654 0
-75 -595 -655 0
-71 -596 -696 0
-72 -597 -697 0
-73 -598 -698 0
-74 -599 -699 0
-75 -600 -700 0
-71 -601 -701 0
-72 -602 -702 0
-73 -603 -703 0
-74 -604 -704 0
-75 -605 -705 0
-71 -606 -706 0
-72 -607 -707 0
-73 -608 -708 0
-74 -609 -709 0
-75 -610 -710 0
-71 -611 -711 0
-72 -612 -712 0
-73 -613 -713 0
-74 -614 -714 0
-75 -615 -715 0
-71 -616 -676 0
-72 -617 -677 0
-73 -618 -678 0
-74 -619 -679 0
-75 -620 -680 0
-71 -621 -681 0
-72 -622 -682 0
-73 -623 -683 0
-74 -624 -684 0
-75 -625 -685 0
-71 -626 -686 0
-72 -627 -687 0
-73 -628 -688 0
-74 -629 -689 0
-75 -630 -690 0
-71 -631 -691 0
-72 -632 -692 0
-73 -633 -693 0
-74 -634 -694 0
-75 -635 -695 0
-71 -156 -421 0
-72 -157 -422 0
-73 -158 -423 0
-74 -159 -424 0
-75 -160 -425 0
-71 -161 -416 0
-72 -162 -417 0
-73 -163 -418 0
-74 -164 -419 0
-75 -165 -420 0
-71 -166 -431 0
-72 -167 -432 0
-73 -168 -433 0
-74 -169 -434 0
-75 -170 -435 0
-71 -171 -426 0
-72 -172 -427 0
-73 -173 -428 0
-74 -174 -429 0
-75 -175 -430 0
-71 -176 -401 0
-72 -177 -402 0
-73 -178 -403 0
-74 -179 -404 0
-75 -180 -405 0
-71 -181 -396 0
-72 -182 -397 0
-73 -183 -398 0
-74 -184 -399 0
-75 -185 -400 0
-71 -186 -411 0
-72 -187 -412 0
-73 -188 -413 0
-74 -189 -414 0
-75 -190 -415 0
-71 -191 -406 0
-72 -192 -407 0
-73 -193 -408 0
-74 -194 -409 0
-75 -195 -410 0
-71 -196 -461 0
-72 -197 -462 0
-73 -198 -463 0
-74 -199 -464 0
-75 -200 -465 0
-71 -201 -456 0
-72 -202 -457 0
-73 -203 -458 0
-74 -204 -459 0
-75 -205 -460 0
-71 -206 -471 0
-72 -207 -472 0
-73 -208 -473 0
-74 -209 -474 0
-75 -210 -475 0
-71 -211 -466 0
-72 -212 -467 0
-73 -213 -468 0
-74 -214 -469 0
-75 -215 -470 0
-71 -216 -441 0
-72 -217 -442 0
-73 -218 -443 0
-74 -219 -444 0
-75 -220 -445 0
-71 -221 -436 0
-72 -222 -437 0
-73 -223 -438 0
-74 -224 -439 0
-75 -225 -440 0
-71 -226 -451 0
-72 -227 -452 0
-73 -228 -453 0
-74 -229 -454 0
-75 -230 -455 0
-71 -231 -446 0
-72 -232 -447 0
-73 -233 -448 0
-74 -234 -449 0
-75 -235 -450 0
-71 -236 -341 0
-72 -237 -342 0
-73 -238 -343 0
-74 -239 -344 0
-75 -240 -345 0
-71 -241 -336 0
-72 -242 -337 0
-73 -243 -338 0
-74 -244 -339 0
-75 -245 -340 0
-71 -246 -351 0
-72 -247 -352 0
-73 -248 -353 0
-74 -249 -354 0
-75 -250 -355 0
-71 -251 -346 0
-72 -252 -347 0
-73 -253 -348 0
-74 -254 -349 0
-75 -255 -350 0
-71 -256 -321 0
-72 -257 -322 0
-73 -258 -323 0
-74 -259 -324 0
-75 -260 -325 0
-71 -261 -316 0
-72 -262 -317 0
-73 -263 -318 0
-74 -264 -319 0
-75 -265 -320 0
-71 -266 -331 0
-72 -267 -332 0
-73 -268 -333 0
-74 -269 -334 0
-75 -270 -335 0
-71 -271 -326 0
-72 -272 -327 0
-73 -273 -328 0
-74 -274 -329 0
-75 -275 -330 0
-71 -276 -381 0
-72 -277 -382 0
-73 -278 -383 0
-74 -279 -384 0
-75 -280 -385 0
-71 -281 -376 0
-72 -282 -377 0
-73 -283 -378 0
-74 -284 -379 0
-75 -285 -380 0
-71 -286 -391 0
-72 -287 -392 0
-73 -288 -393 0
-74 -289 -394 0
-75 -290 -395 0
-71 -291 -386 0
-72 -292 -387 0
-73 -293 -388 0
-74 -294 -389 0
-75 -295 -390 0
-71 -296 -361 0
-72 -297 -362 0
-73 -298 -363 0
-74 -299 -364 0
-75 -300 -365 0
-71 -301 -356 0
-72 -302 -357 0
-73 -303 -358 0
-74 -304 -359 0
-75 -305 -360 0
-71 -306 -371 0
-72 -307 -372 0
-73 -308 -373 0
-74 -309 -374 0
-75 -310 -375 0
-71 -311 -366 0
-72 -312 -367 0
-73 -313 -368 0
-74 -314 -369 0
-75 -315 -370 0
-71 -476 -741 0
-72 -477 -742 0
-73 -478 -743 0
-74 -479 -744 0
-75 -480 -745 0
-71 -481 -736 0
-72 -482 -737 0
-73 -483 -738 0
-74 -484 -739 0
-75 -485 -740 0
-71 -486 -751 0
-72 -487 -752 0
-73 -488 -753 0
-74 -489 -754 0
-75 -490 -755 0
-71 -491 -746 0
-72 -492 -747 0
-73 -493 -748 0
-74 -494 -749 0
-75 -495 -750 0
-71 -496 -721 0
-72 -497 -722 0
-73 -498 -723 0
-74 -499 -724 0
-75 -500 -725 0
-71 -501 -716 0
-72 -502 -717 0
-73 -503 -718 0
-74 -504 -719 0
-75 -505 -720 0
-71 -506 -731 0
-72 -507 -732 0
-73 -508 -733 0
-74 -509 -734 0
-75 -510 -735 0
-71 -511 -726 0
-72 -512 -727 0
-73 -513 -728 0
-74 -514 -729 0
-75 -515 -730 0
-71 -516 -781 0
-72 -517 -782 0
-73 -518 -783 0
-74 -519 -784 0
-75 -520 -785 0
-71 -521 -776 0
-72 -522 -777 0
-73 -523 -778 0
-74 -524 -779 0
-75 -525 -780 0
-71 -526 -791 0
-72 -527 -792 0
-73 -528 -793 0
-74 -529 -794 0
-75 -530 -795 0
-71 -531 -786 0
-72 -532 -787 0
-73 -533 -788 0
-74 -534 -789 0
-75 -535 -790 0
-71 -536 -761 0
-72 -537 -762 0
-73 -538 -763 0
-74 -539 -764 0
-75 -540 -765 0
-71 -541 -756 0
-72 -542 -757 0
-73 -543 -758 0
-74 -544 -759 0
-75 -545 -760 0
-71 -546 -771 0
-72 -547 -772 0
-73 -548 -773 0
-74 -549 -774 0
-75 -550 -775 0
-71 -551 -766 0
-72 -552 -767 0
-73 -553 -768 0
-74 -554 -769 0
-75 -555 -770 0
-71 -556 -661 0
-72 -557 -662 0
-73 -558 -663 0
-74 -559 -664 0
-75 -560 -665 0
-71 -561 -656 0
-72 -562 -657 0
-73 -563 -658 0
-74 -564 -659 0
-75 -565 -660 0
-71 -566 -671 0
-72 -567 -672 0
-73 -568 -673 0
-74 -569 -674 0
-75 -570 -675 0
-71 -571 -666 0
-72 -572 -667 0
-73 -573 -668 0
-74 -574 -669 0
-75 -575 -670 0
-71 -576 -641 0
-72 -577 -642 0
-73 -578 -643 0
-74 -579 -644 0
-75 -580 -645 0
-71 -581 -636 0
-72 -582 -637 0
-73 -583 -638 0
-74 -584 -639 0
-75 -585 -640 0
-71 -586 -651 0
-72 -587 -652 0
-73 -588 -653 0
-74 -589 -654 0
-75 -590 -655 0
-71 -591 -646 0
-72 -592 -647 0
-73 -593 -648 0
-74 -594 -649 0
-75 -595 -650 0
-71 -596 -701 0
-72 -597 -702 0
-73 -598 -703 0
-74 -599 -704 0
-75 -600 -705 0
-71 -601 -696 0
-72 -602 -697 0
-73 -603 -698 0
-74 -604 -699 0
-75 -605 -700 0
-71 -606 -711 0
-72 -607 -712 0
-73 -608 -713 0
-74 -609 -714 0
-75 -610 -715 0
-71 -611 -706 0
-72 -612 -707 0
-73 -613 -708 0
-74 -614 -709 0
-75 -615 -710 0
-71 -616 -681 0
-72 -617 -682 0
-73 -618 -683 0
-74 -619 -684 0
-75 -620 -685 0
-71 -621 -676 0
-72 -622 -677 0
-73 -623 -678 0
-74 -624 -679 0
-75 -625 -680 0
-71 -626 -691 0
-72 -627 -692 0
-73 -628 -693 0
-74 -629 -694 0
-75 -630 -695 0
-71 -631 -686 0
-72 -632 -687 0
-73 -633 -688 0
-74 -634 -689 0
-75 -635 -690 0
-71 -156 -426 0
-72 -157 -427 0
-73 -158 -428 0
-74 -159 -429 0
-75 -160 -430 0
-71 -161 -431 0
-72 -162 -432 0
-73 -163 -433 0
-74 -164 -434 0
-75 -165 -435 0
-71 -166 -416 0
-72 -167 -417 0
-73 -168 -418 0
-74 -169 -419 0
-75 -170 -420 0
-71 -171 -421 0
-72 -172 -422 0
-73 -173 -423 0
-74 -174 -424 0
-75 -175 -425 0
-71 -176 -406 0
-72 -177 -407 0
-73 -178 -408 0
-74 -179 -409 0
-75 -180 -410 0
-71 -181 -411 0
-72 -182 -412 0
-73 -183 -413 0
-74 -184 -414 0
-75 -185 -415 0
-71 -186 -396 0
-72 -187 -397 0
-73 -188 -398 0
-74 -189 -399 0
-75 -190 -400 0
-71 -191 -401 0
-72 -192 -402 0
-73 -193 -403 0
-74 -194 -404 0
-75 -195 -405 0
-71 -196 -466 0
-72 -197 -467 0
-73 -198 -468 0
-74 -199 -469 0
-75 -200 -470 0
-71 -201 -471 0
-72 -202 -472 0
-73 -203 -473 0
-74 -204 -474 0
-75 -205 -475 0
-71 -206 -456 0
-72 -207 -457 0
-73 -208 -458 0
-74 -209 -459 0
-75 -210 -460 0
-71 -211 -461 0
-72 -212 -462 0
-73 -213 -463 0
-74 -214 -464 0
-75 -215 -465 0
-71 -216 -446 0
-72 -217 -447 0
-73 -218 -448 0
-74 -219 -449 0
-75 -220 -450 0
-71 -221 -451 0
-72 -222 -452 0
-73 -223 -453 0
-74 -224 -454 0
-75 -225 -455 0
-71 -226 -436 0
-72 -227 -437 0
-73 -228 -438 0
-74 -229 -439 0
-75 -230 -440 0
-71 -231 -441 0
-72 -232 -442 0
-73 -233 -443 0
-74 -234 -444 0
-75 -235 -445 0
-71 -236 -346 0
-72 -237 -347 0
-73 -238 -348 0
-74 -239 -349 0
-75 -240 -350 0
-71 -241 -351 0
-72 -242 -352 0
-73 -243 -353 0
-74 -244 -354 0
-75 -245 -355 0
-71 -246 -336 0
-72 -247 -337 0
-73 -248 -338 0
-74 -249 -339 0
-75 -250 -340 0
-71 -251 -341 0
-72 -252 -342 0
-73 -253 -343 0
-74 -254 -344 0
-75 -255 -345 0
-71 -256 -326 0
-72 -257 -327 0
-73 -258 -328 0
-74 -259 -329 0
-75 -260 -330 0
-71 -261 -331 0
-72 -262 -332 0
-73 -263 -333 0
-74 -264 -334 0
-75 -265 -335 0
-71 -266 -316 0
-72 -267 -317 0
-73 -268 -318 0
-74 -269 -319 0
-75 -270 -320 0
-71 -271 -321 0
-72 -272 -322 0
-73 -273 -323 0
-74 -274 -324 0
-75 -275 -325 0
-71 -276 -386 0
-72 -277 -387 0
-73 -278 -388 0
-74 -279 -389 0
-75 -280 -390 0
-71 -281 -391 0
-72 -282 -392 0
-73 -283 -393 0
-74 -284 -394 0
-75 -285 -395 0
-71 -286 -376 0
-72 -287 -377 0
-73 -288 -378 0
-74 -289 -379 0
-75 -290 -380 0
-71 -291 -381 0
-72 -292 -382 0
-73 -293 -383 0
-74 -294 -384 0
-75 -295 -385 0
-71 -296 -366 0
-72 -297 -367 0
-73 -298 -368 0
-74 -299 -369 0
-75 -300 -370 0
-71 -301 -371 0
-72 -302 -372 0
-73 -303 -373 0
-74 -304 -374 0
-75 -305 -375 0
-71 -306 -356 0
-72 -307 -357 0
-73 -308 -358 0
-74 -309 -359 0
-75 -310 -360 0
-71 -311 -361 0
-72 -312 -362 0
-73 -313 -363 0
-74 -314 -364 0
-75 -315 -365 0
-71 -476 -746 0
-72 -477 -747 0
-73 -478 -748 0
-74 -479 -749 0
-75 -480 -750 0
-71 -481 -751 0
-72 -482 -752 0
-73 -483 -753 0
-74 -484 -754 0
-75 -485 -755 0
-71 -486 -736 0
-72 -487 -737 0
-73 -488 -738 0
-74 -489 -739 0
-75 -490 -740 0
-71 -491 -741 0
-72 -492 -742 0
-73 -493 -743 0
-74 -494 -744 0
-75 -495 -745 0
-71 -496 -726 0
-72 -497 -727 0
-73 -498 -728 0
-74 -499 -729 0
-75 -500 -730 0
-71 -501 -731 0
-72 -502 -732 0
-73 -503 -733 0
-74 -504 -734 0
-75 -505 -735 0
-71 -506 -716 0
-72 -507 -717 0
-73 -508 -718 0
-74 -509 -719 0
-75 -510 -720 0
-71 -511 -721 0
-72 -512 -722 0
-73 -513 -723 0
-74 -514 -724 0
-75 -515 -725 0
-71 -516 -786 0
-72 -517 -787 0
-73 -518 -788 0
-74 -519 -789 0
-75 -520 -790 0
-71 -521 -791 0
-72 -522 -792 0
-73 -523 -793 0
-74 -524 -794 0
-75 -525 -795 0
-71 -526 -776 0
-72 -527 -777 0
-73 -528 -778 0
-74 -529 -779 0
-75 -530 -780 0
-71 -531 -781 0
-72 -532 -782 0
-73 -533 -783 0
-74 -534 -784 0
-75 -535 -785 0
-71 -536 -766 0
-72 -537 -767 0
-73 -538 -768 0
-74 -539 -769 0
-75 -540 -770 0
-71 -541 -771 0
-72 -542 -772 0
-73 -543 -773 0
-74 -544 -774 0
-75 -545 -775 0
-71 -546 -756 0
-72 -547 -757 0
-73 -548 -758 0
-74 -549 -759 0
-75 -550 -760 0
-71 -551 -761 0
-72 -552 -762 0
-73 -553 -763 0
-74 -554 -764 0
-75 -555 -765 0
-71 -556 -666 0
-72 -557 -667 0
-73 -558 -668 0
-74 -559 -669 0
-75 -560 -670 0
-71 -561 -671 0
-72 -562 -672 0
-73 -563 -673 0
-74 -564 -674 0
-75 -565 -675 0
-71 -566 -656 0
-72 -567 -657 0
-73 -568 -658 0
-74 -569 -659 0
-75 -570 -660 0
-71 -571 -661 0
-72 -572 -662 0
-73 -573 -663 0
-74 -574 -664 0
-75 -575 -665 0
-71 -576 -646 0
-72 -577 -647 0
-73 -578 -648 0
-74 -579 -649 0
-75 -580 -650 0
-71 -581 -651 0
-72 -582 -652 0
-73 -583 -653 0
-74 -584 -654 0
-75 -585 -655 0
-71 -586 -636 0
-72 -587 -637 0
-73 -588 -638 0
-74 -589 -639 0
-75 -590 -640 0
-71 -591 -641 0
-72 -592 -642 0
-73 -593 -643 0
-74 -594 -644 0
-75 -595 -645 0
-71 -596 -706 0
-72 -597 -707 0
-73 -598 -708 0
-74 -599 -709 0
-75 -600 -710 0
-71 -601 -711 0
-72 -602 -712 0
-73 -603 -713 0
-74 -604 -714 0
-75 -605 -715 0
-71 -606 -696 0
-72 -607 -697 0
-73 -608 -698 0
-74 -609 -699 0
-75 -610 -700 0
-71 -611 -701 0
-72 -612 -702 0
-73 -613 -703 0
-74 -614 -704 0
-75 -615 -705 0
-71 -616 -686 0
-72 -617 -687 0
-73 -618 -688 0
-74 -619 -689 0
-75 -620 -690 0
-71 -621 -691 0
-72 -622 -692 0
-73 -623 -693 0
-74 -624 -694 0
-75 -625 -695 0
-71 -626 -676 0
-72 -627 -677 0
-73 -628 -678 0
-74 -629 -679 0
-75 -630 -680 0
-71 -631 -681 0
-72 -632 -682 0
-73 -633 -683 0
-74 -634 -684 0
-75 -635 -685 0
-66 -156 -431 0
-67 -157 -432 0
-68 -158 -433 0
-69 -159 -434 0
-70 -160 -435 0
-66 -161 -426 0
-67 -162 -427 0
-68 -163 -428 0
-69 -164 -429 0
-70 -165 -430 0
-66 -166 -421 0
-67 -167 -422 0
-68 -168 -423 0
-69 -169 -424 0
-70 -170 -425 0
-66 -171 -416 0
-67 -172 -417 0
-68 -173 -418 0
-69 -174 -419 0
-70 -175 -420 0
-66 -176 -411 0
-67 -177 -412 0
-68 -178 -413 0
-69 -179 -414 0
-70 -180 -415 0
-66 -181 -406 0
-67 -182 -407 0
-68 -183 -408 0
-69 -184 -409 0
-70 -185 -410 0
-66 -186 -401 0
-67 -187 -402 0
-68 -188 -403 0
-69 -189 -404 0
-70 -190 -405 0
-66 -191 -396 0
-67 -192 -397 0
-68 -193 -398 0
-69 -194 -399 0
-70 -195 -400 0
-66 -196 -471 0
-67 -197 -472 0
-68 -198 -473 0
-69 -199 -474 0
-70 -200 -475 0
-66 -201 -466 0
-67 -202 -467 0
-68 -203 -468 0
-69 -204 -469 0
-70 -205 -470 0
-66 -206 -461 0
-67 -207 -462 0
-68 -208 -463 0
-69 -209 -464 0
-70 -210 -465 0
-66 -211 -456 0
-67 -212 -457 0
-68 -213 -458 0
-69 -214 -459 0
-70 -215 -460 0
-66 -216 -451 0
-67 -217 -452 0
-68 -218 -453 0
-69 -219 -454 0
-70 -220 -455 0
-66 -221 -446 0
-67 -222 -447 0
-68 -223 -448 0
-69 -224 -449 0
-70 -225 -450 0
-66 -226 -441 0
-67 -227 -442 0
-68 -228 -443 0
-69 -229 -444 0
-70 -230 -445 0
-66 -231 -436 0
-67 -232 -437 0
-68 -233 -438 0
-69 -234 -439 0
-70 -235 -440 0
-66 -236 -351 0
-67 -237 -352 0
-68 -238 -353 0
-69 -239 -354 0
-70 -240 -355 0
-66 -241 -346 0
-67 -242 -347 0
-68 -243 -348 0
-69 -244 -349 0
-70 -245 -350 0
-66 -246 -341 0
-67 -247 -342 0
-68 -248 -343 0
-69 -249 -344 0
-70 -250 -345 0
-66 -251 -336 0
-67 -252 -337 0
-68 -253 -338 0
-69 -254 -339 0
-70 -255 -340 0
-66 -256 -331 0
-67 -257 -332 0
-68 -258 -333 0
-69 -259 -334 0
-70 -260 -335 0
-66 -261 -326 0
-67 -262 -327 0
-68 -263 -328 0
-69 -264 -329 0
-70 -265 -330 0
-66 -266 -321 0
-67 -267 -322 0
-68 -268 -323 0
-69 -269 -324 0
-70 -270 -325 0
-66 -271 -316 0
-67 -272 -317 0
-68 -273 -318 0
-69 -274 -319 0
-70 -275 -320 0
-66 -276 -391 0
-67 -277 -392 0
-68 -278 -393 0
-69 -279 -394 0
-70 -280 -395 0
-66 -281 -386 0
-67 -282 -387 0
-68 -283 -388 0
-69 -284 -389 0
-70 -285 -390 0
-66 -286 -381 0
-67 -287 -382 0
-68 -288 -383 0
-69 -289 -384 0
-70 -290 -385 0
-66 -291 -376 0
-67 -292 -377 0
-68 -293 -378 0
-69 -294 -379 0
-70 -295 -380 0
-66 -296 -371 0
-67 -297 -372 0
-68 -298 -373 0
-69 -299 -374 0
-70 -300 -375 0
-66 -301 -366 0
-67 -302 -367 0
-68 -303 -368 0
-69 -304 -369 0
-70 -305 -370 0
-66 -306 -361 0
-67 -307 -362 0
-68 -308 -363 0
-69 -309 -364 0
-70 -310 -365 0
-66 -311 -356 0
-67 -312 -357 0
-68 -313 -358 0
-69 -314 -359 0
-70 -315 -360 0
-66 -476 -751 0
-67 -477 -752 0
-68 -478 -753 0
-69 -479 -754 0
-70 -480 -755 0
-66 -481 -746 0
-67 -482 -747 0
-68 -483 -748 0
-69 -484 -749 0
-70 -485 -750 0
-66 -486 -741 0
-67 -487 -742 0
-68 -488 -743 0
-69 -489 -744 0
-70 -490 -745 0
-66 -491 -736 0
-67 -492 -737 0
-68 -493 -738 0
-69 -494 -739 0
-70 -495 -740 0
-66 -496 -731 0
-67 -497 -732 0
-68 -498 -733 0
-69 -499 -734 0
-70 -500 -735 0
-66 -501 -726 0
-67 -502 -727 0
-68 -503 -728 0
-69 -504 -729 0
-70 -505 -730 0
-66 -506 -721 0
-67 -507 -722 0
-68 -508 -723 0
-69 -509 -724 0
-70 -510 -725 0
-66 -511 -716 0
-67 -512 -717 0
-68 -513 -718 0
-69 -514 -719 0
-70 -515 -720 0
-66 -516 -791 0
-67 -517 -792 0
-68 -518 -793 0
-69 -519 -794 0
-70 -520 -795 0
-66 -521 -786 0
-67 -522 -787 0
-68 -523 -788 0
-69 -524 -789 0
-70 -525 -790 0
-66 -526 -781 0
-67 -527 -782 0
-68 -528 -783 0
-69 -529 -784 0
-70 -530 -785 0
-66 -531 -776 0
-67 -532 -777 0
-68 -533 -778 0
-69 -534 -779 0
-70 -535 -780 0
-66 -536 -771 0
-67 -537 -772 0
-68 -538 -773 0
-69 -539 -774 0
-70 -540 -775 0
-66 -541 -766 0
-67 -542 -767 0
-68 -543 -768 0
-69 -544 -769 0
-70 -545 -770 0
-66 -546 -761 0
-67 -547 -762 0
-68 -548 -763 0
-69 -549 -764 0
-70 -550 -765 0
-66 -551 -756 0
-67 -552 -757 0
-68 -553 -758 0
-69 -554 -759 0
-70 -555 -760 0
-66 -556 -671 0
-67 -557 -672 0
-68 -558 -673 0
-69 -559 -674 0
-70 -560 -675 0
-66 -561 -666 0
-67 -562 -667 0
-68 -563 -668 0
-69 -564 -669 0
-70 -565 -670 0
-66 -566 -661 0
-67 -567 -662 0
-68 -568 -663 0
-69 -569 -664 0
-70 -570 -665 0
-66 -571 -656 0
-67 -572 -657 0
-68 -573 -658 0
-69 -574 -659 0
-70 -575 -660 0
-66 -576 -651 0
-67 -577 -652 0
-68 -578 -653 0
-69 -579 -654 0
-70 -580 -655 0
-66 -581 -646 0
-67 -582 -647 0
-68 -583 -648 0
-69 -584 -649 0
-70 -585 -650 0
-66 -586 -641 0
-67 -587 -642 0
-68 -588 -643 0
-69 -589 -644 0
-70 -590 -645 0
-66 -591 -636 0
-67 -592 -637 0
-68 -593 -638 0
-69 -594 -639 0
-70 -595 -640 0
-66 -596 -711 0
-67 -597 -712 0
-68 -598 -713 0
-69 -599 -714 0
-70 -600 -715 0
-66 -601 -706 0
-67 -602 -707 0
-68 -603 -708 0
-69 -604 -709 0
-70 -605 -710 0
-66 -606 -701 0
-67 -607 -702 0
-68 -608 -703 0
-69 -609 -704 0
-70 -610 -705 0
-66 -611 -696 0
-67 -612 -697 0
-68 -613 -698 0
-69 -614 -699 0
-70 -615 -700 0
-66 -616 -691 0
-67 -617 -692 0
-68 -618 -693 0
-69 -619 -694 0
-70 -620 -695 0
-66 -621 -686 0
-67 -622 -687 0
-68 -623 -688 0
-69 -624 -689 0
-70 -625 -690 0
-66 -626 -681 0
-67 -627 -682 0
-68 -628 -683 0
-69 -629 -684 0
-70 -630 -685 0
-66 -631 -676 0
-67 -632 -677 0
-68 -633 -678 0
-69 -634 -679 0
-70 -635 -680 0
-61 -156 -436 0
-62 -157 -437 0
-63 -158 -438 0
-64 -159 -439 0
-65 -160 -440 0
-61 -161 -441 0
-62 -162 -442 0
-63 -163 -443 0
-64 -164 -444 0
-65 -165 -445 0
-61 -166 -446 0
-62 -167 -447 0
-63 -168 -448 0
-64 -169 -449 0
-65 -170 -450 0
-61 -171 -451 0
-62 -172 -452 0
-63 -173 -453 0
-64 -174 -454 0
-65 -175 -455 0
-61 -176 -456 0
-62 -177 -457 0
-63 -178 -458 0
-64 -179 -459 0
-65 -180 -460 0
-61 -181 -461 0
-62 -182 -462 0
-63 -183 -463 0
-64 -184 -464 0
-65 -185 -465 0
-61 -186 -466 0
-62 -187 -467 0
-63 -188 -468 0
-64 -189 -469 0
-65 -190 -470 0
-61 -191 -471 0
-62 -192 -472 0
-63 -193 -473 0
-64 -194 -474 0
-65 -195 -475 0
-61 -196 -396 0
-62 -197 -397 0
-63 -198 -398 0
-64 -199 -399 0
-65 -200 -400 0
-61 -201 -401 0
-62 -202 -402 0
-63 -203 -403 0
-64 -204 -404 0
-65 -205 -405 0
-61 -206 -406 0
-62 -207 -407 0
-63 -208 -408 0
-64 -209 -409 0
-65 -210 -410 0
-61 -211 -411 0
-62 -212 -412 0
-63 -213 -413 0
-64 -214 -414 0
-65 -215 -415 0
-61 -216 -416 0
-62 -217 -417 0
-63 -218 -418 0
-64 -219 -419 0
-65 -220 -420 0
-61 -221 -421 0
-62 -222 -422 0
-63 -223 -423 0
-64 -224 -424 0
-65 -225 -425 0
-61 -226 -426 0
-62 -227 -427 0
-63 -228 -428 0
-64 -229 -429 0
-65 -230 -430 0
-61 -231 -431 0
-62 -232 -432 0
-63 -233 -433 0
-64 -234 -434 0
-65 -235 -435 0
-61 -236 -356 0
-62 -237 -357 0
-63 -238 -358 0
-64 -239 -359 0
-65 -240 -360 0
-61 -241 -361 0
-62 -242 -362 0
-63 -243 -363 0
-64 -244 -364 0
-65 -245 -365 0
-61 -246 -366 0
-62 -247 -367 0
-63 -248 -368 0
-64 -249 -369 0
-65 -250 -370 0
-61 -251 -371 0
-62 -252 -372 0
-63 -253 -373 0
-64 -254 -374 0
-65 -255 -375 0
-61 -256 -376 0
-62 -257 -377 0
-63 -258 -378 0
-64 -259 -379 0
-65 -260 -380 0
-61 -261 -381 0
-62 -262 -382 0
-63 -263 -383 0
-64 -264 -384 0
-65 -265 -385 0
-61 -266 -386 0
-62 -267 -387 0
-63 -268 -388 0
-64 -269 -389 0
-65 -270 -390 0
-61 -271 -391 0
-62 -272 -392 0
-63 -273 -393 0
-64 -274 -394 0
-65 -275 -395 0
-61 -276 -316 0
-62 -277 -317 0
-63 -278 -318 0
-64 -279 -319 0
-65 -280 -320 0
-61 -281 -321 0
-62 -282 -322 0
-63 -283 -323 0
-64 -284 -324 0
-65 -285 -325 0
-61 -286 -326 0
-62 -287 -327 0
-63 -288 -328 0
-64 -289 -329 0
-65 -290 -330 0
-61 -291 -331 0
-62 -292 -332 0
-63 -293 -333 0
-64 -294 -334 0
-65 -295 -335 0
-61 -296 -336 0
-62 -297 -337 0
-63 -298 -338 0
-64 -299 -339 0
-65 -300 -340 0
-61 -301 -341 0
-62 -302 -342 0
-63 -303 -343 0
-64 -304 -344 0
-65 -305 -345 0
-61 -306 -346 0
-62 -307 -347 0
-63 -308 -348 0
-64 -309 -349 0
-65 -310 -350 0
-61 -311 -351 0
-62 -312 -352 0
-63 -313 -353 0
-64 -314 -354 0
-65 -315 -355 0
-61 -476 -756 0
-62 -477 -757 0
-63 -478 -758 0
-64 -479 -759 0
-65 -480 -760 0
-61 -481 -761 0
-62 -482 -762 0
-63 -483 -763 0
-64 -484 -764 0
-65 -485 -765 0
-61 -486 -766 0
-62 -487 -767 0
-63 -488 -768 0
-64 -489 -769 0
-65 -490 -770 0
-61 -491 -771 0
-62 -492 -772 0
-63 -493 -773 0
-64 -494 -774 0
-65 -495 -775 0
-61 -496 -776 0
-62 -497 -777 0
-63 -498 -778 0
-64 -499 -779 0
-65 -500 -780 0
-61 -501 -781 0
-62 -502 -782 0
-63 -503 -783 0
-64 -504 -784 0
-65 -505 -785 0
-61 -506 -786 0
-62 -507 -787 0
-63 -508 -788 0
-64 -509 -789 0
-65 -510 -790 0
-61 -511 -791 0
-62 -512 -792 0
-63 -513 -793 0
-64 -514 -794 0
-65 -515 -795 0
-61 -516 -716 0
-62 -517 -717 0
-63 -518 -718 0
-64 -519 -719 0
-65 -520 -720 0
-61 -521 -721 0
-62 -522 -722 0
-63 -523 -723 0
-64 -524 -724 0
-65 -525 -725 0
-61 -526 -726 0
-62 -527 -727 0
-63 -528 -728 0
-64 -529 -729 0
-65 -530 -730 0
-61 -531 -731 0
-62 -532 -732 0
-63 -533 -733 0
-64 -534 -734 0
-65 -535 -735 0
-61 -536 -736 0
-62 -537 -737 0
-63 -538 -738 0
-64 -539 -739 0
-65 -540 -740 0
-61 -541 -741 0
-62 -542 -742 0
-63 -543 -743 0
-64 -544 -744 0
-65 -545 -745 0
-61 -546 -746 0
-62 -547 -747 0
-63 -548 -748 0
-64 -549 -749 0
-65 -550 -750 0
-61 -551 -751 0
-62 -552 -752 0
-63 -553 -753 0
-64 -554 -754 0
-65 -555 -755 0
-61 -556 -676 0
-62 -557 -677 0
-63 -558 -678 0
-64 -559 -679 0
-65 -560 -680 0
-61 -561 -681 0
-62 -562 -682 0
-63 -563 -683 0
-64 -564 -684 0
-65 -565 -685 0
-61 -566 -686 0
-62 -567 -687 0
-63 -568 -688 0
-64 -569 -689 0
-65 -570 -690 0
-61 -571 -691 0
-62 -572 -692 0
-63 -573 -693 0
-64 -574 -694 0
-65 -575 -695 0
-61 -576 -696 0
-62 -577 -697 0
-63 -578 -698 0
-64 -579 -699 0
-65 -580 -700 0
-61 -581 -701 0
-62 -582 -702 0
-63 -583 -703 0
-64 -584 -704 0
-65 -585 -705 0
-61 -586 -706 0
-62 -587 -707 0
-63 -588 -708 0
-64 -589 -709 0
-65 -590 -710 0
-61 -591 -711 0
-62 -592 -712 0
-63 -593 -713 0
-64 -594 -714 0
-65 -595 -715 0
-61 -596 -636 0
-62 -597 -637 0
-63 -598 -638 0
-64 -599 -639 0
-65 -600 -640 0
-61 -601 -641 0
-62 -602 -642 0
-63 -603 -643 0
-64 -604 -644 0
-65 -605 -645 0
-61 -606 -646 0
-62 -607 -647 0
-63 -608 -648 0
-64 -609 -649 0
-65 -610 -650 0
-61 -611 -651 0
-62 -612 -652 0
-63 -613 -653 0
-64 -614 -654 0
-65 -615 -655 0
-61 -616 -656 0
-62 -617 -657 0
-63 -618 -658 0
-64 -619 -659 0
-65 -620 -660 0
-61 -621 -661 0
-62 -622 -662 0
-63 -623 -663 0
-64 -624 -664 0
-65 -625 -665 0
-61 -626 -666 0
-62 -627 -667 0
-63 -628 -668 0
-64 -629 -669 0
-65 -630 -670 0
-61 -631 -671 0
-62 -632 -672 0
-63 -633 -673 0
-64 -634 -674 0
-65 -635 -675 0
-71 -156 -441 0
-72 -157 -442 0
-73 -158 -443 0
-74 -159 -444 0
-75 -160 -445 0
-71 -161 -436 0
-72 -162 -437 0
-73 -163 -438 0
-74 -164 -439 0
-75 -165 -440 0
-71 -166 -451 0
-72 -167 -452 0
-73 -168 -453 0
-74 -169 -454 0
-75 -170 -455 0
-71 -171 -446 0
-72 -172 -447 0
-73 -173 -448 0
-74 -174 -449 0
-75 -175 -450 0
-71 -176 -461 0
-72 -177 -462 0
-73 -178 -463 0
-74 -179 -464 0
-75 -180 -465 0
-71 -181 -456 0
-72 -182 -457 0
-73 -183 -458 0
-74 -184 -459 0
-75 -185 -460 0
-71 -186 -471 0
-72 -187 -472 0
-73 -188 -473 0
-74 -189 -474 0
-75 -190 -475 0
-71 -191 -466 0
-72 -192 -467 0
-73 -193 -468 0
-74 -194 -469 0
-75 -195 -470 0
-71 -196 -401 0
-72 -197 -402 0
-73 -198 -403 0
-74 -199 -404 0
-75 -200 -405 0
-71 -201 -396 0
-72 -202 -397 0
-73 -203 -398 0
-74 -204 -399 0
-75 -205 -400 0
-71 -206 -411 0
-72 -207 -412 0
-73 -208 -413 0
-74 -209 -414 0
-75 -210 -415 0
-71 -211 -406 0
-72 -212 -407 0
-73 -213 -408 0
-74 -214 -409 0
-75 -215 -410 0
-71 -216 -421 0
-72 -217 -422 0
-73 -218 -423 0
-74 -219 -424 0
-75 -220 -425 0
-71 -221 -416 0
-72 -222 -417 0
-73 -223 -418 0
-74 -224 -419 0
-75 -225 -420 0
-71 -226 -431 0
-72 -227 -432 0
-73 -228 -433 0
-74 -229 -434 0
-75 -230 -435 0
-71 -231 -426 0
-72 -232 -427 0
-73 -233 -428 0
-74 -234 -429 0
-75 -235 -430 0
-71 -236 -361 0
-72 -237 -362 0
-73 -238 -363 0
-74 -239 -364 0
-75 -240 -365 0
-71 -241 -356 0
-72 -242 -357 0
-73 -243 -358 0
-74 -244 -359 0
-75 -245 -360 0
-71 -246 -371 0
-72 -247 -372 0
-73 -248 -373 0
-74 -249 -374 0
-75 -250 -375 0
-71 -251 -366 0
-72 -252 -367 0
-73 -253 -368 0
-74 -254 -369 0
-75 -255 -370 0
-71 -256 -381 0
-72 -257 -382 0
-73 -258 -383 0
-74 -259 -384 0
-75 -260 -385 0
-71 -261 -376 0
-72 -262 -377 0
-73 -263 -378 0
-74 -264 -379 0
-75 -265 -380 0
-71 -266 -391 0
-72 -267 -392 0
-73 -268 -393 0
-74 -269 -394 0
-75 -270 -395 0
-71 -271 -386 0
-72 -272 -387 0
-73 -273 -388 0
-74 -274 -389 0
-75 -275 -390 0
-71 -276 -321 0
-72 -277 -322 0
-73 -278 -323 0
-74 -279 -324 0
-75 -280 -325 0
-71 -281 -316 0
-72 -282 -317 0
-73 -283 -318 0
-74 -284 -319 0
-75 -285 -320 0
-71 -286 -331 0
-72 -287 -332 0
-73 -288 -333 0
-74 -289 -334 0
-75 -290 -335 0
-71 -291 -326 0
-72 -292 -327 0
-73 -293 -328 0
-74 -294 -329 0
-75 -295 -330 0
-71 -296 -341 0
-72 -297 -342 0
-73 -298 -343 0
-74 -299 -344 0
-75 -300 -345 0
-71 -301 -336 0
-72 -302 -337 0
-73 -303 -338 0
-74 -304 -339 0
-75 -305 -340 0
-71 -306 -351 0
-72 -307 -352 0
-73 -308 -353 0
-74 -309 -354 0
-75 -310 -355 0
-71 -311 -346 0
-72 -312 -347 0
-73 -313 -348 0
-74 -314 -349 0
-75 -315 -350 0
-71 -476 -761 0
-72 -477 -762 0
-73 -478 -763 0
-74 -479 -764 0
-75 -480 -765 0
-71 -481 -756 0
-72 -482 -757 0
-73 -483 -758 0
-74 -484 -759 0
-75 -485 -760 0
-71 -486 -771 0
-72 -487 -772 0
-73 -488 -773 0
-74 -489 -774 0
-75 -490 -775 0
-71 -491 -766 0
-72 -492 -767 0
-73 -493 -768 0
-74 -494 -769 0
-75 -495 -770 0
-71 -496 -781 0
-72 -497 -782 0
-73 -498 -783 0
-74 -499 -784 0
-75 -500 -785 0
-71 -501 -776 0
-72 -502 -777 0
-73 -503 -778 0
-74 -504 -779 0
-75 -505 -780 0
-71 -506 -791 0
-72 -507 -792 0
-73 -508 -793 0
-74 -509 -794 0
-75 -510 -795 0
-71 -511 -786 0
-72 -512 -787 0
-73 -513 -788 0
-74 -514 -789 0
-75 -515 -790 0
-71 -516 -721 0
-72 -517 -722 0
-73 -518 -723 0
-74 -519 -724 0
-75 -520 -725 0
-71 -521 -716 0
-72 -522 -717 0
-73 -523 -718 0
-74 -524 -719 0
-75 -525 -720 0
-71 -526 -731 0
-72 -527 -732 0
-73 -528 -733 0
-74 -529 -734 0
-75 -530 -735 0
-71 -531 -726 0
-72 -532 -727 0
-73 -533 -728 0
-74 -534 -729 0
-75 -535 -730 0
-71 -536 -741 0
-72 -537 -742 0
-73 -538 -743 0
-74 -539 -744 0
-75 -540 -745 0
-71 -541 -736 0
-72 -542 -737 0
-73 -543 -738 0
-74 -544 -739 0
-75 -545 -740 0
-71 -546 -751 0
-72 -547 -752 0
-73 -548 -753 0
-74 -549 -754 0
-75 -550 -755 0
-71 -551 -746 0
-72 -552 -747 0
-73 -553 -748 0
-74 -554 -749 0
-75 -555 -750 0
-71 -556 -681 0
-72 -557 -682 0
-73 -558 -683 0
-74 -559 -684 0
-75 -560 -685 0
-71 -561 -676 0
-72 -562 -677 0
-73 -563 -678 0
-74 -564 -679 0
-75 -565 -680 0
-71 -566 -691 0
-72 -567 -692 0
-73 -568 -693 0
-74 -569 -694 0
-75 -570 -695 0
-71 -571 -686 0
-72 -572 -687 0
-73 -573 -688 0
-74 -574 -689 0
-75 -575 -690 0
-71 -576 -701 0
-72 -577 -702 0
-73 -578 -703 0
-74 -579 -704 0
-75 -580 -705 0
-71 -581 -696 0
-72 -582 -697 0
-73 -583 -698 0
-74 -584 -699 0
-75 -585 -700 0
-71 -586 -711 0
-72 -587 -712 0
-73 -588 -713 0
-74 -589 -714 0
-75 -590 -715 0
-71 -591 -706 0
-72 -592 -707 0
-73 -593 -708 0
-74 -594 -709 0
-75 -595 -710 0
-71 -596 -641 0
-72 -597 -642 0
-73 -598 -643 0
-74 -599 -644 0
-75 -600 -645 0
-71 -601 -636 0
-72 -602 -637 0
-73 -603 -638 0
-74 -604 -639 0
-75 -605 -640 0
-71 -606 -651 0
-72 -607 -652 0
-73 -608 -653 0
-74 -609 -654 0
-75 -610 -655 0
-71 -611 -646 0
-72 -612 -647 0
-73 -613 -648 0
-74 -614 -649 0
-75 -615 -650 0
-71 -616 -661 0
-72 -617 -662 0
-73 -618 -663 0
-74 -619 -664 0
-75 -620 -665 0
-71 -621 -656 0
-72 -622 -657 0
-73 -623 -658 0
-74 -624 -659 0
-75 -625 -660 0
-71 -626 -671 0
-72 -627 -672 0
-73 -628 -673 0
-74 -629 -674 0
-75 -630 -675 0
-71 -631 -666 0
-72 -632 -667 0
-73 -633 -668 0
-74 -634 -669 0
-75 -635 -670 0
-61 -156 -446 0
-62 -157 -447 0
-63 -158 -448 0
-64 -159 -449 0
-65 -160 -450 0
-61 -161 -451 0
-62 -162 -452 0
-63 -163 -453 0
-64 -164 -454 0
-65 -165 -455 0
-61 -166 -436 0
-62 -167 -437 0
-63 -168 -438 0
-64 -169 -439 0
-65 -170 -440 0
-61 -171 -441 0
-62 -172 -442 0
-63 -173 -443 0
-64 -174 -444 0
-65 -175 -445 0
-61 -176 -466 0
-62 -177 -467 0
-63 -178 -468 0
-64 -179 -469 0
-65 -180 -470 0
-61 -181 -471 0
-62 -182 -472 0
-63 -183 -473 0
-64 -184 -474 0
-65 -185 -475 0
-61 -186 -456 0
-62 -187 -457 0
-63 -188 -458 0
-64 -189 -459 0
-65 -190 -460 0
-61 -191 -461 0
-62 -192 -462 0
-63 -193 -463 0
-64 -194 -464 0
-65 -195 -465 0
-61 -196 -406 0
-62 -197 -407 0
-63 -198 -408 0
-64 -199 -409 0
-65 -200 -410 0
-61 -201 -411 0
-62 -202 -412 0
-63 -203 -413 0
-64 -204 -414 0
-65 -205 -415 0
-61 -206 -396 0
-62 -207 -397 0
-63 -208 -398 0
-64 -209 -399 0
-65 -210 -400 0
-61 -211 -401 0
-62 -212 -402 0
-63 -213 -403 0
-64 -214 -404 0
-65 -215 -405 0
-61 -216 -426 0
-62 -217 -427 0
-63 -218 -428 0
-64 -219 -429 0
-65 -220 -430 0
-61 -221 -431 0
-62 -222 -432 0
-63 -223 -433 0
-64 -224 -434 0
-65 -225 -435 0
-61 -226 -416 0
-62 -227 -417 0
-63 -228 -418 0
-64 -229 -419 0
-65 -230 -420 0
-61 -231 -421 0
-62 -232 -422 0
-63 -233 -423 0
-64 -234 -424 0
-65 -235 -425 0
-61 -236 -366 0
-62 -237 -367 0
-63 -238 -368 0
-64 -239 -369 0
-65 -240 -370 0
-61 -241 -371 0
-62 -242 -372 0
-63 -243 -373 0
-64 -244 -374 0
-65 -245 -375 0
-61 -246 -356 0
-62 -247 -357 0
-63 -248 -358 0
-64 -249 -359 0
-65 -250 -360 0
-61 -251 -361 0
-62 -252 -362 0
-63 -253 -363 0
-64 -254 -364 0
-65 -255 -365 0
-61 -256 -386 0
-62 -257 -387 0
-63 -258 -388 0
-64 -259 -389 0
-65 -260 -390 0
-61 -261 -391 0
-62 -262 -392 0
-63 -263 -393 0
-64 -264 -394 0
-65 -265 -395 0
-61 -266 -376 0
-62 -267 -377 0
-63 -268 -378 0
-64 -269 -379 0
-65 -270 -380 0
-61 -271 -381 0
-62 -272 -382 0
-63 -273 -383 0
-64 -274 -384 0
-65 -275 -385 0
-61 -276 -326 0
-62 -277 -327 0
-63 -278 -328 0
-64 -279 -329 0
-65 -280 -330 0
-61 -281 -331 0
-62 -282 -332 0
-63 -283 -333 0
-64 -284 -334 0
-65 -285 -335 0
-61 -286 -316 0
-62 -287 -317 0
-63 -288 -318 0
-64 -289 -319 0
-65 -290 -320 0
-61 -291 -321 0
-62 -292 -322 0
-63 -293 -323 0
-64 -294 -324 0
-65 -295 -325 0
-61 -296 -346 0
-62 -297 -347 0
-63 -298 -348 0
-64 -299 -349 0
-65 -300 -350 0
-61 -301 -351 0
-62 -302 -352 0
-63 -303 -353 0
-64 -304 -354 0
-65 -305 -355 0
-61 -306 -336 0
-62 -307 -337 0
-63 -308 -338 0
-64 -309 -339 0
-65 -310 -340 0
-61 -311 -341 0
-62 -312 -342 0
-63 -313 -343 0
-64 -314 -344 0
-65 -315 -345 0
-61 -476 -766 0
-62 -477 -767 0
-63 -478 -768 0
-64 -479 -769 0
-65 -480 -770 0
-61 -481 -771 0
-62 -482 -772 0
-63 -483 -773 0
-64 -484 -774 0
-65 -485 -775 0
-61 -486 -756 0
-62 -487 -757 0
-63 -488 -758 0
-64 -489 -759 0
-65 -490 -760 0
-61 -491 -761 0
-62 -492 -762 0
-63 -493 -763 0
-64 -494 -764 0
-65 -495 -765 0
-61 -496 -786 0
-62 -497 -787 0
-63 -498 -788 0
-64 -499 -789 0
-65 -500 -790 0
-61 -501 -791 0
-62 -502 -792 0
-63 -503 -793 0
-64 -504 -794 0
-65 -505 -795 0
-61 -506 -776 0
-62 -507 -777 0
-63 -508 -778 0
-64 -509 -779 0
-65 -510 -780 0
-61 -511 -781 0
-62 -512 -782 0
-63 -513 -783 0
-64 -514 -784 0
-65 -515 -785 0
-61 -516 -726 0
-62 -517 -727 0
-63 -518 -728 0
-64 -519 -729 0
-65 -520 -730 0
-61 -521 -731 0
-62 -522 -732 0
-63 -523 -733 0
-64 -524 -734 0
-65 -525 -735 0
-61 -526 -716 0
-62 -527 -717 0
-63 -528 -718 0
-64 -529 -719 0
-65 -530 -720 0
-61 -531 -721 0
-62 -532 -722 0
-63 -533 -723 0
-64 -534 -724 0
-65 -535 -725 0
-61 -536 -746 0
-62 -537 -747 0
-63 -538 -748 0
-64 -539 -749 0
-65 -540 -750 0
-61 -541 -751 0
-62 -542 -752 0
-63 -543 -753 0
-64 -544 -754 0
-65 -545 -755 0
-61 -546 -736 0
-62 -547 -737 0
-63 -548 -738 0
-64 -549 -739 0
-65 -550 -740 0
-61 -551 -741 0
-62 -552 -742 0
-63 -553 -743 0
-64 -554 -744 0
-65 -555 -745 0
-61 -556 -686 0
-62 -557 -687 0
-63 -558 -688 0
-64 -559 -689 0
-65 -560 -690 0
-61 -561 -691 0
-62 -562 -692 0
-63 -563 -693 0
-64 -564 -694 0
-65 -565 -695 0
-61 -566 -676 0
-62 -567 -677 0
-63 -568 -678 0
-64 -569 -679 0
-65 -570 -680 0
-61 -571 -681 0
-62 -572 -682 0
-63 -573 -683 0
-64 -574 -684 0
-65 -575 -685 0
-61 -576 -706 0
-62 -577 -707 0
-63 -578 -708 0
-64 -579 -709 0
-65 -580 -710 0
-61 -581 -711 0
-62 -582 -712 0
-63 -583 -713 0
-64 -584 -714 0
-65 -585 -715 0
-61 -586 -696 0
-62 -587 -697 0
-63 -588 -698 0
-64 -589 -699 0
-65 -590 -700 0
-61 -591 -701 0
-62 -592 -702 0
-63 -593 -703 0
-64 -594 -704 0
-65 -595 -705 0
-61 -596 -646 0
-62 -597 -647 0
-63 -598 -648 0
-64 -599 -649 0
-65 -600 -650 0
-61 -601 -651 0
-62 -602 -652 0
-63 -603 -653 0
-64 -604 -654 0
-65 -605 -655 0
-61 -606 -636 0
-62 -607 -637 0
-63 -608 -638 0
-64 -609 -639 0
-65 -610 -640 0
-61 -611 -641 0
-62 -612 -642 0
-63 -613 -643 0
-64 -614 -644 0
-65 -615 -645 0
-61 -616 -666 0
-62 -617 -667 0
-63 -618 -668 0
-64 -619 -669 0
-65 -620 -670 0
-61 -621 -671 0
-62 -622 -672 0
-63 -623 -673 0
-64 -624 -674 0
-65 -625 -675 0
-61 -626 -656 0
-62 -627 -657 0
-63 -628 -658 0
-64 -629 -659 0
-65 -630 -660 0
-61 -631 -661 0
-62 -632 -662 0
-63 -633 -663 0
-64 -634 -664 0
-65 -635 -665 0
-66 -156 -451 0
-67 -157 -452 0
-68 -158 -453 0
-69 -159 -454 0
-70 -160 -455 0
-66 -161 -446 0
-67 -162 -447 0
-68 -163 -448 0
-69 -164 -449 0
-70 -165 -450 0
-66 -166 -441 0
-67 -167 -442 0
-68 -168 -443 0
-69 -169 -444 0
-70 -170 -445 0
-66 -171 -436 0
-67 -172 -437 0
-68 -173 -438 0
-69 -174 -439 0
-70 -175 -440 0
-66 -176 -471 0
-67 -177 -472 0
-68 -178 -473 0
-69 -179 -474 0
-70 -180 -475 0
-66 -181 -466 0
-67 -182 -467 0
-68 -183 -468 0
-69 -184 -469 0
-70 -185 -470 0
-66 -186 -461 0
-67 -187 -462 0
-68 -188 -463 0
-69 -189 -464 0
-70 -190 -465 0
-66 -191 -456 0
-67 -192 -457 0
-68 -193 -458 0
-69 -194 -459 0
-70 -195 -460 0
-66 -196 -411 0
-67 -197 -412 0
-68 -198 -413 0
-69 -199 -414 0
-70 -200 -415 0
-66 -201 -406 0
-67 -202 -407 0
-68 -203 -408 0
-69 -204 -409 0
-70 -205 -410 0
-66 -206 -401 0
-67 -207 -402 0
-68 -208 -403 0
-69 -209 -404 0
-70 -210 -405 0
-66 -211 -396 0
-67 -212 -397 0
-68 -213 -398 0
-69 -214 -399 0
-70 -215 -400 0
-66 -216 -431 0
-67 -217 -432 0
-68 -218 -433 0
-69 -219 -434 0
-70 -220 -435 0
-66 -221 -426 0
-67 -222 -427 0
-68 -223 -428 0
-69 -224 -429 0
-70 -225 -430 0
-66 -226 -421 0
-67 -227 -422 0
-68 -228 -423 0
-69 -229 -424 0
-70 -230 -425 0
-66 -231 -416 0
-67 -232 -417 0
-68 -233 -418 0
-69 -234 -419 0
-70 -235 -420 0
-66 -236 -371 0
-67 -237 -372 0
-68 -238 -373 0
-69 -239 -374 0
-70 -240 -375 0
-66 -241 -366 0
-67 -242 -367 0
-68 -243 -368 0
-69 -244 -369 0
-70 -245 -370 0
-66 -246 -361 0
-67 -247 -362 0
-68 -248 -363 0
-69 -249 -364 0
-70 -250 -365 0
-66 -251 -356 0
-67 -252 -357 0
-68 -253 -358 0
-69 -254 -359 0
-70 -255 -360 0
-66 -256 -391 0
-67 -257 -392 0
-68 -258 -393 0
-69 -259 -394 0
-70 -260 -395 0
-66 -261 -386 0
-67 -262 -387 0
-68 -263 -388 0
-69 -264 -389 0
-70 -265 -390 0
-66 -266 -381 0
-67 -267 -382 0
-68 -268 -383 0
-69 -269 -384 0
-70 -270 -385 0
-66 -271 -376 0
-67 -272 -377 0
-68 -273 -378 0
-69 -274 -379 0
-70 -275 -380 0
-66 -276 -331 0
-67 -277 -332 0
-68 -278 -333 0
-69 -279 -334 0
-70 -280 -335 0
-66 -281 -326 0
-67 -282 -327 0
-68 -283 -328 0
-69 -284 -329 0
-70 -285 -330 0
-66 -286 -321 0
-67 -287 -322 0
-68 -288 -323 0
-69 -289 -324 0
-70 -290 -325 0
-66 -291 -316 0
-67 -292 -317 0
-68 -293 -318 0
-69 -294 -319 0
-70 -295 -320 0
-66 -296 -351 0
-67 -297 -352 0
-68 -298 -353 0
-69 -299 -354 0
-70 -300 -355 0
-66 -301 -346 0
-67 -302 -347 0
-68 -303 -348 0
-69 -304 -349 0
-70 -305 -350 0
-66 -306 -341 0
-67 -307 -342 0
-68 -308 -343 0
-69 -309 -344 0
-70 -310 -345 0
-66 -311 -336 0
-67 -312 -337 0
-68 -313 -338 0
-69 -314 -339 0
-70 -315 -340 0
-66 -476 -771 0
-67 -477 -772 0
-68 -478 -773 0
-69 -479 -774 0
-70 -480 -775 0
-66 -481 -766 0
-67 -482 -767 0
-68 -483 -768 0
-69 -484 -769 0
-70 -485 -770 0
-66 -486 -761 0
-67 -487 -762 0
-68 -488 -763 0
-69 -489 -764 0
-70 -490 -765 0
-66 -491 -756 0
-67 -492 -757 0
-68 -493 -758 0
-69 -494 -759 0
-70 -495 -760 0
-66 -496 -791 0
-67 -497 -792 0
-68 -498 -793 0
-69 -499 -794 0
-70 -500 -795 0
-66 -501 -786 0
-67 -502 -787 0
-68 -503 -788 0
-69 -504 -789 0
-70 -505 -790 0
-66 -506 -781 0
-67 -507 -782 0
-68 -508 -783 0
-69 -509 -784 0
-70 -510 -785 0
-66 -511 -776 0
-67 -512 -777 0
-68 -513 -778 0
-69 -514 -779 0
-70 -515 -780 0
-66 -516 -731 0
-67 -517 -732 0
-68 -518 -733 0
-69 -519 -734 0
-70 -520 -735 0
-66 -521 -726 0
-67 -522 -727 0
-68 -523 -728 0
-69 -524 -729 0
-70 -525 -730 0
-66 -526 -721 0
-67 -527 -722 0
-68 -528 -723 0
-69 -529 -724 0
-70 -530 -725 0
-66 -531 -716 0
-67 -532 -717 0
-68 -533 -718 0
-69 -534 -719 0
-70 -535 -720 0
-66 -536 -751 0
-67 -537 -752 0
-68 -538 -753 0
-69 -539 -754 0
-70 -540 -755 0
-66 -541 -746 0
-67 -542 -747 0
-68 -543 -748 0
-69 -544 -749 0
-70 -545 -750 0
-66 -546 -741 0
-67 -547 -742 0
-68 -548 -743 0
-69 -549 -744 0
-70 -550 -745 0
-66 -551 -736 0
-67 -552 -737 0
-68 -553 -738 0
-69 -554 -739 0
-70 -555 -740 0
-66 -556 -691 0
-67 -557 -692 0
-68 -558 -693 0
-69 -559 -694 0
-70 -560 -695 0
-66 -561 -686 0
-67 -562 -687 0
-68 -563 -688 0
-69 -564 -689 0
-70 -565 -690 0
-66 -566 -681 0
-67 -567 -682 0
-68 -568 -683 0
-69 -569 -684 0
-70 -570 -685 0
-66 -571 -676 0
-67 -572 -677 0
-68 -573 -678 0
-69 -574 -679 0
-70 -575 -680 0
-66 -576 -711 0
-67 -577 -712 0
-68 -578 -713 0
-69 -579 -714 0
-70 -580 -715 0
-66 -581 -706 0
-67 -582 -707 0
-68 -583 -708 0
-69 -584 -709 0
-70 -585 -710 0
-66 -586 -701 0
-67 -587 -702 0
-68 -588 -703 0
-69 -589 -704 0
-70 -590 -705 0
-66 -591 -696 0
-67 -592 -697 0
-68 -593 -698 0
-69 -594 -699 0
-70 -595 -700 0
-66 -596 -651 0
-67 -597 -652 0
-68 -598 -653 0
-69 -599 -654 0
-70 -600 -655 0
-66 -601 -646 0
-67 -602 -647 0
-68 -603 -648 0
-69 -604 -649 0
-70 -605 -650 0
-66 -606 -641 0
-67 -607 -642 0
-68 -608 -643 0
-69 -609 -644 0
-70 -610 -645 0
-66 -611 -636 0
-67 -612 -637 0
-68 -613 -638 0
-69 -614 -639 0
-70 -615 -640 0
-66 -616 -671 0
-67 -617 -672 0
-68 -618 -673 0
-69 -619 -674 0
-70 -620 -675 0
-66 -621 -666 0
-67 -622 -667 0
-68 -623 -668 0
-69 -624 -669 0
-70 -625 -670 0
-66 -626 -661 0
-67 -627 -662 0
-68 -628 -663 0
-69 -629 -664 0
-70 -630 -665 0
-66 -631 -656 0
-67 -632 -657 0
-68 -633 -658 0
-69 -634 -659 0
-70 -635 -660 0
-61 -156 -456 0
-62 -157 -457 0
-63 -158 -458 0
-64 -159 -459 0
-65 -160 -460 0
-61 -161 -461 0
-62 -162 -462 0
-63 -163 -463 0
-64 -164 -464 0
-65 -165 -465 0
-61 -166 -466 0
-62 -167 -467 0
-63 -168 -468 0
-64 -169 -469 0
-65 -170 -470 0
-61 -171 -471 0
-62 -172 -472 0
-63 -173 -473 0
-64 -174 -474 0
-65 -175 -475 0
-61 -176 -436 0
-62 -177 -437 0
-63 -178 -438 0
-64 -179 -439 0
-65 -180 -440 0
-61 -181 -441 0
-62 -182 -442 0
-63 -183 -443 0
-64 -184 -444 0
-65 -185 -445 0
-61 -186 -446 0
-62 -187 -447 0
-63 -188 -448 0
-64 -189 -449 0
-65 -190 -450 0
-61 -191 -451 0
-62 -192 -452 0
-63 -193 -453 0
-64 -194 -454 0
-65 -195 -455 0
-61 -196 -416 0
-62 -197 -417 0
-63 -198 -418 0
-64 -199 -419 0
-65 -200 -420 0
-61 -201 -421 0
-62 -202 -422 0
-63 -203 -423 0
-64 -204 -424 0
-65 -205 -425 0
-61 -206 -426 0
-62 -207 -427 0
-63 -208 -428 0
-64 -209 -429 0
-65 -210 -430 0
-61 -211 -431 0
-62 -212 -432 0
-63 -213 -433 0
-64 -214 -434 0
-65 -215 -435 0
-61 -216 -396 0
-62 -217 -397 0
-63 -218 -398 0
-64 -219 -399 0
-65 -220 -400 0
-61 -221 -401 0
-62 -222 -402 0
-63 -223 -403 0
-64 -224 -404 0
-65 -225 -405 0
-61 -226 -406 0
-62 -227 -407 0
-63 -228 -408 0
-64 -229 -409 0
-65 -230 -410 0
-61 -231 -411 0
-62 -232 -412 0
-63 -233 -413 0
-64 -234 -414 0
-65 -235 -415 0
-61 -236 -376 0
-62 -237 -377 0
-63 -238 -378 0
-64 -239 -379 0
-65 -240 -380 0
-61 -241 -381 0
-62 -242 -382 0
-63 -243 -383 0
-64 -244 -384 0
-65 -245 -385 0
-61 -246 -386 0
-62 -247 -387 0
-63 -248 -388 0
-64 -249 -389 0
-65 -250 -390 0
-61 -251 -391 0
-62 -252 -392 0
-63 -253 -393 0
-64 -254 -394 0
-65 -255 -395 0
-61 -256 -356 0
-62 -257 -357 0
-63 -258 -358 0
-64 -259 -359 0
-65 -260 -360 0
-61 -261 -361 0
-62 -262 -362 0
-63 -263 -363 0
-64 -264 -364 0
-65 -265 -365 0
-61 -266 -366 0
-62 -267 -367 0
-63 -268 -368 0
-64 -269 -369 0
-65 -270 -370 0
-61 -271 -371 0
-62 -272 -372 0
-63 -273 -373 0
-64 -274 -374 0
-65 -275 -375 0
-61 -276 -336 0
-62 -277 -337 0
-63 -278 -338 0
-64 -279 -339 0
-65 -280 -340 0
-61 -281 -341 0
-62 -282 -342 0
-63 -283 -343 0
-64 -284 -344 0
-65 -285 -345 0
-61 -286 -346 0
-62 -287 -347 0
-63 -288 -348 0
-64 -289 -349 0
-65 -290 -350 0
-61 -291 -351 0
-62 -292 -352 0
-63 -293 -353 0
-64 -294 -354 0
-65 -295 -355 0
-61 -296 -316 0
-62 -297 -317 0
-63 -298 -318 0
-64 -299 -319 0
-65 -300 -320 0
-61 -301 -321 0
-62 -302 -322 0
-63 -303 -323 0
-64 -304 -324 0
-65 -305 -325 0
-61 -306 -326 0
-62 -307 -327 0
-63 -308 -328 0
-64 -309 -329 0
-65 -310 -330 0
-61 -311 -331 0
-62 -312 -332 0
-63 -313 -333 0
-64 -314 -334 0
-65 -315 -335 0
-61 -476 -776 0
-62 -477 -777 0
-63 -478 -778 0
-64 -479 -779 0
-65 -480 -780 0
-61 -481 -781 0
-62 -482 -782 0
-63 -483 -783 0
-64 -484 -784 0
-65 -485 -785 0
-61 -486 -786 0
-62 -487 -787 0
-63 -488 -788 0
-64 -489 -789 0
-65 -490 -790 0
-61 -491 -791 0
-62 -492 -792 0
-63 -493 -793 0
-64 -494 -794 0
-65 -495 -795 0
-61 -496 -756 0
-62 -497 -757 0
-63 -498 -758 0
-64 -499 -759 0
-65 -500 -760 0
-61 -501 -761 0
-62 -502 -762 0
-63 -503 -763 0
-64 -504 -764 0
-65 -505 -765 0
-61 -506 -766 0
-62 -507 -767 0
-63 -508 -768 0
-64 -509 -769 0
-65 -510 -770 0
-61 -511 -771 0
-62 -512 -772 0
-63 -513 -773 0
-64 -514 -774 0
-65 -515 -775 0
-61 -516 -736 0
-62 -517 -737 0
-63 -518 -738 0
-64 -519 -739 0
-65 -520 -740 0
-61 -521 -741 0
-62 -522 -742 0
-63 -523 -743 0
-64 -524 -744 0
-65 -525 -745 0
-61 -526 -746 0
-62 -527 -747 0
-63 -528 -748 0
-64 -529 -749 0
-65 -530 -750 0
-61 -531 -751 0
-62 -532 -752 0
-63 -533 -753 0
-64 -534 -754 0
-65 -535 -755 0
-61 -536 -716 0
-62 -537 -717 0
-63 -538 -718 0
-64 -539 -719 0
-65 -540 -720 0
-61 -541 -721 0
-62 -542 -722 0
-63 -543 -723 0
-64 -544 -724 0
-65 -545 -725 0
-61 -546 -726 0
-62 -547 -727 0
-63 -548 -728 0
-64 -549 -729 0
-65 -550 -730 0
-61 -551 -731 0
-62 -552 -732 0
-63 -553 -733 0
-64 -554 -734 0
-65 -555 -735 0
-61 -556 -696 0
-62 -557 -697 0
-63 -558 -698 0
-64 -559 -699 0
-65 -560 -700 0
-61 -561 -701 0
-62 -562 -702 0
-63 -563 -703 0
-64 -564 -704 0
-65 -565 -705 0
-61 -566 -706 0
-62 -567 -707 0
-63 -568 -708 0
-64 -569 -709 0
-65 -570 -710 0
-61 -571 -711 0
-62 -572 -712 0
-63 -573 -713 0
-64 -574 -714 0
-65 -575 -715 0
-61 -576 -676 0
-62 -577 -677 0
-63 -578 -678 0
-64 -579 -679 0
-65 -580 -680 0
-61 -581 -681 0
-62 -582 -682 0
-63 -583 -683 0
-64 -584 -684 0
-65 -585 -685 0
-61 -586 -686 0
-62 -587 -687 0
-63 -588 -688 0
-64 -589 -689 0
-65 -590 -690 0
-61 -591 -691 0
-62 -592 -692 0
-63 -593 -693 0
-64 -594 -694 0
-65 -595 -695 0
-61 -596 -656 0
-62 -597 -657 0
-63 -598 -658 0
-64 -599 -659 0
-65 -600 -660 0
-61 -601 -661 0
-62 -602 -662 0
-63 -603 -663 0
-64 -604 -664 0
-65 -605 -665 0
-61 -606 -666 0
-62 -607 -667 0
-63 -608 -668 0
-64 -609 -669 0
-65 -610 -670 0
-61 -611 -671 0
-62 -612 -672 0
-63 -613 -673 0
-64 -614 -674 0
-65 -615 -675 0
-61 -616 -636 0
-62 -617 -637 0
-63 -618 -638 0
-64 -619 -639 0
-65 -620 -640 0
-61 -621 -641 0
-62 -622 -642 0
-63 -623 -643 0
-64 -624 -644 0
-65 -625 -645 0
-61 -626 -646 0
-62 -627 -647 0
-63 -628 -648 0
-64 -629 -649 0
-65 -630 -650 0
-61 -631 -651 0
-62 -632 -652 0
-63 -633 -653 0
-64 -634 -654 0
-65 -635 -655 0
-66 -156 -461 0
-67 -157 -462 0
-68 -158 -463 0
-69 -159 -464 0
-70 -160 -465 0
-66 -161 -456 0
-67 -162 -457 0
-68 -163 -458 0
-69 -164 -459 0
-70 -165 -460 0
-66 -166 -471 0
-67 -167 -472 0
-68 -168 -473 0
-69 -169 -474 0
-70 -170 -475 0
-66 -171 -466 0
-67 -172 -467 0
-68 -173 -468 0
-69 -174 -469 0
-70 -175 -470 0
-66 -176 -441 0
-67 -177 -442 0
-68 -178 -443 0
-69 -179 -444 0
-70 -180 -445 0
-66 -181 -436 0
-67 -182 -437 0
-68 -183 -438 0
-69 -184 -439 0
-70 -185 -440 0
-66 -186 -451 0
-67 -187 -452 0
-68 -188 -453 0
-69 -189 -454 0
-70 -190 -455 0
-66 -191 -446 0
-67 -192 -447 0
-68 -193 -448 0
-69 -194 -449 0
-70 -195 -450 0
-66 -196 -421 0
-67 -197 -422 0
-68 -198 -423 0
-69 -199 -424 0
-70 -200 -425 0
-66 -201 -416 0
-67 -202 -417 0
-68 -203 -418 0
-69 -204 -419 0
-70 -205 -420 0
-66 -206 -431 0
-67 -207 -432 0
-68 -208 -433 0
-69 -209 -434 0
-70 -210 -435 0
-66 -211 -426 0
-67 -212 -427 0
-68 -213 -428 0
-69 -214 -429 0
-70 -215 -430 0
-66 -216 -401 0
-67 -217 -402 0
-68 -218 -403 0
-69 -219 -404 0
-70 -220 -405 0
-66 -221 -396 0
-67 -222 -397 0
-68 -223 -398 0
-69 -224 -399 0
-70 -225 -400 0
-66 -226 -411 0
-67 -227 -412 0
-68 -228 -413 0
-69 -229 -414 0
-70 -230 -415 0
-66 -231 -406 0
-67 -232 -407 0
-68 -233 -408 0
-69 -234 -409 0
-70 -235 -410 0
-66 -236 -381 0
-67 -237 -382 0
-68 -238 -383 0
-69 -239 -384 0
-70 -240 -385 0
-66 -241 -376 0
-67 -242 -377 0
-68 -243 -378 0
-69 -244 -379 0
-70 -245 -380 0
-66 -246 -391 0
-67 -247 -392 0
-68 -248 -393 0
-69 -249 -394 0
-70 -250 -395 0
-66 -251 -386 0
-67 -252 -387 0
-68 -253 -388 0
-69 -254 -389 0
-70 -255 -390 0
-66 -256 -361 0
-67 -257 -362 0
-68 -258 -363 0
-69 -259 -364 0
-70 -260 -365 0
-66 -261 -356 0
-67 -262 -357 0
-68 -263 -358 0
-69 -264 -359 0
-70 -265 -360 0
-66 -266 -371 0
-67 -267 -372 0
-68 -268 -373 0
-69 -269 -374 0
-70 -270 -375 0
-66 -271 -366 0
-67 -272 -367 0
-68 -273 -368 0
-69 -274 -369 0
-70 -275 -370 0
-66 -276 -341 0
-67 -277 -342 0
-68 -278 -343 0
-69 -279 -344 0
-70 -280 -345 0
-66 -281 -336 0
-67 -282 -337 0
-68 -283 -338 0
-69 -284 -339 0
-70 -285 -340 0
-66 -286 -351 0
-67 -287 -352 0
-68 -288 -353 0
-69 -289 -354 0
-70 -290 -355 0
-66 -291 -346 0
-67 -292 -347 0
-68 -293 -348 0
-69 -294 -349 0
-70 -295 -350 0
-66 -296 -321 0
-67 -297 -322 0
-68 -298 -323 0
-69 -299 -324 0
-70 -300 -325 0
-66 -301 -316 0
-67 -302 -317 0
-68 -303 -318 0
-69 -304 -319 0
-70 -305 -320 0
-66 -306 -331 0
-67 -307 -332 0
-68 -308 -333 0
-69 -309 -334 0
-70 -310 -335 0
-66 -311 -326 0
-67 -312 -327 0
-68 -313 -328 0
-69 -314 -329 0
-70 -315 -330 0
-66 -476 -781 0
-67 -477 -782 0
-68 -478 -783 0
-69 -479 -784 0
-70 -480 -785 0
-66 -481 -776 0
-67 -482 -777 0
-68 -483 -778 0
-69 -484 -779 0
-70 -485 -780 0
-66 -486 -791 0
-67 -487 -792 0
-68 -488 -793 0
-69 -489 -794 0
-70 -490 -795 0
-66 -491 -786 0
-67 -492 -787 0
-68 -493 -788 0
-69 -494 -789 0
-70 -495 -790 0
-66 -496 -761 0
-67 -497 -762 0
-68 -498 -763 0
-69 -499 -764 0
-70 -500 -765 0
-66 -501 -756 0
-67 -502 -757 0
-68 -503 -758 0
-69 -504 -759 0
-70 -505 -760 0
-66 -506 -771 0
-67 -507 -772 0
-68 -508 -773 0
-69 -509 -774 0
-70 -510 -775 0
-66 -511 -766 0
-67 -512 -767 0
-68 -513 -768 0
-69 -514 -769 0
-70 -515 -770 0
-66 -516 -741 0
-67 -517 -742 0
-68 -518 -743 0
-69 -519 -744 0
-70 -520 -745 0
-66 -521 -736 0
-67 -522 -737 0
-68 -523 -738 0
-69 -524 -739 0
-70 -525 -740 0
-66 -526 -751 0
-67 -527 -752 0
-68 -528 -753 0
-69 -529 -754 0
-70 -530 -755 0
-66 -531 -746 0
-67 -532 -747 0
-68 -533 -748 0
-69 -534 -749 0
-70 -535 -750 0
-66 -536 -721 0
-67 -537 -722 0
-68 -538 -723 0
-69 -539 -724 0
-70 -540 -725 0
-66 -541 -716 0
-67 -542 -717 0
-68 -543 -718 0
-69 -544 -719 0
-70 -545 -720 0
-66 -546 -731 0
-67 -547 -732 0
-68 -548 -733 0
-69 -549 -734 0
-70 -550 -735 0
-66 -551 -726 0
-67 -552 -727 0
-68 -553 -728 0
-69 -554 -729 0
-70 -555 -730 0
-66 -556 -701 0
-67 -557 -702 0
-68 -558 -703 0
-69 -559 -704 0
-70 -560 -705 0
-66 -561 -696 0
-67 -562 -697 0
-68 -563 -698 0
-69 -564 -699 0
-70 -565 -700 0
-66 -566 -711 0
-67 -567 -712 0
-68 -568 -713 0
-69 -569 -714 0
-70 -570 -715 0
-66 -571 -706 0
-67 -572 -707 0
-68 -573 -708 0
-69 -574 -709 0
-70 -575 -710 0
-66 -576 -681 0
-67 -577 -682 0
-68 -578 -683 0
-69 -579 -684 0
-70 -580 -685 0
-66 -581 -676 0
-67 -582 -677 0
-68 -583 -678 0
-69 -584 -679 0
-70 -585 -680 0
-66 -586 -691 0
-67 -587 -692 0
-68 -588 -693 0
-69 -589 -694 0
-70 -590 -695 0
-66 -591 -686 0
-67 -592 -687 0
-68 -593 -688 0
-69 -594 -689 0
-70 -595 -690 0
-66 -596 -661 0
-67 -597 -662 0
-68 -598 -663 0
-69 -599 -664 0
-70 -600 -665 0
-66 -601 -656 0
-67 -602 -657 0
-68 -603 -658 0
-69 -604 -659 0
-70 -605 -660 0
-66 -606 -671 0
-67 -607 -672 0
-68 -608 -673 0
-69 -609 -674 0
-70 -610 -675 0
-66 -611 -666 0
-67 -612 -667 0
-68 -613 -668 0
-69 -614 -669 0
-70 -615 -670 0
-66 -616 -641 0
-67 -617 -642 0
-68 -618 -643 0
-69 -619 -644 0
-70 -620 -645 0
-66 -621 -636 0
-67 -622 -637 0
-68 -623 -638 0
-69 -624 -639 0
-70 -625 -640 0
-66 -626 -651 0
-67 -627 -652 0
-68 -628 -653 0
-69 -629 -654 0
-70 -630 -655 0
-66 -631 -646 0
-67 -632 -647 0
-68 -633 -648 0
-69 -634 -649 0
-70 -635 -650 0
-71 -156 -466 0
-72 -157 -467 0
-73 -158 -468 0
-74 -159 -469 0
-75 -160 -470 0
-71 -161 -471 0
-72 -162 -472 0
-73 -163 -473 0
-74 -164 -474 0
-75 -165 -475 0
-71 -166 -456 0
-72 -167 -457 0
-73 -168 -458 0
-74 -169 -459 0
-75 -170 -460 0
-71 -171 -461 0
-72 -172 -462 0
-73 -173 -463 0
-74 -174 -464 0
-75 -175 -465 0
-71 -176 -446 0
-72 -177 -447 0
-73 -178 -448 0
-74 -179 -449 0
-75 -180 -450 0
-71 -181 -451 0
-72 -182 -452 0
-73 -183 -453 0
-74 -184 -454 0
-75 -185 -455 0
-71 -186 -436 0
-72 -187 -437 0
-73 -188 -438 0
-74 -189 -439 0
-75 -190 -440 0
-71 -191 -441 0
-72 -192 -442 0
-73 -193 -443 0
-74 -194 -444 0
-75 -195 -445 0
-71 -196 -426 0
-72 -197 -427 0
-73 -198 -428 0
-74 -199 -429 0
-75 -200 -430 0
-71 -201 -431 0
-72 -202 -432 0
-73 -203 -433 0
-74 -204 -434 0
-75 -205 -435 0
-71 -206 -416 0
-72 -207 -417 0
-73 -208 -418 0
-74 -209 -419 0
-75 -210 -420 0
-71 -211 -421 0
-72 -212 -422 0
-73 -213 -423 0
-74 -214 -424 0
-75 -215 -425 0
-71 -216 -406 0
-72 -217 -407 0
-73 -218 -408 0
-74 -219 -409 0
-75 -220 -410 0
-71 -221 -411 0
-72 -222 -412 0
-73 -223 -413 0
-74 -224 -414 0
-75 -225 -415 0
-71 -226 -396 0
-72 -227 -397 0
-73 -228 -398 0
-74 -229 -399 0
-75 -230 -400 0
-71 -231 -401 0
-72 -232 -402 0
-73 -233 -403 0
-74 -234 -404 0
-75 -235 -405 0
-71 -236 -386 0
-72 -237 -387 0
-73 -238 -388 0
-74 -239 -389 0
-75 -240 -390 0
-71 -241 -391 0
-72 -242 -392 0
-73 -243 -393 0
-74 -244 -394 0
-75 -245 -395 0
-71 -246 -376 0
-72 -247 -377 0
-73 -248 -378 0
-74 -249 -379 0
-75 -250 -380 0
-71 -251 -381 0
-72 -252 -382 0
-73 -253 -383 0
-74 -254 -384 0
-75 -255 -385 0
-71 -256 -366 0
-72 -257 -367 0
-73 -258 -368 0
-74 -259 -369 0
-75 -260 -370 0
-71 -261 -371 0
-72 -262 -372 0
-73 -263 -373 0
-74 -264 -374 0
-75 -265 -375 0
-71 -266 -356 0
-72 -267 -357 0
-73 -268 -358 0
-74 -269 -359 0
-75 -270 -360 0
-71 -271 -361 0
-72 -272 -362 0
-73 -273 -363 0
-74 -274 -364 0
-75 -275 -365 0
-71 -276 -346 0
-72 -277 -347 0
-73 -278 -348 0
-74 -279 -349 0
-75 -280 -350 0
-71 -281 -351 0
-72 -282 -352 0
-73 -283 -353 0
-74 -284 -354 0
-75 -285 -355 0
-71 -286 -336 0
-72 -287 -337 0
-73 -288 -338 0
-74 -289 -339 0
-75 -290 -340 0
-71 -291 -341 0
-72 -292 -342 0
-73 -293 -343 0
-74 -294 -344 0
-75 -295 -345 0
-71 -296 -326 0
-72 -297 -327 0
-73 -298 -328 0
-74 -299 -329 0
-75 -300 -330 0
-71 -301 -331 0
-72 -302 -332 0
-73 -303 -333 0
-74 -304 -334 0
-75 -305 -335 0
-71 -306 -316 0
-72 -307 -317 0
-73 -308 -318 0
-74 -309 -319 0
-75 -310 -320 0
-71 -311 -321 0
-72 -312 -322 0
-73 -313 -323 0
-74 -314 -324 0
-75 -315 -325 0
-71 -476 -786 0
-72 -477 -787 0
-73 -478 -788 0
-74 -479 -789 0
-75 -480 -790 0
-71 -481 -791 0
-72 -482 -792 0
-73 -483 -793 0
-74 -484 -794 0
-75 -485 -795 0
-71 -486 -776 0
-72 -487 -777 0
-73 -488 -778 0
-74 -489 -779 0
-75 -490 -780 0
-71 -491 -781 0
-72 -492 -782 0
-73 -493 -783 0
-74 -494 -784 0
-75 -495 -785 0
-71 -496 -766 0
-72 -497 -767 0
-73 -498 -768 0
-74 -499 -769 0
-75 -500 -770 0
-71 -501 -771 0
-72 -502 -772 0
-73 -503 -773 0
-74 -504 -774 0
-75 -505 -775 0
-71 -506 -756 0
-72 -507 -757 0
-73 -508 -758 0
-74 -509 -759 0
-75 -510 -760 0
-71 -511 -761 0
-72 -512 -762 0
-73 -513 -763 0
-74 -514 -764 0
-75 -515 -765 0
-71 -516 -746 0
-72 -517 -747 0
-73 -518 -748 0
-74 -519 -749 0
-75 -520 -750 0
-71 -521 -751 0
-72 -522 -752 0
-73 -523 -753 0
-74 -524 -754 0
-75 -525 -755 0
-71 -526 -736 0
-72 -527 -737 0
-73 -528 -738 0
-74 -529 -739 0
-75 -530 -740 0
-71 -531 -741 0
-72 -532 -742 0
-73 -533 -743 0
-74 -534 -744 0
-75 -535 -745 0
-71 -536 -726 0
-72 -537 -727 0
-73 -538 -728 0
-74 -539 -729 0
-75 -540 -730 0
-71 -541 -731 0
-72 -542 -732 0
-73 -543 -733 0
-74 -544 -734 0
-75 -545 -735 0
-71 -546 -716 0
-72 -547 -717 0
-73 -548 -718 0
-74 -549 -719 0
-75 -550 -720 0
-71 -551 -721 0
-72 -552 -722 0
-73 -553 -723 0
-74 -554 -724 0
-75 -555 -725 0
-71 -556 -706 0
-72 -557 -707 0
-73 -558 -708 0
-74 -559 -709 0
-75 -560 -710 0
-71 -561 -711 0
-72 -562 -712 0
-73 -563 -713 0
-74 -564 -714 0
-75 -565 -715 0
-71 -566 -696 0
-72 -567 -697 0
-73 -568 -698 0
-74 -569 -699 0
-75 -570 -700 0
-71 -571 -701 0
-72 -572 -702 0
-73 -573 -703 0
-74 -574 -704 0
-75 -575 -705 0
-71 -576 -686 0
-72 -577 -687 0
-73 -578 -688 0
-74 -579 -689 0
-75 -580 -690 0
-71 -581 -691 0
-72 -582 -692 0
-73 -583 -693 0
-74 -584 -694 0
-75 -585 -695 0
-71 -586 -676 0
-72 -587 -677 0
-73 -588 -678 0
-74 -589 -679 0
-75 -590 -680 0
-71 -591 -681 0
-72 -592 -682 0
-73 -593 -683 0
-74 -594 -684 0
-75 -595 -685 0
-71 -596 -666 0
-72 -597 -667 0
-73 -598 -668 0
-74 -599 -669 0
-75 -600 -670 0
-71 -601 -671 0
-72 -602 -672 0
-73 -603 -673 0
-74 -604 -674 0
-75 -605 -675 0
-71 -606 -656 0
-72 -607 -657 0
-73 -608 -658 0
-74 -609 -659 0
-75 -610 -660 0
-71 -611 -661 0
-72 -612 -662 0
-73 -613 -663 0
-74 -614 -664 0
-75 -615 -665 0
-71 -616 -646 0
-72 -617 -647 0
-73 -618 -648 0
-74 -619 -649 0
-75 -620 -650 0
-71 -621 -651 0
-72 -622 -652 0
-73 -623 -653 0
-74 -624 -654 0
-75 -625 -655 0
-71 -626 -636 0
-72 -627 -637 0
-73 -628 -638 0
-74 -629 -639 0
-75 -630 -640 0
-71 -631 -641 0
-72 -632 -642 0
-73 -633 -643 0
-74 -634 -644 0
-75 -635 -645 0
-61 -156 -471 0
-62 -157 -472 0
-63 -158 -473 0
-64 -159 -474 0
-65 -160 -475 0
-61 -161 -466 0
-62 -162 -467 0
-63 -163 -468 0
-64 -164 -469 0
-65 -165 -470 0
-61 -166 -461 0
-62 -167 -462 0
-63 -168 -463 0
-64 -169 -464 0
-65 -170 -465 0
-61 -171 -456 0
-62 -172 -457 0
-63 -173 -458 0
-64 -174 -459 0
-65 -175 -460 0
-61 -176 -451 0
-62 -177 -452 0
-63 -178 -453 0
-64 -179 -454 0
-65 -180 -455 0
-61 -181 -446 0
-62 -182 -447 0
-63 -183 -448 0
-64 -184 -449 0
-65 -185 -450 0
-61 -186 -441 0
-62 -187 -442 0
-63 -188 -443 0
-64 -189 -444 0
-65 -190 -445 0
-61 -191 -436 0
-62 -192 -437 0
-63 -193 -438 0
-64 -194 -439 0
-65 -195 -440 0
-61 -196 -431 0
-62 -197 -432 0
-63 -198 -433 0
-64 -199 -434 0
-65 -200 -435 0
-61 -201 -426 0
-62 -202 -427 0
-63 -203 -428 0
-64 -204 -429 0
-65 -205 -430 0
-61 -206 -421 0
-62 -207 -422 0
-63 -208 -423 0
-64 -209 -424 0
-65 -210 -425 0
-61 -211 -416 0
-62 -212 -417 0
-63 -213 -418 0
-64 -214 -419 0
-65 -215 -420 0
-61 -216 -411 0
-62 -217 -412 0
-63 -218 -413 0
-64 -219 -414 0
-65 -220 -415 0
-61 -221 -406 0
-62 -222 -407 0
-63 -223 -408 0
-64 -224 -409 0
-65 -225 -410 0
-61 -226 -401 0
-62 -227 -402 0
-63 -228 -403 0
-64 -229 -404 0
-65 -230 -405 0
-61 -231 -396 0
-62 -232 -397 0
-63 -233 -398 0
-64 -234 -399 0
-65 -235 -400 0
-61 -236 -391 0
-62 -237 -392 0
-63 -238 -393 0
-64 -239 -394 0
-65 -240 -395 0
-61 -241 -386 0
-62 -242 -387 0
-63 -243 -388 0
-64 -244 -389 0
-65 -245 -390 0
-61 -246 -381 0
-62 -247 -382 0
-63 -248 -383 0
-64 -249 -384 0
-65 -250 -385 0
-61 -251 -376 0
-62 -252 -377 0
-63 -253 -378 0
-64 -254 -379 0
-65 -255 -380 0
-61 -256 -371 0
-62 -257 -372 0
-63 -258 -373 0
-64 -259 -374 0
-65 -260 -375 0
-61 -261 -366 0
-62 -262 -367 0
-63 -263 -368 0
-64 -264 -369 0
-65 -265 -370 0
-61 -266 -361 0
-62 -267 -362 0
-63 -268 -363 0
-64 -269 -364 0
-65 -270 -365 0
-61 -271 -356 0
-62 -272 -357 0
-63 -273 -358 0
-64 -274 -359 0
-65 -275 -360 0
-61 -276 -351 0
-62 -277 -352 0
-63 -278 -353 0
-64 -279 -354 0
-65 -280 -355 0
-61 -281 -346 0
-62 -282 -347 0
-63 -283 -348 0
-64 -284 -349 0
-65 -285 -350 0
-61 -286 -341 0
-62 -287 -342 0
-63 -288 -343 0
-64 -289 -344 0
-65 -290 -345 0
-61 -291 -336 0
-62 -292 -337 0
-63 -293 -338 0
-64 -294 -339 0
-65 -295 -340 0
-61 -296 -331 0
-62 -297 -332 0
-63 -298 -333 0
-64 -299 -334 0
-65 -300 -335 0
-61 -301 -326 0
-62 -302 -327 0
-63 -303 -328 0
-64 -304 -329 0
-65 -305 -330 0
-61 -306 -321 0
-62 -307 -322 0
-63 -308 -323 0
-64 -309 -324 0
-65 -310 -325 0
-61 -311 -316 0
-62 -312 -317 0
-63 -313 -318 0
-64 -314 -319 0
-65 -315 -320 0
-61 -476 -791 0
-62 -477 -792 0
-63 -478 -793 0
-64 -479 -794 0
-65 -480 -795 0
-61 -481 -786 0
-62 -482 -787 0
-63 -483 -788 0
-64 -484 -789 0
-65 -485 -790 0
-61 -486 -781 0
-62 -487 -782 0
-63 -488 -783 0
-64 -489 -784 0
-65 -490 -785 0
-61 -491 -776 0
-62 -492 -777 0
-63 -493 -778 0
-64 -494 -779 0
-65 -495 -780 0
-61 -496 -771 0
-62 -497 -772 0
-63 -498 -773 0
-64 -499 -774 0
-65 -500 -775 0
-61 -501 -766 0
-62 -502 -767 0
-63 -503 -768 0
-64 -504 -769 0
-65 -505 -770 0
-61 -506 -761 0
-62 -507 -762 0
-63 -508 -763 0
-64 -509 -764 0
-65 -510 -765 0
-61 -511 -756 0
-62 -512 -757 0
-63 -513 -758 0
-64 -514 -759 0
-65 -515 -760 0
-61 -516 -751 0
-62 -517 -752 0
-63 -518 -753 0
-64 -519 -754 0
-65 -520 -755 0
-61 -521 -746 0
-62 -522 -747 0
-63 -523 -748 0
-64 -524 -749 0
-65 -525 -750 0
-61 -526 -741 0
-62 -527 -742 0
-63 -528 -743 0
-64 -529 -744 0
-65 -530 -745 0
-61 -531 -736 0
-62 -532 -737 0
-63 -533 -738 0
-64 -534 -739 0
-65 -535 -740 0
-61 -536 -731 0
-62 -537 -732 0
-63 -538 -733 0
-64 -539 -734 0
-65 -540 -735 0
-61 -541 -726 0
-62 -542 -727 0
-63 -543 -728 0
-64 -544 -729 0
-65 -545 -730 0
-61 -546 -721 0
-62 -547 -722 0
-63 -548 -723 0
-64 -549 -724 0
-65 -550 -725 0
-61 -551 -716 0
-62 -552 -717 0
-63 -553 -718 0
-64 -554 -719 0
-65 -555 -720 0
-61 -556 -711 0
-62 -557 -712 0
-63 -558 -713 0
-64 -559 -714 0
-65 -560 -715 0
-61 -561 -706 0
-62 -562 -707 0
-63 -563 -708 0
-64 -564 -709 0
-65 -565 -710 0
-61 -566 -701 0
-62 -567 -702 0
-63 -568 -703 0
-64 -569 -704 0
-65 -570 -705 0
-61 -571 -696 0
-62 -572 -697 0
-63 -573 -698 0
-64 -574 -699 0
-65 -575 -700 0
-61 -576 -691 0
-62 -577 -692 0
-63 -578 -693 0
-64 -579 -694 0
-65 -580 -695 0
-61 -581 -686 0
-62 -582 -687 0
-63 -583 -688 0
-64 -584 -689 0
-65 -585 -690 0
-61 -586 -681 0
-62 -587 -682 0
-63 -588 -683 0
-64 -589 -684 0
-65 -590 -685 0
-61 -591 -676 0
-62 -592 -677 0
-63 -593 -678 0
-64 -594 -679 0
-65 -595 -680 0
-61 -596 -671 0
-62 -597 -672 0
-63 -598 -673 0
-64 -599 -674 0
-65 -600 -675 0
-61 -601 -666 0
-62 -602 -667 0
-63 -603 -668 0
-64 -604 -669 0
-65 -605 -670 0
-61 -606 -661 0
-62 -607 -662 0
-63 -608 -663 0
-64 -609 -664 0
-65 -610 -665 0
-61 -611 -656 0
-62 -612 -657 0
-63 -613 -658 0
-64 -614 -659 0
-65 -615 -660 0
-61 -616 -651 0
-62 -617 -652 0
-63 -618 -653 0
-64 -619 -654 0
-65 -620 -655 0
-61 -621 -646 0
-62 -622 -647 0
-63 -623 -648 0
-64 -624 -649 0
-65 -625 -650 0
-61 -626 -641 0
-62 -627 -642 0
-63 -628 -643 0
-64 -629 -644 0
-65 -630 -645 0
-61 -631 -636 0
-62 -632 -637 0
-63 -633 -638 0
-64 -634 -639 0
-65 -635 -640 0
-76 -156 -476 0
-77 -157 -477 0
-78 -158 -478 0
-79 -159 -479 0
-80 -160 -480 0
-76 -161 -481 0
-77 -162 -482 0
-78 -163 -483 0
-79 -164 -484 0
-80 -165 -485 0
-76 -166 -486 0
-77 -167 -487 0
-78 -168 -488 0
-79 -169 -489 0
-80 -170 -490 0
-76 -171 -491 0
-77 -172 -492 0
-78 -173 -493 0
-79 -174 -494 0
-80 -175 -495 0
-76 -176 -496 0
-77 -177 -497 0
-78 -178 -498 0
-79 -179 -499 0
-80 -180 -500 0
-76 -181 -501 0
-77 -182 -502 0
-78 -183 -503 0
-79 -184 -504 0
-80 -185 -505 0
-76 -186 -506 0
-77 -187 -507 0
-78 -188 -508 0
-79 -189 -509 0
-80 -190 -510 0
-76 -191 -511 0
-77 -192 -512 0
-78 -193 -513 0
-79 -194 -514 0
-80 -195 -515 0
-76 -196 -516 0
-77 -197 -517 0
-78 -198 -518 0
-79 -199 -519 0
-80 -200 -520 0
-76 -201 -521 0
-77 -202 -522 0
-78 -203 -523 0
-79 -204 -524 0
-80 -205 -525 0
-76 -206 -526 0
-77 -207 -527 0
-78 -208 -528 0
-79 -209 -529 0
-80 -210 -530 0
-76 -211 -531 0
-77 -212 -532 0
-78 -213 -533 0
-79 -214 -534 0
-80 -215 -535 0
-76 -216 -536 0
-77 -217 -537 0
-78 -218 -538 0
-79 -219 -539 0
-80 -220 -540 0
-76 -221 -541 0
-77 -222 -542 0
-78 -223 -543 0
-79 -224 -544 0
-80 -225 -545 0
-76 -226 -546 0
-77 -227 -547 0
-78 -228 -548 0
-79 -229 -549 0
-80 -230 -550 0
-76 -231 -551 0
-77 -232 -552 0
-78 -233 -553 0
-79 -234 -554 0
-80 -235 -555 0
-76 -236 -556 0
-77 -237 -557 0
-78 -238 -558 0
-79 -239 -559 0
-80 -240 -560 0
-76 -241 -561 0
-77 -242 -562 0
-78 -243 -563 0
-79 -244 -564 0
-80 -245 -565 0
-76 -246 -566 0
-77 -247 -567 0
-78 -248 -568 0
-79 -249 -569 0
-80 -250 -570 0
-76 -251 -571 0
-77 -252 -572 0
-78 -253 -573 0
-79 -254 -574 0
-80 -255 -575 0
-76 -256 -576 0
-77 -257 -577 0
-78 -258 -578 0
-79 -259 -579 0
-80 -260 -580 0
-76 -261 -581 0
-77 -262 -582 0
-78 -263 -583 0
-79 -264 -584 0
-80 -265 -585 0
-76 -266 -586 0
-77 -267 -587 0
-78 -268 -588 0
-79 -269 -589 0
-80 -270 -590 0
-76 -271 -591 0
-77 -272 -592 0
-78 -273 -593 0
-79 -274 -594 0
-80 -275 -595 0
-76 -276 -596 0
-77 -277 -597 0
-78 -278 -598 0
-79 -279 -599 0
-80 -280 -600 0
-76 -281 -601 0
-77 -282 -602 0
-78 -283 -603 0
-79 -284 -604 0
-80 -285 -605 0
-76 -286 -606 0
-77 -287 -607 0
-78 -288 -608 0
-79 -289 -609 0
-80 -290 -610 0
-76 -291 -611 0
-77 -292 -612 0
-78 -293 -613 0
-79 -294 -614 0
-80 -295 -615 0
-76 -296 -616 0
-77 -297 -617 0
-78 -298 -618 0
-79 -299 -619 0
-80 -300 -620 0
-76 -301 -621 0
-77 -302 -622 0
-78 -303 -623 0
-79 -304 -624 0
-80 -305 -625 0
-76 -306 -626 0
-77 -307 -627 0
-78 -308 -628 0
-79 -309 -629 0
-80 -310 -630 0
-76 -311 -631 0
-77 -312 -632 0
-78 -313 -633 0
-79 -314 -634 0
-80 -315 -635 0
-76 -316 -636 0
-77 -317 -637 0
-78 -318 -638 0
-79 -319 -639 0
-80 -320 -640 0
-76 -321 -641 0
-77 -322 -642 0
-78 -323 -643 0
-79 -324 -644 0
-80 -325 -645 0
-76 -326 -646 0
-77 -327 -647 0
-78 -328 -648 0
-79 -329 -649 0
-80 -330 -650 0
-76 -331 -651 0
-77 -332 -652 0
-78 -333 -653 0
-79 -334 -654 0
-80 -335 -655 0
-76 -336 -656 0
-77 -337 -657 0
-78 -338 -658 0
-79 -339 -659 0
-80 -340 -660 0
-76 -341 -661 0
-77 -342 -662 0
-78 -343 -663 0
-79 -344 -664 0
-80 -345 -665 0
-76 -346 -666 0
-77 -347 -667 0
-78 -348 -668 0
-79 -349 -669 0
-80 -350 -670 0
-76 -351 -671 0
-77 -352 -672 0
-78 -353 -673 0
-79 -354 -674 0
-80 -355 -675 0
-76 -356 -676 0
-77 -357 -677 0
-78 -358 -678 0
-79 -359 -679 0
-80 -360 -680 0
-76 -361 -681 0
-77 -362 -682 0
-78 -363 -683 0
-79 -364 -684 0
-80 -365 -685 0
-76 -366 -686 0
-77 -367 -687 0
-78 -368 -688 0
-79 -369 -689 0
-80 -370 -690 0
-76 -371 -691 0
-77 -372 -692 0
-78 -373 -693 0
-79 -374 -694 0
-80 -375 -695 0
-76 -376 -696 0
-77 -377 -697 0
-78 -378 -698 0
-79 -379 -699 0
-80 -380 -700 0
-76 -381 -701 0
-77 -382 -702 0
-78 -383 -703 0
-79 -384 -704 0
-80 -385 -705 0
-76 -386 -706 0
-77 -387 -707 0
-78 -388 -708 0
-79 -389 -709 0
-80 -390 -710 0
-76 -391 -711 0
-77 -392 -712 0
-78 -393 -713 0
-79 -394 -714 0
-80 -395 -715 0
-76 -396 -716 0
-77 -397 -717 0
-78 -398 -718 0
-79 -399 -719 0
-80 -400 -720 0
-76 -401 -721 0
-77 -402 -722 0
-78 -403 -723 0
-79 -404 -724 0
-80 -405 -725 0
-76 -406 -726 0
-77 -407 -727 0
-78 -408 -728 0
-79 -409 -729 0
-80 -410 -730 0
-76 -411 -731 0
-77 -412 -732 0
-78 -413 -733 0
-79 -414 -734 0
-80 -415 -735 0
-76 -416 -736 0
-77 -417 -737 0
-78 -418 -738 0
-79 -419 -739 0
-80 -420 -740 0
-76 -421 -741 0
-77 -422 -742 0
-78 -423 -743 0
-79 -424 -744 0
-80 -425 -745 0
-76 -426 -746 0
-77 -427 -747 0
-78 -428 -748 0
-79 -429 -749 0
-80 -430 -750 0
-76 -431 -751 0
-77 -432 -752 0
-78 -433 -753 0
-79 -434 -754 0
-80 -435 -755 0
-76 -436 -756 0
-77 -437 -757 0
-78 -438 -758 0
-79 -439 -759 0
-80 -440 -760 0
-76 -441 -761 0
-77 -442 -762 0
-78 -443 -763 0
-79 -444 -764 0
-80 -445 -765 0
-76 -446 -766 0
-77 -447 -767 0
-78 -448 -768 0
-79 -449 -769 0
-80 -450 -770 0
-76 -451 -771 0
-77 -452 -772 0
-78 -453 -773 0
-79 -454 -774 0
-80 -455 -775 0
-76 -456 -776 0
-77 -457 -777 0
-78 -458 -778 0
-79 -459 -779 0
-80 -460 -780 0
-76 -461 -781 0
-77 -462 -782 0
-78 -463 -783 0
-79 -464 -784 0
-80 -465 -785 0
-76 -466 -786 0
-77 -467 -787 0
-78 -468 -788 0
-79 -469 -789 0
-80 -470 -790 0
-76 -471 -791 0
-77 -472 -792 0
-78 -473 -793 0
-79 -474 -794 0
-80 -475 -795 0
-81 -156 -481 0
-82 -157 -482 0
-83 -158 -483 0
-84 -159 -484 0
-85 -160 -485 0
-81 -161 -476 0
-82 -162 -477 0
-83 -163 -478 0
-84 -164 -479 0
-85 -165 -480 0
-81 -166 -491 0
-82 -167 -492 0
-83 -168 -493 0
-84 -169 -494 0
-85 -170 -495 0
-81 -171 -486 0
-82 -172 -487 0
-83 -173 -488 0
-84 -174 -489 0
-85 -175 -490 0
-81 -176 -501 0
-82 -177 -502 0
-83 -178 -503 0
-84 -179 -504 0
-85 -180 -505 0
-81 -181 -496 0
-82 -182 -497 0
-83 -183 -498 0
-84 -184 -499 0
-85 -185 -500 0
-81 -186 -511 0
-82 -187 -512 0
-83 -188 -513 0
-84 -189 -514 0
-85 -190 -515 0
-81 -191 -506 0
-82 -192 -507 0
-83 -193 -508 0
-84 -194 -509 0
-85 -195 -510 0
-81 -196 -521 0
-82 -197 -522 0
-83 -198 -523 0
-84 -199 -524 0
-85 -200 -525 0
-81 -201 -516 0
-82 -202 -517 0
-83 -203 -518 0
-84 -204 -519 0
-85 -205 -520 0
-81 -206 -531 0
-82 -207 -532 0
-83 -208 -533 0
-84 -209 -534 0
-85 -210 -535 0
-81 -211 -526 0
-82 -212 -527 0
-83 -213 -528 0
-84 -214 -529 0
-85 -215 -530 0
-81 -216 -541 0
-82 -217 -542 0
-83 -218 -543 0
-84 -219 -544 0
-85 -220 -545 0
-81 -221 -536 0
-82 -222 -537 0
-83 -223 -538 0
-84 -224 -539 0
-85 -225 -540 0
-81 -226 -551 0
-82 -227 -552 0
-83 -228 -553 0
-84 -229 -554 0
-85 -230 -555 0
-81 -231 -546 0
-82 -232 -547 0
-83 -233 -548 0
-84 -234 -549 0
-85 -235 -550 0
-81 -236 -561 0
-82 -237 -562 0
-83 -238 -563 0
-84 -239 -564 0
-85 -240 -565 0
-81 -241 -556 0
-82 -242 -557 0
-83 -243 -558 0
-84 -244 -559 0
-85 -245 -560 0
-81 -246 -571 0
-82 -247 -572 0
-83 -248 -573 0
-84 -249 -574 0
-85 -250 -575 0
-81 -251 -566 0
-82 -252 -567 0
-83 -253 -568 0
-84 -254 -569 0
-85 -255 -570 0
-81 -256 -581 0
-82 -257 -582 0
-83 -258 -583 0
-84 -259 -584 0
-85 -260 -585 0
-81 -261 -576 0
-82 -262 -577 0
-83 -263 -578 0
-84 -264 -579 0
-85 -265 -580 0
-81 -266 -591 0
-82 -267 -592 0
-83 -268 -593 0
-84 -269 -594 0
-85 -270 -595 0
-81 -271 -586 0
-82 -272 -587 0
-83 -273 -588 0
-84 -274 -589 0
-85 -275 -590 0
-81 -276 -601 0
-82 -277 -602 0
-83 -278 -603 0
-84 -279 -604 0
-85 -280 -605 0
-81 -281 -596 0
-82 -282 -597 0
-83 -283 -598 0
-84 -284 -599 0
-85 -285 -600 0
-81 -286 -611 0
-82 -287 -612 0
-83 -288 -613 0
-84 -289 -614 0
-85 -290 -615 0
-81 -291 -606 0
-82 -292 -607 0
-83 -293 -608 0
-84 -294 -609 0
-85 -295 -610 0
-81 -296 -621 0
-82 -297 -622 0
-83 -298 -623 0
-84 -299 -624 0
-85 -300 -625 0
-81 -301 -616 0
-82 -302 -617 0
-83 -303 -618 0
-84 -304 -619 0
-85 -305 -620 0
-81 -306 -631 0
-82 -307 -632 0
-83 -308 -633 0
-84 -309 -634 0
-85 -310 -635 0
-81 -311 -626 0
-82 -312 -627 0
-83 -313 -628 0
-84 -314 -629 0
-85 -315 -630 0
-81 -316 -641 0
-82 -317 -642 0
-83 -318 -643 0
-84 -319 -644 0
-85 -320 -645 0
-81 -321 -636 0
-82 -322 -637 0
-83 -323 -638 0
-84 -324 -639 0
-85 -325 -640 0
-81 -326 -651 0
-82 -327 -652 0
-83 -328 -653 0
-84 -329 -654 0
-85 -330 -655 0
-81 -331 -646 0
-82 -332 -647 0
-83 -333 -648 0
-84 -334 -649 0
-85 -335 -650 0
-81 -336 -661 0
-82 -337 -662 0
-83 -338 -663 0
-84 -339 -664 0
-85 -340 -665 0
-81 -341 -656 0
-82 -342 -657 0
-83 -343 -658 0
-84 -344 -659 0
-85 -345 -660 0
-81 -346 -671 0
-82 -347 -672 0
-83 -348 -673 0
-84 -349 -674 0
-85 -350 -675 0
-81 -351 -666 0
-82 -352 -667 0
-83 -353 -668 0
-84 -354 -669 0
-85 -355 -670 0
-81 -356 -681 0
-82 -357 -682 0
-83 -358 -683 0
-84 -359 -684 0
-85 -360 -685 0
-81 -361 -676 0
-82 -362 -677 0
-83 -363 -678 0
-84 -364 -679 0
-85 -365 -680 0
-81 -366 -691 0
-82 -367 -692 0
-83 -368 -693 0
-84 -369 -694 0
-85 -370 -695 0
-81 -371 -686 0
-82 -372 -687 0
-83 -373 -688 0
-84 -374 -689 0
-85 -375 -690 0
-81 -376 -701 0
-82 -377 -702 0
-83 -378 -703 0
-84 -379 -704 0
-85 -380 -705 0
-81 -381 -696 0
-82 -382 -697 0
-83 -383 -698 0
-84 -384 -699 0
-85 -385 -700 0
-81 -386 -711 0
-82 -387 -712 0
-83 -388 -713 0
-84 -389 -714 0
-85 -390 -715 0
-81 -391 -706 0
-82 -392 -707 0
-83 -393 -708 0
-84 -394 -709 0
-85 -395 -710 0
-81 -396 -721 0
-82 -397 -722 0
-83 -398 -723 0
-84 -399 -724 0
-85 -400 -725 0
-81 -401 -716 0
-82 -402 -717 0
-83 -403 -718 0
-84 -404 -719 0
-85 -405 -720 0
-81 -406 -731 0
-82 -407 -732 0
-83 -408 -733 0
-84 -409 -734 0
-85 -410 -735 0
-81 -411 -726 0
-82 -412 -727 0
-83 -413 -728 0
-84 -414 -729 0
-85 -415 -730 0
-81 -416 -741 0
-82 -417 -742 0
-83 -418 -743 0
-84 -419 -744 0
-85 -420 -745 0
-81 -421 -736 0
-82 -422 -737 0
-83 -423 -738 0
-84 -424 -739 0
-85 -425 -740 0
-81 -426 -751 0
-82 -427 -752 0
-83 -428 -753 0
-84 -429 -754 0
-85 -430 -755 0
-81 -431 -746 0
-82 -432 -747 0
-83 -433 -748 0
-84 -434 -749 0
-85 -435 -750 0
-81 -436 -761 0
-82 -437 -762 0
-83 -438 -763 0
-84 -439 -764 0
-85 -440 -765 0
-81 -441 -756 0
-82 -442 -757 0
-83 -443 -758 0
-84 -444 -759 0
-85 -445 -760 0
-81 -446 -771 0
-82 -447 -772 0
-83 -448 -773 0
-84 -449 -774 0
-85 -450 -775 0
-81 -451 -766 0
-82 -452 -767 0
-83 -453 -768 0
-84 -454 -769 0
-85 -455 -770 0
-81 -456 -781 0
-82 -457 -782 0
-83 -458 -783 0
-84 -459 -784 0
-85 -460 -785 0
-81 -461 -776 0
-82 -462 -777 0
-83 -463 -778 0
-84 -464 -779 0
-85 -465 -780 0
-81 -466 -791 0
-82 -467 -792 0
-83 -468 -793 0
-84 -469 -794 0
-85 -470 -795 0
-81 -471 -786 0
-82 -472 -787 0
-83 -473 -788 0
-84 -474 -789 0
-85 -475 -790 0
-86 -156 -486 0
-87 -157 -487 0
-88 -158 -488 0
-89 -159 -489 0
-90 -160 -490 0
-86 -161 -491 0
-87 -162 -492 0
-88 -163 -493 0
-89 -164 -494 0
-90 -165 -495 0
-86 -166 -476 0
-87 -167 -477 0
-88 -168 -478 0
-89 -169 -479 0
-90 -170 -480 0
-86 -171 -481 0
-87 -172 -482 0
-88 -173 -483 0
-89 -174 -484 0
-90 -175 -485 0
-86 -176 -506 0
-87 -177 -507 0
-88 -178 -508 0
-89 -179 -509 0
-90 -180 -510 0
-86 -181 -511 0
-87 -182 -512 0
-88 -183 -513 0
-89 -184 -514 0
-90 -185 -515 0
-86 -186 -496 0
-87 -187 -497 0
-88 -188 -498 0
-89 -189 -499 0
-90 -190 -500 0
-86 -191 -501 0
-87 -192 -502 0
-88 -193 -503 0
-89 -194 -504 0
-90 -195 -505 0
-86 -196 -526 0
-87 -197 -527 0
-88 -198 -528 0
-89 -199 -529 0
-90 -200 -530 0
-86 -201 -531 0
-87 -202 -532 0
-88 -203 -533 0
-89 -204 -534 0
-90 -205 -535 0
-86 -206 -516 0
-87 -207 -517 0
-88 -208 -518 0
-89 -209 -519 0
-90 -210 -520 0
-86 -211 -521 0
-87 -212 -522 0
-88 -213 -523 0
-89 -214 -524 0
-90 -215 -525 0
-86 -216 -546 0
-87 -217 -547 0
-88 -218 -548 0
-89 -219 -549 0
-90 -220 -550 0
-86 -221 -551 0
-87 -222 -552 0
-88 -223 -553 0
-89 -224 -554 0
-90 -225 -555 0
-86 -226 -536 0
-87 -227 -537 0
-88 -228 -538 0
-89 -229 -539 0
-90 -230 -540 0
-86 -231 -541 0
-87 -232 -542 0
-88 -233 -543 0
-89 -234 -544 0
-90 -235 -545 0
-86 -236 -566 0
-87 -237 -567 0
-88 -238 -568 0
-89 -239 -569 0
-90 -240 -570 0
-86 -241 -571 0
-87 -242 -572 0
-88 -243 -573 0
-89 -244 -574 0
-90 -245 -575 0
-86 -246 -556 0
-87 -247 -557 0
-88 -248 -558 0
-89 -249 -559 0
-90 -250 -560 0
-86 -251 -561 0
-87 -252 -562 0
-88 -253 -563 0
-89 -254 -564 0
-90 -255 -565 0
-86 -256 -586 0
-87 -257 -587 0
-88 -258 -588 0
-89 -259 -589 0
-90 -260 -590 0
-86 -261 -591 0
-87 -262 -592 0
-88 -263 -593 0
-89 -264 -594 0
-90 -265 -595 0
-86 -266 -576 0
-87 -267 -577 0
-88 -268 -578 0
-89 -269 -579 0
-90 -270 -580 0
-86 -271 -581 0
-87 -272 -582 0
-88 -273 -583 0
-89 -274 -584 0
-90 -275 -585 0
-86 -276 -606 0
-87 -277 -607 0
-88 -278 -608 0
-89 -279 -609 0
-90 -280 -610 0
-86 -281 -611 0
-87 -282 -612 0
-88 -283 -613 0
-89 -284 -614 0
-90 -285 -615 0
-86 -286 -596 0
-87 -287 -597 0
-88 -288 -598 0
-89 -289 -599 0
-90 -290 -600 0
-86 -291 -601 0
-87 -292 -602 0
-88 -293 -603 0
-89 -294 -604 0
-90 -295 -605 0
-86 -296 -626 0
-87 -297 -627 0
-88 -298 -628 0
-89 -299 -629 0
-90 -300 -630 0
-86 -301 -631 0
-87 -302 -632 0
-88 -303 -633 0
-89 -304 -634 0
-90 -305 -635 0
-86 -306 -616 0
-87 -307 -617 0
-88 -308 -618 0
-89 -309 -619 0
-90 -310 -620 0
-86 -311 -621 0
-87 -312 -622 0
-88 -313 -623 0
-89 -314 -624 0
-90 -315 -625 0
-86 -316 -646 0
-87 -317 -647 0
-88 -318 -648 0
-89 -319 -649 0
-90 -320 -650 0
-86 -321 -651 0
-87 -322 -652 0
-88 -323 -653 0
-89 -324 -654 0
-90 -325 -655 0
-86 -326 -636 0
-87 -327 -637 0
-88 -328 -638 0
-89 -329 -639 0
-90 -330 -640 0
-86 -331 -641 0
-87 -332 -642 0
-88 -333 -643 0
-89 -334 -644 0
-90 -335 -645 0
-86 -336 -666 0
-87 -337 -667 0
-88 -338 -668 0
-89 -339 -669 0
-90 -340 -670 0
-86 -341 -671 0
-87 -342 -672 0
-88 -343 -673 0
-89 -344 -674 0
-90 -345 -675 0
-86 -346 -656 0
-87 -347 -657 0
-88 -348 -658 0
-89 -349 -659 0
-90 -350 -660 0
-86 -351 -661 0
-87 -352 -662 0
-88 -353 -663 0
-89 -354 -664 0
-90 -355 -665 0
-86 -356 -686 0
-87 -357 -687 0
-88 -358 -688 0
-89 -359 -689 0
-90 -360 -690 0
-86 -361 -691 0
-87 -362 -692 0
-88 -363 -693 0
-89 -364 -694 0
-90 -365 -695 0
-86 -366 -676 0
-87 -367 -677 0
-88 -368 -678 0
-89 -369 -679 0
-90 -370 -680 0
-86 -371 -681 0
-87 -372 -682 0
-88 -373 -683 0
-89 -374 -684 0
-90 -375 -685 0
-86 -376 -706 0
-87 -377 -707 0
-88 -378 -708 0
-89 -379 -709 0
-90 -380 -710 0
-86 -381 -711 0
-87 -382 -712 0
-88 -383 -713 0
-89 -384 -714 0
-90 -385 -715 0
-86 -386 -696 0
-87 -387 -697 0
-88 -388 -698 0
-89 -389 -699 0
-90 -390 -700 0
-86 -391 -701 0
-87 -392 -702 0
-88 -393 -703 0
-89 -394 -704 0
-90 -395 -705 0
-86 -396 -726 0
-87 -397 -727 0
-88 -398 -728 0
-89 -399 -729 0
-90 -400 -730 0
-86 -401 -731 0
-87 -402 -732 0
-88 -403 -733 0
-89 -404 -734 0
-90 -405 -735 0
-86 -406 -716 0
-87 -407 -717 0
-88 -408 -718 0
-89 -409 -719 0
-90 -410 -720 0
-86 -411 -721 0
-87 -412 -722 0
-88 -413 -723 0
-89 -414 -724 0
-90 -415 -725 0
-86 -416 -746 0
-87 -417 -747 0
-88 -418 -748 0
-89 -419 -749 0
-90 -420 -750 0
-86 -421 -751 0
-87 -422 -752 0
-88 -423 -753 0
-89 -424 -754 0
-90 -425 -755 0
-86 -426 -736 0
-87 -427 -737 0
-88 -428 -738 0
-89 -429 -739 0
-90 -430 -740 0
-86 -431 -741 0
-87 -432 -742 0
-88 -433 -743 0
-89 -434 -744 0
-90 -435 -745 0
-86 -436 -766 0
-87 -437 -767 0
-88 -438 -768 0
-89 -439 -769 0
-90 -440 -770 0
-86 -441 -771 0
-87 -442 -772 0
-88 -443 -773 0
-89 -444 -774 0
-90 -445 -775 0
-86 -446 -756 0
-87 -447 -757 0
-88 -448 -758 0
-89 -449 -759 0
-90 -450 -760 0
-86 -451 -761 0
-87 -452 -762 0
-88 -453 -763 0
-89 -454 -764 0
-90 -455 -765 0
-86 -456 -786 0
-87 -457 -787 0
-88 -458 -788 0
-89 -459 -789 0
-90 -460 -790 0
-86 -461 -791 0
-87 -462 -792 0
-88 -463 -793 0
-89 -464 -794 0
-90 -465 -795 0
-86 -466 -776 0
-87 -467 -777 0
-88 -468 -778 0
-89 -469 -779 0
-90 -470 -780 0
-86 -471 -781 0
-87 -472 -782 0
-88 -473 -783 0
-89 -474 -784 0
-90 -475 -785 0
-86 -156 -491 0
-87 -157 -492 0
-88 -158 -493 0
-89 -159 -494 0
-90 -160 -495 0
-86 -161 -486 0
-87 -162 -487 0
-88 -163 -488 0
-89 -164 -489 0
-90 -165 -490 0
-86 -166 -481 0
-87 -167 -482 0
-88 -168 -483 0
-89 -169 -484 0
-90 -170 -485 0
-86 -171 -476 0
-87 -172 -477 0
-88 -173 -478 0
-89 -174 -479 0
-90 -175 -480 0
-86 -176 -511 0
-87 -177 -512 0
-88 -178 -513 0
-89 -179 -514 0
-90 -180 -515 0
-86 -181 -506 0
-87 -182 -507 0
-88 -183 -508 0
-89 -184 -509 0
-90 -185 -510 0
-86 -186 -501 0
-87 -187 -502 0
-88 -188 -503 0
-89 -189 -504 0
-90 -190 -505 0
-86 -191 -496 0
-87 -192 -497 0
-88 -193 -498 0
-89 -194 -499 0
-90 -195 -500 0
-86 -196 -531 0
-87 -197 -532 0
-88 -198 -533 0
-89 -199 -534 0
-90 -200 -535 0
-86 -201 -526 0
-87 -202 -527 0
-88 -203 -528 0
-89 -204 -529 0
-90 -205 -530 0
-86 -206 -521 0
-87 -207 -522 0
-88 -208 -523 0
-89 -209 -524 0
-90 -210 -525 0
-86 -211 -516 0
-87 -212 -517 0
-88 -213 -518 0
-89 -214 -519 0
-90 -215 -520 0
-86 -216 -551 0
-87 -217 -552 0
-88 -218 -553 0
-89 -219 -554 0
-90 -220 -555 0
-86 -221 -546 0
-87 -222 -547 0
-88 -223 -548 0
-89 -224 -549 0
-90 -225 -550 0
-86 -226 -541 0
-87 -227 -542 0
-88 -228 -543 0
-89 -229 -544 0
-90 -230 -545 0
-86 -231 -536 0
-87 -232 -537 0
-88 -233 -538 0
-89 -234 -539 0
-90 -235 -540 0
-86 -236 -571 0
-87 -237 -572 0
-88 -238 -573 0
-89 -239 -574 0
-90 -240 -575 0
-86 -241 -566 0
-87 -242 -567 0
-88 -243 -568 0
-89 -244 -569 0
-90 -245 -570 0
-86 -246 -561 0
-87 -247 -562 0
-88 -248 -563 0
-89 -249 -564 0
-90 -250 -565 0
-86 -251 -556 0
-87 -252 -557 0
-88 -253 -558 0
-89 -254 -559 0
-90 -255 -560 0
-86 -256 -591 0
-87 -257 -592 0
-88 -258 -593 0
-89 -259 -594 0
-90 -260 -595 0
-86 -261 -586 0
-87 -262 -587 0
-88 -263 -588 0
-89 -264 -589 0
-90 -265 -590 0
-86 -266 -581 0
-87 -267 -582 0
-88 -268 -583 0
-89 -269 -584 0
-90 -270 -585 0
-86 -271 -576 0
-87 -272 -577 0
-88 -273 -578 0
-89 -274 -579 0
-90 -275 -580 0
-86 -276 -611 0
-87 -277 -612 0
-88 -278 -613 0
-89 -279 -614 0
-90 -280 -615 0
-86 -281 -606 0
-87 -282 -607 0
-88 -283 -608 0
-89 -284 -609 0
-90 -285 -610 0
-86 -286 -601 0
-87 -287 -602 0
-88 -288 -603 0
-89 -289 -604 0
-90 -290 -605 0
-86 -291 -596 0
-87 -292 -597 0
-88 -293 -598 0
-89 -294 -599 0
-90 -295 -600 0
-86 -296 -631 0
-87 -297 -632 0
-88 -298 -633 0
-89 -299 -634 0
-90 -300 -635 0
-86 -301 -626 0
-87 -302 -627 0
-88 -303 -628 0
-89 -304 -629 0
-90 -305 -630 0
-86 -306 -621 0
-87 -307 -622 0
-88 -308 -623 0
-89 -309 -624 0
-90 -310 -625 0
-86 -311 -616 0
-87 -312 -617 0
-88 -313 -618 0
-89 -314 -619 0
-90 -315 -620 0
-86 -316 -651 0
-87 -317 -652 0
-88 -318 -653 0
-89 -319 -654 0
-90 -320 -655 0
-86 -321 -646 0
-87 -322 -647 0
-88 -323 -648 0
-89 -324 -649 0
-90 -325 -650 0
-86 -326 -641 0
-87 -327 -642 0
-88 -328 -643 0
-89 -329 -644 0
-90 -330 -645 0
-86 -331 -636 0
-87 -332 -637 0
-88 -333 -638 0
-89 -334 -639 0
-90 -335 -640 0
-86 -336 -671 0
-87 -337 -672 0
-88 -338 -673 0
-89 -339 -674 0
-90 -340 -675 0
-86 -341 -666 0
-87 -342 -667 0
-88 -343 -668 0
-89 -344 -669 0
-90 -345 -670 0
-86 -346 -661 0
-87 -347 -662 0
-88 -348 -663 0
-89 -349 -664 0
-90 -350 -665 0
-86 -351 -656 0
-87 -352 -657 0
-88 -353 -658 0
-89 -354 -659 0
-90 -355 -660 0
-86 -356 -691 0
-87 -357 -692 0
-88 -358 -693 0
-89 -359 -694 0
-90 -360 -695 0
-86 -361 -686 0
-87 -362 -687 0
-88 -363 -688 0
-89 -364 -689 0
-90 -365 -690 0
-86 -366 -681 0
-87 -367 -682 0
-88 -368 -683 0
-89 -369 -684 0
-90 -370 -685 0
-86 -371 -676 0
-87 -372 -677 0
-88 -373 -678 0
-89 -374 -679 0
-90 -375 -680 0
-86 -376 -711 0
-87 -377 -712 0
-88 -378 -713 0
-89 -379 -714 0
-90 -380 -715 0
-86 -381 -706 0
-87 -382 -707 0
-88 -383 -708 0
-89 -384 -709 0
-90 -385 -710 0
-86 -386 -701 0
-87 -387 -702 0
-88 -388 -703 0
-89 -389 -704 0
-90 -390 -705 0
-86 -391 -696 0
-87 -392 -697 0
-88 -393 -698 0
-89 -394 -699 0
-90 -395 -700 0
-86 -396 -731 0
-87 -397 -732 0
-88 -398 -733 0
-89 -399 -734 0
-90 -400 -735 0
-86 -401 -726 0
-87 -402 -727 0
-88 -403 -728 0
-89 -404 -729 0
-90 -405 -730 0
-86 -406 -721 0
-87 -407 -722 0
-88 -408 -723 0
-89 -409 -724 0
-90 -410 -725 0
-86 -411 -716 0
-87 -412 -717 0
-88 -413 -718 0
-89 -414 -719 0
-90 -415 -720 0
-86 -416 -751 0
-87 -417 -752 0
-88 -418 -753 0
-89 -419 -754 0
-90 -420 -755 0
-86 -421 -746 0
-87 -422 -747 0
-88 -423 -748 0
-89 -424 -749 0
-90 -425 -750 0
-86 -426 -741 0
-87 -427 -742 0
-88 -428 -743 0
-89 -429 -744 0
-90 -430 -745 0
-86 -431 -736 0
-87 -432 -737 0
-88 -433 -738 0
-89 -434 -739 0
-90 -435 -740 0
-86 -436 -771 0
-87 -437 -772 0
-88 -438 -773 0
-89 -439 -774 0
-90 -440 -775 0
-86 -441 -766 0
-87 -442 -767 0
-88 -443 -768 0
-89 -444 -769 0
-90 -445 -770 0
-86 -446 -761 0
-87 -447 -762 0
-88 -448 -763 0
-89 -449 -764 0
-90 -450 -765 0
-86 -451 -756 0
-87 -452 -757 0
-88 -453 -758 0
-89 -454 -759 0
-90 -455 -760 0
-86 -456 -791 0
-87 -457 -792 0
-88 -458 -793 0
-89 -459 -794 0
-90 -460 -795 0
-86 -461 -786 0
-87 -462 -787 0
-88 -463 -788 0
-89 -464 -789 0
-90 -465 -790 0
-86 -466 -781 0
-87 -467 -782 0
-88 -468 -783 0
-89 -469 -784 0
-90 -470 -785 0
-86 -471 -776 0
-87 -472 -777 0
-88 -473 -778 0
-89 -474 -779 0
-90 -475 -780 0
-91 -156 -496 0
-92 -157 -497 0
-93 -158 -498 0
-94 -159 -499 0
-95 -160 -500 0
-91 -161 -501 0
-92 -162 -502 0
-93 -163 -503 0
-94 -164 -504 0
-95 -165 -505 0
-91 -166 -506 0
-92 -167 -507 0
-93 -168 -508 0
-94 -169 -509 0
-95 -170 -510 0
-91 -171 -511 0
-92 -172 -512 0
-93 -173 -513 0
-94 -174 -514 0
-95 -175 -515 0
-91 -176 -476 0
-92 -177 -477 0
-93 -178 -478 0
-94 -179 -479 0
-95 -180 -480 0
-91 -181 -481 0
-92 -182 -482 0
-93 -183 -483 0
-94 -184 -484 0
-95 -185 -485 0
-91 -186 -486 0
-92 -187 -487 0
-93 -188 -488 0
-94 -189 -489 0
-95 -190 -490 0
-91 -191 -491 0
-92 -192 -492 0
-93 -193 -493 0
-94 -194 -494 0
-95 -195 -495 0
-91 -196 -536 0
-92 -197 -537 0
-93 -198 -538 0
-94 -199 -539 0
-95 -200 -540 0
-91 -201 -541 0
-92 -202 -542 0
-93 -203 -543 0
-94 -204 -544 0
-95 -205 -545 0
-91 -206 -546 0
-92 -207 -547 0
-93 -208 -548 0
-94 -209 -549 0
-95 -210 -550 0
-91 -211 -551 0
-92 -212 -552 0
-93 -213 -553 0
-94 -214 -554 0
-95 -215 -555 0
-91 -216 -516 0
-92 -217 -517 0
-93 -218 -518 0
-94 -219 -519 0
-95 -220 -520 0
-91 -221 -521 0
-92 -222 -522 0
-93 -223 -523 0
-94 -224 -524 0
-95 -225 -525 0
-91 -226 -526 0
-92 -227 -527 0
-93 -228 -528 0
-94 -229 -529 0
-95 -230 -530 0
-91 -231 -531 0
-92 -232 -532 0
-93 -233 -533 0
-94 -234 -534 0
-95 -235 -535 0
-91 -236 -576 0
-92 -237 -577 0
-93 -238 -578 0
-94 -239 -579 0
-95 -240 -580 0
-91 -241 -581 0
-92 -242 -582 0
-93 -243 -583 0
-94 -244 -584 0
-95 -245 -585 0
-91 -246 -586 0
-92 -247 -587 0
-93 -248 -588 0
-94 -249 -589 0
-95 -250 -590 0
-91 -251 -591 0
-92 -252 -592 0
-93 -253 -593 0
-94 -254 -594 0
-95 -255 -595 0
-91 -256 -556 0
-92 -257 -557 0
-93 -258 -558 0
-94 -259 -559 0
-95 -260 -560 0
-91 -261 -561 0
-92 -262 -562 0
-93 -263 -563 0
-94 -264 -564 0
-95 -265 -565 0
-91 -266 -566 0
-92 -267 -567 0
-93 -268 -568 0
-94 -269 -569 0
-95 -270 -570 0
-91 -271 -571 0
-92 -272 -572 0
-93 -273 -573 0
-94 -274 -574 0
-95 -275 -575 0
-91 -276 -616 0
-92 -277 -617 0
-93 -278 -618 0
-94 -279 -619 0
-95 -280 -620 0
-91 -281 -621 0
-92 -282 -622 0
-93 -283 -623 0
-94 -284 -624 0
-95 -285 -625 0
-91 -286 -626 0
-92 -287 -627 0
-93 -288 -628 0
-94 -289 -629 0
-95 -290 -630 0
-91 -291 -631 0
-92 -292 -632 0
-93 -293 -633 0
-94 -294 -634 0
-95 -295 -635 0
-91 -296 -596 0
-92 -297 -597 0
-93 -298 -598 0
-94 -299 -599 0
-95 -300 -600 0
-91 -301 -601 0
-92 -302 -602 0
-93 -303 -603 0
-94 -304 -604 0
-95 -305 -605 0
-91 -306 -606 0
-92 -307 -607 0
-93 -308 -608 0
-94 -309 -609 0
-95 -310 -610 0
-91 -311 -611 0
-92 -312 -612 0
-93 -313 -613 0
-94 -314 -614 0
-95 -315 -615 0
-91 -316 -656 0
-92 -317 -657 0
-93 -318 -658 0
-94 -319 -659 0
-95 -320 -660 0
-91 -321 -661 0
-92 -322 -662 0
-93 -323 -663 0
-94 -324 -664 0
-95 -325 -665 0
-91 -326 -666 0
-92 -327 -667 0
-93 -328 -668 0
-94 -329 -669 0
-95 -330 -670 0
-91 -331 -671 0
-92 -332 -672 0
-93 -333 -673 0
-94 -334 -674 0
-95 -335 -675 0
-91 -336 -636 0
-92 -337 -637 0
-93 -338 -638 0
-94 -339 -639 0
-95 -340 -640 0
-91 -341 -641 0
-92 -342 -642 0
-93 -343 -643 0
-94 -344 -644 0
-95 -345 -645 0
-91 -346 -646 0
-92 -347 -647 0
-93 -348 -648 0
-94 -349 -649 0
-95 -350 -650 0
-91 -351 -651 0
-92 -352 -652 0
-93 -353 -653 0
-94 -354 -654 0
-95 -355 -655 0
-91 -356 -696 0
-92 -357 -697 0
-93 -358 -698 0
-94 -359 -699 0
-95 -360 -700 0
-91 -361 -701 0
-92 -362 -702 0
-93 -363 -703 0
-94 -364 -704 0
-95 -365 -705 0
-91 -366 -706 0
-92 -367 -707 0
-93 -368 -708 0
-94 -369 -709 0
-95 -370 -710 0
-91 -371 -711 0
-92 -372 -712 0
-93 -373 -713 0
-94 -374 -714 0
-95 -375 -715 0
-91 -376 -676 0
-92 -377 -677 0
-93 -378 -678 0
-94 -379 -679 0
-95 -380 -680 0
-91 -381 -681 0
-92 -382 -682 0
-93 -383 -683 0
-94 -384 -684 0
-95 -385 -685 0
-91 -386 -686 0
-92 -387 -687 0
-93 -388 -688 0
-94 -389 -689 0
-95 -390 -690 0
-91 -391 -691 0
-92 -392 -692 0
-93 -393 -693 0
-94 -394 -694 0
-95 -395 -695 0
-91 -396 -736 0
-92 -397 -737 0
-93 -398 -738 0
-94 -399 -739 0
-95 -400 -740 0
-91 -401 -741 0
-92 -402 -742 0
-93 -403 -743 0
-94 -404 -744 0
-95 -405 -745 0
-91 -406 -746 0
-92 -407 -747 0
-93 -408 -748 0
-94 -409 -749 0
-95 -410 -750 0
-91 -411 -751 0
-92 -412 -752 0
-93 -413 -753 0
-94 -414 -754 0
-95 -415 -755 0
-91 -416 -716 0
-92 -417 -717 0
-93 -418 -718 0
-94 -419 -719 0
-95 -420 -720 0
-91 -421 -721 0
-92 -422 -722 0
-93 -423 -723 0
-94 -424 -724 0
-95 -425 -725 0
-91 -426 -726 0
-92 -427 -727 0
-93 -428 -728 0
-94 -429 -729 0
-95 -430 -730 0
-91 -431 -731 0
-92 -432 -732 0
-93 -433 -733 0
-94 -434 -734 0
-95 -435 -735 0
-91 -436 -776 0
-92 -437 -777 0
-93 -438 -778 0
-94 -439 -779 0
-95 -440 -780 0
-91 -441 -781 0
-92 -442 -782 0
-93 -443 -783 0
-94 -444 -784 0
-95 -445 -785 0
-91 -446 -786 0
-92 -447 -787 0
-93 -448 -788 0
-94 -449 -789 0
-95 -450 -790 0
-91 -451 -791 0
-92 -452 -792 0
-93 -453 -793 0
-94 -454 -794 0
-95 -455 -795 0
-91 -456 -756 0
-92 -457 -757 0
-93 -458 -758 0
-94 -459 -759 0
-95 -460 -760 0
-91 -461 -761 0
-92 -462 -762 0
-93 -463 -763 0
-94 -464 -764 0
-95 -465 -765 0
-91 -466 -766 0
-92 -467 -767 0
-93 -468 -768 0
-94 -469 -769 0
-95 -470 -770 0
-91 -471 -771 0
-92 -472 -772 0
-93 -473 -773 0
-94 -474 -774 0
-95 -475 -775 0
-91 -156 -501 0
-92 -157 -502 0
-93 -158 -503 0
-94 -159 -504 0
-95 -160 -505 0
-91 -161 -496 0
-92 -162 -497 0
-93 -163 -498 0
-94 -164 -499 0
-95 -165 -500 0
-91 -166 -511 0
-92 -167 -512 0
-93 -168 -513 0
-94 -169 -514 0
-95 -170 -515 0
-91 -171 -506 0
-92 -172 -507 0
-93 -173 -508 0
-94 -174 -509 0
-95 -175 -510 0
-91 -176 -481 0
-92 -177 -482 0
-93 -178 -483 0
-94 -179 -484 0
-95 -180 -485 0
-91 -181 -476 0
-92 -182 -477 0
-93 -183 -478 0
-94 -184 -479 0
-95 -185 -480 0
-91 -186 -491 0
-92 -187 -492 0
-93 -188 -493 0
-94 -189 -494 0
-95 -190 -495 0
-91 -191 -486 0
-92 -192 -487 0
-93 -193 -488 0
-94 -194 -489 0
-95 -195 -490 0
-91 -196 -541 0
-92 -197 -542 0
-93 -198 -543 0
-94 -199 -544 0
-95 -200 -545 0
-91 -201 -536 0
-92 -202 -537 0
-93 -203 -538 0
-94 -204 -539 0
-95 -205 -540 0
-91 -206 -551 0
-92 -207 -552 0
-93 -208 -553 0
-94 -209 -554 0
-95 -210 -555 0
-91 -211 -546 0
-92 -212 -547 0
-93 -213 -548 0
-94 -214 -549 0
-95 -215 -550 0
-91 -216 -521 0
-92 -217 -522 0
-93 -218 -523 0
-94 -219 -524 0
-95 -220 -525 0
-91 -221 -516 0
-92 -222 -517 0
-93 -223 -518 0
-94 -224 -519 0
-95 -225 -520 0
-91 -226 -531 0
-92 -227 -532 0
-93 -228 -533 0
-94 -229 -534 0
-95 -230 -535 0
-91 -231 -526 0
-92 -232 -527 0
-93 -233 -528 0
-94 -234 -529 0
-95 -235 -530 0
-91 -236 -581 0
-92 -237 -582 0
-93 -238 -583 0
-94 -239 -584 0
-95 -240 -585 0
-91 -241 -576 0
-92 -242 -577 0
-93 -243 -578 0
-94 -244 -579 0
-95 -245 -580 0
-91 -246 -591 0
-92 -247 -592 0
-93 -248 -593 0
-94 -249 -594 0
-95 -250 -595 0
-91 -251 -586 0
-92 -252 -587 0
-93 -253 -588 0
-94 -254 -589 0
-95 -255 -590 0
-91 -256 -561 0
-92 -257 -562 0
-93 -258 -563 0
-94 -259 -564 0
-95 -260 -565 0
-91 -261 -556 0
-92 -262 -557 0
-93 -263 -558 0
-94 -264 -559 0
-95 -265 -560 0
-91 -266 -571 0
-92 -267 -572 0
-93 -268 -573 0
-94 -269 -574 0
-95 -270 -575 0
-91 -271 -566 0
-92 -272 -567 0
-93 -273 -568 0
-94 -274 -569 0
-95 -275 -570 0
-91 -276 -621 0
-92 -277 -622 0
-93 -278 -623 0
-94 -279 -624 0
-95 -280 -625 0
-91 -281 -616 0
-92 -282 -617 0
-93 -283 -618 0
-94 -284 -619 0
-95 -285 -620 0
-91 -286 -631 0
-92 -287 -632 0
-93 -288 -633 0
-94 -289 -634 0
-95 -290 -635 0
-91 -291 -626 0
-92 -292 -627 0
-93 -293 -628 0
-94 -294 -629 0
-95 -295 -630 0
-91 -296 -601 0
-92 -297 -602 0
-93 -298 -603 0
-94 -299 -604 0
-95 -300 -605 0
-91 -301 -596 0
-92 -302 -597 0
-93 -303 -598 0
-94 -304 -599 0
-95 -305 -600 0
-91 -306 -611 0
-92 -307 -612 0
-93 -308 -613 0
-94 -309 -614 0
-95 -310 -615 0
-91 -311 -606 0
-92 -312 -607 0
-93 -313 -608 0
-94 -314 -609 0
-95 -315 -610 0
-91 -316 -661 0
-92 -317 -662 0
-93 -318 -663 0
-94 -319 -664 0
-95 -320 -665 0
-91 -321 -656 0
-92 -322 -657 0
-93 -323 -658 0
-94 -324 -659 0
-95 -325 -660 0
-91 -326 -671 0
-92 -327 -672 0
-93 -328 -673 0
-94 -329 -674 0
-95 -330 -675 0
-91 -331 -666 0
-92 -332 -667 0
-93 -333 -668 0
-94 -334 -669 0
-95 -335 -670 0
-91 -336 -641 0
-92 -337 -642 0
-93 -338 -643 0
-94 -339 -644 0
-95 -340 -645 0
-91 -341 -636 0
-92 -342 -637 0
-93 -343 -638 0
-94 -344 -639 0
-95 -345 -640 0
-91 -346 -651 0
-92 -347 -652 0
-93 -348 -653 0
-94 -349 -654 0
-95 -350 -655 0
-91 -351 -646 0
-92 -352 -647 0
-93 -353 -648 0
-94 -354 -649 0
-95 -355 -650 0
-91 -356 -701 0
-92 -357 -702 0
-93 -358 -703 0
-94 -359 -704 0
-95 -360 -705 0
-91 -361 -696 0
-92 -362 -697 0
-93 -363 -698 0
-94 -364 -699 0
-95 -365 -700 0
-91 -366 -711 0
-92 -367 -712 0
-93 -368 -713 0
-94 -369 -714 0
-95 -370 -715 0
-91 -371 -706 0
-92 -372 -707 0
-93 -373 -708 0
-94 -374 -709 0
-95 -375 -710 0
-91 -376 -681 0
-92 -377 -682 0
-93 -378 -683 0
-94 -379 -684 0
-95 -380 -685 0
-91 -381 -676 0
-92 -382 -677 0
-93 -383 -678 0
-94 -384 -679 0
-95 -385 -680 0
-91 -386 -691 0
-92 -387 -692 0
-93 -388 -693 0
-94 -389 -694 0
-95 -390 -695 0
-91 -391 -686 0
-92 -392 -687 0
-93 -393 -688 0
-94 -394 -689 0
-95 -395 -690 0
-91 -396 -741 0
-92 -397 -742 0
-93 -398 -743 0
-94 -399 -744 0
-95 -400 -745 0
-91 -401 -736 0
-92 -402 -737 0
-93 -403 -738 0
-94 -404 -739 0
-95 -405 -740 0
-91 -406 -751 0
-92 -407 -752 0
-93 -408 -753 0
-94 -409 -754 0
-95 -410 -755 0
-91 -411 -746 0
-92 -412 -747 0
-93 -413 -748 0
-94 -414 -749 0
-95 -415 -750 0
-91 -416 -721 0
-92 -417 -722 0
-93 -418 -723 0
-94 -419 -724 0
-95 -420 -725 0
-91 -421 -716 0
-92 -422 -717 0
-93 -423 -718 0
-94 -424 -719 0
-95 -425 -720 0
-91 -426 -731 0
-92 -427 -732 0
-93 -428 -733 0
-94 -429 -734 0
-95 -430 -735 0
-91 -431 -726 0
-92 -432 -727 0
-93 -433 -728 0
-94 -434 -729 0
-95 -435 -730 0
-91 -436 -781 0
-92 -437 -782 0
-93 -438 -783 0
-94 -439 -784 0
-95 -440 -785 0
-91 -441 -776 0
-92 -442 -777 0
-93 -443 -778 0
-94 -444 -779 0
-95 -445 -780 0
-91 -446 -791 0
-92 -447 -792 0
-93 -448 -793 0
-94 -449 -794 0
-95 -450 -795 0
-91 -451 -786 0
-92 -452 -787 0
-93 -453 -788 0
-94 -454 -789 0
-95 -455 -790 0
-91 -456 -761 0
-92 -457 -762 0
-93 -458 -763 0
-94 -459 -764 0
-95 -460 -765 0
-91 -461 -756 0
-92 -462 -757 0
-93 -463 -758 0
-94 -464 -759 0
-95 -465 -760 0
-91 -466 -771 0
-92 -467 -772 0
-93 -468 -773 0
-94 -469 -774 0
-95 -470 -775 0
-91 -471 -766 0
-92 -472 -767 0
-93 -473 -768 0
-94 -474 -769 0
-95 -475 -770 0
-91 -156 -506 0
-92 -157 -507 0
-93 -158 -508 0
-94 -159 -509 0
-95 -160 -510 0
-91 -161 -511 0
-92 -162 -512 0
-93 -163 -513 0
-94 -164 -514 0
-95 -165 -515 0
-91 -166 -496 0
-92 -167 -497 0
-93 -168 -498 0
-94 -169 -499 0
-95 -170 -500 0
-91 -171 -501 0
-92 -172 -502 0
-93 -173 -503 0
-94 -174 -504 0
-95 -175 -505 0
-91 -176 -486 0
-92 -177 -487 0
-93 -178 -488 0
-94 -179 -489 0
-95 -180 -490 0
-91 -181 -491 0
-92 -182 -492 0
-93 -183 -493 0
-94 -184 -494 0
-95 -185 -495 0
-91 -186 -476 0
-92 -187 -477 0
-93 -188 -478 0
-94 -189 -479 0
-95 -190 -480 0
-91 -191 -481 0
-92 -192 -482 0
-93 -193 -483 0
-94 -194 -484 0
-95 -195 -485 0
-91 -196 -546 0
-92 -197 -547 0
-93 -198 -548 0
-94 -199 -549 0
-95 -200 -550 0
-91 -201 -551 0
-92 -202 -552 0
-93 -203 -553 0
-94 -204 -554 0
-95 -205 -555 0
-91 -206 -536 0
-92 -207 -537 0
-93 -208 -538 0
-94 -209 -539 0
-95 -210 -540 0
-91 -211 -541 0
-92 -212 -542 0
-93 -213 -543 0
-94 -214 -544 0
-95 -215 -545 0
-91 -216 -526 0
-92 -217 -527 0
-93 -218 -528 0
-94 -219 -529 0
-95 -220 -530 0
-91 -221 -531 0
-92 -222 -532 0
-93 -223 -533 0
-94 -224 -534 0
-95 -225 -535 0
-91 -226 -516 0
-92 -227 -517 0
-93 -228 -518 0
-94 -229 -519 0
-95 -230 -520 0
-91 -231 -521 0
-92 -232 -522 0
-93 -233 -523 0
-94 -234 -524 0
-95 -235 -525 0
-91 -236 -586 0
-92 -237 -587 0
-93 -238 -588 0
-94 -239 -589 0
-95 -240 -590 0
-91 -241 -591 0
-92 -242 -592 0
-93 -243 -593 0
-94 -244 -594 0
-95 -245 -595 0
-91 -246 -576 0
-92 -247 -577 0
-93 -248 -578 0
-94 -249 -579 0
-95 -250 -580 0
-91 -251 -581 0
-92 -252 -582 0
-93 -253 -583 0
-94 -254 -584 0
-95 -255 -585 0
-91 -256 -566 0
-92 -257 -567 0
-93 -258 -568 0
-94 -259 -569 0
-95 -260 -570 0
-91 -261 -571 0
-92 -262 -572 0
-93 -263 -573 0
-94 -264 -574 0
-95 -265 -575 0
-91 -266 -556 0
-92 -267 -557 0
-93 -268 -558 0
-94 -269 -559 0
-95 -270 -560 0
-91 -271 -561 0
-92 -272 -562 0
-93 -273 -563 0
-94 -274 -564 0
-95 -275 -565 0
-91 -276 -626 0
-92 -277 -627 0
-93 -278 -628 0
-94 -279 -629 0
-95 -280 -630 0
-91 -281 -631 0
-92 -282 -632 0
-93 -283 -633 0
-94 -284 -634 0
-95 -285 -635 0
-91 -286 -616 0
-92 -287 -617 0
-93 -288 -618 0
-94 -289 -619 0
-95 -290 -620 0
-91 -291 -621 0
-92 -292 -622 0
-93 -293 -623 0
-94 -294 -624 0
-95 -295 -625 0
-91 -296 -606 0
-92 -297 -607 0
-93 -298 -608 0
-94 -299 -609 0
-95 -300 -610 0
-91 -301 -611 0
-92 -302 -612 0
-93 -303 -613 0
-94 -304 -614 0
-95 -305 -615 0
-91 -306 -596 0
-92 -307 -597 0
-93 -308 -598 0
-94 -309 -599 0
-95 -310 -600 0
-91 -311 -601 0
-92 -312 -602 0
-93 -313 -603 0
-94 -314 -604 0
-95 -315 -605 0
-91 -316 -666 0
-92 -317 -667 0
-93 -318 -668 0
-94 -319 -669 0
-95 -320 -670 0
-91 -321 -671 0
-92 -322 -672 0
-93 -323 -673 0
-94 -324 -674 0
-95 -325 -675 0
-91 -326 -656 0
-92 -327 -657 0
-93 -328 -658 0
-94 -329 -659 0
-95 -330 -660 0
-91 -331 -661 0
-92 -332 -662 0
-93 -333 -663 0
-94 -334 -664 0
-95 -335 -665 0
-91 -336 -646 0
-92 -337 -647 0
-93 -338 -648 0
-94 -339 -649 0
-95 -340 -650 0
-91 -341 -651 0
-92 -342 -652 0
-93 -343 -653 0
-94 -344 -654 0
-95 -345 -655 0
-91 -346 -636 0
-92 -347 -637 0
-93 -348 -638 0
-94 -349 -639 0
-95 -350 -640 0
-91 -351 -641 0
-92 -352 -642 0
-93 -353 -643 0
-94 -354 -644 0
-95 -355 -645 0
-91 -356 -706 0
-92 -357 -707 0
-93 -358 -708 0
-94 -359 -709 0
-95 -360 -710 0
-91 -361 -711 0
-92 -362 -712 0
-93 -363 -713 0
-94 -364 -714 0
-95 -365 -715 0
-91 -366 -696 0
-92 -367 -697 0
-93 -368 -698 0
-94 -369 -699 0
-95 -370 -700 0
-91 -371 -701 0
-92 -372 -702 0
-93 -373 -703 0
-94 -374 -704 0
-95 -375 -705 0
-91 -376 -686 0
-92 -377 -687 0
-93 -378 -688 0
-94 -379 -689 0
-95 -380 -690 0
-91 -381 -691 0
-92 -382 -692 0
-93 -383 -693 0
-94 -384 -694 0
-95 -385 -695 0
-91 -386 -676 0
-92 -387 -677 0
-93 -388 -678 0
-94 -389 -679 0
-95 -390 -680 0
-91 -391 -681 0
-92 -392 -682 0
-93 -393 -683 0
-94 -394 -684 0
-95 -395 -685 0
-91 -396 -746 0
-92 -397 -747 0
-93 -398 -748 0
-94 -399 -749 0
-95 -400 -750 0
-91 -401 -751 0
-92 -402 -752 0
-93 -403 -753 0
-94 -404 -754 0
-95 -405 -755 0
-91 -406 -736 0
-92 -407 -737 0
-93 -408 -738 0
-94 -409 -739 0
-95 -410 -740 0
-91 -411 -741 0
-92 -412 -742 0
-93 -413 -743 0
-94 -414 -744 0
-95 -415 -745 0
-91 -416 -726 0
-92 -417 -727 0
-93 -418 -728 0
-94 -419 -729 0
-95 -420 -730 0
-91 -421 -731 0
-92 -422 -732 0
-93 -423 -733 0
-94 -424 -734 0
-95 -425 -735 0
-91 -426 -716 0
-92 -427 -717 0
-93 -428 -718 0
-94 -429 -719 0
-95 -430 -720 0
-91 -431 -721 0
-92 -432 -722 0
-93 -433 -723 0
-94 -434 -724 0
-95 -435 -725 0
-91 -436 -786 0
-92 -437 -787 0
-93 -438 -788 0
-94 -439 -789 0
-95 -440 -790 0
-91 -441 -791 0
-92 -442 -792 0
-93 -443 -793 0
-94 -444 -794 0
-95 -445 -795 0
-91 -446 -776 0
-92 -447 -777 0
-93 -448 -778 0
-94 -449 -779 0
-95 -450 -780 0
-91 -451 -781 0
-92 -452 -782 0
-93 -453 -783 0
-94 -454 -784 0
-95 -455 -785 0
-91 -456 -766 0
-92 -457 -767 0
-93 -458 -768 0
-94 -459 -769 0
-95 -460 -770 0
-91 -461 -771 0
-92 -462 -772 0
-93 -463 -773 0
-94 -464 -774 0
-95 -465 -775 0
-91 -466 -756 0
-92 -467 -757 0
-93 -468 -758 0
-94 -469 -759 0
-95 -470 -760 0
-91 -471 -761 0
-92 -472 -762 0
-93 -473 -763 0
-94 -474 -764 0
-95 -475 -765 0
-86 -156 -511 0
-87 -157 -512 0
-88 -158 -513 0
-89 -159 -514 0
-90 -160 -515 0
-86 -161 -506 0
-87 -162 -507 0
-88 -163 -508 0
-89 -164 -509 0
-90 -165 -510 0
-86 -166 -501 0
-87 -167 -502 0
-88 -168 -503 0
-89 -169 -504 0
-90 -170 -505 0
-86 -171 -496 0
-87 -172 -497 0
-88 -173 -498 0
-89 -174 -499 0
-90 -175 -500 0
-86 -176 -491 0
-87 -177 -492 0
-88 -178 -493 0
-89 -179 -494 0
-90 -180 -495 0
-86 -181 -486 0
-87 -182 -487 0
-88 -183 -488 0
-89 -184 -489 0
-90 -185 -490 0
-86 -186 -481 0
-87 -187 -482 0
-88 -188 -483 0
-89 -189 -484 0
-90 -190 -485 0
-86 -191 -476 0
-87 -192 -477 0
-88 -193 -478 0
-89 -194 -479 0
-90 -195 -480 0
-86 -196 -551 0
-87 -197 -552 0
-88 -198 -553 0
-89 -199 -554 0
-90 -200 -555 0
-86 -201 -546 0
-87 -202 -547 0
-88 -203 -548 0
-89 -204 -549 0
-90 -205 -550 0
-86 -206 -541 0
-87 -207 -542 0
-88 -208 -543 0
-89 -209 -544 0
-90 -210 -545 0
-86 -211 -536 0
-87 -212 -537 0
-88 -213 -538 0
-89 -214 -539 0
-90 -215 -540 0
-86 -216 -531 0
-87 -217 -532 0
-88 -218 -533 0
-89 -219 -534 0
-90 -220 -535 0
-86 -221 -526 0
-87 -222 -527 0
-88 -223 -528 0
-89 -224 -529 0
-90 -225 -530 0
-86 -226 -521 0
-87 -227 -522 0
-88 -228 -523 0
-89 -229 -524 0
-90 -230 -525 0
-86 -231 -516 0
-87 -232 -517 0
-88 -233 -518 0
-89 -234 -519 0
-90 -235 -520 0
-86 -236 -591 0
-87 -237 -592 0
-88 -238 -593 0
-89 -239 -594 0
-90 -240 -595 0
-86 -241 -586 0
-87 -242 -587 0
-88 -243 -588 0
-89 -244 -589 0
-90 -245 -590 0
-86 -246 -581 0
-87 -247 -582 0
-88 -248 -583 0
-89 -249 -584 0
-90 -250 -585 0
-86 -251 -576 0
-87 -252 -577 0
-88 -253 -578 0
-89 -254 -579 0
-90 -255 -580 0
-86 -256 -571 0
-87 -257 -572 0
-88 -258 -573 0
-89 -259 -574 0
-90 -260 -575 0
-86 -261 -566 0
-87 -262 -567 0
-88 -263 -568 0
-89 -264 -569 0
-90 -265 -570 0
-86 -266 -561 0
-87 -267 -562 0
-88 -268 -563 0
-89 -269 -564 0
-90 -270 -565 0
-86 -271 -556 0
-87 -272 -557 0
-88 -273 -558 0
-89 -274 -559 0
-90 -275 -560 0
-86 -276 -631 0
-87 -277 -632 0
-88 -278 -633 0
-89 -279 -634 0
-90 -280 -635 0
-86 -281 -626 0
-87 -282 -627 0
-88 -283 -628 0
-89 -284 -629 0
-90 -285 -630 0
-86 -286 -621 0
-87 -287 -622 0
-88 -288 -623 0
-89 -289 -624 0
-90 -290 -625 0
-86 -291 -616 0
-87 -292 -617 0
-88 -293 -618 0
-89 -294 -619 0
-90 -295 -620 0
-86 -296 -611 0
-87 -297 -612 0
-88 -298 -613 0
-89 -299 -614 0
-90 -300 -615 0
-86 -301 -606 0
-87 -302 -607 0
-88 -303 -608 0
-89 -304 -609 0
-90 -305 -610 0
-86 -306 -601 0
-87 -307 -602 0
-88 -308 -603 0
-89 -309 -604 0
-90 -310 -605 0
-86 -311 -596 0
-87 -312 -597 0
-88 -313 -598 0
-89 -314 -599 0
-90 -315 -600 0
-86 -316 -671 0
-87 -317 -672 0
-88 -318 -673 0
-89 -319 -674 0
-90 -320 -675 0
-86 -321 -666 0
-87 -322 -667 0
-88 -323 -668 0
-89 -324 -669 0
-90 -325 -670 0
-86 -326 -661 0
-87 -327 -662 0
-88 -328 -663 0
-89 -329 -664 0
-90 -330 -665 0
-86 -331 -656 0
-87 -332 -657 0
-88 -333 -658 0
-89 -334 -659 0
-90 -335 -660 0
-86 -336 -651 0
-87 -337 -652 0
-88 -338 -653 0
-89 -339 -654 0
-90 -340 -655 0
-86 -341 -646 0
-87 -342 -647 0
-88 -343 -648 0
-89 -344 -649 0
-90 -345 -650 0
-86 -346 -641 0
-87 -347 -642 0
-88 -348 -643 0
-89 -349 -644 0
-90 -350 -645 0
-86 -351 -636 0
-87 -352 -637 0
-88 -353 -638 0
-89 -354 -639 0
-90 -355 -640 0
-86 -356 -711 0
-87 -357 -712 0
-88 -358 -713 0
-89 -359 -714 0
-90 -360 -715 0
-86 -361 -706 0
-87 -362 -707 0
-88 -363 -708 0
-89 -364 -709 0
-90 -365 -710 0
-86 -366 -701 0
-87 -367 -702 0
-88 -368 -703 0
-89 -369 -704 0
-90 -370 -705 0
-86 -371 -696 0
-87 -372 -697 0
-88 -373 -698 0
-89 -374 -699 0
-90 -375 -700 0
-86 -376 -691 0
-87 -377 -692 0
-88 -378 -693 0
-89 -379 -694 0
-90 -380 -695 0
-86 -381 -686 0
-87 -382 -687 0
-88 -383 -688 0
-89 -384 -689 0
-90 -385 -690 0
-86 -386 -681 0
-87 -387 -682 0
-88 -388 -683 0
-89 -389 -684 0
-90 -390 -685 0
-86 -391 -676 0
-87 -392 -677 0
-88 -393 -678 0
-89 -394 -679 0
-90 -395 -680 0
-86 -396 -751 0
-87 -397 -752 0
-88 -398 -753 0
-89 -399 -754 0
-90 -400 -755 0
-86 -401 -746 0
-87 -402 -747 0
-88 -403 -748 0
-89 -404 -749 0
-90 -405 -750 0
-86 -406 -741 0
-87 -407 -742 0
-88 -408 -743 0
-89 -409 -744 0
-90 -410 -745 0
-86 -411 -736 0
-87 -412 -737 0
-88 -413 -738 0
-89 -414 -739 0
-90 -415 -740 0
-86 -416 -731 0
-87 -417 -732 0
-88 -418 -733 0
-89 -419 -734 0
-90 -420 -735 0
-86 -421 -726 0
-87 -422 -727 0
-88 -423 -728 0
-89 -424 -729 0
-90 -425 -730 0
-86 -426 -721 0
-87 -427 -722 0
-88 -428 -723 0
-89 -429 -724 0
-90 -430 -725 0
-86 -431 -716 0
-87 -432 -717 0
-88 -433 -718 0
-89 -434 -719 0
-90 -435 -720 0
-86 -436 -791 0
-87 -437 -792 0
-88 -438 -793 0
-89 -439 -794 0
-90 -440 -795 0
-86 -441 -786 0
-87 -442 -787 0
-88 -443 -788 0
-89 -444 -789 0
-90 -445 -790 0
-86 -446 -781 0
-87 -447 -782 0
-88 -448 -783 0
-89 -449 -784 0
-90 -450 -785 0
-86 -451 -776 0
-87 -452 -777 0
-88 -453 -778 0
-89 -454 -779 0
-90 -455 -780 0
-86 -456 -771 0
-87 -457 -772 0
-88 -458 -773 0
-89 -459 -774 0
-90 -460 -775 0
-86 -461 -766 0
-87 -462 -767 0
-88 -463 -768 0
-89 -464 -769 0
-90 -465 -770 0
-86 -466 -761 0
-87 -467 -762 0
-88 -468 -763 0
-89 -469 -764 0
-90 -470 -765 0
-86 -471 -756 0
-87 -472 -757 0
-88 -473 -758 0
-89 -474 -759 0
-90 -475 -760 0
-81 -156 -516 0
-82 -157 -517 0
-83 -158 -518 0
-84 -159 -519 0
-85 -160 -520 0
-81 -161 -521 0
-82 -162 -522 0
-83 -163 -523 0
-84 -164 -524 0
-85 -165 -525 0
-81 -166 -526 0
-82 -167 -527 0
-83 -168 -528 0
-84 -169 -529 0
-85 -170 -530 0
-81 -171 -531 0
-82 -172 -532 0
-83 -173 -533 0
-84 -174 -534 0
-85 -175 -535 0
-81 -176 -536 0
-82 -177 -537 0
-83 -178 -538 0
-84 -179 -539 0
-85 -180 -540 0
-81 -181 -541 0
-82 -182 -542 0
-83 -183 -543 0
-84 -184 -544 0
-85 -185 -545 0
-81 -186 -546 0
-82 -187 -547 0
-83 -188 -548 0
-84 -189 -549 0
-85 -190 -550 0
-81 -191 -551 0
-82 -192 -552 0
-83 -193 -553 0
-84 -194 -554 0
-85 -195 -555 0
-81 -196 -476 0
-82 -197 -477 0
-83 -198 -478 0
-84 -199 -479 0
-85 -200 -480 0
-81 -201 -481 0
-82 -202 -482 0
-83 -203 -483 0
-84 -204 -484 0
-85 -205 -485 0
-81 -206 -486 0
-82 -207 -487 0
-83 -208 -488 0
-84 -209 -489 0
-85 -210 -490 0
-81 -211 -491 0
-82 -212 -492 0
-83 -213 -493 0
-84 -214 -494 0
-85 -215 -495 0
-81 -216 -496 0
-82 -217 -497 0
-83 -218 -498 0
-84 -219 -499 0
-85 -220 -500 0
-81 -221 -501 0
-82 -222 -502 0
-83 -223 -503 0
-84 -224 -504 0
-85 -225 -505 0
-81 -226 -506 0
-82 -227 -507 0
-83 -228 -508 0
-84 -229 -509 0
-85 -230 -510 0
-81 -231 -511 0
-82 -232 -512 0
-83 -233 -513 0
-84 -234 -514 0
-85 -235 -515 0
-81 -236 -596 0
-82 -237 -597 0
-83 -238 -598 0
-84 -239 -599 0
-85 -240 -600 0
-81 -241 -601 0
-82 -242 -602 0
-83 -243 -603 0
-84 -244 -604 0
-85 -245 -605 0
-81 -246 -606 0
-82 -247 -607 0
-83 -248 -608 0
-84 -249 -609 0
-85 -250 -610 0
-81 -251 -611 0
-82 -252 -612 0
-83 -253 -613 0
-84 -254 -614 0
-85 -255 -615 0
-81 -256 -616 0
-82 -257 -617 0
-83 -258 -618 0
-84 -259 -619 0
-85 -260 -620 0
-81 -261 -621 0
-82 -262 -622 0
-83 -263 -623 0
-84 -264 -624 0
-85 -265 -625 0
-81 -266 -626 0
-82 -267 -627 0
-83 -268 -628 0
-84 -269 -629 0
-85 -270 -630 0
-81 -271 -631 0
-82 -272 -632 0
-83 -273 -633 0
-84 -274 -634 0
-85 -275 -635 0
-81 -276 -556 0
-82 -277 -557 0
-83 -278 -558 0
-84 -279 -559 0
-85 -280 -560 0
-81 -281 -561 0
-82 -282 -562 0
-83 -283 -563 0
-84 -284 -564 0
-85 -285 -565 0
-81 -286 -566 0
-82 -287 -567 0
-83 -288 -568 0
-84 -289 -569 0
-85 -290 -570 0
-81 -291 -571 0
-82 -292 -572 0
-83 -293 -573 0
-84 -294 -574 0
-85 -295 -575 0
-81 -296 -576 0
-82 -297 -577 0
-83 -298 -578 0
-84 -299 -579 0
-85 -300 -580 0
-81 -301 -581 0
-82 -302 -582 0
-83 -303 -583 0
-84 -304 -584 0
-85 -305 -585 0
-81 -306 -586 0
-82 -307 -587 0
-83 -308 -588 0
-84 -309 -589 0
-85 -310 -590 0
-81 -311 -591 0
-82 -312 -592 0
-83 -313 -593 0
-84 -314 -594 0
-85 -315 -595 0
-81 -316 -676 0
-82 -317 -677 0
-83 -318 -678 0
-84 -319 -679 0
-85 -320 -680 0
-81 -321 -681 0
-82 -322 -682 0
-83 -323 -683 0
-84 -324 -684 0
-85 -325 -685 0
-81 -326 -686 0
-82 -327 -687 0
-83 -328 -688 0
-84 -329 -689 0
-85 -330 -690 0
-81 -331 -691 0
-82 -332 -692 0
-83 -333 -693 0
-84 -334 -694 0
-85 -335 -695 0
-81 -336 -696 0
-82 -337 -697 0
-83 -338 -698 0
-84 -339 -699 0
-85 -340 -700 0
-81 -341 -701 0
-82 -342 -702 0
-83 -343 -703 0
-84 -344 -704 0
-85 -345 -705 0
-81 -346 -706 0
-82 -347 -707 0
-83 -348 -708 0
-84 -349 -709 0
-85 -350 -710 0
-81 -351 -711 0
-82 -352 -712 0
-83 -353 -713 0
-84 -354 -714 0
-85 -355 -715 0
-81 -356 -636 0
-82 -357 -637 0
-83 -358 -638 0
-84 -359 -639 0
-85 -360 -640 0
-81 -361 -641 0
-82 -362 -642 0
-83 -363 -643 0
-84 -364 -644 0
-85 -365 -645 0
-81 -366 -646 0
-82 -367 -647 0
-83 -368 -648 0
-84 -369 -649 0
-85 -370 -650 0
-81 -371 -651 0
-82 -372 -652 0
-83 -373 -653 0
-84 -374 -654 0
-85 -375 -655 0
-81 -376 -656 0
-82 -377 -657 0
-83 -378 -658 0
-84 -379 -659 0
-85 -380 -660 0
-81 -381 -661 0
-82 -382 -662 0
-83 -383 -663 0
-84 -384 -664 0
-85 -385 -665 0
-81 -386 -666 0
-82 -387 -667 0
-83 -388 -668 0
-84 -389 -669 0
-85 -390 -670 0
-81 -391 -671 0
-82 -392 -672 0
-83 -393 -673 0
-84 -394 -674 0
-85 -395 -675 0
-81 -396 -756 0
-82 -397 -757 0
-83 -398 -758 0
-84 -399 -759 0
-85 -400 -760 0
-81 -401 -761 0
-82 -402 -762 0
-83 -403 -763 0
-84 -404 -764 0
-85 -405 -765 0
-81 -406 -766 0
-82 -407 -767 0
-83 -408 -768 0
-84 -409 -769 0
-85 -410 -770 0
-81 -411 -771 0
-82 -412 -772 0
-83 -413 -773 0
-84 -414 -774 0
-85 -415 -775 0
-81 -416 -776 0
-82 -417 -777 0
-83 -418 -778 0
-84 -419 -779 0
-85 -420 -780 0
-81 -421 -781 0
-82 -422 -782 0
-83 -423 -783 0
-84 -424 -784 0
-85 -425 -785 0
-81 -426 -786 0
-82 -427 -787 0
-83 -428 -788 0
-84 -429 -789 0
-85 -430 -790 0
-81 -431 -791 0
-82 -432 -792 0
-83 -433 -793 0
-84 -434 -794 0
-85 -435 -795 0
-81 -436 -716 0
-82 -437 -717 0
-83 -438 -718 0
-84 -439 -719 0
-85 -440 -720 0
-81 -441 -721 0
-82 -442 -722 0
-83 -443 -723 0
-84 -444 -724 0
-85 -445 -725 0
-81 -446 -726 0
-82 -447 -727 0
-83 -448 -728 0
-84 -449 -729 0
-85 -450 -730 0
-81 -451 -731 0
-82 -452 -732 0
-83 -453 -733 0
-84 -454 -734 0
-85 -455 -735 0
-81 -456 -736 0
-82 -457 -737 0
-83 -458 -738 0
-84 -459 -739 0
-85 -460 -740 0
-81 -461 -741 0
-82 -462 -742 0
-83 -463 -743 0
-84 -464 -744 0
-85 -465 -745 0
-81 -466 -746 0
-82 -467 -747 0
-83 -468 -748 0
-84 -469 -749 0
-85 -470 -750 0
-81 -471 -751 0
-82 -472 -752 0
-83 -473 -753 0
-84 -474 -754 0
-85 -475 -755 0
-91 -156 -521 0
-92 -157 -522 0
-93 -158 -523 0
-94 -159 -524 0
-95 -160 -525 0
-91 -161 -516 0
-92 -162 -517 0
-93 -163 -518 0
-94 -164 -519 0
-95 -165 -520 0
-91 -166 -531 0
-92 -167 -532 0
-93 -168 -533 0
-94 -169 -534 0
-95 -170 -535 0
-91 -171 -526 0
-92 -172 -527 0
-93 -173 -528 0
-94 -174 -529 0
-95 -175 -530 0
-91 -176 -541 0
-92 -177 -542 0
-93 -178 -543 0
-94 -179 -544 0
-95 -180 -545 0
-91 -181 -536 0
-92 -182 -537 0
-93 -183 -538 0
-94 -184 -539 0
-95 -185 -540 0
-91 -186 -551 0
-92 -187 -552 0
-93 -188 -553 0
-94 -189 -554 0
-95 -190 -555 0
-91 -191 -546 0
-92 -192 -547 0
-93 -193 -548 0
-94 -194 -549 0
-95 -195 -550 0
-91 -196 -481 0
-92 -197 -482 0
-93 -198 -483 0
-94 -199 -484 0
-95 -200 -485 0
-91 -201 -476 0
-92 -202 -477 0
-93 -203 -478 0
-94 -204 -479 0
-95 -205 -480 0
-91 -206 -491 0
-92 -207 -492 0
-93 -208 -493 0
-94 -209 -494 0
-95 -210 -495 0
-91 -211 -486 0
-92 -212 -487 0
-93 -213 -488 0
-94 -214 -489 0
-95 -215 -490 0
-91 -216 -501 0
-92 -217 -502 0
-93 -218 -503 0
-94 -219 -504 0
-95 -220 -505 0
-91 -221 -496 0
-92 -222 -497 0
-93 -223 -498 0
-94 -224 -499 0
-95 -225 -500 0
-91 -226 -511 0
-92 -227 -512 0
-93 -228 -513 0
-94 -229 -514 0
-95 -230 -515 0
-91 -231 -506 0
-92 -232 -507 0
-93 -233 -508 0
-94 -234 -509 0
-95 -235 -510 0
-91 -236 -601 0
-92 -237 -602 0
-93 -238 -603 0
-94 -239 -604 0
-95 -240 -605 0
-91 -241 -596 0
-92 -242 -597 0
-93 -243 -598 0
-94 -244 -599 0
-95 -245 -600 0
-91 -246 -611 0
-92 -247 -612 0
-93 -248 -613 0
-94 -249 -614 0
-95 -250 -615 0
-91 -251 -606 0
-92 -252 -607 0
-93 -253 -608 0
-94 -254 -609 0
-95 -255 -610 0
-91 -256 -621 0
-92 -257 -622 0
-93 -258 -623 0
-94 -259 -624 0
-95 -260 -625 0
-91 -261 -616 0
-92 -262 -617 0
-93 -263 -618 0
-94 -264 -619 0
-95 -265 -620 0
-91 -266 -631 0
-92 -267 -632 0
-93 -268 -633 0
-94 -269 -634 0
-95 -270 -635 0
-91 -271 -626 0
-92 -272 -627 0
-93 -273 -628 0
-94 -274 -629 0
-95 -275 -630 0
-91 -276 -561 0
-92 -277 -562 0
-93 -278 -563 0
-94 -279 -564 0
-95 -280 -565 0
-91 -281 -556 0
-92 -282 -557 0
-93 -283 -558 0
-94 -284 -559 0
-95 -285 -560 0
-91 -286 -571 0
-92 -287 -572 0
-93 -288 -573 0
-94 -289 -574 0
-95 -290 -575 0
-91 -291 -566 0
-92 -292 -567 0
-93 -293 -568 0
-94 -294 -569 0
-95 -295 -570 0
-91 -296 -581 0
-92 -297 -582 0
-93 -298 -583 0
-94 -299 -584 0
-95 -300 -585 0
-91 -301 -576 0
-92 -302 -577 0
-93 -303 -578 0
-94 -304 -579 0
-95 -305 -580 0
-91 -306 -591 0
-92 -307 -592 0
-93 -308 -593 0
-94 -309 -594 0
-95 -310 -595 0
-91 -311 -586 0
-92 -312 -587 0
-93 -313 -588 0
-94 -314 -589 0
-95 -315 -590 0
-91 -316 -681 0
-92 -317 -682 0
-93 -318 -683 0
-94 -319 -684 0
-95 -320 -685 0
-91 -321 -676 0
-92 -322 -677 0
-93 -323 -678 0
-94 -324 -679 0
-95 -325 -680 0
-91 -326 -691 0
-92 -327 -692 0
-93 -328 -693 0
-94 -329 -694 0
-95 -330 -695 0
-91 -331 -686 0
-92 -332 -687 0
-93 -333 -688 0
-94 -334 -689 0
-95 -335 -690 0
-91 -336 -701 0
-92 -337 -702 0
-93 -338 -703 0
-94 -339 -704 0
-95 -340 -705 0
-91 -341 -696 0
-92 -342 -697 0
-93 -343 -698 0
-94 -344 -699 0
-95 -345 -700 0
-91 -346 -711 0
-92 -347 -712 0
-93 -348 -713 0
-94 -349 -714 0
-95 -350 -715 0
-91 -351 -706 0
-92 -352 -707 0
-93 -353 -708 0
-94 -354 -709 0
-95 -355 -710 0
-91 -356 -641 0
-92 -357 -642 0
-93 -358 -643 0
-94 -359 -644 0
-95 -360 -645 0
-91 -361 -636 0
-92 -362 -637 0
-93 -363 -638 0
-94 -364 -639 0
-95 -365 -640 0
-91 -366 -651 0
-92 -367 -652 0
-93 -368 -653 0
-94 -369 -654 0
-95 -370 -655 0
-91 -371 -646 0
-92 -372 -647 0
-93 -373 -648 0
-94 -374 -649 0
-95 -375 -650 0
-91 -376 -661 0
-92 -377 -662 0
-93 -378 -663 0
-94 -379 -664 0
-95 -380 -665 0
-91 -381 -656 0
-92 -382 -657 0
-93 -383 -658 0
-94 -384 -659 0
-95 -385 -660 0
-91 -386 -671 0
-92 -387 -672 0
-93 -388 -673 0
-94 -389 -674 0
-95 -390 -675 0
-91 -391 -666 0
-92 -392 -667 0
-93 -393 -668 0
-94 -394 -669 0
-95 -395 -670 0
-91 -396 -761 0
-92 -397 -762 0
-93 -398 -763 0
-94 -399 -764 0
-95 -400 -765 0
-91 -401 -756 0
-92 -402 -757 0
-93 -403 -758 0
-94 -404 -759 0
-95 -405 -760 0
-91 -406 -771 0
-92 -407 -772 0
-93 -408 -773 0
-94 -409 -774 0
-95 -410 -775 0
-91 -411 -766 0
-92 -412 -767 0
-93 -413 -768 0
-94 -414 -769 0
-95 -415 -770 0
-91 -416 -781 0
-92 -417 -782 0
-93 -418 -783 0
-94 -419 -784 0
-95 -420 -785 0
-91 -421 -776 0
-92 -422 -777 0
-93 -423 -778 0
-94 -424 -779 0
-95 -425 -780 0
-91 -426 -791 0
-92 -427 -792 0
-93 -428 -793 0
-94 -429 -794 0
-95 -430 -795 0
-91 -431 -786 0
-92 -432 -787 0
-93 -433 -788 0
-94 -434 -789 0
-95 -435 -790 0
-91 -436 -721 0
-92 -437 -722 0
-93 -438 -723 0
-94 -439 -724 0
-95 -440 -725 0
-91 -441 -716 0
-92 -442 -717 0
-93 -443 -718 0
-94 -444 -719 0
-95 -445 -720 0
-91 -446 -731 0
-92 -447 -732 0
-93 -448 -733 0
-94 -449 -734 0
-95 -450 -735 0
-91 -451 -726 0
-92 -452 -727 0
-93 -453 -728 0
-94 -454 -729 0
-95 -455 -730 0
-91 -456 -741 0
-92 -457 -742 0
-93 -458 -743 0
-94 -459 -744 0
-95 -460 -745 0
-91 -461 -736 0
-92 -462 -737 0
-93 -463 -738 0
-94 -464 -739 0
-95 -465 -740 0
-91 -466 -751 0
-92 -467 -752 0
-93 -468 -753 0
-94 -469 -754 0
-95 -470 -755 0
-91 -471 -746 0
-92 -472 -747 0
-93 -473 -748 0
-94 -474 -749 0
-95 -475 -750 0
-81 -156 -526 0
-82 -157 -527 0
-83 -158 -528 0
-84 -159 -529 0
-85 -160 -530 0
-81 -161 -531 0
-82 -162 -532 0
-83 -163 -533 0
-84 -164 -534 0
-85 -165 -535 0
-81 -166 -516 0
-82 -167 -517 0
-83 -168 -518 0
-84 -169 -519 0
-85 -170 -520 0
-81 -171 -521 0
-82 -172 -522 0
-83 -173 -523 0
-84 -174 -524 0
-85 -175 -525 0
-81 -176 -546 0
-82 -177 -547 0
-83 -178 -548 0
-84 -179 -549 0
-85 -180 -550 0
-81 -181 -551 0
-82 -182 -552 0
-83 -183 -553 0
-84 -184 -554 0
-85 -185 -555 0
-81 -186 -536 0
-82 -187 -537 0
-83 -188 -538 0
-84 -189 -539 0
-85 -190 -540 0
-81 -191 -541 0
-82 -192 -542 0
-83 -193 -543 0
-84 -194 -544 0
-85 -195 -545 0
-81 -196 -486 0
-82 -197 -487 0
-83 -198 -488 0
-84 -199 -489 0
-85 -200 -490 0
-81 -201 -491 0
-82 -202 -492 0
-83 -203 -493 0
-84 -204 -494 0
-85 -205 -495 0
-81 -206 -476 0
-82 -207 -477 0
-83 -208 -478 0
-84 -209 -479 0
-85 -210 -480 0
-81 -211 -481 0
-82 -212 -482 0
-83 -213 -483 0
-84 -214 -484 0
-85 -215 -485 0
-81 -216 -506 0
-82 -217 -507 0
-83 -218 -508 0
-84 -219 -509 0
-85 -220 -510 0
-81 -221 -511 0
-82 -222 -512 0
-83 -223 -513 0
-84 -224 -514 0
-85 -225 -515 0
-81 -226 -496 0
-82 -227 -497 0
-83 -228 -498 0
-84 -229 -499 0
-85 -230 -500 0
-81 -231 -501 0
-82 -232 -502 0
-83 -233 -503 0
-84 -234 -504 0
-85 -235 -505 0
-81 -236 -606 0
-82 -237 -607 0
-83 -238 -608 0
-84 -239 -609 0
-85 -240 -610 0
-81 -241 -611 0
-82 -242 -612 0
-83 -243 -613 0
-84 -244 -614 0
-85 -245 -615 0
-81 -246 -596 0
-82 -247 -597 0
-83 -248 -598 0
-84 -249 -599 0
-85 -250 -600 0
-81 -251 -601 0
-82 -252 -602 0
-83 -253 -603 0
-84 -254 -604 0
-85 -255 -605 0
-81 -256 -626 0
-82 -257 -627 0
-83 -258 -628 0
-84 -259 -629 0
-85 -260 -630 0
-81 -261 -631 0
-82 -262 -632 0
-83 -263 -633 0
-84 -264 -634 0
-85 -265 -635 0
-81 -266 -616 0
-82 -267 -617 0
-83 -268 -618 0
-84 -269 -619 0
-85 -270 -620 0
-81 -271 -621 0
-82 -272 -622 0
-83 -273 -623 0
-84 -274 -624 0
-85 -275 -625 0
-81 -276 -566 0
-82 -277 -567 0
-83 -278 -568 0
-84 -279 -569 0
-85 -280 -570 0
-81 -281 -571 0
-82 -282 -572 0
-83 -283 -573 0
-84 -284 -574 0
-85 -285 -575 0
-81 -286 -556 0
-82 -287 -557 0
-83 -288 -558 0
-84 -289 -559 0
-85 -290 -560 0
-81 -291 -561 0
-82 -292 -562 0
-83 -293 -563 0
-84 -294 -564 0
-85 -295 -565 0
-81 -296 -586 0
-82 -297 -587 0
-83 -298 -588 0
-84 -299 -589 0
-85 -300 -590 0
-81 -301 -591 0
-82 -302 -592 0
-83 -303 -593 0
-84 -304 -594 0
-85 -305 -595 0
-81 -306 -576 0
-82 -307 -577 0
-83 -308 -578 0
-84 -309 -579 0
-85 -310 -580 0
-81 -311 -581 0
-82 -312 -582 0
-83 -313 -583 0
-84 -314 -584 0
-85 -315 -585 0
-81 -316 -686 0
-82 -317 -687 0
-83 -318 -688 0
-84 -319 -689 0
-85 -320 -690 0
-81 -321 -691 0
-82 -322 -692 0
-83 -323 -693 0
-84 -324 -694 0
-85 -325 -695 0
-81 -326 -676 0
-82 -327 -677 0
-83 -328 -678 0
-84 -329 -679 0
-85 -330 -680 0
-81 -331 -681 0
-82 -332 -682 0
-83 -333 -683 0
-84 -334 -684 0
-85 -335 -685 0
-81 -336 -706 0
-82 -337 -707 0
-83 -338 -708 0
-84 -339 -709 0
-85 -340 -710 0
-81 -341 -711 0
-82 -342 -712 0
-83 -343 -713 0
-84 -344 -714 0
-85 -345 -715 0
-81 -346 -696 0
-82 -347 -697 0
-83 -348 -698 0
-84 -349 -699 0
-85 -350 -700 0
-81 -351 -701 0
-82 -352 -702 0
-83 -353 -703 0
-84 -354 -704 0
-85 -355 -705 0
-81 -356 -646 0
-82 -357 -647 0
-83 -358 -648 0
-84 -359 -649 0
-85 -360 -650 0
-81 -361 -651 0
-82 -362 -652 0
-83 -363 -653 0
-84 -364 -654 0
-85 -365 -655 0
-81 -366 -636 0
-82 -367 -637 0
-83 -368 -638 0
-84 -369 -639 0
-85 -370 -640 0
-81 -371 -641 0
-82 -372 -642 0
-83 -373 -643 0
-84 -374 -644 0
-85 -375 -645 0
-81 -376 -666 0
-82 -377 -667 0
-83 -378 -668 0
-84 -379 -669 0
-85 -380 -670 0
-81 -381 -671 0
-82 -382 -672 0
-83 -383 -673 0
-84 -384 -674 0
-85 -385 -675 0
-81 -386 -656 0
-82 -387 -657 0
-83 -388 -658 0
-84 -389 -659 0
-85 -390 -660 0
-81 -391 -661 0
-82 -392 -662 0
-83 -393 -663 0
-84 -394 -664 0
-85 -395 -665 0
-81 -396 -766 0
-82 -397 -767 0
-83 -398 -768 0
-84 -399 -769 0
-85 -400 -770 0
-81 -401 -771 0
-82 -402 -772 0
-83 -403 -773 0
-84 -404 -774 0
-85 -405 -775 0
-81 -406 -756 0
-82 -407 -757 0
-83 -408 -758 0
-84 -409 -759 0
-85 -410 -760 0
-81 -411 -761 0
-82 -412 -762 0
-83 -413 -763 0
-84 -414 -764 0
-85 -415 -765 0
-81 -416 -786 0
-82 -417 -787 0
-83 -418 -788 0
-84 -419 -789 0
-85 -420 -790 0
-81 -421 -791 0
-82 -422 -792 0
-83 -423 -793 0
-84 -424 -794 0
-85 -425 -795 0
-81 -426 -776 0
-82 -427 -777 0
-83 -428 -778 0
-84 -429 -779 0
-85 -430 -780 0
-81 -431 -781 0
-82 -432 -782 0
-83 -433 -783 0
-84 -434 -784 0
-85 -435 -785 0
-81 -436 -726 0
-82 -437 -727 0
-83 -438 -728 0
-84 -439 -729 0
-85 -440 -730 0
-81 -441 -731 0
-82 -442 -732 0
-83 -443 -733 0
-84 -444 -734 0
-85 -445 -735 0
-81 -446 -716 0
-82 -447 -717 0
-83 -448 -718 0
-84 -449 -719 0
-85 -450 -720 0
-81 -451 -721 0
-82 -452 -722 0
-83 -453 -723 0
-84 -454 -724 0
-85 -455 -725 0
-81 -456 -746 0
-82 -457 -747 0
-83 -458 -748 0
-84 -459 -749 0
-85 -460 -750 0
-81 -461 -751 0
-82 -462 -752 0
-83 -463 -753 0
-84 -464 -754 0
-85 -465 -755 0
-81 -466 -736 0
-82 -467 -737 0
-83 -468 -738 0
-84 -469 -739 0
-85 -470 -740 0
-81 -471 -741 0
-82 -472 -742 0
-83 -473 -743 0
-84 -474 -744 0
-85 -475 -745 0
-86 -156 -531 0
-87 -157 -532 0
-88 -158 -533 0
-89 -159 -534 0
-90 -160 -535 0
-86 -161 -526 0
-87 -162 -527 0
-88 -163 -528 0
-89 -164 -529 0
-90 -165 -530 0
-86 -166 -521 0
-87 -167 -522 0
-88 -168 -523 0
-89 -169 -524 0
-90 -170 -525 0
-86 -171 -516 0
-87 -172 -517 0
-88 -173 -518 0
-89 -174 -519 0
-90 -175 -520 0
-86 -176 -551 0
-87 -177 -552 0
-88 -178 -553 0
-89 -179 -554 0
-90 -180 -555 0
-86 -181 -546 0
-87 -182 -547 0
-88 -183 -548 0
-89 -184 -549 0
-90 -185 -550 0
-86 -186 -541 0
-87 -187 -542 0
-88 -188 -543 0
-89 -189 -544 0
-90 -190 -545 0
-86 -191 -536 0
-87 -192 -537 0
-88 -193 -538 0
-89 -194 -539 0
-90 -195 -540 0
-86 -196 -491 0
-87 -197 -492 0
-88 -198 -493 0
-89 -199 -494 0
-90 -200 -495 0
-86 -201 -486 0
-87 -202 -487 0
-88 -203 -488 0
-89 -204 -489 0
-90 -205 -490 0
-86 -206 -481 0
-87 -207 -482 0
-88 -208 -483 0
-89 -209 -484 0
-90 -210 -485 0
-86 -211 -476 0
-87 -212 -477 0
-88 -213 -478 0
-89 -214 -479 0
-90 -215 -480 0
-86 -216 -511 0
-87 -217 -512 0
-88 -218 -513 0
-89 -219 -514 0
-90 -220 -515 0
-86 -221 -506 0
-87 -222 -507 0
-88 -223 -508 0
-89 -224 -509 0
-90 -225 -510 0
-86 -226 -501 0
-87 -227 -502 0
-88 -228 -503 0
-89 -229 -504 0
-90 -230 -505 0
-86 -231 -496 0
-87 -232 -497 0
-88 -233 -498 0
-89 -234 -499 0
-90 -235 -500 0
-86 -236 -611 0
-87 -237 -612 0
-88 -238 -613 0
-89 -239 -614 0
-90 -240 -615 0
-86 -241 -606 0
-87 -242 -607 0
-88 -243 -608 0
-89 -244 -609 0
-90 -245 -610 0
-86 -246 -601 0
-87 -247 -602 0
-88 -248 -603 0
-89 -249 -604 0
-90 -250 -605 0
-86 -251 -596 0
-87 -252 -597 0
-88 -253 -598 0
-89 -254 -599 0
-90 -255 -600 0
-86 -256 -631 0
-87 -257 -632 0
-88 -258 -633 0
-89 -259 -634 0
-90 -260 -635 0
-86 -261 -626 0
-87 -262 -627 0
-88 -263 -628 0
-89 -264 -629 0
-90 -265 -630 0
-86 -266 -621 0
-87 -267 -622 0
-88 -268 -623 0
-89 -269 -624 0
-90 -270 -625 0
-86 -271 -616 0
-87 -272 -617 0
-88 -273 -618 0
-89 -274 -619 0
-90 -275 -620 0
-86 -276 -571 0
-87 -277 -572 0
-88 -278 -573 0
-89 -279 -574 0
-90 -280 -575 0
-86 -281 -566 0
-87 -282 -567 0
-88 -283 -568 0
-89 -284 -569 0
-90 -285 -570 0
-86 -286 -561 0
-87 -287 -562 0
-88 -288 -563 0
-89 -289 -564 0
-90 -290 -565 0
-86 -291 -556 0
-87 -292 -557 0
-88 -293 -558 0
-89 -294 -559 0
-90 -295 -560 0
-86 -296 -591 0
-87 -297 -592 0
-88 -298 -593 0
-89 -299 -594 0
-90 -300 -595 0
-86 -301 -586 0
-87 -302 -587 0
-88 -303 -588 0
-89 -304 -589 0
-90 -305 -590 0
-86 -306 -581 0
-87 -307 -582 0
-88 -308 -583 0
-89 -309 -584 0
-90 -310 -585 0
-86 -311 -576 0
-87 -312 -577 0
-88 -313 -578 0
-89 -314 -579 0
-90 -315 -580 0
-86 -316 -691 0
-87 -317 -692 0
-88 -318 -693 0
-89 -319 -694 0
-90 -320 -695 0
-86 -321 -686 0
-87 -322 -687 0
-88 -323 -688 0
-89 -324 -689 0
-90 -325 -690 0
-86 -326 -681 0
-87 -327 -682 0
-88 -328 -683 0
-89 -329 -684 0
-90 -330 -685 0
-86 -331 -676 0
-87 -332 -677 0
-88 -333 -678 0
-89 -334 -679 0
-90 -335 -680 0
-86 -336 -711 0
-87 -337 -712 0
-88 -338 -713 0
-89 -339 -714 0
-90 -340 -715 0
-86 -341 -706 0
-87 -342 -707 0
-88 -343 -708 0
-89 -344 -709 0
-90 -345 -710 0
-86 -346 -701 0
-87 -347 -702 0
-88 -348 -703 0
-89 -349 -704 0
-90 -350 -705 0
-86 -351 -696 0
-87 -352 -697 0
-88 -353 -698 0
-89 -354 -699 0
-90 -355 -700 0
-86 -356 -651 0
-87 -357 -652 0
-88 -358 -653 0
-89 -359 -654 0
-90 -360 -655 0
-86 -361 -646 0
-87 -362 -647 0
-88 -363 -648 0
-89 -364 -649 0
-90 -365 -650 0
-86 -366 -641 0
-87 -367 -642 0
-88 -368 -643 0
-89 -369 -644 0
-90 -370 -645 0
-86 -371 -636 0
-87 -372 -637 0
-88 -373 -638 0
-89 -374 -639 0
-90 -375 -640 0
-86 -376 -671 0
-87 -377 -672 0
-88 -378 -673 0
-89 -379 -674 0
-90 -380 -675 0
-86 -381 -666 0
-87 -382 -667 0
-88 -383 -668 0
-89 -384 -669 0
-90 -385 -670 0
-86 -386 -661 0
-87 -387 -662 0
-88 -388 -663 0
-89 -389 -664 0
-90 -390 -665 0
-86 -391 -656 0
-87 -392 -657 0
-88 -393 -658 0
-89 -394 -659 0
-90 -395 -660 0
-86 -396 -771 0
-87 -397 -772 0
-88 -398 -773 0
-89 -399 -774 0
-90 -400 -775 0
-86 -401 -766 0
-87 -402 -767 0
-88 -403 -768 0
-89 -404 -769 0
-90 -405 -770 0
-86 -406 -761 0
-87 -407 -762 0
-88 -408 -763 0
-89 -409 -764 0
-90 -410 -765 0
-86 -411 -756 0
-87 -412 -757 0
-88 -413 -758 0
-89 -414 -759 0
-90 -415 -760 0
-86 -416 -791 0
-87 -417 -792 0
-88 -418 -793 0
-89 -419 -794 0
-90 -420 -795 0
-86 -421 -786 0
-87 -422 -787 0
-88 -423 -788 0
-89 -424 -789 0
-90 -425 -790 0
-86 -426 -781 0
-87 -427 -782 0
-88 -428 -783 0
-89 -429 -784 0
-90 -430 -785 0
-86 -431 -776 0
-87 -432 -777 0
-88 -433 -778 0
-89 -434 -779 0
-90 -435 -780 0
-86 -436 -731 0
-87 -437 -732 0
-88 -438 -733 0
-89 -439 -734 0
-90 -440 -735 0
-86 -441 -726 0
-87 -442 -727 0
-88 -443 -728 0
-89 -444 -729 0
-90 -445 -730 0
-86 -446 -721 0
-87 -447 -722 0
-88 -448 -723 0
-89 -449 -724 0
-90 -450 -725 0
-86 -451 -716 0
-87 -452 -717 0
-88 -453 -718 0
-89 -454 -719 0
-90 -455 -720 0
-86 -456 -751 0
-87 -457 -752 0
-88 -458 -753 0
-89 -459 -754 0
-90 -460 -755 0
-86 -461 -746 0
-87 -462 -747 0
-88 -463 -748 0
-89 -464 -749 0
-90 -465 -750 0
-86 -466 -741 0
-87 -467 -742 0
-88 -468 -743 0
-89 -469 -744 0
-90 -470 -745 0
-86 -471 -736 0
-87 -472 -737 0
-88 -473 -738 0
-89 -474 -739 0
-90 -475 -740 0
-81 -156 -536 0
-82 -157 -537 0
-83 -158 -538 0
-84 -159 -539 0
-85 -160 -540 0
-81 -161 -541 0
-82 -162 -542 0
-83 -163 -543 0
-84 -164 -544 0
-85 -165 -545 0
-81 -166 -546 0
-82 -167 -547 0
-83 -168 -548 0
-84 -169 -549 0
-85 -170 -550 0
-81 -171 -551 0
-82 -172 -552 0
-83 -173 -553 0
-84 -174 -554 0
-85 -175 -555 0
-81 -176 -516 0
-82 -177 -517 0
-83 -178 -518 0
-84 -179 -519 0
-85 -180 -520 0
-81 -181 -521 0
-82 -182 -522 0
-83 -183 -523 0
-84 -184 -524 0
-85 -185 -525 0
-81 -186 -526 0
-82 -187 -527 0
-83 -188 -528 0
-84 -189 -529 0
-85 -190 -530 0
-81 -191 -531 0
-82 -192 -532 0
-83 -193 -533 0
-84 -194 -534 0
-85 -195 -535 0
-81 -196 -496 0
-82 -197 -497 0
-83 -198 -498 0
-84 -199 -499 0
-85 -200 -500 0
-81 -201 -501 0
-82 -202 -502 0
-83 -203 -503 0
-84 -204 -504 0
-85 -205 -505 0
-81 -206 -506 0
-82 -207 -507 0
-83 -208 -508 0
-84 -209 -509 0
-85 -210 -510 0
-81 -211 -511 0
-82 -212 -512 0
-83 -213 -513 0
-84 -214 -514 0
-85 -215 -515 0
-81 -216 -476 0
-82 -217 -477 0
-83 -218 -478 0
-84 -219 -479 0
-85 -220 -480 0
-81 -221 -481 0
-82 -222 -482 0
-83 -223 -483 0
-84 -224 -484 0
-85 -225 -485 0
-81 -226 -486 0
-82 -227 -487 0
-83 -228 -488 0
-84 -229 -489 0
-85 -230 -490 0
-81 -231 -491 0
-82 -232 -492 0
-83 -233 -493 0
-84 -234 -494 0
-85 -235 -495 0
-81 -236 -616 0
-82 -237 -617 0
-83 -238 -618 0
-84 -239 -619 0
-85 -240 -620 0
-81 -241 -621 0
-82 -242 -622 0
-83 -243 -623 0
-84 -244 -624 0
-85 -245 -625 0
-81 -246 -626 0
-82 -247 -627 0
-83 -248 -628 0
-84 -249 -629 0
-85 -250 -630 0
-81 -251 -631 0
-82 -252 -632 0
-83 -253 -633 0
-84 -254 -634 0
-85 -255 -635 0
-81 -256 -596 0
-82 -257 -597 0
-83 -258 -598 0
-84 -259 -599 0
-85 -260 -600 0
-81 -261 -601 0
-82 -262 -602 0
-83 -263 -603 0
-84 -264 -604 0
-85 -265 -605 0
-81 -266 -606 0
-82 -267 -607 0
-83 -268 -608 0
-84 -269 -609 0
-85 -270 -610 0
-81 -271 -611 0
-82 -272 -612 0
-83 -273 -613 0
-84 -274 -614 0
-85 -275 -615 0
-81 -276 -576 0
-82 -277 -577 0
-83 -278 -578 0
-84 -279 -579 0
-85 -280 -580 0
-81 -281 -581 0
-82 -282 -582 0
-83 -283 -583 0
-84 -284 -584 0
-85 -285 -585 0
-81 -286 -586 0
-82 -287 -587 0
-83 -288 -588 0
-84 -289 -589 0
-85 -290 -590 0
-81 -291 -591 0
-82 -292 -592 0
-83 -293 -593 0
-84 -294 -594 0
-85 -295 -595 0
-81 -296 -556 0
-82 -297 -557 0
-83 -298 -558 0
-84 -299 -559 0
-85 -300 -560 0
-81 -301 -561 0
-82 -302 -562 0
-83 -303 -563 0
-84 -304 -564 0
-85 -305 -565 0
-81 -306 -566 0
-82 -307 -567 0
-83 -308 -568 0
-84 -309 -569 0
-85 -310 -570 0
-81 -311 -571 0
-82 -312 -572 0
-83 -313 -573 0
-84 -314 -574 0
-85 -315 -575 0
-81 -316 -696 0
-82 -317 -697 0
-83 -318 -698 0
-84 -319 -699 0
-85 -320 -700 0
-81 -321 -701 0
-82 -322 -702 0
-83 -323 -703 0
-84 -324 -704 0
-85 -325 -705 0
-81 -326 -706 0
-82 -327 -707 0
-83 -328 -708 0
-84 -329 -709 0
-85 -330 -710 0
-81 -331 -711 0
-82 -332 -712 0
-83 -333 -713 0
-84 -334 -714 0
-85 -335 -715 0
-81 -336 -676 0
-82 -337 -677 0
-83 -338 -678 0
-84 -339 -679 0
-85 -340 -680 0
-81 -341 -681 0
-82 -342 -682 0
-83 -343 -683 0
-84 -344 -684 0
-85 -345 -685 0
-81 -346 -686 0
-82 -347 -687 0
-83 -348 -688 0
-84 -349 -689 0
-85 -350 -690 0
-81 -351 -691 0
-82 -352 -692 0
-83 -353 -693 0
-84 -354 -694 0
-85 -355 -695 0
-81 -356 -656 0
-82 -357 -657 0
-83 -358 -658 0
-84 -359 -659 0
-85 -360 -660 0
-81 -361 -661 0
-82 -362 -662 0
-83 -363 -663 0
-84 -364 -664 0
-85 -365 -665 0
-81 -366 -666 0
-82 -367 -667 0
-83 -368 -668 0
-84 -369 -669 0
-85 -370 -670 0
-81 -371 -671 0
-82 -372 -672 0
-83 -373 -673 0
-84 -374 -674 0
-85 -375 -675 0
-81 -376 -636 0
-82 -377 -637 0
-83 -378 -638 0
-84 -379 -639 0
-85 -380 -640 0
-81 -381 -641 0
-82 -382 -642 0
-83 -383 -643 0
-84 -384 -644 0
-85 -385 -645 0
-81 -386 -646 0
-82 -387 -647 0
-83 -388 -648 0
-84 -389 -649 0
-85 -390 -650 0
-81 -391 -651 0
-82 -392 -652 0
-83 -393 -653 0
-84 -394 -654 0
-85 -395 -655 0
-81 -396 -776 0
-82 -397 -777 0
-83 -398 -778 0
-84 -399 -779 0
-85 -400 -780 0
-81 -401 -781 0
-82 -402 -782 0
-83 -403 -783 0
-84 -404 -784 0
-85 -405 -785 0
-81 -406 -786 0
-82 -407 -787 0
-83 -408 -788 0
-84 -409 -789 0
-85 -410 -790 0
-81 -411 -791 0
-82 -412 -792 0
-83 -413 -793 0
-84 -414 -794 0
-85 -415 -795 0
-81 -416 -756 0
-82 -417 -757 0
-83 -418 -758 0
-84 -419 -759 0
-85 -420 -760 0
-81 -421 -761 0
-82 -422 -762 0
-83 -423 -763 0
-84 -424 -764 0
-85 -425 -765 0
-81 -426 -766 0
-82 -427 -767 0
-83 -428 -768 0
-84 -429 -769 0
-85 -430 -770 0
-81 -431 -771 0
-82 -432 -772 0
-83 -433 -773 0
-84 -434 -774 0
-85 -435 -775 0
-81 -436 -736 0
-82 -437 -737 0
-83 -438 -738 0
-84 -439 -739 0
-85 -440 -740 0
-81 -441 -741 0
-82 -442 -742 0
-83 -443 -743 0
-84 -444 -744 0
-85 -445 -745 0
-81 -446 -746 0
-82 -447 -747 0
-83 -448 -748 0
-84 -449 -749 0
-85 -450 -750 0
-81 -451 -751 0
-82 -452 -752 0
-83 -453 -753 0
-84 -454 -754 0
-85 -455 -755 0
-81 -456 -716 0
-82 -457 -717 0
-83 -458 -718 0
-84 -459 -719 0
-85 -460 -720 0
-81 -461 -721 0
-82 -462 -722 0
-83 -463 -723 0
-84 -464 -724 0
-85 -465 -725 0
-81 -466 -726 0
-82 -467 -727 0
-83 -468 -728 0
-84 -469 -729 0
-85 -470 -730 0
-81 -471 -731 0
-82 -472 -732 0
-83 -473 -733 0
-84 -474 -734 0
-85 -475 -735 0
-86 -156 -541 0
-87 -157 -542 0
-88 -158 -543 0
-89 -159 -544 0
-90 -160 -545 0
-86 -161 -536 0
-87 -162 -537 0
-88 -163 -538 0
-89 -164 -539 0
-90 -165 -540 0
-86 -166 -551 0
-87 -167 -552 0
-88 -168 -553 0
-89 -169 -554 0
-90 -170 -555 0
-86 -171 -546 0
-87 -172 -547 0
-88 -173 -548 0
-89 -174 -549 0
-90 -175 -550 0
-86 -176 -521 0
-87 -177 -522 0
-88 -178 -523 0
-89 -179 -524 0
-90 -180 -525 0
-86 -181 -516 0
-87 -182 -517 0
-88 -183 -518 0
-89 -184 -519 0
-90 -185 -520 0
-86 -186 -531 0
-87 -187 -532 0
-88 -188 -533 0
-89 -189 -534 0
-90 -190 -535 0
-86 -191 -526 0
-87 -192 -527 0
-88 -193 -528 0
-89 -194 -529 0
-90 -195 -530 0
-86 -196 -501 0
-87 -197 -502 0
-88 -198 -503 0
-89 -199 -504 0
-90 -200 -505 0
-86 -201 -496 0
-87 -202 -497 0
-88 -203 -498 0
-89 -204 -499 0
-90 -205 -500 0
-86 -206 -511 0
-87 -207 -512 0
-88 -208 -513 0
-89 -209 -514 0
-90 -210 -515 0
-86 -211 -506 0
-87 -212 -507 0
-88 -213 -508 0
-89 -214 -509 0
-90 -215 -510 0
-86 -216 -481 0
-87 -217 -482 0
-88 -218 -483 0
-89 -219 -484 0
-90 -220 -485 0
-86 -221 -476 0
-87 -222 -477 0
-88 -223 -478 0
-89 -224 -479 0
-90 -225 -480 0
-86 -226 -491 0
-87 -227 -492 0
-88 -228 -493 0
-89 -229 -494 0
-90 -230 -495 0
-86 -231 -486 0
-87 -232 -487 0
-88 -233 -488 0
-89 -234 -489 0
-90 -235 -490 0
-86 -236 -621 0
-87 -237 -622 0
-88 -238 -623 0
-89 -239 -624 0
-90 -240 -625 0
-86 -241 -616 0
-87 -242 -617 0
-88 -243 -618 0
-89 -244 -619 0
-90 -245 -620 0
-86 -246 -631 0
-87 -247 -632 0
-88 -248 -633 0
-89 -249 -634 0
-90 -250 -635 0
-86 -251 -626 0
-87 -252 -627 0
-88 -253 -628 0
-89 -254 -629 0
-90 -255 -630 0
-86 -256 -601 0
-87 -257 -602 0
-88 -258 -603 0
-89 -259 -604 0
-90 -260 -605 0
-86 -261 -596 0
-87 -262 -597 0
-88 -263 -598 0
-89 -264 -599 0
-90 -265 -600 0
-86 -266 -611 0
-87 -267 -612 0
-88 -268 -613 0
-89 -269 -614 0
-90 -270 -615 0
-86 -271 -606 0
-87 -272 -607 0
-88 -273 -608 0
-89 -274 -609 0
-90 -275 -610 0
-86 -276 -581 0
-87 -277 -582 0
-88 -278 -583 0
-89 -279 -584 0
-90 -280 -585 0
-86 -281 -576 0
-87 -282 -577 0
-88 -283 -578 0
-89 -284 -579 0
-90 -285 -580 0
-86 -286 -591 0
-87 -287 -592 0
-88 -288 -593 0
-89 -289 -594 0
-90 -290 -595 0
-86 -291 -586 0
-87 -292 -587 0
-88 -293 -588 0
-89 -294 -589 0
-90 -295 -590 0
-86 -296 -561 0
-87 -297 -562 0
-88 -298 -563 0
-89 -299 -564 0
-90 -300 -565 0
-86 -301 -556 0
-87 -302 -557 0
-88 -303 -558 0
-89 -304 -559 0
-90 -305 -560 0
-86 -306 -571 0
-87 -307 -572 0
-88 -308 -573 0
-89 -309 -574 0
-90 -310 -575 0
-86 -311 -566 0
-87 -312 -567 0
-88 -313 -568 0
-89 -314 -569 0
-90 -315 -570 0
-86 -316 -701 0
-87 -317 -702 0
-88 -318 -703 0
-89 -319 -704 0
-90 -320 -705 0
-86 -321 -696 0
-87 -322 -697 0
-88 -323 -698 0
-89 -324 -699 0
-90 -325 -700 0
-86 -326 -711 0
-87 -327 -712 0
-88 -328 -713 0
-89 -329 -714 0
-90 -330 -715 0
-86 -331 -706 0
-87 -332 -707 0
-88 -333 -708 0
-89 -334 -709 0
-90 -335 -710 0
-86 -336 -681 0
-87 -337 -682 0
-88 -338 -683 0
-89 -339 -684 0
-90 -340 -685 0
-86 -341 -676 0
-87 -342 -677 0
-88 -343 -678 0
-89 -344 -679 0
-90 -345 -680 0
-86 -346 -691 0
-87 -347 -692 0
-88 -348 -693 0
-89 -349 -694 0
-90 -350 -695 0
-86 -351 -686 0
-87 -352 -687 0
-88 -353 -688 0
-89 -354 -689 0
-90 -355 -690 0
-86 -356 -661 0
-87 -357 -662 0
-88 -358 -663 0
-89 -359 -664 0
-90 -360 -665 0
-86 -361 -656 0
-87 -362 -657 0
-88 -363 -658 0
-89 -364 -659 0
-90 -365 -660 0
-86 -366 -671 0
-87 -367 -672 0
-88 -368 -673 0
-89 -369 -674 0
-90 -370 -675 0
-86 -371 -666 0
-87 -372 -667 0
-88 -373 -668 0
-89 -374 -669 0
-90 -375 -670 0
-86 -376 -641 0
-87 -377 -642 0
-88 -378 -643 0
-89 -379 -644 0
-90 -380 -645 0
-86 -381 -636 0
-87 -382 -637 0
-88 -383 -638 0
-89 -384 -639 0
-90 -385 -640 0
-86 -386 -651 0
-87 -387 -652 0
-88 -388 -653 0
-89 -389 -654 0
-90 -390 -655 0
-86 -391 -646 0
-87 -392 -647 0
-88 -393 -648 0
-89 -394 -649 0
-90 -395 -650 0
-86 -396 -781 0
-87 -397 -782 0
-88 -398 -783 0
-89 -399 -784 0
-90 -400 -785 0
-86 -401 -776 0
-87 -402 -777 0
-88 -403 -778 0
-89 -404 -779 0
-90 -405 -780 0
-86 -406 -791 0
-87 -407 -792 0
-88 -408 -793 0
-89 -409 -794 0
-90 -410 -795 0
-86 -411 -786 0
-87 -412 -787 0
-88 -413 -788 0
-89 -414 -789 0
-90 -415 -790 0
-86 -416 -761 0
-87 -417 -762 0
-88 -418 -763 0
-89 -419 -764 0
-90 -420 -765 0
-86 -421 -756 0
-87 -422 -757 0
-88 -423 -758 0
-89 -424 -759 0
-90 -425 -760 0
-86 -426 -771 0
-87 -427 -772 0
-88 -428 -773 0
-89 -429 -774 0
-90 -430 -775 0
-86 -431 -766 0
-87 -432 -767 0
-88 -433 -768 0
-89 -434 -769 0
-90 -435 -770 0
-86 -436 -741 0
-87 -437 -742 0
-88 -438 -743 0
-89 -439 -744 0
-90 -440 -745 0
-86 -441 -736 0
-87 -442 -737 0
-88 -443 -738 0
-89 -444 -739 0
-90 -445 -740 0
-86 -446 -751 0
-87 -447 -752 0
-88 -448 -753 0
-89 -449 -754 0
-90 -450 -755 0
-86 -451 -746 0
-87 -452 -747 0
-88 -453 -748 0
-89 -454 -749 0
-90 -455 -750 0
-86 -456 -721 0
-87 -457 -722 0
-88 -458 -723 0
-89 -459 -724 0
-90 -460 -725 0
-86 -461 -716 0
-87 -462 -717 0
-88 -463 -718 0
-89 -464 -719 0
-90 -465 -720 0
-86 -466 -731 0
-87 -467 -732 0
-88 -468 -733 0
-89 -469 -734 0
-90 -470 -735 0
-86 -471 -726 0
-87 -472 -727 0
-88 -473 -728 0
-89 -474 -729 0
-90 -475 -730 0
-91 -156 -546 0
-92 -157 -547 0
-93 -158 -548 0
-94 -159 -549 0
-95 -160 -550 0
-91 -161 -551 0
-92 -162 -552 0
-93 -163 -553 0
-94 -164 -554 0
-95 -165 -555 0
-91 -166 -536 0
-92 -167 -537 0
-93 -168 -538 0
-94 -169 -539 0
-95 -170 -540 0
-91 -171 -541 0
-92 -172 -542 0
-93 -173 -543 0
-94 -174 -544 0
-95 -175 -545 0
-91 -176 -526 0
-92 -177 -527 0
-93 -178 -528 0
-94 -179 -529 0
-95 -180 -530 0
-91 -181 -531 0
-92 -182 -532 0
-93 -183 -533 0
-94 -184 -534 0
-95 -185 -535 0
-91 -186 -516 0
-92 -187 -517 0
-93 -188 -518 0
-94 -189 -519 0
-95 -190 -520 0
-91 -191 -521 0
-92 -192 -522 0
-93 -193 -523 0
-94 -194 -524 0
-95 -195 -525 0
-91 -196 -506 0
-92 -197 -507 0
-93 -198 -508 0
-94 -199 -509 0
-95 -200 -510 0
-91 -201 -511 0
-92 -202 -512 0
-93 -203 -513 0
-94 -204 -514 0
-95 -205 -515 0
-91 -206 -496 0
-92 -207 -497 0
-93 -208 -498 0
-94 -209 -499 0
-95 -210 -500 0
-91 -211 -501 0
-92 -212 -502 0
-93 -213 -503 0
-94 -214 -504 0
-95 -215 -505 0
-91 -216 -486 0
-92 -217 -487 0
-93 -218 -488 0
-94 -219 -489 0
-95 -220 -490 0
-91 -221 -491 0
-92 -222 -492 0
-93 -223 -493 0
-94 -224 -494 0
-95 -225 -495 0
-91 -226 -476 0
-92 -227 -477 0
-93 -228 -478 0
-94 -229 -479 0
-95 -230 -480 0
-91 -231 -481 0
-92 -232 -482 0
-93 -233 -483 0
-94 -234 -484 0
-95 -235 -485 0
-91 -236 -626 0
-92 -237 -627 0
-93 -238 -628 0
-94 -239 -629 0
-95 -240 -630 0
-91 -241 -631 0
-92 -242 -632 0
-93 -243 -633 0
-94 -244 -634 0
-95 -245 -635 0
-91 -246 -616 0
-92 -247 -617 0
-93 -248 -618 0
-94 -249 -619 0
-95 -250 -620 0
-91 -251 -621 0
-92 -252 -622 0
-93 -253 -623 0
-94 -254 -624 0
-95 -255 -625 0
-91 -256 -606 0
-92 -257 -607 0
-93 -258 -608 0
-94 -259 -609 0
-95 -260 -610 0
-91 -261 -611 0
-92 -262 -612 0
-93 -263 -613 0
-94 -264 -614 0
-95 -265 -615 0
-91 -266 -596 0
-92 -267 -597 0
-93 -268 -598 0
-94 -269 -599 0
-95 -270 -600 0
-91 -271 -601 0
-92 -272 -602 0
-93 -273 -603 0
-94 -274 -604 0
-95 -275 -605 0
-91 -276 -586 0
-92 -277 -587 0
-93 -278 -588 0
-94 -279 -589 0
-95 -280 -590 0
-91 -281 -591 0
-92 -282 -592 0
-93 -283 -593 0
-94 -284 -594 0
-95 -285 -595 0
-91 -286 -576 0
-92 -287 -577 0
-93 -288 -578 0
-94 -289 -579 0
-95 -290 -580 0
-91 -291 -581 0
-92 -292 -582 0
-93 -293 -583 0
-94 -294 -584 0
-95 -295 -585 0
-91 -296 -566 0
-92 -297 -567 0
-93 -298 -568 0
-94 -299 -569 0
-95 -300 -570 0
-91 -301 -571 0
-92 -302 -572 0
-93 -303 -573 0
-94 -304 -574 0
-95 -305 -575 0
-91 -306 -556 0
-92 -307 -557 0
-93 -308 -558 0
-94 -309 -559 0
-95 -310 -560 0
-91 -311 -561 0
-92 -312 -562 0
-93 -313 -563 0
-94 -314 -564 0
-95 -315 -565 0
-91 -316 -706 0
-92 -317 -707 0
-93 -318 -708 0
-94 -319 -709 0
-95 -320 -710 0
-91 -321 -711 0
-92 -322 -712 0
-93 -323 -713 0
-94 -324 -714 0
-95 -325 -715 0
-91 -326 -696 0
-92 -327 -697 0
-93 -328 -698 0
-94 -329 -699 0
-95 -330 -700 0
-91 -331 -701 0
-92 -332 -702 0
-93 -333 -703 0
-94 -334 -704 0
-95 -335 -705 0
-91 -336 -686 0
-92 -337 -687 0
-93 -338 -688 0
-94 -339 -689 0
-95 -340 -690 0
-91 -341 -691 0
-92 -342 -692 0
-93 -343 -693 0
-94 -344 -694 0
-95 -345 -695 0
-91 -346 -676 0
-92 -347 -677 0
-93 -348 -678 0
-94 -349 -679 0
-95 -350 -680 0
-91 -351 -681 0
-92 -352 -682 0
-93 -353 -683 0
-94 -354 -684 0
-95 -355 -685 0
-91 -356 -666 0
-92 -357 -667 0
-93 -358 -668 0
-94 -359 -669 0
-95 -360 -670 0
-91 -361 -671 0
-92 -362 -672 0
-93 -363 -673 0
-94 -364 -674 0
-95 -365 -675 0
-91 -366 -656 0
-92 -367 -657 0
-93 -368 -658 0
-94 -369 -659 0
-95 -370 -660 0
-91 -371 -661 0
-92 -372 -662 0
-93 -373 -663 0
-94 -374 -664 0
-95 -375 -665 0
-91 -376 -646 0
-92 -377 -647 0
-93 -378 -648 0
-94 -379 -649 0
-95 -380 -650 0
-91 -381 -651 0
-92 -382 -652 0
-93 -383 -653 0
-94 -384 -654 0
-95 -385 -655 0
-91 -386 -636 0
-92 -387 -637 0
-93 -388 -638 0
-94 -389 -639 0
-95 -390 -640 0
-91 -391 -641 0
-92 -392 -642 0
-93 -393 -643 0
-94 -394 -644 0
-95 -395 -645 0
-91 -396 -786 0
-92 -397 -787 0
-93 -398 -788 0
-94 -399 -789 0
-95 -400 -790 0
-91 -401 -791 0
-92 -402 -792 0
-93 -403 -793 0
-94 -404 -794 0
-95 -405 -795 0
-91 -406 -776 0
-92 -407 -777 0
-93 -408 -778 0
-94 -409 -779 0
-95 -410 -780 0
-91 -411 -781 0
-92 -412 -782 0
-93 -413 -783 0
-94 -414 -784 0
-95 -415 -785 0
-91 -416 -766 0
-92 -417 -767 0
-93 -418 -768 0
-94 -419 -769 0
-95 -420 -770 0
-91 -421 -771 0
-92 -422 -772 0
-93 -423 -773 0
-94 -424 -774 0
-95 -425 -775 0
-91 -426 -756 0
-92 -427 -757 0
-93 -428 -758 0
-94 -429 -759 0
-95 -430 -760 0
-91 -431 -761 0
-92 -432 -762 0
-93 -433 -763 0
-94 -434 -764 0
-95 -435 -765 0
-91 -436 -746 0
-92 -437 -747 0
-93 -438 -748 0
-94 -439 -749 0
-95 -440 -750 0
-91 -441 -751 0
-92 -442 -752 0
-93 -443 -753 0
-94 -444 -754 0
-95 -445 -755 0
-91 -446 -736 0
-92 -447 -737 0
-93 -448 -738 0
-94 -449 -739 0
-95 -450 -740 0
-91 -451 -741 0
-92 -452 -742 0
-93 -453 -743 0
-94 -454 -744 0
-95 -455 -745 0
-91 -456 -726 0
-92 -457 -727 0
-93 -458 -728 0
-94 -459 -729 0
-95 -460 -730 0
-91 -461 -731 0
-92 -462 -732 0
-93 -463 -733 0
-94 -464 -734 0
-95 -465 -735 0
-91 -466 -716 0
-92 -467 -717 0
-93 -468 -718 0
-94 -469 -719 0
-95 -470 -720 0
-91 -471 -721 0
-92 -472 -722 0
-93 -473 -723 0
-94 -474 -724 0
-95 -475 -725 0
-81 -156 -551 0
-82 -157 -552 0
-83 -158 -553 0
-84 -159 -554 0
-85 -160 -555 0
-81 -161 -546 0
-82 -162 -547 0
-83 -163 -548 0
-84 -164 -549 0
-85 -165 -550 0
-81 -166 -541 0
-82 -167 -542 0
-83 -168 -543 0
-84 -169 -544 0
-85 -170 -545 0
-81 -171 -536 0
-82 -172 -537 0
-83 -173 -538 0
-84 -174 -539 0
-85 -175 -540 0
-81 -176 -531 0
-82 -177 -532 0
-83 -178 -533 0
-84 -179 -534 0
-85 -180 -535 0
-81 -181 -526 0
-82 -182 -527 0
-83 -183 -528 0
-84 -184 -529 0
-85 -185 -530 0
-81 -186 -521 0
-82 -187 -522 0
-83 -188 -523 0
-84 -189 -524 0
-85 -190 -525 0
-81 -191 -516 0
-82 -192 -517 0
-83 -193 -518 0
-84 -194 -519 0
-85 -195 -520 0
-81 -196 -511 0
-82 -197 -512 0
-83 -198 -513 0
-84 -199 -514 0
-85 -200 -515 0
-81 -201 -506 0
-82 -202 -507 0
-83 -203 -508 0
-84 -204 -509 0
-85 -205 -510 0
-81 -206 -501 0
-82 -207 -502 0
-83 -208 -503 0
-84 -209 -504 0
-85 -210 -505 0
-81 -211 -496 0
-82 -212 -497 0
-83 -213 -498 0
-84 -214 -499 0
-85 -215 -500 0
-81 -216 -491 0
-82 -217 -492 0
-83 -218 -493 0
-84 -219 -494 0
-85 -220 -495 0
-81 -221 -486 0
-82 -222 -487 0
-83 -223 -488 0
-84 -224 -489 0
-85 -225 -490 0
-81 -226 -481 0
-82 -227 -482 0
-83 -228 -483 0
-84 -229 -484 0
-85 -230 -485 0
-81 -231 -476 0
-82 -232 -477 0
-83 -233 -478 0
-84 -234 -479 0
-85 -235 -480 0
-81 -236 -631 0
-82 -237 -632 0
-83 -238 -633 0
-84 -239 -634 0
-85 -240 -635 0
-81 -241 -626 0
-82 -242 -627 0
-83 -243 -628 0
-84 -244 -629 0
-85 -245 -630 0
-81 -246 -621 0
-82 -247 -622 0
-83 -248 -623 0
-84 -249 -624 0
-85 -250 -625 0
-81 -251 -616 0
-82 -252 -617 0
-83 -253 -618 0
-84 -254 -619 0
-85 -255 -620 0
-81 -256 -611 0
-82 -257 -612 0
-83 -258 -613 0
-84 -259 -614 0
-85 -260 -615 0
-81 -261 -606 0
-82 -262 -607 0
-83 -263 -608 0
-84 -264 -609 0
-85 -265 -610 0
-81 -266 -601 0
-82 -267 -602 0
-83 -268 -603 0
-84 -269 -604 0
-85 -270 -605 0
-81 -271 -596 0
-82 -272 -597 0
-83 -273 -598 0
-84 -274 -599 0
-85 -275 -600 0
-81 -276 -591 0
-82 -277 -592 0
-83 -278 -593 0
-84 -279 -594 0
-85 -280 -595 0
-81 -281 -586 0
-82 -282 -587 0
-83 -283 -588 0
-84 -284 -589 0
-85 -285 -590 0
-81 -286 -581 0
-82 -287 -582 0
-83 -288 -583 0
-84 -289 -584 0
-85 -290 -585 0
-81 -291 -576 0
-82 -292 -577 0
-83 -293 -578 0
-84 -294 -579 0
-85 -295 -580 0
-81 -296 -571 0
-82 -297 -572 0
-83 -298 -573 0
-84 -299 -574 0
-85 -300 -575 0
-81 -301 -566 0
-82 -302 -567 0
-83 -303 -568 0
-84 -304 -569 0
-85 -305 -570 0
-81 -306 -561 0
-82 -307 -562 0
-83 -308 -563 0
-84 -309 -564 0
-85 -310 -565 0
-81 -311 -556 0
-82 -312 -557 0
-83 -313 -558 0
-84 -314 -559 0
-85 -315 -560 0
-81 -316 -711 0
-82 -317 -712 0
-83 -318 -713 0
-84 -319 -714 0
-85 -320 -715 0
-81 -321 -706 0
-82 -322 -707 0
-83 -323 -708 0
-84 -324 -709 0
-85 -325 -710 0
-81 -326 -701 0
-82 -327 -702 0
-83 -328 -703 0
-84 -329 -704 0
-85 -330 -705 0
-81 -331 -696 0
-82 -332 -697 0
-83 -333 -698 0
-84 -334 -699 0
-85 -335 -700 0
-81 -336 -691 0
-82 -337 -692 0
-83 -338 -693 0
-84 -339 -694 0
-85 -340 -695 0
-81 -341 -686 0
-82 -342 -687 0
-83 -343 -688 0
-84 -344 -689 0
-85 -345 -690 0
-81 -346 -681 0
-82 -347 -682 0
-83 -348 -683 0
-84 -349 -684 0
-85 -350 -685 0
-81 -351 -676 0
-82 -352 -677 0
-83 -353 -678 0
-84 -354 -679 0
-85 -355 -680 0
-81 -356 -671 0
-82 -357 -672 0
-83 -358 -673 0
-84 -359 -674 0
-85 -360 -675 0
-81 -361 -666 0
-82 -362 -667 0
-83 -363 -668 0
-84 -364 -669 0
-85 -365 -670 0
-81 -366 -661 0
-82 -367 -662 0
-83 -368 -663 0
-84 -369 -664 0
-85 -370 -665 0
-81 -371 -656 0
-82 -372 -657 0
-83 -373 -658 0
-84 -374 -659 0
-85 -375 -660 0
-81 -376 -651 0
-82 -377 -652 0
-83 -378 -653 0
-84 -379 -654 0
-85 -380 -655 0
-81 -381 -646 0
-82 -382 -647 0
-83 -383 -648 0
-84 -384 -649 0
-85 -385 -650 0
-81 -386 -641 0
-82 -387 -642 0
-83 -388 -643 0
-84 -389 -644 0
-85 -390 -645 0
-81 -391 -636 0
-82 -392 -637 0
-83 -393 -638 0
-84 -394 -639 0
-85 -395 -640 0
-81 -396 -791 0
-82 -397 -792 0
-83 -398 -793 0
-84 -399 -794 0
-85 -400 -795 0
-81 -401 -786 0
-82 -402 -787 0
-83 -403 -788 0
-84 -404 -789 0
-85 -405 -790 0
-81 -406 -781 0
-82 -407 -782 0
-83 -408 -783 0
-84 -409 -784 0
-85 -410 -785 0
-81 -411 -776 0
-82 -412 -777 0
-83 -413 -778 0
-84 -414 -779 0
-85 -415 -780 0
-81 -416 -771 0
-82 -417 -772 0
-83 -418 -773 0
-84 -419 -774 0
-85 -420 -775 0
-81 -421 -766 0
-82 -422 -767 0
-83 -423 -768 0
-84 -424 -769 0
-85 -425 -770 0
-81 -426 -761 0
-82 -427 -762 0
-83 -428 -763 0
-84 -429 -764 0
-85 -430 -765 0
-81 -431 -756 0
-82 -432 -757 0
-83 -433 -758 0
-84 -434 -759 0
-85 -435 -760 0
-81 -436 -751 0
-82 -437 -752 0
-83 -438 -753 0
-84 -439 -754 0
-85 -440 -755 0
-81 -441 -746 0
-82 -442 -747 0
-83 -443 -748 0
-84 -444 -749 0
-85 -445 -750 0
-81 -446 -741 0
-82 -447 -742 0
-83 -448 -743 0
-84 -449 -744 0
-85 -450 -745 0
-81 -451 -736 0
-82 -452 -737 0
-83 -453 -738 0
-84 -454 -739 0
-85 -455 -740 0
-81 -456 -731 0
-82 -457 -732 0
-83 -458 -733 0
-84 -459 -734 0
-85 -460 -735 0
-81 -461 -726 0
-82 -462 -727 0
-83 -463 -728 0
-84 -464 -729 0
-85 -465 -730 0
-81 -466 -721 0
-82 -467 -722 0
-83 -468 -723 0
-84 -469 -724 0
-85 -470 -725 0
-81 -471 -716 0
-82 -472 -717 0
-83 -473 -718 0
-84 -474 -719 0
-85 -475 -720 0
-96 -156 -556 0
-97 -157 -557 0
-98 -158 -558 0
-99 -159 -559 0
-100 -160 -560 0
-96 -161 -561 0
-97 -162 -562 0
-98 -163 -563 0
-99 -164 -564 0
-100 -165 -565 0
-96 -166 -566 0
-97 -167 -567 0
-98 -168 -568 0
-99 -169 -569 0
-100 -170 -570 0
-96 -171 -571 0
-97 -172 -572 0
-98 -173 -573 0
-99 -174 -574 0
-100 -175 -575 0
-96 -176 -576 0
-97 -177 -577 0
-98 -178 -578 0
-99 -179 -579 0
-100 -180 -580 0
-96 -181 -581 0
-97 -182 -582 0
-98 -183 -583 0
-99 -184 -584 0
-100 -185 -585 0
-96 -186 -586 0
-97 -187 -587 0
-98 -188 -588 0
-99 -189 -589 0
-100 -190 -590 0
-96 -191 -591 0
-97 -192 -592 0
-98 -193 -593 0
-99 -194 -594 0
-100 -195 -595 0
-96 -196 -596 0
-97 -197 -597 0
-98 -198 -598 0
-99 -199 -599 0
-100 -200 -600 0
-96 -201 -601 0
-97 -202 -602 0
-98 -203 -603 0
-99 -204 -604 0
-100 -205 -605 0
-96 -206 -606 0
-97 -207 -607 0
-98 -208 -608 0
-99 -209 -609 0
-100 -210 -610 0
-96 -211 -611 0
-97 -212 -612 0
-98 -213 -613 0
-99 -214 -614 0
-100 -215 -615 0
-96 -216 -616 0
-97 -217 -617 0
-98 -218 -618 0
-99 -219 -619 0
-100 -220 -620 0
-96 -221 -621 0
-97 -222 -622 0
-98 -223 -623 0
-99 -224 -624 0
-100 -225 -625 0
-96 -226 -626 0
-97 -227 -627 0
-98 -228 -628 0
-99 -229 -629 0
-100 -230 -630 0
-96 -231 -631 0
-97 -232 -632 0
-98 -233 -633 0
-99 -234 -634 0
-100 -235 -635 0
-96 -236 -476 0
-97 -237 -477 0
-98 -238 -478 0
-99 -239 -479 0
-100 -240 -480 0
-96 -241 -481 0
-97 -242 -482 0
-98 -243 -483 0
-99 -244 -484 0
-100 -245 -485 0
-96 -246 -486 0
-97 -247 -487 0
-98 -248 -488 0
-99 -249 -489 0
-100 -250 -490 0
-96 -251 -491 0
-97 -252 -492 0
-98 -253 -493 0
-99 -254 -494 0
-100 -255 -495 0
-96 -256 -496 0
-97 -257 -497 0
-98 -258 -498 0
-99 -259 -499 0
-100 -260 -500 0
-96 -261 -501 0
-97 -262 -502 0
-98 -263 -503 0
-99 -264 -504 0
-100 -265 -505 0
-96 -266 -506 0
-97 -267 -507 0
-98 -268 -508 0
-99 -269 -509 0
-100 -270 -510 0
-96 -271 -511 0
-97 -272 -512 0
-98 -273 -513 0
-99 -274 -514 0
-100 -275 -515 0
-96 -276 -516 0
-97 -277 -517 0
-98 -278 -518 0
-99 -279 -519 0
-100 -280 -520 0
-96 -281 -521 0
-97 -282 -522 0
-98 -283 -523 0
-99 -284 -524 0
-100 -285 -525 0
-96 -286 -526 0
-97 -287 -527 0
-98 -288 -528 0
-99 -289 -529 0
-100 -290 -530 0
-96 -291 -531 0
-97 -292 -532 0
-98 -293 -533 0
-99 -294 -534 0
-100 -295 -535 0
-96 -296 -536 0
-97 -297 -537 0
-98 -298 -538 0
-99 -299 -539 0
-100 -300 -540 0
-96 -301 -541 0
-97 -302 -542 0
-98 -303 -543 0
-99 -304 -544 0
-100 -305 -545 0
-96 -306 -546 0
-97 -307 -547 0
-98 -308 -548 0
-99 -309 -549 0
-100 -310 -550 0
-96 -311 -551 0
-97 -312 -552 0
-98 -313 -553 0
-99 -314 -554 0
-100 -315 -555 0
-96 -316 -716 0
-97 -317 -717 0
-98 -318 -718 0
-99 -319 -719 0
-100 -320 -720 0
-96 -321 -721 0
-97 -322 -722 0
-98 -323 -723 0
-99 -324 -724 0
-100 -325 -725 0
-96 -326 -726 0
-97 -327 -727 0
-98 -328 -728 0
-99 -329 -729 0
-100 -330 -730 0
-96 -331 -731 0
-97 -332 -732 0
-98 -333 -733 0
-99 -334 -734 0
-100 -335 -735 0
-96 -336 -736 0
-97 -337 -737 0
-98 -338 -738 0
-99 -339 -739 0
-100 -340 -740 0
-96 -341 -741 0
-97 -342 -742 0
-98 -343 -743 0
-99 -344 -744 0
-100 -345 -745 0
-96 -346 -746 0
-97 -347 -747 0
-98 -348 -748 0
-99 -349 -749 0
-100 -350 -750 0
-96 -351 -751 0
-97 -352 -752 0
-98 -353 -753 0
-99 -354 -754 0
-100 -355 -755 0
-96 -356 -756 0
-97 -357 -757 0
-98 -358 -758 0
-99 -359 -759 0
-100 -360 -760 0
-96 -361 -761 0
-97 -362 -762 0
-98 -363 -763 0
-99 -364 -764 0
-100 -365 -765 0
-96 -366 -766 0
-97 -367 -767 0
-98 -368 -768 0
-99 -369 -769 0
-100 -370 -770 0
-96 -371 -771 0
-97 -372 -772 0
-98 -373 -773 0
-99 -374 -774 0
-100 -375 -775 0
-96 -376 -776 0
-97 -377 -777 0
-98 -378 -778 0
-99 -379 -779 0
-100 -380 -780 0
-96 -381 -781 0
-97 -382 -782 0
-98 -383 -783 0
-99 -384 -784 0
-100 -385 -785 0
-96 -386 -786 0
-97 -387 -787 0
-98 -388 -788 0
-99 -389 -789 0
-100 -390 -790 0
-96 -391 -791 0
-97 -392 -792 0
-98 -393 -793 0
-99 -394 -794 0
-100 -395 -795 0
-96 -396 -636 0
-97 -397 -637 0
-98 -398 -638 0
-99 -399 -639 0
-100 -400 -640 0
-96 -401 -641 0
-97 -402 -642 0
-98 -403 -643 0
-99 -404 -644 0
-100 -405 -645 0
-96 -406 -646 0
-97 -407 -647 0
-98 -408 -648 0
-99 -409 -649 0
-100 -410 -650 0
-96 -411 -651 0
-97 -412 -652 0
-98 -413 -653 0
-99 -414 -654 0
-100 -415 -655 0
-96 -416 -656 0
-97 -417 -657 0
-98 -418 -658 0
-99 -419 -659 0
-100 -420 -660 0
-96 -421 -661 0
-97 -422 -662 0
-98 -423 -663 0
-99 -424 -664 0
-100 -425 -665 0
-96 -426 -666 0
-97 -427 -667 0
-98 -428 -668 0
-99 -429 -669 0
-100 -430 -670 0
-96 -431 -671 0
-97 -432 -672 0
-98 -433 -673 0
-99 -434 -674 0
-100 -435 -675 0
-96 -436 -676 0
-97 -437 -677 0
-98 -438 -678 0
-99 -439 -679 0
-100 -440 -680 0
-96 -441 -681 0
-97 -442 -682 0
-98 -443 -683 0
-99 -444 -684 0
-100 -445 -685 0
-96 -446 -686 0
-97 -447 -687 0
-98 -448 -688 0
-99 -449 -689 0
-100 -450 -690 0
-96 -451 -691 0
-97 -452 -692 0
-98 -453 -693 0
-99 -454 -694 0
-100 -455 -695 0
-96 -456 -696 0
-97 -457 -697 0
-98 -458 -698 0
-99 -459 -699 0
-100 -460 -700 0
-96 -461 -701 0
-97 -462 -702 0
-98 -463 -703 0
-99 -464 -704 0
-100 -465 -705 0
-96 -466 -706 0
-97 -467 -707 0
-98 -468 -708 0
-99 -469 -709 0
-100 -470 -710 0
-96 -471 -711 0
-97 -472 -712 0
-98 -473 -713 0
-99 -474 -714 0
-100 -475 -715 0
-101 -156 -561 0
-102 -157 -562 0
-103 -158 -563 0
-104 -159 -564 0
-105 -160 -565 0
-101 -161 -556 0
-102 -162 -557 0
-103 -163 -558 0
-104 -164 -559 0
-105 -165 -560 0
-101 -166 -571 0
-102 -167 -572 0
-103 -168 -573 0
-104 -169 -574 0
-105 -170 -575 0
-101 -171 -566 0
-102 -172 -567 0
-103 -173 -568 0
-104 -174 -569 0
-105 -175 -570 0
-101 -176 -581 0
-102 -177 -582 0
-103 -178 -583 0
-104 -179 -584 0
-105 -180 -585 0
-101 -181 -576 0
-102 -182 -577 0
-103 -183 -578 0
-104 -184 -579 0
-105 -185 -580 0
-101 -186 -591 0
-102 -187 -592 0
-103 -188 -593 0
-104 -189 -594 0
-105 -190 -595 0
-101 -191 -586 0
-102 -192 -587 0
-103 -193 -588 0
-104 -194 -589 0
-105 -195 -590 0
-101 -196 -601 0
-102 -197 -602 0
-103 -198 -603 0
-104 -199 -604 0
-105 -200 -605 0
-101 -201 -596 0
-102 -202 -597 0
-103 -203 -598 0
-104 -204 -599 0
-105 -205 -600 0
-101 -206 -611 0
-102 -207 -612 0
-103 -208 -613 0
-104 -209 -614 0
-105 -210 -615 0
-101 -211 -606 0
-102 -212 -607 0
-103 -213 -608 0
-104 -214 -609 0
-105 -215 -610 0
-101 -216 -621 0
-102 -217 -622 0
-103 -218 -623 0
-104 -219 -624 0
-105 -220 -625 0
-101 -221 -616 0
-102 -222 -617 0
-103 -223 -618 0
-104 -224 -619 0
-105 -225 -620 0
-101 -226 -631 0
-102 -227 -632 0
-103 -228 -633 0
-104 -229 -634 0
-105 -230 -635 0
-101 -231 -626 0
-102 -232 -627 0
-103 -233 -628 0
-104 -234 -629 0
-105 -235 -630 0
-101 -236 -481 0
-102 -237 -482 0
-103 -238 -483 0
-104 -239 -484 0
-105 -240 -485 0
-101 -241 -476 0
-102 -242 -477 0
-103 -243 -478 0
-104 -244 -479 0
-105 -245 -480 0
-101 -246 -491 0
-102 -247 -492 0
-103 -248 -493 0
-104 -249 -494 0
-105 -250 -495 0
-101 -251 -486 0
-102 -252 -487 0
-103 -253 -488 0
-104 -254 -489 0
-105 -255 -490 0
-101 -256 -501 0
-102 -257 -502 0
-103 -258 -503 0
-104 -259 -504 0
-105 -260 -505 0
-101 -261 -496 0
-102 -262 -497 0
-103 -263 -498 0
-104 -264 -499 0
-105 -265 -500 0
-101 -266 -511 0
-102 -267 -512 0
-103 -268 -513 0
-104 -269 -514 0
-105 -270 -515 0
-101 -271 -506 0
-102 -272 -507 0
-103 -273 -508 0
-104 -274 -509 0
-105 -275 -510 0
-101 -276 -521 0
-102 -277 -522 0
-103 -278 -523 0
-104 -279 -524 0
-105 -280 -525 0
-101 -281 -516 0
-102 -282 -517 0
-103 -283 -518 0
-104 -284 -519 0
-105 -285 -520 0
-101 -286 -531 0
-102 -287 -532 0
-103 -288 -533 0
-104 -289 -534 0
-105 -290 -535 0
-101 -291 -526 0
-102 -292 -527 0
-103 -293 -528 0
-104 -294 -529 0
-105 -295 -530 0
-101 -296 -541 0
-102 -297 -542 0
-103 -298 -543 0
-104 -299 -544 0
-105 -300 -545 0
-101 -301 -536 0
-102 -302 -537 0
-103 -303 -538 0
-104 -304 -539 0
-105 -305 -540 0
-101 -306 -551 0
-102 -307 -552 0
-103 -308 -553 0
-104 -309 -554 0
-105 -310 -555 0
-101 -311 -546 0
-102 -312 -547 0
-103 -313 -548 0
-104 -314 -549 0
-105 -315 -550 0
-101 -316 -721 0
-102 -317 -722 0
-103 -318 -723 0
-104 -319 -724 0
-105 -320 -725 0
-101 -321 -716 0
-102 -322 -717 0
-103 -323 -718 0
-104 -324 -719 0
-105 -325 -720 0
-101 -326 -731 0
-102 -327 -732 0
-103 -328 -733 0
-104 -329 -734 0
-105 -330 -735 0
-101 -331 -726 0
-102 -332 -727 0
-103 -333 -728 0
-104 -334 -729 0
-105 -335 -730 0
-101 -336 -741 0
-102 -337 -742 0
-103 -338 -743 0
-104 -339 -744 0
-105 -340 -745 0
-101 -341 -736 0
-102 -342 -737 0
-103 -343 -738 0
-104 -344 -739 0
-105 -345 -740 0
-101 -346 -751 0
-102 -347 -752 0
-103 -348 -753 0
-104 -349 -754 0
-105 -350 -755 0
-101 -351 -746 0
-102 -352 -747 0
-103 -353 -748 0
-104 -354 -749 0
-105 -355 -750 0
-101 -356 -761 0
-102 -357 -762 0
-103 -358 -763 0
-104 -359 -764 0
-105 -360 -765 0
-101 -361 -756 0
-102 -362 -757 0
-103 -363 -758 0
-104 -364 -759 0
-105 -365 -760 0
-101 -366 -771 0
-102 -367 -772 0
-103 -368 -773 0
-104 -369 -774 0
-105 -370 -775 0
-101 -371 -766 0
-102 -372 -767 0
-103 -373 -768 0
-104 -374 -769 0
-105 -375 -770 0
-101 -376 -781 0
-102 -377 -782 0
-103 -378 -783 0
-104 -379 -784 0
-105 -380 -785 0
-101 -381 -776 0
-102 -382 -777 0
-103 -383 -778 0
-104 -384 -779 0
-105 -385 -780 0
-101 -386 -791 0
-102 -387 -792 0
-103 -388 -793 0
-104 -389 -794 0
-105 -390 -795 0
-101 -391 -786 0
-102 -392 -787 0
-103 -393 -788 0
-104 -394 -789 0
-105 -395 -790 0
-101 -396 -641 0
-102 -397 -642 0
-103 -398 -643 0
-104 -399 -644 0
-105 -400 -645 0
-101 -401 -636 0
-102 -402 -637 0
-103 -403 -638 0
-104 -404 -639 0
-105 -405 -640 0
-101 -406 -651 0
-102 -407 -652 0
-103 -408 -653 0
-104 -409 -654 0
-105 -410 -655 0
-101 -411 -646 0
-102 -412 -647 0
-103 -413 -648 0
-104 -414 -649 0
-105 -415 -650 0
-101 -416 -661 0
-102 -417 -662 0
-103 -418 -663 0
-104 -419 -664 0
-105 -420 -665 0
-101 -421 -656 0
-102 -422 -657 0
-103 -423 -658 0
-104 -424 -659 0
-105 -425 -660 0
-101 -426 -671 0
-102 -427 -672 0
-103 -428 -673 0
-104 -429 -674 0
-105 -430 -675 0
-101 -431 -666 0
-102 -432 -667 0
-103 -433 -668 0
-104 -434 -669 0
-105 -435 -670 0
-101 -436 -681 0
-102 -437 -682 0
-103 -438 -683 0
-104 -439 -684 0
-105 -440 -685 0
-101 -441 -676 0
-102 -442 -677 0
-103 -443 -678 0
-104 -444 -679 0
-105 -445 -680 0
-101 -446 -691 0
-102 -447 -692 0
-103 -448 -693 0
-104 -449 -694 0
-105 -450 -695 0
-101 -451 -686 0
-102 -452 -687 0
-103 -453 -688 0
-104 -454 -689 0
-105 -455 -690 0
-101 -456 -701 0
-102 -457 -702 0
-103 -458 -703 0
-104 -459 -704 0
-105 -460 -705 0
-101 -461 -696 0
-102 -462 -697 0
-103 -463 -698 0
-104 -464 -699 0
-105 -465 -700 0
-101 -466 -711 0
-102 -467 -712 0
-103 -468 -713 0
-104 -469 -714 0
-105 -470 -715 0
-101 -471 -706 0
-102 -472 -707 0
-103 -473 -708 0
-104 -474 -709 0
-105 -475 -710 0
-106 -156 -566 0
-107 -157 -567 0
-108 -158 -568 0
-109 -159 -569 0
-110 -160 -570 0
-106 -161 -571 0
-107 -162 -572 0
-108 -163 -573 0
-109 -164 -574 0
-110 -165 -575 0
-106 -166 -556 0
-107 -167 -557 0
-108 -168 -558 0
-109 -169 -559 0
-110 -170 -560 0
-106 -171 -561 0
-107 -172 -562 0
-108 -173 -563 0
-109 -174 -564 0
-110 -175 -565 0
-106 -176 -586 0
-107 -177 -587 0
-108 -178 -588 0
-109 -179 -589 0
-110 -180 -590 0
-106 -181 -591 0
-107 -182 -592 0
-108 -183 -593 0
-109 -184 -594 0
-110 -185 -595 0
-106 -186 -576 0
-107 -187 -577 0
-108 -188 -578 0
-109 -189 -579 0
-110 -190 -580 0
-106 -191 -581 0
-107 -192 -582 0
-108 -193 -583 0
-109 -194 -584 0
-110 -195 -585 0
-106 -196 -606 0
-107 -197 -607 0
-108 -198 -608 0
-109 -199 -609 0
-110 -200 -610 0
-106 -201 -611 0
-107 -202 -612 0
-108 -203 -613 0
-109 -204 -614 0
-110 -205 -615 0
-106 -206 -596 0
-107 -207 -597 0
-108 -208 -598 0
-109 -209 -599 0
-110 -210 -600 0
-106 -211 -601 0
-107 -212 -602 0
-108 -213 -603 0
-109 -214 -604 0
-110 -215 -605 0
-106 -216 -626 0
-107 -217 -627 0
-108 -218 -628 0
-109 -219 -629 0
-110 -220 -630 0
-106 -221 -631 0
-107 -222 -632 0
-108 -223 -633 0
-109 -224 -634 0
-110 -225 -635 0
-106 -226 -616 0
-107 -227 -617 0
-108 -228 -618 0
-109 -229 -619 0
-110 -230 -620 0
-106 -231 -621 0
-107 -232 -622 0
-108 -233 -623 0
-109 -234 -624 0
-110 -235 -625 0
-106 -236 -486 0
-107 -237 -487 0
-108 -238 -488 0
-109 -239 -489 0
-110 -240 -490 0
-106 -241 -491 0
-107 -242 -492 0
-108 -243 -493 0
-109 -244 -494 0
-110 -245 -495 0
-106 -246 -476 0
-107 -247 -477 0
-108 -248 -478 0
-109 -249 -479 0
-110 -250 -480 0
-106 -251 -481 0
-107 -252 -482 0
-108 -253 -483 0
-109 -254 -484 0
-110 -255 -485 0
-106 -256 -506 0
-107 -257 -507 0
-108 -258 -508 0
-109 -259 -509 0
-110 -260 -510 0
-106 -261 -511 0
-107 -262 -512 0
-108 -263 -513 0
-109 -264 -514 0
-110 -265 -515 0
-106 -266 -496 0
-107 -267 -497 0
-108 -268 -498 0
-109 -269 -499 0
-110 -270 -500 0
-106 -271 -501 0
-107 -272 -502 0
-108 -273 -503 0
-109 -274 -504 0
-110 -275 -505 0
-106 -276 -526 0
-107 -277 -527 0
-108 -278 -528 0
-109 -279 -529 0
-110 -280 -530 0
-106 -281 -531 0
-107 -282 -532 0
-108 -283 -533 0
-109 -284 -534 0
-110 -285 -535 0
-106 -286 -516 0
-107 -287 -517 0
-108 -288 -518 0
-109 -289 -519 0
-110 -290 -520 0
-106 -291 -521 0
-107 -292 -522 0
-108 -293 -523 0
-109 -294 -524 0
-110 -295 -525 0
-106 -296 -546 0
-107 -297 -547 0
-108 -298 -548 0
-109 -299 -549 0
-110 -300 -550 0
-106 -301 -551 0
-107 -302 -552 0
-108 -303 -553 0
-109 -304 -554 0
-110 -305 -555 0
-106 -306 -536 0
-107 -307 -537 0
-108 -308 -538 0
-109 -309 -539 0
-110 -310 -540 0
-106 -311 -541 0
-107 -312 -542 0
-108 -313 -543 0
-109 -314 -544 0
-110 -315 -545 0
-106 -316 -726 0
-107 -317 -727 0
-108 -318 -728 0
-109 -319 -729 0
-110 -320 -730 0
-106 -321 -731 0
-107 -322 -732 0
-108 -323 -733 0
-109 -324 -734 0
-110 -325 -735 0
-106 -326 -716 0
-107 -327 -717 0
-108 -328 -718 0
-109 -329 -719 0
-110 -330 -720 0
-106 -331 -721 0
-107 -332 -722 0
-108 -333 -723 0
-109 -334 -724 0
-110 -335 -725 0
-106 -336 -746 0
-107 -337 -747 0
-108 -338 -748 0
-109 -339 -749 0
-110 -340 -750 0
-106 -341 -751 0
-107 -342 -752 0
-108 -343 -753 0
-109 -344 -754 0
-110 -345 -755 0
-106 -346 -736 0
-107 -347 -737 0
-108 -348 -738 0
-109 -349 -739 0
-110 -350 -740 0
-106 -351 -741 0
-107 -352 -742 0
-108 -353 -743 0
-109 -354 -744 0
-110 -355 -745 0
-106 -356 -766 0
-107 -357 -767 0
-108 -358 -768 0
-109 -359 -769 0
-110 -360 -770 0
-106 -361 -771 0
-107 -362 -772 0
-108 -363 -773 0
-109 -364 -774 0
-110 -365 -775 0
-106 -366 -756 0
-107 -367 -757 0
-108 -368 -758 0
-109 -369 -759 0
-110 -370 -760 0
-106 -371 -761 0
-107 -372 -762 0
-108 -373 -763 0
-109 -374 -764 0
-110 -375 -765 0
-106 -376 -786 0
-107 -377 -787 0
-108 -378 -788 0
-109 -379 -789 0
-110 -380 -790 0
-106 -381 -791 0
-107 -382 -792 0
-108 -383 -793 0
-109 -384 -794 0
-110 -385 -795 0
-106 -386 -776 0
-107 -387 -777 0
-108 -388 -778 0
-109 -389 -779 0
-110 -390 -780 0
-106 -391 -781 0
-107 -392 -782 0
-108 -393 -783 0
-109 -394 -784 0
-110 -395 -785 0
-106 -396 -646 0
-107 -397 -647 0
-108 -398 -648 0
-109 -399 -649 0
-110 -400 -650 0
-106 -401 -651 0
-107 -402 -652 0
-108 -403 -653 0
-109 -404 -654 0
-110 -405 -655 0
-106 -406 -636 0
-107 -407 -637 0
-108 -408 -638 0
-109 -409 -639 0
-110 -410 -640 0
-106 -411 -641 0
-107 -412 -642 0
-108 -413 -643 0
-109 -414 -644 0
-110 -415 -645 0
-106 -416 -666 0
-107 -417 -667 0
-108 -418 -668 0
-109 -419 -669 0
-110 -420 -670 0
-106 -421 -671 0
-107 -422 -672 0
-108 -423 -673 0
-109 -424 -674 0
-110 -425 -675 0
-106 -426 -656 0
-107 -427 -657 0
-108 -428 -658 0
-109 -429 -659 0
-110 -430 -660 0
-106 -431 -661 0
-107 -432 -662 0
-108 -433 -663 0
-109 -434 -664 0
-110 -435 -665 0
-106 -436 -686 0
-107 -437 -687 0
-108 -438 -688 0
-109 -439 -689 0
-110 -440 -690 0
-106 -441 -691 0
-107 -442 -692 0
-108 -443 -693 0
-109 -444 -694 0
-110 -445 -695 0
-106 -446 -676 0
-107 -447 -677 0
-108 -448 -678 0
-109 -449 -679 0
-110 -450 -680 0
-106 -451 -681 0
-107 -452 -682 0
-108 -453 -683 0
-109 -454 -684 0
-110 -455 -685 0
-106 -456 -706 0
-107 -457 -707 0
-108 -458 -708 0
-109 -459 -709 0
-110 -460 -710 0
-106 -461 -711 0
-107 -462 -712 0
-108 -463 -713 0
-109 -464 -714 0
-110 -465 -715 0
-106 -466 -696 0
-107 -467 -697 0
-108 -468 -698 0
-109 -469 -699 0
-110 -470 -700 0
-106 -471 -701 0
-107 -472 -702 0
-108 -473 -703 0
-109 -474 -704 0
-110 -475 -705 0
-106 -156 -571 0
-107 -157 -572 0
-108 -158 -573 0
-109 -159 -574 0
-110 -160 -575 0
-106 -161 -566 0
-107 -162 -567 0
-108 -163 -568 0
-109 -164 -569 0
-110 -165 -570 0
-106 -166 -561 0
-107 -167 -562 0
-108 -168 -563 0
-109 -169 -564 0
-110 -170 -565 0
-106 -171 -556 0
-107 -172 -557 0
-108 -173 -558 0
-109 -174 -559 0
-110 -175 -560 0
-106 -176 -591 0
-107 -177 -592 0
-108 -178 -593 0
-109 -179 -594 0
-110 -180 -595 0
-106 -181 -586 0
-107 -182 -587 0
-108 -183 -588 0
-109 -184 -589 0
-110 -185 -590 0
-106 -186 -581 0
-107 -187 -582 0
-108 -188 -583 0
-109 -189 -584 0
-110 -190 -585 0
-106 -191 -576 0
-107 -192 -577 0
-108 -193 -578 0
-109 -194 -579 0
-110 -195 -580 0
-106 -196 -611 0
-107 -197 -612 0
-108 -198 -613 0
-109 -199 -614 0
-110 -200 -615 0
-106 -201 -606 0
-107 -202 -607 0
-108 -203 -608 0
-109 -204 -609 0
-110 -205 -610 0
-106 -206 -601 0
-107 -207 -602 0
-108 -208 -603 0
-109 -209 -604 0
-110 -210 -605 0
-106 -211 -596 0
-107 -212 -597 0
-108 -213 -598 0
-109 -214 -599 0
-110 -215 -600 0
-106 -216 -631 0
-107 -217 -632 0
-108 -218 -633 0
-109 -219 -634 0
-110 -220 -635 0
-106 -221 -626 0
-107 -222 -627 0
-108 -223 -628 0
-109 -224 -629 0
-110 -225 -630 0
-106 -226 -621 0
-107 -227 -622 0
-108 -228 -623 0
-109 -229 -624 0
-110 -230 -625 0
-106 -231 -616 0
-107 -232 -617 0
-108 -233 -618 0
-109 -234 -619 0
-110 -235 -620 0
-106 -236 -491 0
-107 -237 -492 0
-108 -238 -493 0
-109 -239 -494 0
-110 -240 -495 0
-106 -241 -486 0
-107 -242 -487 0
-108 -243 -488 0
-109 -244 -489 0
-110 -245 -490 0
-106 -246 -481 0
-107 -247 -482 0
-108 -248 -483 0
-109 -249 -484 0
-110 -250 -485 0
-106 -251 -476 0
-107 -252 -477 0
-108 -253 -478 0
-109 -254 -479 0
-110 -255 -480 0
-106 -256 -511 0
-107 -257 -512 0
-108 -258 -513 0
-109 -259 -514 0
-110 -260 -515 0
-106 -261 -506 0
-107 -262 -507 0
-108 -263 -508 0
-109 -264 -509 0
-110 -265 -510 0
-106 -266 -501 0
-107 -267 -502 0
-108 -268 -503 0
-109 -269 -504 0
-110 -270 -505 0
-106 -271 -496 0
-107 -272 -497 0
-108 -273 -498 0
-109 -274 -499 0
-110 -275 -500 0
-106 -276 -531 0
-107 -277 -532 0
-108 -278 -533 0
-109 -279 -534 0
-110 -280 -535 0
-106 -281 -526 0
-107 -282 -527 0
-108 -283 -528 0
-109 -284 -529 0
-110 -285 -530 0
-106 -286 -521 0
-107 -287 -522 0
-108 -288 -523 0
-109 -289 -524 0
-110 -290 -525 0
-106 -291 -516 0
-107 -292 -517 0
-108 -293 -518 0
-109 -294 -519 0
-110 -295 -520 0
-106 -296 -551 0
-107 -297 -552 0
-108 -298 -553 0
-109 -299 -554 0
-110 -300 -555 0
-106 -301 -546 0
-107 -302 -547 0
-108 -303 -548 0
-109 -304 -549 0
-110 -305 -550 0
-106 -306 -541 0
-107 -307 -542 0
-108 -308 -543 0
-109 -309 -544 0
-110 -310 -545 0
-106 -311 -536 0
-107 -312 -537 0
-108 -313 -538 0
-109 -314 -539 0
-110 -315 -540 0
-106 -316 -731 0
-107 -317 -732 0
-108 -318 -733 0
-109 -319 -734 0
-110 -320 -735 0
-106 -321 -726 0
-107 -322 -727 0
-108 -323 -728 0
-109 -324 -729 0
-110 -325 -730 0
-106 -326 -721 0
-107 -327 -722 0
-108 -328 -723 0
-109 -329 -724 0
-110 -330 -725 0
-106 -331 -716 0
-107 -332 -717 0
-108 -333 -718 0
-109 -334 -719 0
-110 -335 -720 0
-106 -336 -751 0
-107 -337 -752 0
-108 -338 -753 0
-109 -339 -754 0
-110 -340 -755 0
-106 -341 -746 0
-107 -342 -747 0
-108 -343 -748 0
-109 -344 -749 0
-110 -345 -750 0
-106 -346 -741 0
-107 -347 -742 0
-108 -348 -743 0
-109 -349 -744 0
-110 -350 -745 0
-106 -351 -736 0
-107 -352 -737 0
-108 -353 -738 0
-109 -354 -739 0
-110 -355 -740 0
-106 -356 -771 0
-107 -357 -772 0
-108 -358 -773 0
-109 -359 -774 0
-110 -360 -775 0
-106 -361 -766 0
-107 -362 -767 0
-108 -363 -768 0
-109 -364 -769 0
-110 -365 -770 0
-106 -366 -761 0
-107 -367 -762 0
-108 -368 -763 0
-109 -369 -764 0
-110 -370 -765 0
-106 -371 -756 0
-107 -372 -757 0
-108 -373 -758 0
-109 -374 -759 0
-110 -375 -760 0
-106 -376 -791 0
-107 -377 -792 0
-108 -378 -793 0
-109 -379 -794 0
-110 -380 -795 0
-106 -381 -786 0
-107 -382 -787 0
-108 -383 -788 0
-109 -384 -789 0
-110 -385 -790 0
-106 -386 -781 0
-107 -387 -782 0
-108 -388 -783 0
-109 -389 -784 0
-110 -390 -785 0
-106 -391 -776 0
-107 -392 -777 0
-108 -393 -778 0
-109 -394 -779 0
-110 -395 -780 0
-106 -396 -651 0
-107 -397 -652 0
-108 -398 -653 0
-109 -399 -654 0
-110 -400 -655 0
-106 -401 -646 0
-107 -402 -647 0
-108 -403 -648 0
-109 -404 -649 0
-110 -405 -650 0
-106 -406 -641 0
-107 -407 -642 0
-108 -408 -643 0
-109 -409 -644 0
-110 -410 -645 0
-106 -411 -636 0
-107 -412 -637 0
-108 -413 -638 0
-109 -414 -639 0
-110 -415 -640 0
-106 -416 -671 0
-107 -417 -672 0
-108 -418 -673 0
-109 -419 -674 0
-110 -420 -675 0
-106 -421 -666 0
-107 -422 -667 0
-108 -423 -668 0
-109 -424 -669 0
-110 -425 -670 0
-106 -426 -661 0
-107 -427 -662 0
-108 -428 -663 0
-109 -429 -664 0
-110 -430 -665 0
-106 -431 -656 0
-107 -432 -657 0
-108 -433 -658 0
-109 -434 -659 0
-110 -435 -660 0
-106 -436 -691 0
-107 -437 -692 0
-108 -438 -693 0
-109 -439 -694 0
-110 -440 -695 0
-106 -441 -686 0
-107 -442 -687 0
-108 -443 -688 0
-109 -444 -689 0
-110 -445 -690 0
-106 -446 -681 0
-107 -447 -682 0
-108 -448 -683 0
-109 -449 -684 0
-110 -450 -685 0
-106 -451 -676 0
-107 -452 -677 0
-108 -453 -678 0
-109 -454 -679 0
-110 -455 -680 0
-106 -456 -711 0
-107 -457 -712 0
-108 -458 -713 0
-109 -459 -714 0
-110 -460 -715 0
-106 -461 -706 0
-107 -462 -707 0
-108 -463 -708 0
-109 -464 -709 0
-110 -465 -710 0
-106 -466 -701 0
-107 -467 -702 0
-108 -468 -703 0
-109 -469 -704 0
-110 -470 -705 0
-106 -471 -696 0
-107 -472 -697 0
-108 -473 -698 0
-109 -474 -699 0
-110 -475 -700 0
-111 -156 -576 0
-112 -157 -577 0
-113 -158 -578 0
-114 -159 -579 0
-115 -160 -580 0
-111 -161 -581 0
-112 -162 -582 0
-113 -163 -583 0
-114 -164 -584 0
-115 -165 -585 0
-111 -166 -586 0
-112 -167 -587 0
-113 -168 -588 0
-114 -169 -589 0
-115 -170 -590 0
-111 -171 -591 0
-112 -172 -592 0
-113 -173 -593 0
-114 -174 -594 0
-115 -175 -595 0
-111 -176 -556 0
-112 -177 -557 0
-113 -178 -558 0
-114 -179 -559 0
-115 -180 -560 0
-111 -181 -561 0
-112 -182 -562 0
-113 -183 -563 0
-114 -184 -564 0
-115 -185 -565 0
-111 -186 -566 0
-112 -187 -567 0
-113 -188 -568 0
-114 -189 -569 0
-115 -190 -570 0
-111 -191 -571 0
-112 -192 -572 0
-113 -193 -573 0
-114 -194 -574 0
-115 -195 -575 0
-111 -196 -616 0
-112 -197 -617 0
-113 -198 -618 0
-114 -199 -619 0
-115 -200 -620 0
-111 -201 -621 0
-112 -202 -622 0
-113 -203 -623 0
-114 -204 -624 0
-115 -205 -625 0
-111 -206 -626 0
-112 -207 -627 0
-113 -208 -628 0
-114 -209 -629 0
-115 -210 -630 0
-111 -211 -631 0
-112 -212 -632 0
-113 -213 -633 0
-114 -214 -634 0
-115 -215 -635 0
-111 -216 -596 0
-112 -217 -597 0
-113 -218 -598 0
-114 -219 -599 0
-115 -220 -600 0
-111 -221 -601 0
-112 -222 -602 0
-113 -223 -603 0
-114 -224 -604 0
-115 -225 -605 0
-111 -226 -606 0
-112 -227 -607 0
-113 -228 -608 0
-114 -229 -609 0
-115 -230 -610 0
-111 -231 -611 0
-112 -232 -612 0
-113 -233 -613 0
-114 -234 -614 0
-115 -235 -615 0
-111 -236 -496 0
-112 -237 -497 0
-113 -238 -498 0
-114 -239 -499 0
-115 -240 -500 0
-111 -241 -501 0
-112 -242 -502 0
-113 -243 -503 0
-114 -244 -504 0
-115 -245 -505 0
-111 -246 -506 0
-112 -247 -507 0
-113 -248 -508 0
-114 -249 -509 0
-115 -250 -510 0
-111 -251 -511 0
-112 -252 -512 0
-113 -253 -513 0
-114 -254 -514 0
-115 -255 -515 0
-111 -256 -476 0
-112 -257 -477 0
-113 -258 -478 0
-114 -259 -479 0
-115 -260 -480 0
-111 -261 -481 0
-112 -262 -482 0
-113 -263 -483 0
-114 -264 -484 0
-115 -265 -485 0
-111 -266 -486 0
-112 -267 -487 0
-113 -268 -488 0
-114 -269 -489 0
-115 -270 -490 0
-111 -271 -491 0
-112 -272 -492 0
-113 -273 -493 0
-114 -274 -494 0
-115 -275 -495 0
-111 -276 -536 0
-112 -277 -537 0
-113 -278 -538 0
-114 -279 -539 0
-115 -280 -540 0
-111 -281 -541 0
-112 -282 -542 0
-113 -283 -543 0
-114 -284 -544 0
-115 -285 -545 0
-111 -286 -546 0
-112 -287 -547 0
-113 -288 -548 0
-114 -289 -549 0
-115 -290 -550 0
-111 -291 -551 0
-112 -292 -552 0
-113 -293 -553 0
-114 -294 -554 0
-115 -295 -555 0
-111 -296 -516 0
-112 -297 -517 0
-113 -298 -518 0
-114 -299 -519 0
-115 -300 -520 0
-111 -301 -521 0
-112 -302 -522 0
-113 -303 -523 0
-114 -304 -524 0
-115 -305 -525 0
-111 -306 -526 0
-112 -307 -527 0
-113 -308 -528 0
-114 -309 -529 0
-115 -310 -530 0
-111 -311 -531 0
-112 -312 -532 0
-113 -313 -533 0
-114 -314 -534 0
-115 -315 -535 0
-111 -316 -736 0
-112 -317 -737 0
-113 -318 -738 0
-114 -319 -739 0
-115 -320 -740 0
-111 -321 -741 0
-112 -322 -742 0
-113 -323 -743 0
-114 -324 -744 0
-115 -325 -745 0
-111 -326 -746 0
-112 -327 -747 0
-113 -328 -748 0
-114 -329 -749 0
-115 -330 -750 0
-111 -331 -751 0
-112 -332 -752 0
-113 -333 -753 0
-114 -334 -754 0
-115 -335 -755 0
-111 -336 -716 0
-112 -337 -717 0
-113 -338 -718 0
-114 -339 -719 0
-115 -340 -720 0
-111 -341 -721 0
-112 -342 -722 0
-113 -343 -723 0
-114 -344 -724 0
-115 -345 -725 0
-111 -346 -726 0
-112 -347 -727 0
-113 -348 -728 0
-114 -349 -729 0
-115 -350 -730 0
-111 -351 -731 0
-112 -352 -732 0
-113 -353 -733 0
-114 -354 -734 0
-115 -355 -735 0
-111 -356 -776 0
-112 -357 -777 0
-113 -358 -778 0
-114 -359 -779 0
-115 -360 -780 0
-111 -361 -781 0
-112 -362 -782 0
-113 -363 -783 0
-114 -364 -784 0
-115 -365 -785 0
-111 -366 -786 0
-112 -367 -787 0
-113 -368 -788 0
-114 -369 -789 0
-115 -370 -790 0
-111 -371 -791 0
-112 -372 -792 0
-113 -373 -793 0
-114 -374 -794 0
-115 -375 -795 0
-111 -376 -756 0
-112 -377 -757 0
-113 -378 -758 0
-114 -379 -759 0
-115 -380 -760 0
-111 -381 -761 0
-112 -382 -762 0
-113 -383 -763 0
-114 -384 -764 0
-115 -385 -765 0
-111 -386 -766 0
-112 -387 -767 0
-113 -388 -768 0
-114 -389 -769 0
-115 -390 -770 0
-111 -391 -771 0
-112 -392 -772 0
-113 -393 -773 0
-114 -394 -774 0
-115 -395 -775 0
-111 -396 -656 0
-112 -397 -657 0
-113 -398 -658 0
-114 -399 -659 0
-115 -400 -660 0
-111 -401 -661 0
-112 -402 -662 0
-113 -403 -663 0
-114 -404 -664 0
-115 -405 -665 0
-111 -406 -666 0
-112 -407 -667 0
-113 -408 -668 0
-114 -409 -669 0
-115 -410 -670 0
-111 -411 -671 0
-112 -412 -672 0
-113 -413 -673 0
-114 -414 -674 0
-115 -415 -675 0
-111 -416 -636 0
-112 -417 -637 0
-113 -418 -638 0
-114 -419 -639 0
-115 -420 -640 0
-111 -421 -641 0
-112 -422 -642 0
-113 -423 -643 0
-114 -424 -644 0
-115 -425 -645 0
-111 -426 -646 0
-112 -427 -647 0
-113 -428 -648 0
-114 -429 -649 0
-115 -430 -650 0
-111 -431 -651 0
-112 -432 -652 0
-113 -433 -653 0
-114 -434 -654 0
-115 -435 -655 0
-111 -436 -696 0
-112 -437 -697 0
-113 -438 -698 0
-114 -439 -699 0
-115 -440 -700 0
-111 -441 -701 0
-112 -442 -702 0
-113 -443 -703 0
-114 -444 -704 0
-115 -445 -705 0
-111 -446 -706 0
-112 -447 -707 0
-113 -448 -708 0
-114 -449 -709 0
-115 -450 -710 0
-111 -451 -711 0
-112 -452 -712 0
-113 -453 -713 0
-114 -454 -714 0
-115 -455 -715 0
-111 -456 -676 0
-112 -457 -677 0
-113 -458 -678 0
-114 -459 -679 0
-115 -460 -680 0
-111 -461 -681 0
-112 -462 -682 0
-113 -463 -683 0
-114 -464 -684 0
-115 -465 -685 0
-111 -466 -686 0
-112 -467 -687 0
-113 -468 -688 0
-114 -469 -689 0
-115 -470 -690 0
-111 -471 -691 0
-112 -472 -692 0
-113 -473 -693 0
-114 -474 -694 0
-115 -475 -695 0
-111 -156 -581 0
-112 -157 -582 0
-113 -158 -583 0
-114 -159 -584 0
-115 -160 -585 0
-111 -161 -576 0
-112 -162 -577 0
-113 -163 -578 0
-114 -164 -579 0
-115 -165 -580 0
-111 -166 -591 0
-112 -167 -592 0
-113 -168 -593 0
-114 -169 -594 0
-115 -170 -595 0
-111 -171 -586 0
-112 -172 -587 0
-113 -173 -588 0
-114 -174 -589 0
-115 -175 -590 0
-111 -176 -561 0
-112 -177 -562 0
-113 -178 -563 0
-114 -179 -564 0
-115 -180 -565 0
-111 -181 -556 0
-112 -182 -557 0
-113 -183 -558 0
-114 -184 -559 0
-115 -185 -560 0
-111 -186 -571 0
-112 -187 -572 0
-113 -188 -573 0
-114 -189 -574 0
-115 -190 -575 0
-111 -191 -566 0
-112 -192 -567 0
-113 -193 -568 0
-114 -194 -569 0
-115 -195 -570 0
-111 -196 -621 0
-112 -197 -622 0
-113 -198 -623 0
-114 -199 -624 0
-115 -200 -625 0
-111 -201 -616 0
-112 -202 -617 0
-113 -203 -618 0
-114 -204 -619 0
-115 -205 -620 0
-111 -206 -631 0
-112 -207 -632 0
-113 -208 -633 0
-114 -209 -634 0
-115 -210 -635 0
-111 -211 -626 0
-112 -212 -627 0
-113 -213 -628 0
-114 -214 -629 0
-115 -215 -630 0
-111 -216 -601 0
-112 -217 -602 0
-113 -218 -603 0
-114 -219 -604 0
-115 -220 -605 0
-111 -221 -596 0
-112 -222 -597 0
-113 -223 -598 0
-114 -224 -599 0
-115 -225 -600 0
-111 -226 -611 0
-112 -227 -612 0
-113 -228 -613 0
-114 -229 -614 0
-115 -230 -615 0
-111 -231 -606 0
-112 -232 -607 0
-113 -233 -608 0
-114 -234 -609 0
-115 -235 -610 0
-111 -236 -501 0
-112 -237 -502 0
-113 -238 -503 0
-114 -239 -504 0
-115 -240 -505 0
-111 -241 -496 0
-112 -242 -497 0
-113 -243 -498 0
-114 -244 -499 0
-115 -245 -500 0
-111 -246 -511 0
-112 -247 -512 0
-113 -248 -513 0
-114 -249 -514 0
-115 -250 -515 0
-111 -251 -506 0
-112 -252 -507 0
-113 -253 -508 0
-114 -254 -509 0
-115 -255 -510 0
-111 -256 -481 0
-112 -257 -482 0
-113 -258 -483 0
-114 -259 -484 0
-115 -260 -485 0
-111 -261 -476 0
-112 -262 -477 0
-113 -263 -478 0
-114 -264 -479 0
-115 -265 -480 0
-111 -266 -491 0
-112 -267 -492 0
-113 -268 -493 0
-114 -269 -494 0
-115 -270 -495 0
-111 -271 -486 0
-112 -272 -487 0
-113 -273 -488 0
-114 -274 -489 0
-115 -275 -490 0
-111 -276 -541 0
-112 -277 -542 0
-113 -278 -543 0
-114 -279 -544 0
-115 -280 -545 0
-111 -281 -536 0
-112 -282 -537 0
-113 -283 -538 0
-114 -284 -539 0
-115 -285 -540 0
-111 -286 -551 0
-112 -287 -552 0
-113 -288 -553 0
-114 -289 -554 0
-115 -290 -555 0
-111 -291 -546 0
-112 -292 -547 0
-113 -293 -548 0
-114 -294 -549 0
-115 -295 -550 0
-111 -296 -521 0
-112 -297 -522 0
-113 -298 -523 0
-114 -299 -524 0
-115 -300 -525 0
-111 -301 -516 0
-112 -302 -517 0
-113 -303 -518 0
-114 -304 -519 0
-115 -305 -520 0
-111 -306 -531 0
-112 -307 -532 0
-113 -308 -533 0
-114 -309 -534 0
-115 -310 -535 0
-111 -311 -526 0
-112 -312 -527 0
-113 -313 -528 0
-114 -314 -529 0
-115 -315 -530 0
-111 -316 -741 0
-112 -317 -742 0
-113 -318 -743 0
-114 -319 -744 0
-115 -320 -745 0
-111 -321 -736 0
-112 -322 -737 0
-113 -323 -738 0
-114 -324 -739 0
-115 -325 -740 0
-111 -326 -751 0
-112 -327 -752 0
-113 -328 -753 0
-114 -329 -754 0
-115 -330 -755 0
-111 -331 -746 0
-112 -332 -747 0
-113 -333 -748 0
-114 -334 -749 0
-115 -335 -750 0
-111 -336 -721 0
-112 -337 -722 0
-113 -338 -723 0
-114 -339 -724 0
-115 -340 -725 0
-111 -341 -716 0
-112 -342 -717 0
-113 -343 -718 0
-114 -344 -719 0
-115 -345 -720 0
-111 -346 -731 0
-112 -347 -732 0
-113 -348 -733 0
-114 -349 -734 0
-115 -350 -735 0
-111 -351 -726 0
-112 -352 -727 0
-113 -353 -728 0
-114 -354 -729 0
-115 -355 -730 0
-111 -356 -781 0
-112 -357 -782 0
-113 -358 -783 0
-114 -359 -784 0
-115 -360 -785 0
-111 -361 -776 0
-112 -362 -777 0
-113 -363 -778 0
-114 -364 -779 0
-115 -365 -780 0
-111 -366 -791 0
-112 -367 -792 0
-113 -368 -793 0
-114 -369 -794 0
-115 -370 -795 0
-111 -371 -786 0
-112 -372 -787 0
-113 -373 -788 0
-114 -374 -789 0
-115 -375 -790 0
-111 -376 -761 0
-112 -377 -762 0
-113 -378 -763 0
-114 -379 -764 0
-115 -380 -765 0
-111 -381 -756 0
-112 -382 -757 0
-113 -383 -758 0
-114 -384 -759 0
-115 -385 -760 0
-111 -386 -771 0
-112 -387 -772 0
-113 -388 -773 0
-114 -389 -774 0
-115 -390 -775 0
-111 -391 -766 0
-112 -392 -767 0
-113 -393 -768 0
-114 -394 -769 0
-115 -395 -770 0
-111 -396 -661 0
-112 -397 -662 0
-113 -398 -663 0
-114 -399 -664 0
-115 -400 -665 0
-111 -401 -656 0
-112 -402 -657 0
-113 -403 -658 0
-114 -404 -659 0
-115 -405 -660 0
-111 -406 -671 0
-112 -407 -672 0
-113 -408 -673 0
-114 -409 -674 0
-115 -410 -675 0
-111 -411 -666 0
-112 -412 -667 0
-113 -413 -668 0
-114 -414 -669 0
-115 -415 -670 0
-111 -416 -641 0
-112 -417 -642 0
-113 -418 -643 0
-114 -419 -644 0
-115 -420 -645 0
-111 -421 -636 0
-112 -422 -637 0
-113 -423 -638 0
-114 -424 -639 0
-115 -425 -640 0
-111 -426 -651 0
-112 -427 -652 0
-113 -428 -653 0
-114 -429 -654 0
-115 -430 -655 0
-111 -431 -646 0
-112 -432 -647 0
-113 -433 -648 0
-114 -434 -649 0
-115 -435 -650 0
-111 -436 -701 0
-112 -437 -702 0
-113 -438 -703 0
-114 -439 -704 0
-115 -440 -705 0
-111 -441 -696 0
-112 -442 -697 0
-113 -443 -698 0
-114 -444 -699 0
-115 -445 -700 0
-111 -446 -711 0
-112 -447 -712 0
-113 -448 -713 0
-114 -449 -714 0
-115 -450 -715 0
-111 -451 -706 0
-112 -452 -707 0
-113 -453 -708 0
-114 -454 -709 0
-115 -455 -710 0
-111 -456 -681 0
-112 -457 -682 0
-113 -458 -683 0
-114 -459 -684 0
-115 -460 -685 0
-111 -461 -676 0
-112 -462 -677 0
-113 -463 -678 0
-114 -464 -679 0
-115 -465 -680 0
-111 -466 -691 0
-112 -467 -692 0
-113 -468 -693 0
-114 -469 -694 0
-115 -470 -695 0
-111 -471 -686 0
-112 -472 -687 0
-113 -473 -688 0
-114 -474 -689 0
-115 -475 -690 0
-111 -156 -586 0
-112 -157 -587 0
-113 -158 -588 0
-114 -159 -589 0
-115 -160 -590 0
-111 -161 -591 0
-112 -162 -592 0
-113 -163 -593 0
-114 -164 -594 0
-115 -165 -595 0
-111 -166 -576 0
-112 -167 -577 0
-113 -168 -578 0
-114 -169 -579 0
-115 -170 -580 0
-111 -171 -581 0
-112 -172 -582 0
-113 -173 -583 0
-114 -174 -584 0
-115 -175 -585 0
-111 -176 -566 0
-112 -177 -567 0
-113 -178 -568 0
-114 -179 -569 0
-115 -180 -570 0
-111 -181 -571 0
-112 -182 -572 0
-113 -183 -573 0
-114 -184 -574 0
-115 -185 -575 0
-111 -186 -556 0
-112 -187 -557 0
-113 -188 -558 0
-114 -189 -559 0
-115 -190 -560 0
-111 -191 -561 0
-112 -192 -562 0
-113 -193 -563 0
-114 -194 -564 0
-115 -195 -565 0
-111 -196 -626 0
-112 -197 -627 0
-113 -198 -628 0
-114 -199 -629 0
-115 -200 -630 0
-111 -201 -631 0
-112 -202 -632 0
-113 -203 -633 0
-114 -204 -634 0
-115 -205 -635 0
-111 -206 -616 0
-112 -207 -617 0
-113 -208 -618 0
-114 -209 -619 0
-115 -210 -620 0
-111 -211 -621 0
-112 -212 -622 0
-113 -213 -623 0
-114 -214 -624 0
-115 -215 -625 0
-111 -216 -606 0
-112 -217 -607 0
-113 -218 -608 0
-114 -219 -609 0
-115 -220 -610 0
-111 -221 -611 0
-112 -222 -612 0
-113 -223 -613 0
-114 -224 -614 0
-115 -225 -615 0
-111 -226 -596 0
-112 -227 -597 0
-113 -228 -598 0
-114 -229 -599 0
-115 -230 -600 0
-111 -231 -601 0
-112 -232 -602 0
-113 -233 -603 0
-114 -234 -604 0
-115 -235 -605 0
-111 -236 -506 0
-112 -237 -507 0
-113 -238 -508 0
-114 -239 -509 0
-115 -240 -510 0
-111 -241 -511 0
-112 -242 -512 0
-113 -243 -513 0
-114 -244 -514 0
-115 -245 -515 0
-111 -246 -496 0
-112 -247 -497 0
-113 -248 -498 0
-114 -249 -499 0
-115 -250 -500 0
-111 -251 -501 0
-112 -252 -502 0
-113 -253 -503 0
-114 -254 -504 0
-115 -255 -505 0
-111 -256 -486 0
-112 -257 -487 0
-113 -258 -488 0
-114 -259 -489 0
-115 -260 -490 0
-111 -261 -491 0
-112 -262 -492 0
-113 -263 -493 0
-114 -264 -494 0
-115 -265 -495 0
-111 -266 -476 0
-112 -267 -477 0
-113 -268 -478 0
-114 -269 -479 0
-115 -270 -480 0
-111 -271 -481 0
-112 -272 -482 0
-113 -273 -483 0
-114 -274 -484 0
-115 -275 -485 0
-111 -276 -546 0
-112 -277 -547 0
-113 -278 -548 0
-114 -279 -549 0
-115 -280 -550 0
-111 -281 -551 0
-112 -282 -552 0
-113 -283 -553 0
-114 -284 -554 0
-115 -285 -555 0
-111 -286 -536 0
-112 -287 -537 0
-113 -288 -538 0
-114 -289 -539 0
-115 -290 -540 0
-111 -291 -541 0
-112 -292 -542 0
-113 -293 -543 0
-114 -294 -544 0
-115 -295 -545 0
-111 -296 -526 0
-112 -297 -527 0
-113 -298 -528 0
-114 -299 -529 0
-115 -300 -530 0
-111 -301 -531 0
-112 -302 -532 0
-113 -303 -533 0
-114 -304 -534 0
-115 -305 -535 0
-111 -306 -516 0
-112 -307 -517 0
-113 -308 -518 0
-114 -309 -519 0
-115 -310 -520 0
-111 -311 -521 0
-112 -312 -522 0
-113 -313 -523 0
-114 -314 -524 0
-115 -315 -525 0
-111 -316 -746 0
-112 -317 -747 0
-113 -318 -748 0
-114 -319 -749 0
-115 -320 -750 0
-111 -321 -751 0
-112 -322 -752 0
-113 -323 -753 0
-114 -324 -754 0
-115 -325 -755 0
-111 -326 -736 0
-112 -327 -737 0
-113 -328 -738 0
-114 -329 -739 0
-115 -330 -740 0
-111 -331 -741 0
-112 -332 -742 0
-113 -333 -743 0
-114 -334 -744 0
-115 -335 -745 0
-111 -336 -726 0
-112 -337 -727 0
-113 -338 -728 0
-114 -339 -729 0
-115 -340 -730 0
-111 -341 -731 0
-112 -342 -732 0
-113 -343 -733 0
-114 -344 -734 0
-115 -345 -735 0
-111 -346 -716 0
-112 -347 -717 0
-113 -348 -718 0
-114 -349 -719 0
-115 -350 -720 0
-111 -351 -721 0
-112 -352 -722 0
-113 -353 -723 0
-114 -354 -724 0
-115 -355 -725 0
-111 -356 -786 0
-112 -357 -787 0
-113 -358 -788 0
-114 -359 -789 0
-115 -360 -790 0
-111 -361 -791 0
-112 -362 -792 0
-113 -363 -793 0
-114 -364 -794 0
-115 -365 -795 0
-111 -366 -776 0
-112 -367 -777 0
-113 -368 -778 0
-114 -369 -779 0
-115 -370 -780 0
-111 -371 -781 0
-112 -372 -782 0
-113 -373 -783 0
-114 -374 -784 0
-115 -375 -785 0
-111 -376 -766 0
-112 -377 -767 0
-113 -378 -768 0
-114 -379 -769 0
-115 -380 -770 0
-111 -381 -771 0
-112 -382 -772 0
-113 -383 -773 0
-114 -384 -774 0
-115 -385 -775 0
-111 -386 -756 0
-112 -387 -757 0
-113 -388 -758 0
-114 -389 -759 0
-115 -390 -760 0
-111 -391 -761 0
-112 -392 -762 0
-113 -393 -763 0
-114 -394 -764 0
-115 -395 -765 0
-111 -396 -666 0
-112 -397 -667 0
-113 -398 -668 0
-114 -399 -669 0
-115 -400 -670 0
-111 -401 -671 0
-112 -402 -672 0
-113 -403 -673 0
-114 -404 -674 0
-115 -405 -675 0
-111 -406 -656 0
-112 -407 -657 0
-113 -408 -658 0
-114 -409 -659 0
-115 -410 -660 0
-111 -411 -661 0
-112 -412 -662 0
-113 -413 -663 0
-114 -414 -664 0
-115 -415 -665 0
-111 -416 -646 0
-112 -417 -647 0
-113 -418 -648 0
-114 -419 -649 0
-115 -420 -650 0
-111 -421 -651 0
-112 -422 -652 0
-113 -423 -653 0
-114 -424 -654 0
-115 -425 -655 0
-111 -426 -636 0
-112 -427 -637 0
-113 -428 -638 0
-114 -429 -639 0
-115 -430 -640 0
-111 -431 -641 0
-112 -432 -642 0
-113 -433 -643 0
-114 -434 -644 0
-115 -435 -645 0
-111 -436 -706 0
-112 -437 -707 0
-113 -438 -708 0
-114 -439 -709 0
-115 -440 -710 0
-111 -441 -711 0
-112 -442 -712 0
-113 -443 -713 0
-114 -444 -714 0
-115 -445 -715 0
-111 -446 -696 0
-112 -447 -697 0
-113 -448 -698 0
-114 -449 -699 0
-115 -450 -700 0
-111 -451 -701 0
-112 -452 -702 0
-113 -453 -703 0
-114 -454 -704 0
-115 -455 -705 0
-111 -456 -686 0
-112 -457 -687 0
-113 -458 -688 0
-114 -459 -689 0
-115 -460 -690 0
-111 -461 -691 0
-112 -462 -692 0
-113 -463 -693 0
-114 -464 -694 0
-115 -465 -695 0
-111 -466 -676 0
-112 -467 -677 0
-113 -468 -678 0
-114 -469 -679 0
-115 -470 -680 0
-111 -471 -681 0
-112 -472 -682 0
-113 -473 -683 0
-114 -474 -684 0
-115 -475 -685 0
-106 -156 -591 0
-107 -157 -592 0
-108 -158 -593 0
-109 -159 -594 0
-110 -160 -595 0
-106 -161 -586 0
-107 -162 -587 0
-108 -163 -588 0
-109 -164 -589 0
-110 -165 -590 0
-106 -166 -581 0
-107 -167 -582 0
-108 -168 -583 0
-109 -169 -584 0
-110 -170 -585 0
-106 -171 -576 0
-107 -172 -577 0
-108 -173 -578 0
-109 -174 -579 0
-110 -175 -580 0
-106 -176 -571 0
-107 -177 -572 0
-108 -178 -573 0
-109 -179 -574 0
-110 -180 -575 0
-106 -181 -566 0
-107 -182 -567 0
-108 -183 -568 0
-109 -184 -569 0
-110 -185 -570 0
-106 -186 -561 0
-107 -187 -562 0
-108 -188 -563 0
-109 -189 -564 0
-110 -190 -565 0
-106 -191 -556 0
-107 -192 -557 0
-108 -193 -558 0
-109 -194 -559 0
-110 -195 -560 0
-106 -196 -631 0
-107 -197 -632 0
-108 -198 -633 0
-109 -199 -634 0
-110 -200 -635 0
-106 -201 -626 0
-107 -202 -627 0
-108 -203 -628 0
-109 -204 -629 0
-110 -205 -630 0
-106 -206 -621 0
-107 -207 -622 0
-108 -208 -623 0
-109 -209 -624 0
-110 -210 -625 0
-106 -211 -616 0
-107 -212 -617 0
-108 -213 -618 0
-109 -214 -619 0
-110 -215 -620 0
-106 -216 -611 0
-107 -217 -612 0
-108 -218 -613 0
-109 -219 -614 0
-110 -220 -615 0
-106 -221 -606 0
-107 -222 -607 0
-108 -223 -608 0
-109 -224 -609 0
-110 -225 -610 0
-106 -226 -601 0
-107 -227 -602 0
-108 -228 -603 0
-109 -229 -604 0
-110 -230 -605 0
-106 -231 -596 0
-107 -232 -597 0
-108 -233 -598 0
-109 -234 -599 0
-110 -235 -600 0
-106 -236 -511 0
-107 -237 -512 0
-108 -238 -513 0
-109 -239 -514 0
-110 -240 -515 0
-106 -241 -506 0
-107 -242 -507 0
-108 -243 -508 0
-109 -244 -509 0
-110 -245 -510 0
-106 -246 -501 0
-107 -247 -502 0
-108 -248 -503 0
-109 -249 -504 0
-110 -250 -505 0
-106 -251 -496 0
-107 -252 -497 0
-108 -253 -498 0
-109 -254 -499 0
-110 -255 -500 0
-106 -256 -491 0
-107 -257 -492 0
-108 -258 -493 0
-109 -259 -494 0
-110 -260 -495 0
-106 -261 -486 0
-107 -262 -487 0
-108 -263 -488 0
-109 -264 -489 0
-110 -265 -490 0
-106 -266 -481 0
-107 -267 -482 0
-108 -268 -483 0
-109 -269 -484 0
-110 -270 -485 0
-106 -271 -476 0
-107 -272 -477 0
-108 -273 -478 0
-109 -274 -479 0
-110 -275 -480 0
-106 -276 -551 0
-107 -277 -552 0
-108 -278 -553 0
-109 -279 -554 0
-110 -280 -555 0
-106 -281 -546 0
-107 -282 -547 0
-108 -283 -548 0
-109 -284 -549 0
-110 -285 -550 0
-106 -286 -541 0
-107 -287 -542 0
-108 -288 -543 0
-109 -289 -544 0
-110 -290 -545 0
-106 -291 -536 0
-107 -292 -537 0
-108 -293 -538 0
-109 -294 -539 0
-110 -295 -540 0
-106 -296 -531 0
-107 -297 -532 0
-108 -298 -533 0
-109 -299 -534 0
-110 -300 -535 0
-106 -301 -526 0
-107 -302 -527 0
-108 -303 -528 0
-109 -304 -529 0
-110 -305 -530 0
-106 -306 -521 0
-107 -307 -522 0
-108 -308 -523 0
-109 -309 -524 0
-110 -310 -525 0
-106 -311 -516 0
-107 -312 -517 0
-108 -313 -518 0
-109 -314 -519 0
-110 -315 -520 0
-106 -316 -751 0
-107 -317 -752 0
-108 -318 -753 0
-109 -319 -754 0
-110 -320 -755 0
-106 -321 -746 0
-107 -322 -747 0
-108 -323 -748 0
-109 -324 -749 0
-110 -325 -750 0
-106 -326 -741 0
-107 -327 -742 0
-108 -328 -743 0
-109 -329 -744 0
-110 -330 -745 0
-106 -331 -736 0
-107 -332 -737 0
-108 -333 -738 0
-109 -334 -739 0
-110 -335 -740 0
-106 -336 -731 0
-107 -337 -732 0
-108 -338 -733 0
-109 -339 -734 0
-110 -340 -735 0
-106 -341 -726 0
-107 -342 -727 0
-108 -343 -728 0
-109 -344 -729 0
-110 -345 -730 0
-106 -346 -721 0
-107 -347 -722 0
-108 -348 -723 0
-109 -349 -724 0
-110 -350 -725 0
-106 -351 -716 0
-107 -352 -717 0
-108 -353 -718 0
-109 -354 -719 0
-110 -355 -720 0
-106 -356 -791 0
-107 -357 -792 0
-108 -358 -793 0
-109 -359 -794 0
-110 -360 -795 0
-106 -361 -786 0
-107 -362 -787 0
-108 -363 -788 0
-109 -364 -789 0
-110 -365 -790 0
-106 -366 -781 0
-107 -367 -782 0
-108 -368 -783 0
-109 -369 -784 0
-110 -370 -785 0
-106 -371 -776 0
-107 -372 -777 0
-108 -373 -778 0
-109 -374 -779 0
-110 -375 -780 0
-106 -376 -771 0
-107 -377 -772 0
-108 -378 -773 0
-109 -379 -774 0
-110 -380 -775 0
-106 -381 -766 0
-107 -382 -767 0
-108 -383 -768 0
-109 -384 -769 0
-110 -385 -770 0
-106 -386 -761 0
-107 -387 -762 0
-108 -388 -763 0
-109 -389 -764 0
-110 -390 -765 0
-106 -391 -756 0
-107 -392 -757 0
-108 -393 -758 0
-109 -394 -759 0
-110 -395 -760 0
-106 -396 -671 0
-107 -397 -672 0
-108 -398 -673 0
-109 -399 -674 0
-110 -400 -675 0
-106 -401 -666 0
-107 -402 -667 0
-108 -403 -668 0
-109 -404 -669 0
-110 -405 -670 0
-106 -406 -661 0
-107 -407 -662 0
-108 -408 -663 0
-109 -409 -664 0
-110 -410 -665 0
-106 -411 -656 0
-107 -412 -657 0
-108 -413 -658 0
-109 -414 -659 0
-110 -415 -660 0
-106 -416 -651 0
-107 -417 -652 0
-108 -418 -653 0
-109 -419 -654 0
-110 -420 -655 0
-106 -421 -646 0
-107 -422 -647 0
-108 -423 -648 0
-109 -424 -649 0
-110 -425 -650 0
-106 -426 -641 0
-107 -427 -642 0
-108 -428 -643 0
-109 -429 -644 0
-110 -430 -645 0
-106 -431 -636 0
-107 -432 -637 0
-108 -433 -638 0
-109 -434 -639 0
-110 -435 -640 0
-106 -436 -711 0
-107 -437 -712 0
-108 -438 -713 0
-109 -439 -714 0
-110 -440 -715 0
-106 -441 -706 0
-107 -442 -707 0
-108 -443 -708 0
-109 -444 -709 0
-110 -445 -710 0
-106 -446 -701 0
-107 -447 -702 0
-108 -448 -703 0
-109 -449 -704 0
-110 -450 -705 0
-106 -451 -696 0
-107 -452 -697 0
-108 -453 -698 0
-109 -454 -699 0
-110 -455 -700 0
-106 -456 -691 0
-107 -457 -692 0
-108 -458 -693 0
-109 -459 -694 0
-110 -460 -695 0
-106 -461 -686 0
-107 -462 -687 0
-108 -463 -688 0
-109 -464 -689 0
-110 -465 -690 0
-106 -466 -681 0
-107 -467 -682 0
-108 -468 -683 0
-109 -469 -684 0
-110 -470 -685 0
-106 -471 -676 0
-107 -472 -677 0
-108 -473 -678 0
-109 -474 -679 0
-110 -475 -680 0
-101 -156 -596 0
-102 -157 -597 0
-103 -158 -598 0
-104 -159 -599 0
-105 -160 -600 0
-101 -161 -601 0
-102 -162 -602 0
-103 -163 -603 0
-104 -164 -604 0
-105 -165 -605 0
-101 -166 -606 0
-102 -167 -607 0
-103 -168 -608 0
-104 -169 -609 0
-105 -170 -610 0
-101 -171 -611 0
-102 -172 -612 0
-103 -173 -613 0
-104 -174 -614 0
-105 -175 -615 0
-101 -176 -616 0
-102 -177 -617 0
-103 -178 -618 0
-104 -179 -619 0
-105 -180 -620 0
-101 -181 -621 0
-102 -182 -622 0
-103 -183 -623 0
-104 -184 -624 0
-105 -185 -625 0
-101 -186 -626 0
-102 -187 -627 0
-103 -188 -628 0
-104 -189 -629 0
-105 -190 -630 0
-101 -191 -631 0
-102 -192 -632 0
-103 -193 -633 0
-104 -194 -634 0
-105 -195 -635 0
-101 -196 -556 0
-102 -197 -557 0
-103 -198 -558 0
-104 -199 -559 0
-105 -200 -560 0
-101 -201 -561 0
-102 -202 -562 0
-103 -203 -563 0
-104 -204 -564 0
-105 -205 -565 0
-101 -206 -566 0
-102 -207 -567 0
-103 -208 -568 0
-104 -209 -569 0
-105 -210 -570 0
-101 -211 -571 0
-102 -212 -572 0
-103 -213 -573 0
-104 -214 -574 0
-105 -215 -575 0
-101 -216 -576 0
-102 -217 -577 0
-103 -218 -578 0
-104 -219 -579 0
-105 -220 -580 0
-101 -221 -581 0
-102 -222 -582 0
-103 -223 -583 0
-104 -224 -584 0
-105 -225 -585 0
-101 -226 -586 0
-102 -227 -587 0
-103 -228 -588 0
-104 -229 -589 0
-105 -230 -590 0
-101 -231 -591 0
-102 -232 -592 0
-103 -233 -593 0
-104 -234 -594 0
-105 -235 -595 0
-101 -236 -516 0
-102 -237 -517 0
-103 -238 -518 0
-104 -239 -519 0
-105 -240 -520 0
-101 -241 -521 0
-102 -242 -522 0
-103 -243 -523 0
-104 -244 -524 0
-105 -245 -525 0
-101 -246 -526 0
-102 -247 -527 0
-103 -248 -528 0
-104 -249 -529 0
-105 -250 -530 0
-101 -251 -531 0
-102 -252 -532 0
-103 -253 -533 0
-104 -254 -534 0
-105 -255 -535 0
-101 -256 -536 0
-102 -257 -537 0
-103 -258 -538 0
-104 -259 -539 0
-105 -260 -540 0
-101 -261 -541 0
-102 -262 -542 0
-103 -263 -543 0
-104 -264 -544 0
-105 -265 -545 0
-101 -266 -546 0
-102 -267 -547 0
-103 -268 -548 0
-104 -269 -549 0
-105 -270 -550 0
-101 -271 -551 0
-102 -272 -552 0
-103 -273 -553 0
-104 -274 -554 0
-105 -275 -555 0
-101 -276 -476 0
-102 -277 -477 0
-103 -278 -478 0
-104 -279 -479 0
-105 -280 -480 0
-101 -281 -481 0
-102 -282 -482 0
-103 -283 -483 0
-104 -284 -484 0
-105 -285 -485 0
-101 -286 -486 0
-102 -287 -487 0
-103 -288 -488 0
-104 -289 -489 0
-105 -290 -490 0
-101 -291 -491 0
-102 -292 -492 0
-103 -293 -493 0
-104 -294 -494 0
-105 -295 -495 0
-101 -296 -496 0
-102 -297 -497 0
-103 -298 -498 0
-104 -299 -499 0
-105 -300 -500 0
-101 -301 -501 0
-102 -302 -502 0
-103 -303 -503 0
-104 -304 -504 0
-105 -305 -505 0
-101 -306 -506 0
-102 -307 -507 0
-103 -308 -508 0
-104 -309 -509 0
-105 -310 -510 0
-101 -311 -511 0
-102 -312 -512 0
-103 -313 -513 0
-104 -314 -514 0
-105 -315 -515 0
-101 -316 -756 0
-102 -317 -757 0
-103 -318 -758 0
-104 -319 -759 0
-105 -320 -760 0
-101 -321 -761 0
-102 -322 -762 0
-103 -323 -763 0
-104 -324 -764 0
-105 -325 -765 0
-101 -326 -766 0
-102 -327 -767 0
-103 -328 -768 0
-104 -329 -769 0
-105 -330 -770 0
-101 -331 -771 0
-102 -332 -772 0
-103 -333 -773 0
-104 -334 -774 0
-105 -335 -775 0
-101 -336 -776 0
-102 -337 -777 0
-103 -338 -778 0
-104 -339 -779 0
-105 -340 -780 0
-101 -341 -781 0
-102 -342 -782 0
-103 -343 -783 0
-104 -344 -784 0
-105 -345 -785 0
-101 -346 -786 0
-102 -347 -787 0
-103 -348 -788 0
-104 -349 -789 0
-105 -350 -790 0
-101 -351 -791 0
-102 -352 -792 0
-103 -353 -793 0
-104 -354 -794 0
-105 -355 -795 0
-101 -356 -716 0
-102 -357 -717 0
-103 -358 -718 0
-104 -359 -719 0
-105 -360 -720 0
-101 -361 -721 0
-102 -362 -722 0
-103 -363 -723 0
-104 -364 -724 0
-105 -365 -725 0
-101 -366 -726 0
-102 -367 -727 0
-103 -368 -728 0
-104 -369 -729 0
-105 -370 -730 0
-101 -371 -731 0
-102 -372 -732 0
-103 -373 -733 0
-104 -374 -734 0
-105 -375 -735 0
-101 -376 -736 0
-102 -377 -737 0
-103 -378 -738 0
-104 -379 -739 0
-105 -380 -740 0
-101 -381 -741 0
-102 -382 -742 0
-103 -383 -743 0
-104 -384 -744 0
-105 -385 -745 0
-101 -386 -746 0
-102 -387 -747 0
-103 -388 -748 0
-104 -389 -749 0
-105 -390 -750 0
-101 -391 -751 0
-102 -392 -752 0
-103 -393 -753 0
-104 -394 -754 0
-105 -395 -755 0
-101 -396 -676 0
-102 -397 -677 0
-103 -398 -678 0
-104 -399 -679 0
-105 -400 -680 0
-101 -401 -681 0
-102 -402 -682 0
-103 -403 -683 0
-104 -404 -684 0
-105 -405 -685 0
-101 -406 -686 0
-102 -407 -687 0
-103 -408 -688 0
-104 -409 -689 0
-105 -410 -690 0
-101 -411 -691 0
-102 -412 -692 0
-103 -413 -693 0
-104 -414 -694 0
-105 -415 -695 0
-101 -416 -696 0
-102 -417 -697 0
-103 -418 -698 0
-104 -419 -699 0
-105 -420 -700 0
-101 -421 -701 0
-102 -422 -702 0
-103 -423 -703 0
-104 -424 -704 0
-105 -425 -705 0
-101 -426 -706 0
-102 -427 -707 0
-103 -428 -708 0
-104 -429 -709 0
-105 -430 -710 0
-101 -431 -711 0
-102 -432 -712 0
-103 -433 -713 0
-104 -434 -714 0
-105 -435 -715 0
-101 -436 -636 0
-102 -437 -637 0
-103 -438 -638 0
-104 -439 -639 0
-105 -440 -640 0
-101 -441 -641 0
-102 -442 -642 0
-103 -443 -643 0
-104 -444 -644 0
-105 -445 -645 0
-101 -446 -646 0
-102 -447 -647 0
-103 -448 -648 0
-104 -449 -649 0
-105 -450 -650 0
-101 -451 -651 0
-102 -452 -652 0
-103 -453 -653 0
-104 -454 -654 0
-105 -455 -655 0
-101 -456 -656 0
-102 -457 -657 0
-103 -458 -658 0
-104 -459 -659 0
-105 -460 -660 0
-101 -461 -661 0
-102 -462 -662 0
-103 -463 -663 0
-104 -464 -664 0
-105 -465 -665 0
-101 -466 -666 0
-102 -467 -667 0
-103 -468 -668 0
-104 -469 -669 0
-105 -470 -670 0
-101 -471 -671 0
-102 -472 -672 0
-103 -473 -673 0
-104 -474 -674 0
-105 -475 -675 0
-111 -156 -601 0
-112 -157 -602 0
-113 -158 -603 0
-114 -159 -604 0
-115 -160 -605 0
-111 -161 -596 0
-112 -162 -597 0
-113 -163 -598 0
-114 -164 -599 0
-115 -165 -600 0
-111 -166 -611 0
-112 -167 -612 0
-113 -168 -613 0
-114 -169 -614 0
-115 -170 -615 0
-111 -171 -606 0
-112 -172 -607 0
-113 -173 -608 0
-114 -174 -609 0
-115 -175 -610 0
-111 -176 -621 0
-112 -177 -622 0
-113 -178 -623 0
-114 -179 -624 0
-115 -180 -625 0
-111 -181 -616 0
-112 -182 -617 0
-113 -183 -618 0
-114 -184 -619 0
-115 -185 -620 0
-111 -186 -631 0
-112 -187 -632 0
-113 -188 -633 0
-114 -189 -634 0
-115 -190 -635 0
-111 -191 -626 0
-112 -192 -627 0
-113 -193 -628 0
-114 -194 -629 0
-115 -195 -630 0
-111 -196 -561 0
-112 -197 -562 0
-113 -198 -563 0
-114 -199 -564 0
-115 -200 -565 0
-111 -201 -556 0
-112 -202 -557 0
-113 -203 -558 0
-114 -204 -559 0
-115 -205 -560 0
-111 -206 -571 0
-112 -207 -572 0
-113 -208 -573 0
-114 -209 -574 0
-115 -210 -575 0
-111 -211 -566 0
-112 -212 -567 0
-113 -213 -568 0
-114 -214 -569 0
-115 -215 -570 0
-111 -216 -581 0
-112 -217 -582 0
-113 -218 -583 0
-114 -219 -584 0
-115 -220 -585 0
-111 -221 -576 0
-112 -222 -577 0
-113 -223 -578 0
-114 -224 -579 0
-115 -225 -580 0
-111 -226 -591 0
-112 -227 -592 0
-113 -228 -593 0
-114 -229 -594 0
-115 -230 -595 0
-111 -231 -586 0
-112 -232 -587 0
-113 -233 -588 0
-114 -234 -589 0
-115 -235 -590 0
-111 -236 -521 0
-112 -237 -522 0
-113 -238 -523 0
-114 -239 -524 0
-115 -240 -525 0
-111 -241 -516 0
-112 -242 -517 0
-113 -243 -518 0
-114 -244 -519 0
-115 -245 -520 0
-111 -246 -531 0
-112 -247 -532 0
-113 -248 -533 0
-114 -249 -534 0
-115 -250 -535 0
-111 -251 -526 0
-112 -252 -527 0
-113 -253 -528 0
-114 -254 -529 0
-115 -255 -530 0
-111 -256 -541 0
-112 -257 -542 0
-113 -258 -543 0
-114 -259 -544 0
-115 -260 -545 0
-111 -261 -536 0
-112 -262 -537 0
-113 -263 -538 0
-114 -264 -539 0
-115 -265 -540 0
-111 -266 -551 0
-112 -267 -552 0
-113 -268 -553 0
-114 -269 -554 0
-115 -270 -555 0
-111 -271 -546 0
-112 -272 -547 0
-113 -273 -548 0
-114 -274 -549 0
-115 -275 -550 0
-111 -276 -481 0
-112 -277 -482 0
-113 -278 -483 0
-114 -279 -484 0
-115 -280 -485 0
-111 -281 -476 0
-112 -282 -477 0
-113 -283 -478 0
-114 -284 -479 0
-115 -285 -480 0
-111 -286 -491 0
-112 -287 -492 0
-113 -288 -493 0
-114 -289 -494 0
-115 -290 -495 0
-111 -291 -486 0
-112 -292 -487 0
-113 -293 -488 0
-114 -294 -489 0
-115 -295 -490 0
-111 -296 -501 0
-112 -297 -502 0
-113 -298 -503 0
-114 -299 -504 0
-115 -300 -505 0
-111 -301 -496 0
-112 -302 -497 0
-113 -303 -498 0
-114 -304 -499 0
-115 -305 -500 0
-111 -306 -511 0
-112 -307 -512 0
-113 -308 -513 0
-114 -309 -514 0
-115 -310 -515 0
-111 -311 -506 0
-112 -312 -507 0
-113 -313 -508 0
-114 -314 -509 0
-115 -315 -510 0
-111 -316 -761 0
-112 -317 -762 0
-113 -318 -763 0
-114 -319 -764 0
-115 -320 -765 0
-111 -321 -756 0
-112 -322 -757 0
-113 -323 -758 0
-114 -324 -759 0
-115 -325 -760 0
-111 -326 -771 0
-112 -327 -772 0
-113 -328 -773 0
-114 -329 -774 0
-115 -330 -775 0
-111 -331 -766 0
-112 -332 -767 0
-113 -333 -768 0
-114 -334 -769 0
-115 -335 -770 0
-111 -336 -781 0
-112 -337 -782 0
-113 -338 -783 0
-114 -339 -784 0
-115 -340 -785 0
-111 -341 -776 0
-112 -342 -777 0
-113 -343 -778 0
-114 -344 -779 0
-115 -345 -780 0
-111 -346 -791 0
-112 -347 -792 0
-113 -348 -793 0
-114 -349 -794 0
-115 -350 -795 0
-111 -351 -786 0
-112 -352 -787 0
-113 -353 -788 0
-114 -354 -789 0
-115 -355 -790 0
-111 -356 -721 0
-112 -357 -722 0
-113 -358 -723 0
-114 -359 -724 0
-115 -360 -725 0
-111 -361 -716 0
-112 -362 -717 0
-113 -363 -718 0
-114 -364 -719 0
-115 -365 -720 0
-111 -366 -731 0
-112 -367 -732 0
-113 -368 -733 0
-114 -369 -734 0
-115 -370 -735 0
-111 -371 -726 0
-112 -372 -727 0
-113 -373 -728 0
-114 -374 -729 0
-115 -375 -730 0
-111 -376 -741 0
-112 -377 -742 0
-113 -378 -743 0
-114 -379 -744 0
-115 -380 -745 0
-111 -381 -736 0
-112 -382 -737 0
-113 -383 -738 0
-114 -384 -739 0
-115 -385 -740 0
-111 -386 -751 0
-112 -387 -752 0
-113 -388 -753 0
-114 -389 -754 0
-115 -390 -755 0
-111 -391 -746 0
-112 -392 -747 0
-113 -393 -748 0
-114 -394 -749 0
-115 -395 -750 0
-111 -396 -681 0
-112 -397 -682 0
-113 -398 -683 0
-114 -399 -684 0
-115 -400 -685 0
-111 -401 -676 0
-112 -402 -677 0
-113 -403 -678 0
-114 -404 -679 0
-115 -405 -680 0
-111 -406 -691 0
-112 -407 -692 0
-113 -408 -693 0
-114 -409 -694 0
-115 -410 -695 0
-111 -411 -686 0
-112 -412 -687 0
-113 -413 -688 0
-114 -414 -689 0
-115 -415 -690 0
-111 -416 -701 0
-112 -417 -702 0
-113 -418 -703 0
-114 -419 -704 0
-115 -420 -705 0
-111 -421 -696 0
-112 -422 -697 0
-113 -423 -698 0
-114 -424 -699 0
-115 -425 -700 0
-111 -426 -711 0
-112 -427 -712 0
-113 -428 -713 0
-114 -429 -714 0
-115 -430 -715 0
-111 -431 -706 0
-112 -432 -707 0
-113 -433 -708 0
-114 -434 -709 0
-115 -435 -710 0
-111 -436 -641 0
-112 -437 -642 0
-113 -438 -643 0
-114 -439 -644 0
-115 -440 -645 0
-111 -441 -636 0
-112 -442 -637 0
-113 -443 -638 0
-114 -444 -639 0
-115 -445 -640 0
-111 -446 -651 0
-112 -447 -652 0
-113 -448 -653 0
-114 -449 -654 0
-115 -450 -655 0
-111 -451 -646 0
-112 -452 -647 0
-113 -453 -648 0
-114 -454 -649 0
-115 -455 -650 0
-111 -456 -661 0
-112 -457 -662 0
-113 -458 -663 0
-114 -459 -664 0
-115 -460 -665 0
-111 -461 -656 0
-112 -462 -657 0
-113 -463 -658 0
-114 -464 -659 0
-115 -465 -660 0
-111 -466 -671 0
-112 -467 -672 0
-113 -468 -673 0
-114 -469 -674 0
-115 -470 -675 0
-111 -471 -666 0
-112 -472 -667 0
-113 -473 -668 0
-114 -474 -669 0
-115 -475 -670 0
-101 -156 -606 0
-102 -157 -607 0
-103 -158 -608 0
-104 -159 -609 0
-105 -160 -610 0
-101 -161 -611 0
-102 -162 -612 0
-103 -163 -613 0
-104 -164 -614 0
-105 -165 -615 0
-101 -166 -596 0
-102 -167 -597 0
-103 -168 -598 0
-104 -169 -599 0
-105 -170 -600 0
-101 -171 -601 0
-102 -172 -602 0
-103 -173 -603 0
-104 -174 -604 0
-105 -175 -605 0
-101 -176 -626 0
-102 -177 -627 0
-103 -178 -628 0
-104 -179 -629 0
-105 -180 -630 0
-101 -181 -631 0
-102 -182 -632 0
-103 -183 -633 0
-104 -184 -634 0
-105 -185 -635 0
-101 -186 -616 0
-102 -187 -617 0
-103 -188 -618 0
-104 -189 -619 0
-105 -190 -620 0
-101 -191 -621 0
-102 -192 -622 0
-103 -193 -623 0
-104 -194 -624 0
-105 -195 -625 0
-101 -196 -566 0
-102 -197 -567 0
-103 -198 -568 0
-104 -199 -569 0
-105 -200 -570 0
-101 -201 -571 0
-102 -202 -572 0
-103 -203 -573 0
-104 -204 -574 0
-105 -205 -575 0
-101 -206 -556 0
-102 -207 -557 0
-103 -208 -558 0
-104 -209 -559 0
-105 -210 -560 0
-101 -211 -561 0
-102 -212 -562 0
-103 -213 -563 0
-104 -214 -564 0
-105 -215 -565 0
-101 -216 -586 0
-102 -217 -587 0
-103 -218 -588 0
-104 -219 -589 0
-105 -220 -590 0
-101 -221 -591 0
-102 -222 -592 0
-103 -223 -593 0
-104 -224 -594 0
-105 -225 -595 0
-101 -226 -576 0
-102 -227 -577 0
-103 -228 -578 0
-104 -229 -579 0
-105 -230 -580 0
-101 -231 -581 0
-102 -232 -582 0
-103 -233 -583 0
-104 -234 -584 0
-105 -235 -585 0
-101 -236 -526 0
-102 -237 -527 0
-103 -238 -528 0
-104 -239 -529 0
-105 -240 -530 0
-101 -241 -531 0
-102 -242 -532 0
-103 -243 -533 0
-104 -244 -534 0
-105 -245 -535 0
-101 -246 -516 0
-102 -247 -517 0
-103 -248 -518 0
-104 -249 -519 0
-105 -250 -520 0
-101 -251 -521 0
-102 -252 -522 0
-103 -253 -523 0
-104 -254 -524 0
-105 -255 -525 0
-101 -256 -546 0
-102 -257 -547 0
-103 -258 -548 0
-104 -259 -549 0
-105 -260 -550 0
-101 -261 -551 0
-102 -262 -552 0
-103 -263 -553 0
-104 -264 -554 0
-105 -265 -555 0
-101 -266 -536 0
-102 -267 -537 0
-103 -268 -538 0
-104 -269 -539 0
-105 -270 -540 0
-101 -271 -541 0
-102 -272 -542 0
-103 -273 -543 0
-104 -274 -544 0
-105 -275 -545 0
-101 -276 -486 0
-102 -277 -487 0
-103 -278 -488 0
-104 -279 -489 0
-105 -280 -490 0
-101 -281 -491 0
-102 -282 -492 0
-103 -283 -493 0
-104 -284 -494 0
-105 -285 -495 0
-101 -286 -476 0
-102 -287 -477 0
-103 -288 -478 0
-104 -289 -479 0
-105 -290 -480 0
-101 -291 -481 0
-102 -292 -482 0
-103 -293 -483 0
-104 -294 -484 0
-105 -295 -485 0
-101 -296 -506 0
-102 -297 -507 0
-103 -298 -508 0
-104 -299 -509 0
-105 -300 -510 0
-101 -301 -511 0
-102 -302 -512 0
-103 -303 -513 0
-104 -304 -514 0
-105 -305 -515 0
-101 -306 -496 0
-102 -307 -497 0
-103 -308 -498 0
-104 -309 -499 0
-105 -310 -500 0
-101 -311 -501 0
-102 -312 -502 0
-103 -313 -503 0
-104 -314 -504 0
-105 -315 -505 0
-101 -316 -766 0
-102 -317 -767 0
-103 -318 -768 0
-104 -319 -769 0
-105 -320 -770 0
-101 -321 -771 0
-102 -322 -772 0
-103 -323 -773 0
-104 -324 -774 0
-105 -325 -775 0
-101 -326 -756 0
-102 -327 -757 0
-103 -328 -758 0
-104 -329 -759 0
-105 -330 -760 0
-101 -331 -761 0
-102 -332 -762 0
-103 -333 -763 0
-104 -334 -764 0
-105 -335 -765 0
-101 -336 -786 0
-102 -337 -787 0
-103 -338 -788 0
-104 -339 -789 0
-105 -340 -790 0
-101 -341 -791 0
-102 -342 -792 0
-103 -343 -793 0
-104 -344 -794 0
-105 -345 -795 0
-101 -346 -776 0
-102 -347 -777 0
-103 -348 -778 0
-104 -349 -779 0
-105 -350 -780 0
-101 -351 -781 0
-102 -352 -782 0
-103 -353 -783 0
-104 -354 -784 0
-105 -355 -785 0
-101 -356 -726 0
-102 -357 -727 0
-103 -358 -728 0
-104 -359 -729 0
-105 -360 -730 0
-101 -361 -731 0
-102 -362 -732 0
-103 -363 -733 0
-104 -364 -734 0
-105 -365 -735 0
-101 -366 -716 0
-102 -367 -717 0
-103 -368 -718 0
-104 -369 -719 0
-105 -370 -720 0
-101 -371 -721 0
-102 -372 -722 0
-103 -373 -723 0
-104 -374 -724 0
-105 -375 -725 0
-101 -376 -746 0
-102 -377 -747 0
-103 -378 -748 0
-104 -379 -749 0
-105 -380 -750 0
-101 -381 -751 0
-102 -382 -752 0
-103 -383 -753 0
-104 -384 -754 0
-105 -385 -755 0
-101 -386 -736 0
-102 -387 -737 0
-103 -388 -738 0
-104 -389 -739 0
-105 -390 -740 0
-101 -391 -741 0
-102 -392 -742 0
-103 -393 -743 0
-104 -394 -744 0
-105 -395 -745 0
-101 -396 -686 0
-102 -397 -687 0
-103 -398 -688 0
-104 -399 -689 0
-105 -400 -690 0
-101 -401 -691 0
-102 -402 -692 0
-103 -403 -693 0
-104 -404 -694 0
-105 -405 -695 0
-101 -406 -676 0
-102 -407 -677 0
-103 -408 -678 0
-104 -409 -679 0
-105 -410 -680 0
-101 -411 -681 0
-102 -412 -682 0
-103 -413 -683 0
-104 -414 -684 0
-105 -415 -685 0
-101 -416 -706 0
-102 -417 -707 0
-103 -418 -708 0
-104 -419 -709 0
-105 -420 -710 0
-101 -421 -711 0
-102 -422 -712 0
-103 -423 -713 0
-104 -424 -714 0
-105 -425 -715 0
-101 -426 -696 0
-102 -427 -697 0
-103 -428 -698 0
-104 -429 -699 0
-105 -430 -700 0
-101 -431 -701 0
-102 -432 -702 0
-103 -433 -703 0
-104 -434 -704 0
-105 -435 -705 0
-101 -436 -646 0
-102 -437 -647 0
-103 -438 -648 0
-104 -439 -649 0
-105 -440 -650 0
-101 -441 -651 0
-102 -442 -652 0
-103 -443 -653 0
-104 -444 -654 0
-105 -445 -655 0
-101 -446 -636 0
-102 -447 -637 0
-103 -448 -638 0
-104 -449 -639 0
-105 -450 -640 0
-101 -451 -641 0
-102 -452 -642 0
-103 -453 -643 0
-104 -454 -644 0
-105 -455 -645 0
-101 -456 -666 0
-102 -457 -667 0
-103 -458 -668 0
-104 -459 -669 0
-105 -460 -670 0
-101 -461 -671 0
-102 -462 -672 0
-103 -463 -673 0
-104 -464 -674 0
-105 -465 -675 0
-101 -466 -656 0
-102 -467 -657 0
-103 -468 -658 0
-104 -469 -659 0
-105 -470 -660 0
-101 -471 -661 0
-102 -472 -662 0
-103 -473 -663 0
-104 -474 -664 0
-105 -475 -665 0
-106 -156 -611 0
-107 -157 -612 0
-108 -158 -613 0
-109 -159 -614 0
-110 -160 -615 0
-106 -161 -606 0
-107 -162 -607 0
-108 -163 -608 0
-109 -164 -609 0
-110 -165 -610 0
-106 -166 -601 0
-107 -167 -602 0
-108 -168 -603 0
-109 -169 -604 0
-110 -170 -605 0
-106 -171 -596 0
-107 -172 -597 0
-108 -173 -598 0
-109 -174 -599 0
-110 -175 -600 0
-106 -176 -631 0
-107 -177 -632 0
-108 -178 -633 0
-109 -179 -634 0
-110 -180 -635 0
-106 -181 -626 0
-107 -182 -627 0
-108 -183 -628 0
-109 -184 -629 0
-110 -185 -630 0
-106 -186 -621 0
-107 -187 -622 0
-108 -188 -623 0
-109 -189 -624 0
-110 -190 -625 0
-106 -191 -616 0
-107 -192 -617 0
-108 -193 -618 0
-109 -194 -619 0
-110 -195 -620 0
-106 -196 -571 0
-107 -197 -572 0
-108 -198 -573 0
-109 -199 -574 0
-110 -200 -575 0
-106 -201 -566 0
-107 -202 -567 0
-108 -203 -568 0
-109 -204 -569 0
-110 -205 -570 0
-106 -206 -561 0
-107 -207 -562 0
-108 -208 -563 0
-109 -209 -564 0
-110 -210 -565 0
-106 -211 -556 0
-107 -212 -557 0
-108 -213 -558 0
-109 -214 -559 0
-110 -215 -560 0
-106 -216 -591 0
-107 -217 -592 0
-108 -218 -593 0
-109 -219 -594 0
-110 -220 -595 0
-106 -221 -586 0
-107 -222 -587 0
-108 -223 -588 0
-109 -224 -589 0
-110 -225 -590 0
-106 -226 -581 0
-107 -227 -582 0
-108 -228 -583 0
-109 -229 -584 0
-110 -230 -585 0
-106 -231 -576 0
-107 -232 -577 0
-108 -233 -578 0
-109 -234 -579 0
-110 -235 -580 0
-106 -236 -531 0
-107 -237 -532 0
-108 -238 -533 0
-109 -239 -534 0
-110 -240 -535 0
-106 -241 -526 0
-107 -242 -527 0
-108 -243 -528 0
-109 -244 -529 0
-110 -245 -530 0
-106 -246 -521 0
-107 -247 -522 0
-108 -248 -523 0
-109 -249 -524 0
-110 -250 -525 0
-106 -251 -516 0
-107 -252 -517 0
-108 -253 -518 0
-109 -254 -519 0
-110 -255 -520 0
-106 -256 -551 0
-107 -257 -552 0
-108 -258 -553 0
-109 -259 -554 0
-110 -260 -555 0
-106 -261 -546 0
-107 -262 -547 0
-108 -263 -548 0
-109 -264 -549 0
-110 -265 -550 0
-106 -266 -541 0
-107 -267 -542 0
-108 -268 -543 0
-109 -269 -544 0
-110 -270 -545 0
-106 -271 -536 0
-107 -272 -537 0
-108 -273 -538 0
-109 -274 -539 0
-110 -275 -540 0
-106 -276 -491 0
-107 -277 -492 0
-108 -278 -493 0
-109 -279 -494 0
-110 -280 -495 0
-106 -281 -486 0
-107 -282 -487 0
-108 -283 -488 0
-109 -284 -489 0
-110 -285 -490 0
-106 -286 -481 0
-107 -287 -482 0
-108 -288 -483 0
-109 -289 -484 0
-110 -290 -485 0
-106 -291 -476 0
-107 -292 -477 0
-108 -293 -478 0
-109 -294 -479 0
-110 -295 -480 0
-106 -296 -511 0
-107 -297 -512 0
-108 -298 -513 0
-109 -299 -514 0
-110 -300 -515 0
-106 -301 -506 0
-107 -302 -507 0
-108 -303 -508 0
-109 -304 -509 0
-110 -305 -510 0
-106 -306 -501 0
-107 -307 -502 0
-108 -308 -503 0
-109 -309 -504 0
-110 -310 -505 0
-106 -311 -496 0
-107 -312 -497 0
-108 -313 -498 0
-109 -314 -499 0
-110 -315 -500 0
-106 -316 -771 0
-107 -317 -772 0
-108 -318 -773 0
-109 -319 -774 0
-110 -320 -775 0
-106 -321 -766 0
-107 -322 -767 0
-108 -323 -768 0
-109 -324 -769 0
-110 -325 -770 0
-106 -326 -761 0
-107 -327 -762 0
-108 -328 -763 0
-109 -329 -764 0
-110 -330 -765 0
-106 -331 -756 0
-107 -332 -757 0
-108 -333 -758 0
-109 -334 -759 0
-110 -335 -760 0
-106 -336 -791 0
-107 -337 -792 0
-108 -338 -793 0
-109 -339 -794 0
-110 -340 -795 0
-106 -341 -786 0
-107 -342 -787 0
-108 -343 -788 0
-109 -344 -789 0
-110 -345 -790 0
-106 -346 -781 0
-107 -347 -782 0
-108 -348 -783 0
-109 -349 -784 0
-110 -350 -785 0
-106 -351 -776 0
-107 -352 -777 0
-108 -353 -778 0
-109 -354 -779 0
-110 -355 -780 0
-106 -356 -731 0
-107 -357 -732 0
-108 -358 -733 0
-109 -359 -734 0
-110 -360 -735 0
-106 -361 -726 0
-107 -362 -727 0
-108 -363 -728 0
-109 -364 -729 0
-110 -365 -730 0
-106 -366 -721 0
-107 -367 -722 0
-108 -368 -723 0
-109 -369 -724 0
-110 -370 -725 0
-106 -371 -716 0
-107 -372 -717 0
-108 -373 -718 0
-109 -374 -719 0
-110 -375 -720 0
-106 -376 -751 0
-107 -377 -752 0
-108 -378 -753 0
-109 -379 -754 0
-110 -380 -755 0
-106 -381 -746 0
-107 -382 -747 0
-108 -383 -748 0
-109 -384 -749 0
-110 -385 -750 0
-106 -386 -741 0
-107 -387 -742 0
-108 -388 -743 0
-109 -389 -744 0
-110 -390 -745 0
-106 -391 -736 0
-107 -392 -737 0
-108 -393 -738 0
-109 -394 -739 0
-110 -395 -740 0
-106 -396 -691 0
-107 -397 -692 0
-108 -398 -693 0
-109 -399 -694 0
-110 -400 -695 0
-106 -401 -686 0
-107 -402 -687 0
-108 -403 -688 0
-109 -404 -689 0
-110 -405 -690 0
-106 -406 -681 0
-107 -407 -682 0
-108 -408 -683 0
-109 -409 -684 0
-110 -410 -685 0
-106 -411 -676 0
-107 -412 -677 0
-108 -413 -678 0
-109 -414 -679 0
-110 -415 -680 0
-106 -416 -711 0
-107 -417 -712 0
-108 -418 -713 0
-109 -419 -714 0
-110 -420 -715 0
-106 -421 -706 0
-107 -422 -707 0
-108 -423 -708 0
-109 -424 -709 0
-110 -425 -710 0
-106 -426 -701 0
-107 -427 -702 0
-108 -428 -703 0
-109 -429 -704 0
-110 -430 -705 0
-106 -431 -696 0
-107 -432 -697 0
-108 -433 -698 0
-109 -434 -699 0
-110 -435 -700 0
-106 -436 -651 0
-107 -437 -652 0
-108 -438 -653 0
-109 -439 -654 0
-110 -440 -655 0
-106 -441 -646 0
-107 -442 -647 0
-108 -443 -648 0
-109 -444 -649 0
-110 -445 -650 0
-106 -446 -641 0
-107 -447 -642 0
-108 -448 -643 0
-109 -449 -644 0
-110 -450 -645 0
-106 -451 -636 0
-107 -452 -637 0
-108 -453 -638 0
-109 -454 -639 0
-110 -455 -640 0
-106 -456 -671 0
-107 -457 -672 0
-108 -458 -673 0
-109 -459 -674 0
-110 -460 -675 0
-106 -461 -666 0
-107 -462 -667 0
-108 -463 -668 0
-109 -464 -669 0
-110 -465 -670 0
-106 -466 -661 0
-107 -467 -662 0
-108 -468 -663 0
-109 -469 -664 0
-110 -470 -665 0
-106 -471 -656 0
-107 -472 -657 0
-108 -473 -658 0
-109 -474 -659 0
-110 -475 -660 0
-101 -156 -616 0
-102 -157 -617 0
-103 -158 -618 0
-104 -159 -619 0
-105 -160 -620 0
-101 -161 -621 0
-102 -162 -622 0
-103 -163 -623 0
-104 -164 -624 0
-105 -165 -625 0
-101 -166 -626 0
-102 -167 -627 0
-103 -168 -628 0
-104 -169 -629 0
-105 -170 -630 0
-101 -171 -631 0
-102 -172 -632 0
-103 -173 -633 0
-104 -174 -634 0
-105 -175 -635 0
-101 -176 -596 0
-102 -177 -597 0
-103 -178 -598 0
-104 -179 -599 0
-105 -180 -600 0
-101 -181 -601 0
-102 -182 -602 0
-103 -183 -603 0
-104 -184 -604 0
-105 -185 -605 0
-101 -186 -606 0
-102 -187 -607 0
-103 -188 -608 0
-104 -189 -609 0
-105 -190 -610 0
-101 -191 -611 0
-102 -192 -612 0
-103 -193 -613 0
-104 -194 -614 0
-105 -195 -615 0
-101 -196 -576 0
-102 -197 -577 0
-103 -198 -578 0
-104 -199 -579 0
-105 -200 -580 0
-101 -201 -581 0
-102 -202 -582 0
-103 -203 -583 0
-104 -204 -584 0
-105 -205 -585 0
-101 -206 -586 0
-102 -207 -587 0
-103 -208 -588 0
-104 -209 -589 0
-105 -210 -590 0
-101 -211 -591 0
-102 -212 -592 0
-103 -213 -593 0
-104 -214 -594 0
-105 -215 -595 0
-101 -216 -556 0
-102 -217 -557 0
-103 -218 -558 0
-104 -219 -559 0
-105 -220 -560 0
-101 -221 -561 0
-102 -222 -562 0
-103 -223 -563 0
-104 -224 -564 0
-105 -225 -565 0
-101 -226 -566 0
-102 -227 -567 0
-103 -228 -568 0
-104 -229 -569 0
-105 -230 -570 0
-101 -231 -571 0
-102 -232 -572 0
-103 -233 -573 0
-104 -234 -574 0
-105 -235 -575 0
-101 -236 -536 0
-102 -237 -537 0
-103 -238 -538 0
-104 -239 -539 0
-105 -240 -540 0
-101 -241 -541 0
-102 -242 -542 0
-103 -243 -543 0
-104 -244 -544 0
-105 -245 -545 0
-101 -246 -546 0
-102 -247 -547 0
-103 -248 -548 0
-104 -249 -549 0
-105 -250 -550 0
-101 -251 -551 0
-102 -252 -552 0
-103 -253 -553 0
-104 -254 -554 0
-105 -255 -555 0
-101 -256 -516 0
-102 -257 -517 0
-103 -258 -518 0
-104 -259 -519 0
-105 -260 -520 0
-101 -261 -521 0
-102 -262 -522 0
-103 -263 -523 0
-104 -264 -524 0
-105 -265 -525 0
-101 -266 -526 0
-102 -267 -527 0
-103 -268 -528 0
-104 -269 -529 0
-105 -270 -530 0
-101 -271 -531 0
-102 -272 -532 0
-103 -273 -533 0
-104 -274 -534 0
-105 -275 -535 0
-101 -276 -496 0
-102 -277 -497 0
-103 -278 -498 0
-104 -279 -499 0
-105 -280 -500 0
-101 -281 -501 0
-102 -282 -502 0
-103 -283 -503 0
-104 -284 -504 0
-105 -285 -505 0
-101 -286 -506 0
-102 -287 -507 0
-103 -288 -508 0
-104 -289 -509 0
-105 -290 -510 0
-101 -291 -511 0
-102 -292 -512 0
-103 -293 -513 0
-104 -294 -514 0
-105 -295 -515 0
-101 -296 -476 0
-102 -297 -477 0
-103 -298 -478 0
-104 -299 -479 0
-105 -300 -480 0
-101 -301 -481 0
-102 -302 -482 0
-103 -303 -483 0
-104 -304 -484 0
-105 -305 -485 0
-101 -306 -486 0
-102 -307 -487 0
-103 -308 -488 0
-104 -309 -489 0
-105 -310 -490 0
-101 -311 -491 0
-102 -312 -492 0
-103 -313 -493 0
-104 -314 -494 0
-105 -315 -495 0
-101 -316 -776 0
-102 -317 -777 0
-103 -318 -778 0
-104 -319 -779 0
-105 -320 -780 0
-101 -321 -781 0
-102 -322 -782 0
-103 -323 -783 0
-104 -324 -784 0
-105 -325 -785 0
-101 -326 -786 0
-102 -327 -787 0
-103 -328 -788 0
-104 -329 -789 0
-105 -330 -790 0
-101 -331 -791 0
-102 -332 -792 0
-103 -333 -793 0
-104 -334 -794 0
-105 -335 -795 0
-101 -336 -756 0
-102 -337 -757 0
-103 -338 -758 0
-104 -339 -759 0
-105 -340 -760 0
-101 -341 -761 0
-102 -342 -762 0
-103 -343 -763 0
-104 -344 -764 0
-105 -345 -765 0
-101 -346 -766 0
-102 -347 -767 0
-103 -348 -768 0
-104 -349 -769 0
-105 -350 -770 0
-101 -351 -771 0
-102 -352 -772 0
-103 -353 -773 0
-104 -354 -774 0
-105 -355 -775 0
-101 -356 -736 0
-102 -357 -737 0
-103 -358 -738 0
-104 -359 -739 0
-105 -360 -740 0
-101 -361 -741 0
-102 -362 -742 0
-103 -363 -743 0
-104 -364 -744 0
-105 -365 -745 0
-101 -366 -746 0
-102 -367 -747 0
-103 -368 -748 0
-104 -369 -749 0
-105 -370 -750 0
-101 -371 -751 0
-102 -372 -752 0
-103 -373 -753 0
-104 -374 -754 0
-105 -375 -755 0
-101 -376 -716 0
-102 -377 -717 0
-103 -378 -718 0
-104 -379 -719 0
-105 -380 -720 0
-101 -381 -721 0
-102 -382 -722 0
-103 -383 -723 0
-104 -384 -724 0
-105 -385 -725 0
-101 -386 -726 0
-102 -387 -727 0
-103 -388 -728 0
-104 -389 -729 0
-105 -390 -730 0
-101 -391 -731 0
-102 -392 -732 0
-103 -393 -733 0
-104 -394 -734 0
-105 -395 -735 0
-101 -396 -696 0
-102 -397 -697 0
-103 -398 -698 0
-104 -399 -699 0
-105 -400 -700 0
-101 -401 -701 0
-102 -402 -702 0
-103 -403 -703 0
-104 -404 -704 0
-105 -405 -705 0
-101 -406 -706 0
-102 -407 -707 0
-103 -408 -708 0
-104 -409 -709 0
-105 -410 -710 0
-101 -411 -711 0
-102 -412 -712 0
-103 -413 -713 0
-104 -414 -714 0
-105 -415 -715 0
-101 -416 -676 0
-102 -417 -677 0
-103 -418 -678 0
-104 -419 -679 0
-105 -420 -680 0
-101 -421 -681 0
-102 -422 -682 0
-103 -423 -683 0
-104 -424 -684 0
-105 -425 -685 0
-101 -426 -686 0
-102 -427 -687 0
-103 -428 -688 0
-104 -429 -689 0
-105 -430 -690 0
-101 -431 -691 0
-102 -432 -692 0
-103 -433 -693 0
-104 -434 -694 0
-105 -435 -695 0
-101 -436 -656 0
-102 -437 -657 0
-103 -438 -658 0
-104 -439 -659 0
-105 -440 -660 0
-101 -441 -661 0
-102 -442 -662 0
-103 -443 -663 0
-104 -444 -664 0
-105 -445 -665 0
-101 -446 -666 0
-102 -447 -667 0
-103 -448 -668 0
-104 -449 -669 0
-105 -450 -670 0
-101 -451 -671 0
-102 -452 -672 0
-103 -453 -673 0
-104 -454 -674 0
-105 -455 -675 0
-101 -456 -636 0
-102 -457 -637 0
-103 -458 -638 0
-104 -459 -639 0
-105 -460 -640 0
-101 -461 -641 0
-102 -462 -642 0
-103 -463 -643 0
-104 -464 -644 0
-105 -465 -645 0
-101 -466 -646 0
-102 -467 -647 0
-103 -468 -648 0
-104 -469 -649 0
-105 -470 -650 0
-101 -471 -651 0
-102 -472 -652 0
-103 -473 -653 0
-104 -474 -654 0
-105 -475 -655 0
-106 -156 -621 0
-107 -157 -622 0
-108 -158 -623 0
-109 -159 -624 0
-110 -160 -625 0
-106 -161 -616 0
-107 -162 -617 0
-108 -163 -618 0
-109 -164 -619 0
-110 -165 -620 0
-106 -166 -631 0
-107 -167 -632 0
-108 -168 -633 0
-109 -169 -634 0
-110 -170 -635 0
-106 -171 -626 0
-107 -172 -627 0
-108 -173 -628 0
-109 -174 -629 0
-110 -175 -630 0
-106 -176 -601 0
-107 -177 -602 0
-108 -178 -603 0
-109 -179 -604 0
-110 -180 -605 0
-106 -181 -596 0
-107 -182 -597 0
-108 -183 -598 0
-109 -184 -599 0
-110 -185 -600 0
-106 -186 -611 0
-107 -187 -612 0
-108 -188 -613 0
-109 -189 -614 0
-110 -190 -615 0
-106 -191 -606 0
-107 -192 -607 0
-108 -193 -608 0
-109 -194 -609 0
-110 -195 -610 0
-106 -196 -581 0
-107 -197 -582 0
-108 -198 -583 0
-109 -199 -584 0
-110 -200 -585 0
-106 -201 -576 0
-107 -202 -577 0
-108 -203 -578 0
-109 -204 -579 0
-110 -205 -580 0
-106 -206 -591 0
-107 -207 -592 0
-108 -208 -593 0
-109 -209 -594 0
-110 -210 -595 0
-106 -211 -586 0
-107 -212 -587 0
-108 -213 -588 0
-109 -214 -589 0
-110 -215 -590 0
-106 -216 -561 0
-107 -217 -562 0
-108 -218 -563 0
-109 -219 -564 0
-110 -220 -565 0
-106 -221 -556 0
-107 -222 -557 0
-108 -223 -558 0
-109 -224 -559 0
-110 -225 -560 0
-106 -226 -571 0
-107 -227 -572 0
-108 -228 -573 0
-109 -229 -574 0
-110 -230 -575 0
-106 -231 -566 0
-107 -232 -567 0
-108 -233 -568 0
-109 -234 -569 0
-110 -235 -570 0
-106 -236 -541 0
-107 -237 -542 0
-108 -238 -543 0
-109 -239 -544 0
-110 -240 -545 0
-106 -241 -536 0
-107 -242 -537 0
-108 -243 -538 0
-109 -244 -539 0
-110 -245 -540 0
-106 -246 -551 0
-107 -247 -552 0
-108 -248 -553 0
-109 -249 -554 0
-110 -250 -555 0
-106 -251 -546 0
-107 -252 -547 0
-108 -253 -548 0
-109 -254 -549 0
-110 -255 -550 0
-106 -256 -521 0
-107 -257 -522 0
-108 -258 -523 0
-109 -259 -524 0
-110 -260 -525 0
-106 -261 -516 0
-107 -262 -517 0
-108 -263 -518 0
-109 -264 -519 0
-110 -265 -520 0
-106 -266 -531 0
-107 -267 -532 0
-108 -268 -533 0
-109 -269 -534 0
-110 -270 -535 0
-106 -271 -526 0
-107 -272 -527 0
-108 -273 -528 0
-109 -274 -529 0
-110 -275 -530 0
-106 -276 -501 0
-107 -277 -502 0
-108 -278 -503 0
-109 -279 -504 0
-110 -280 -505 0
-106 -281 -496 0
-107 -282 -497 0
-108 -283 -498 0
-109 -284 -499 0
-110 -285 -500 0
-106 -286 -511 0
-107 -287 -512 0
-108 -288 -513 0
-109 -289 -514 0
-110 -290 -515 0
-106 -291 -506 0
-107 -292 -507 0
-108 -293 -508 0
-109 -294 -509 0
-110 -295 -510 0
-106 -296 -481 0
-107 -297 -482 0
-108 -298 -483 0
-109 -299 -484 0
-110 -300 -485 0
-106 -301 -476 0
-107 -302 -477 0
-108 -303 -478 0
-109 -304 -479 0
-110 -305 -480 0
-106 -306 -491 0
-107 -307 -492 0
-108 -308 -493 0
-109 -309 -494 0
-110 -310 -495 0
-106 -311 -486 0
-107 -312 -487 0
-108 -313 -488 0
-109 -314 -489 0
-110 -315 -490 0
-106 -316 -781 0
-107 -317 -782 0
-108 -318 -783 0
-109 -319 -784 0
-110 -320 -785 0
-106 -321 -776 0
-107 -322 -777 0
-108 -323 -778 0
-109 -324 -779 0
-110 -325 -780 0
-106 -326 -791 0
-107 -327 -792 0
-108 -328 -793 0
-109 -329 -794 0
-110 -330 -795 0
-106 -331 -786 0
-107 -332 -787 0
-108 -333 -788 0
-109 -334 -789 0
-110 -335 -790 0
-106 -336 -761 0
-107 -337 -762 0
-108 -338 -763 0
-109 -339 -764 0
-110 -340 -765 0
-106 -341 -756 0
-107 -342 -757 0
-108 -343 -758 0
-109 -344 -759 0
-110 -345 -760 0
-106 -346 -771 0
-107 -347 -772 0
-108 -348 -773 0
-109 -349 -774 0
-110 -350 -775 0
-106 -351 -766 0
-107 -352 -767 0
-108 -353 -768 0
-109 -354 -769 0
-110 -355 -770 0
-106 -356 -741 0
-107 -357 -742 0
-108 -358 -743 0
-109 -359 -744 0
-110 -360 -745 0
-106 -361 -736 0
-107 -362 -737 0
-108 -363 -738 0
-109 -364 -739 0
-110 -365 -740 0
-106 -366 -751 0
-107 -367 -752 0
-108 -368 -753 0
-109 -369 -754 0
-110 -370 -755 0
-106 -371 -746 0
-107 -372 -747 0
-108 -373 -748 0
-109 -374 -749 0
-110 -375 -750 0
-106 -376 -721 0
-107 -377 -722 0
-108 -378 -723 0
-109 -379 -724 0
-110 -380 -725 0
-106 -381 -716 0
-107 -382 -717 0
-108 -383 -718 0
-109 -384 -719 0
-110 -385 -720 0
-106 -386 -731 0
-107 -387 -732 0
-108 -388 -733 0
-109 -389 -734 0
-110 -390 -735 0
-106 -391 -726 0
-107 -392 -727 0
-108 -393 -728 0
-109 -394 -729 0
-110 -395 -730 0
-106 -396 -701 0
-107 -397 -702 0
-108 -398 -703 0
-109 -399 -704 0
-110 -400 -705 0
-106 -401 -696 0
-107 -402 -697 0
-108 -403 -698 0
-109 -404 -699 0
-110 -405 -700 0
-106 -406 -711 0
-107 -407 -712 0
-108 -408 -713 0
-109 -409 -714 0
-110 -410 -715 0
-106 -411 -706 0
-107 -412 -707 0
-108 -413 -708 0
-109 -414 -709 0
-110 -415 -710 0
-106 -416 -681 0
-107 -417 -682 0
-108 -418 -683 0
-109 -419 -684 0
-110 -420 -685 0
-106 -421 -676 0
-107 -422 -677 0
-108 -423 -678 0
-109 -424 -679 0
-110 -425 -680 0
-106 -426 -691 0
-107 -427 -692 0
-108 -428 -693 0
-109 -429 -694 0
-110 -430 -695 0
-106 -431 -686 0
-107 -432 -687 0
-108 -433 -688 0
-109 -434 -689 0
-110 -435 -690 0
-106 -436 -661 0
-107 -437 -662 0
-108 -438 -663 0
-109 -439 -664 0
-110 -440 -665 0
-106 -441 -656 0
-107 -442 -657 0
-108 -443 -658 0
-109 -444 -659 0
-110 -445 -660 0
-106 -446 -671 0
-107 -447 -672 0
-108 -448 -673 0
-109 -449 -674 0
-110 -450 -675 0
-106 -451 -666 0
-107 -452 -667 0
-108 -453 -668 0
-109 -454 -669 0
-110 -455 -670 0
-106 -456 -641 0
-107 -457 -642 0
-108 -458 -643 0
-109 -459 -644 0
-110 -460 -645 0
-106 -461 -636 0
-107 -462 -637 0
-108 -463 -638 0
-109 -464 -639 0
-110 -465 -640 0
-106 -466 -651 0
-107 -467 -652 0
-108 -468 -653 0
-109 -469 -654 0
-110 -470 -655 0
-106 -471 -646 0
-107 -472 -647 0
-108 -473 -648 0
-109 -474 -649 0
-110 -475 -650 0
-111 -156 -626 0
-112 -157 -627 0
-113 -158 -628 0
-114 -159 -629 0
-115 -160 -630 0
-111 -161 -631 0
-112 -162 -632 0
-113 -163 -633 0
-114 -164 -634 0
-115 -165 -635 0
-111 -166 -616 0
-112 -167 -617 0
-113 -168 -618 0
-114 -169 -619 0
-115 -170 -620 0
-111 -171 -621 0
-112 -172 -622 0
-113 -173 -623 0
-114 -174 -624 0
-115 -175 -625 0
-111 -176 -606 0
-112 -177 -607 0
-113 -178 -608 0
-114 -179 -609 0
-115 -180 -610 0
-111 -181 -611 0
-112 -182 -612 0
-113 -183 -613 0
-114 -184 -614 0
-115 -185 -615 0
-111 -186 -596 0
-112 -187 -597 0
-113 -188 -598 0
-114 -189 -599 0
-115 -190 -600 0
-111 -191 -601 0
-112 -192 -602 0
-113 -193 -603 0
-114 -194 -604 0
-115 -195 -605 0
-111 -196 -586 0
-112 -197 -587 0
-113 -198 -588 0
-114 -199 -589 0
-115 -200 -590 0
-111 -201 -591 0
-112 -202 -592 0
-113 -203 -593 0
-114 -204 -594 0
-115 -205 -595 0
-111 -206 -576 0
-112 -207 -577 0
-113 -208 -578 0
-114 -209 -579 0
-115 -210 -580 0
-111 -211 -581 0
-112 -212 -582 0
-113 -213 -583 0
-114 -214 -584 0
-115 -215 -585 0
-111 -216 -566 0
-112 -217 -567 0
-113 -218 -568 0
-114 -219 -569 0
-115 -220 -570 0
-111 -221 -571 0
-112 -222 -572 0
-113 -223 -573 0
-114 -224 -574 0
-115 -225 -575 0
-111 -226 -556 0
-112 -227 -557 0
-113 -228 -558 0
-114 -229 -559 0
-115 -230 -560 0
-111 -231 -561 0
-112 -232 -562 0
-113 -233 -563 0
-114 -234 -564 0
-115 -235 -565 0
-111 -236 -546 0
-112 -237 -547 0
-113 -238 -548 0
-114 -239 -549 0
-115 -240 -550 0
-111 -241 -551 0
-112 -242 -552 0
-113 -243 -553 0
-114 -244 -554 0
-115 -245 -555 0
-111 -246 -536 0
-112 -247 -537 0
-113 -248 -538 0
-114 -249 -539 0
-115 -250 -540 0
-111 -251 -541 0
-112 -252 -542 0
-113 -253 -543 0
-114 -254 -544 0
-115 -255 -545 0
-111 -256 -526 0
-112 -257 -527 0
-113 -258 -528 0
-114 -259 -529 0
-115 -260 -530 0
-111 -261 -531 0
-112 -262 -532 0
-113 -263 -533 0
-114 -264 -534 0
-115 -265 -535 0
-111 -266 -516 0
-112 -267 -517 0
-113 -268 -518 0
-114 -269 -519 0
-115 -270 -520 0
-111 -271 -521 0
-112 -272 -522 0
-113 -273 -523 0
-114 -274 -524 0
-115 -275 -525 0
-111 -276 -506 0
-112 -277 -507 0
-113 -278 -508 0
-114 -279 -509 0
-115 -280 -510 0
-111 -281 -511 0
-112 -282 -512 0
-113 -283 -513 0
-114 -284 -514 0
-115 -285 -515 0
-111 -286 -496 0
-112 -287 -497 0
-113 -288 -498 0
-114 -289 -499 0
-115 -290 -500 0
-111 -291 -501 0
-112 -292 -502 0
-113 -293 -503 0
-114 -294 -504 0
-115 -295 -505 0
-111 -296 -486 0
-112 -297 -487 0
-113 -298 -488 0
-114 -299 -489 0
-115 -300 -490 0
-111 -301 -491 0
-112 -302 -492 0
-113 -303 -493 0
-114 -304 -494 0
-115 -305 -495 0
-111 -306 -476 0
-112 -307 -477 0
-113 -308 -478 0
-114 -309 -479 0
-115 -310 -480 0
-111 -311 -481 0
-112 -312 -482 0
-113 -313 -483 0
-114 -314 -484 0
-115 -315 -485 0
-111 -316 -786 0
-112 -317 -787 0
-113 -318 -788 0
-114 -319 -789 0
-115 -320 -790 0
-111 -321 -791 0
-112 -322 -792 0
-113 -323 -793 0
-114 -324 -794 0
-115 -325 -795 0
-111 -326 -776 0
-112 -327 -777 0
-113 -328 -778 0
-114 -329 -779 0
-115 -330 -780 0
-111 -331 -781 0
-112 -332 -782 0
-113 -333 -783 0
-114 -334 -784 0
-115 -335 -785 0
-111 -336 -766 0
-112 -337 -767 0
-113 -338 -768 0
-114 -339 -769 0
-115 -340 -770 0
-111 -341 -771 0
-112 -342 -772 0
-113 -343 -773 0
-114 -344 -774 0
-115 -345 -775 0
-111 -346 -756 0
-112 -347 -757 0
-113 -348 -758 0
-114 -349 -759 0
-115 -350 -760 0
-111 -351 -761 0
-112 -352 -762 0
-113 -353 -763 0
-114 -354 -764 0
-115 -355 -765 0
-111 -356 -746 0
-112 -357 -747 0
-113 -358 -748 0
-114 -359 -749 0
-115 -360 -750 0
-111 -361 -751 0
-112 -362 -752 0
-113 -363 -753 0
-114 -364 -754 0
-115 -365 -755 0
-111 -366 -736 0
-112 -367 -737 0
-113 -368 -738 0
-114 -369 -739 0
-115 -370 -740 0
-111 -371 -741 0
-112 -372 -742 0
-113 -373 -743 0
-114 -374 -744 0
-115 -375 -745 0
-111 -376 -726 0
-112 -377 -727 0
-113 -378 -728 0
-114 -379 -729 0
-115 -380 -730 0
-111 -381 -731 0
-112 -382 -732 0
-113 -383 -733 0
-114 -384 -734 0
-115 -385 -735 0
-111 -386 -716 0
-112 -387 -717 0
-113 -388 -718 0
-114 -389 -719 0
-115 -390 -720 0
-111 -391 -721 0
-112 -392 -722 0
-113 -393 -723 0
-114 -394 -724 0
-115 -395 -725 0
-111 -396 -706 0
-112 -397 -707 0
-113 -398 -708 0
-114 -399 -709 0
-115 -400 -710 0
-111 -401 -711 0
-112 -402 -712 0
-113 -403 -713 0
-114 -404 -714 0
-115 -405 -715 0
-111 -406 -696 0
-112 -407 -697 0
-113 -408 -698 0
-114 -409 -699 0
-115 -410 -700 0
-111 -411 -701 0
-112 -412 -702 0
-113 -413 -703 0
-114 -414 -704 0
-115 -415 -705 0
-111 -416 -686 0
-112 -417 -687 0
-113 -418 -688 0
-114 -419 -689 0
-115 -420 -690 0
-111 -421 -691 0
-112 -422 -692 0
-113 -423 -693 0
-114 -424 -694 0
-115 -425 -695 0
-111 -426 -676 0
-112 -427 -677 0
-113 -428 -678 0
-114 -429 -679 0
-115 -430 -680 0
-111 -431 -681 0
-112 -432 -682 0
-113 -433 -683 0
-114 -434 -684 0
-115 -435 -685 0
-111 -436 -666 0
-112 -437 -667 0
-113 -438 -668 0
-114 -439 -669 0
-115 -440 -670 0
-111 -441 -671 0
-112 -442 -672 0
-113 -443 -673 0
-114 -444 -674 0
-115 -445 -675 0
-111 -446 -656 0
-112 -447 -657 0
-113 -448 -658 0
-114 -449 -659 0
-115 -450 -660 0
-111 -451 -661 0
-112 -452 -662 0
-113 -453 -663 0
-114 -454 -664 0
-115 -455 -665 0
-111 -456 -646 0
-112 -457 -647 0
-113 -458 -648 0
-114 -459 -649 0
-115 -460 -650 0
-111 -461 -651 0
-112 -462 -652 0
-113 -463 -653 0
-114 -464 -654 0
-115 -465 -655 0
-111 -466 -636 0
-112 -467 -637 0
-113 -468 -638 0
-114 -469 -639 0
-115 -470 -640 0
-111 -471 -641 0
-112 -472 -642 0
-113 -473 -643 0
-114 -474 -644 0
-115 -475 -645 0
-101 -156 -631 0
-102 -157 -632 0
-103 -158 -633 0
-104 -159 -634 0
-105 -160 -635 0
-101 -161 -626 0
-102 -162 -627 0
-103 -163 -628 0
-104 -164 -629 0
-105 -165 -630 0
-101 -166 -621 0
-102 -167 -622 0
-103 -168 -623 0
-104 -169 -624 0
-105 -170 -625 0
-101 -171 -616 0
-102 -172 -617 0
-103 -173 -618 0
-104 -174 -619 0
-105 -175 -620 0
-101 -176 -611 0
-102 -177 -612 0
-103 -178 -613 0
-104 -179 -614 0
-105 -180 -615 0
-101 -181 -606 0
-102 -182 -607 0
-103 -183 -608 0
-104 -184 -609 0
-105 -185 -610 0
-101 -186 -601 0
-102 -187 -602 0
-103 -188 -603 0
-104 -189 -604 0
-105 -190 -605 0
-101 -191 -596 0
-102 -192 -597 0
-103 -193 -598 0
-104 -194 -599 0
-105 -195 -600 0
-101 -196 -591 0
-102 -197 -592 0
-103 -198 -593 0
-104 -199 -594 0
-105 -200 -595 0
-101 -201 -586 0
-102 -202 -587 0
-103 -203 -588 0
-104 -204 -589 0
-105 -205 -590 0
-101 -206 -581 0
-102 -207 -582 0
-103 -208 -583 0
-104 -209 -584 0
-105 -210 -585 0
-101 -211 -576 0
-102 -212 -577 0
-103 -213 -578 0
-104 -214 -579 0
-105 -215 -580 0
-101 -216 -571 0
-102 -217 -572 0
-103 -218 -573 0
-104 -219 -574 0
-105 -220 -575 0
-101 -221 -566 0
-102 -222 -567 0
-103 -223 -568 0
-104 -224 -569 0
-105 -225 -570 0
-101 -226 -561 0
-102 -227 -562 0
-103 -228 -563 0
-104 -229 -564 0
-105 -230 -565 0
-101 -231 -556 0
-102 -232 -557 0
-103 -233 -558 0
-104 -234 -559 0
-105 -235 -560 0
-101 -236 -551 0
-102 -237 -552 0
-103 -238 -553 0
-104 -239 -554 0
-105 -240 -555 0
-101 -241 -546 0
-102 -242 -547 0
-103 -243 -548 0
-104 -244 -549 0
-105 -245 -550 0
-101 -246 -541 0
-102 -247 -542 0
-103 -248 -543 0
-104 -249 -544 0
-105 -250 -545 0
-101 -251 -536 0
-102 -252 -537 0
-103 -253 -538 0
-104 -254 -539 0
-105 -255 -540 0
-101 -256 -531 0
-102 -257 -532 0
-103 -258 -533 0
-104 -259 -534 0
-105 -260 -535 0
-101 -261 -526 0
-102 -262 -527 0
-103 -263 -528 0
-104 -264 -529 0
-105 -265 -530 0
-101 -266 -521 0
-102 -267 -522 0
-103 -268 -523 0
-104 -269 -524 0
-105 -270 -525 0
-101 -271 -516 0
-102 -272 -517 0
-103 -273 -518 0
-104 -274 -519 0
-105 -275 -520 0
-101 -276 -511 0
-102 -277 -512 0
-103 -278 -513 0
-104 -279 -514 0
-105 -280 -515 0
-101 -281 -506 0
-102 -282 -507 0
-103 -283 -508 0
-104 -284 -509 0
-105 -285 -510 0
-101 -286 -501 0
-102 -287 -502 0
-103 -288 -503 0
-104 -289 -504 0
-105 -290 -505 0
-101 -291 -496 0
-102 -292 -497 0
-103 -293 -498 0
-104 -294 -499 0
-105 -295 -500 0
-101 -296 -491 0
-102 -297 -492 0
-103 -298 -493 0
-104 -299 -494 0
-105 -300 -495 0
-101 -301 -486 0
-102 -302 -487 0
-103 -303 -488 0
-104 -304 -489 0
-105 -305 -490 0
-101 -306 -481 0
-102 -307 -482 0
-103 -308 -483 0
-104 -309 -484 0
-105 -310 -485 0
-101 -311 -476 0
-102 -312 -477 0
-103 -313 -478 0
-104 -314 -479 0
-105 -315 -480 0
-101 -316 -791 0
-102 -317 -792 0
-103 -318 -793 0
-104 -319 -794 0
-105 -320 -795 0
-101 -321 -786 0
-102 -322 -787 0
-103 -323 -788 0
-104 -324 -789 0
-105 -325 -790 0
-101 -326 -781 0
-102 -327 -782 0
-103 -328 -783 0
-104 -329 -784 0
-105 -330 -785 0
-101 -331 -776 0
-102 -332 -777 0
-103 -333 -778 0
-104 -334 -779 0
-105 -335 -780 0
-101 -336 -771 0
-102 -337 -772 0
-103 -338 -773 0
-104 -339 -774 0
-105 -340 -775 0
-101 -341 -766 0
-102 -342 -767 0
-103 -343 -768 0
-104 -344 -769 0
-105 -345 -770 0
-101 -346 -761 0
-102 -347 -762 0
-103 -348 -763 0
-104 -349 -764 0
-105 -350 -765 0
-101 -351 -756 0
-102 -352 -757 0
-103 -353 -758 0
-104 -354 -759 0
-105 -355 -760 0
-101 -356 -751 0
-102 -357 -752 0
-103 -358 -753 0
-104 -359 -754 0
-105 -360 -755 0
-101 -361 -746 0
-102 -362 -747 0
-103 -363 -748 0
-104 -364 -749 0
-105 -365 -750 0
-101 -366 -741 0
-102 -367 -742 0
-103 -368 -743 0
-104 -369 -744 0
-105 -370 -745 0
-101 -371 -736 0
-102 -372 -737 0
-103 -373 -738 0
-104 -374 -739 0
-105 -375 -740 0
-101 -376 -731 0
-102 -377 -732 0
-103 -378 -733 0
-104 -379 -734 0
-105 -380 -735 0
-101 -381 -726 0
-102 -382 -727 0
-103 -383 -728 0
-104 -384 -729 0
-105 -385 -730 0
-101 -386 -721 0
-102 -387 -722 0
-103 -388 -723 0
-104 -389 -724 0
-105 -390 -725 0
-101 -391 -716 0
-102 -392 -717 0
-103 -393 -718 0
-104 -394 -719 0
-105 -395 -720 0
-101 -396 -711 0
-102 -397 -712 0
-103 -398 -713 0
-104 -399 -714 0
-105 -400 -715 0
-101 -401 -706 0
-102 -402 -707 0
-103 -403 -708 0
-104 -404 -709 0
-105 -405 -710 0
-101 -406 -701 0
-102 -407 -702 0
-103 -408 -703 0
-104 -409 -704 0
-105 -410 -705 0
-101 -411 -696 0
-102 -412 -697 0
-103 -413 -698 0
-104 -414 -699 0
-105 -415 -700 0
-101 -416 -691 0
-102 -417 -692 0
-103 -418 -693 0
-104 -419 -694 0
-105 -420 -695 0
-101 -421 -686 0
-102 -422 -687 0
-103 -423 -688 0
-104 -424 -689 0
-105 -425 -690 0
-101 -426 -681 0
-102 -427 -682 0
-103 -428 -683 0
-104 -429 -684 0
-105 -430 -685 0
-101 -431 -676 0
-102 -432 -677 0
-103 -433 -678 0
-104 -434 -679 0
-105 -435 -680 0
-101 -436 -671 0
-102 -437 -672 0
-103 -438 -673 0
-104 -439 -674 0
-105 -440 -675 0
-101 -441 -666 0
-102 -442 -667 0
-103 -443 -668 0
-104 -444 -669 0
-105 -445 -670 0
-101 -446 -661 0
-102 -447 -662 0
-103 -448 -663 0
-104 -449 -664 0
-105 -450 -665 0
-101 -451 -656 0
-102 -452 -657 0
-103 -453 -658 0
-104 -454 -659 0
-105 -455 -660 0
-101 -456 -651 0
-102 -457 -652 0
-103 -458 -653 0
-104 -459 -654 0
-105 -460 -655 0
-101 -461 -646 0
-102 -462 -647 0
-103 -463 -648 0
-104 -464 -649 0
-105 -465 -650 0
-101 -466 -641 0
-102 -467 -642 0
-103 -468 -643 0
-104 -469 -644 0
-105 -470 -645 0
-101 -471 -636 0
-102 -472 -637 0
-103 -473 -638 0
-104 -474 -639 0
-105 -475 -640 0
-116 -156 -636 0
-117 -157 -637 0
-118 -158 -638 0
-119 -159 -639 0
-120 -160 -640 0
-116 -161 -641 0
-117 -162 -642 0
-118 -163 -643 0
-119 -164 -644 0
-120 -165 -645 0
-116 -166 -646 0
-117 -167 -647 0
-118 -168 -648 0
-119 -169 -649 0
-120 -170 -650 0
-116 -171 -651 0
-117 -172 -652 0
-118 -173 -653 0
-119 -174 -654 0
-120 -175 -655 0
-116 -176 -656 0
-117 -177 -657 0
-118 -178 -658 0
-119 -179 -659 0
-120 -180 -660 0
-116 -181 -661 0
-117 -182 -662 0
-118 -183 -663 0
-119 -184 -664 0
-120 -185 -665 0
-116 -186 -666 0
-117 -187 -667 0
-118 -188 -668 0
-119 -189 -669 0
-120 -190 -670 0
-116 -191 -671 0
-117 -192 -672 0
-118 -193 -673 0
-119 -194 -674 0
-120 -195 -675 0
-116 -196 -676 0
-117 -197 -677 0
-118 -198 -678 0
-119 -199 -679 0
-120 -200 -680 0
-116 -201 -681 0
-117 -202 -682 0
-118 -203 -683 0
-119 -204 -684 0
-120 -205 -685 0
-116 -206 -686 0
-117 -207 -687 0
-118 -208 -688 0
-119 -209 -689 0
-120 -210 -690 0
-116 -211 -691 0
-117 -212 -692 0
-118 -213 -693 0
-119 -214 -694 0
-120 -215 -695 0
-116 -216 -696 0
-117 -217 -697 0
-118 -218 -698 0
-119 -219 -699 0
-120 -220 -700 0
-116 -221 -701 0
-117 -222 -702 0
-118 -223 -703 0
-119 -224 -704 0
-120 -225 -705 0
-116 -226 -706 0
-117 -227 -707 0
-118 -228 -708 0
-119 -229 -709 0
-120 -230 -710 0
-116 -231 -711 0
-117 -232 -712 0
-118 -233 -713 0
-119 -234 -714 0
-120 -235 -715 0
-116 -236 -716 0
-117 -237 -717 0
-118 -238 -718 0
-119 -239 -719 0
-120 -240 -720 0
-116 -241 -721 0
-117 -242 -722 0
-118 -243 -723 0
-119 -244 -724 0
-120 -245 -725 0
-116 -246 -726 0
-117 -247 -727 0
-118 -248 -728 0
-119 -249 -729 0
-120 -250 -730 0
-116 -251 -731 0
-117 -252 -732 0
-118 -253 -733 0
-119 -254 -734 0
-120 -255 -735 0
-116 -256 -736 0
-117 -257 -737 0
-118 -258 -738 0
-119 -259 -739 0
-120 -260 -740 0
-116 -261 -741 0
-117 -262 -742 0
-118 -263 -743 0
-119 -264 -744 0
-120 -265 -745 0
-116 -266 -746 0
-117 -267 -747 0
-118 -268 -748 0
-119 -269 -749 0
-120 -270 -750 0
-116 -271 -751 0
-117 -272 -752 0
-118 -273 -753 0
-119 -274 -754 0
-120 -275 -755 0
-116 -276 -756 0
-117 -277 -757 0
-118 -278 -758 0
-119 -279 -759 0
-120 -280 -760 0
-116 -281 -761 0
-117 -282 -762 0
-118 -283 -763 0
-119 -284 -764 0
-120 -285 -765 0
-116 -286 -766 0
-117 -287 -767 0
-118 -288 -768 0
-119 -289 -769 0
-120 -290 -770 0
-116 -291 -771 0
-117 -292 -772 0
-118 -293 -773 0
-119 -294 -774 0
-120 -295 -775 0
-116 -296 -776 0
-117 -297 -777 0
-118 -298 -778 0
-119 -299 -779 0
-120 -300 -780 0
-116 -301 -781 0
-117 -302 -782 0
-118 -303 -783 0
-119 -304 -784 0
-120 -305 -785 0
-116 -306 -786 0
-117 -307 -787 0
-118 -308 -788 0
-119 -309 -789 0
-120 -310 -790 0
-116 -311 -791 0
-117 -312 -792 0
-118 -313 -793 0
-119 -314 -794 0
-120 -315 -795 0
-116 -316 -476 0
-117 -317 -477 0
-118 -318 -478 0
-119 -319 -479 0
-120 -320 -480 0
-116 -321 -481 0
-117 -322 -482 0
-118 -323 -483 0
-119 -324 -484 0
-120 -325 -485 0
-116 -326 -486 0
-117 -327 -487 0
-118 -328 -488 0
-119 -329 -489 0
-120 -330 -490 0
-116 -331 -491 0
-117 -332 -492 0
-118 -333 -493 0
-119 -334 -494 0
-120 -335 -495 0
-116 -336 -496 0
-117 -337 -497 0
-118 -338 -498 0
-119 -339 -499 0
-120 -340 -500 0
-116 -341 -501 0
-117 -342 -502 0
-118 -343 -503 0
-119 -344 -504 0
-120 -345 -505 0
-116 -346 -506 0
-117 -347 -507 0
-118 -348 -508 0
-119 -349 -509 0
-120 -350 -510 0
-116 -351 -511 0
-117 -352 -512 0
-118 -353 -513 0
-119 -354 -514 0
-120 -355 -515 0
-116 -356 -516 0
-117 -357 -517 0
-118 -358 -518 0
-119 -359 -519 0
-120 -360 -520 0
-116 -361 -521 0
-117 -362 -522 0
-118 -363 -523 0
-119 -364 -524 0
-120 -365 -525 0
-116 -366 -526 0
-117 -367 -527 0
-118 -368 -528 0
-119 -369 -529 0
-120 -370 -530 0
-116 -371 -531 0
-117 -372 -532 0
-118 -373 -533 0
-119 -374 -534 0
-120 -375 -535 0
-116 -376 -536 0
-117 -377 -537 0
-118 -378 -538 0
-119 -379 -539 0
-120 -380 -540 0
-116 -381 -541 0
-117 -382 -542 0
-118 -383 -543 0
-119 -384 -544 0
-120 -385 -545 0
-116 -386 -546 0
-117 -387 -547 0
-118 -388 -548 0
-119 -389 -549 0
-120 -390 -550 0
-116 -391 -551 0
-117 -392 -552 0
-118 -393 -553 0
-119 -394 -554 0
-120 -395 -555 0
-116 -396 -556 0
-117 -397 -557 0
-118 -398 -558 0
-119 -399 -559 0
-120 -400 -560 0
-116 -401 -561 0
-117 -402 -562 0
-118 -403 -563 0
-119 -404 -564 0
-120 -405 -565 0
-116 -406 -566 0
-117 -407 -567 0
-118 -408 -568 0
-119 -409 -569 0
-120 -410 -570 0
-116 -411 -571 0
-117 -412 -572 0
-118 -413 -573 0
-119 -414 -574 0
-120 -415 -575 0
-116 -416 -576 0
-117 -417 -577 0
-118 -418 -578 0
-119 -419 -579 0
-120 -420 -580 0
-116 -421 -581 0
-117 -422 -582 0
-118 -423 -583 0
-119 -424 -584 0
-120 -425 -585 0
-116 -426 -586 0
-117 -427 -587 0
-118 -428 -588 0
-119 -429 -589 0
-120 -430 -590 0
-116 -431 -591 0
-117 -432 -592 0
-118 -433 -593 0
-119 -434 -594 0
-120 -435 -595 0
-116 -436 -596 0
-117 -437 -597 0
-118 -438 -598 0
-119 -439 -599 0
-120 -440 -600 0
-116 -441 -601 0
-117 -442 -602 0
-118 -443 -603 0
-119 -444 -604 0
-120 -445 -605 0
-116 -446 -606 0
-117 -447 -607 0
-118 -448 -608 0
-119 -449 -609 0
-120 -450 -610 0
-116 -451 -611 0
-117 -452 -612 0
-118 -453 -613 0
-119 -454 -614 0
-120 -455 -615 0
-116 -456 -616 0
-117 -457 -617 0
-118 -458 -618 0
-119 -459 -619 0
-120 -460 -620 0
-116 -461 -621 0
-117 -462 -622 0
-118 -463 -623 0
-119 -464 -624 0
-120 -465 -625 0
-116 -466 -626 0
-117 -467 -627 0
-118 -468 -628 0
-119 -469 -629 0
-120 -470 -630 0
-116 -471 -631 0
-117 -472 -632 0
-118 -473 -633 0
-119 -474 -634 0
-120 -475 -635 0
-121 -156 -641 0
-122 -157 -642 0
-123 -158 -643 0
-124 -159 -644 0
-125 -160 -645 0
-121 -161 -636 0
-122 -162 -637 0
-123 -163 -638 0
-124 -164 -639 0
-125 -165 -640 0
-121 -166 -651 0
-122 -167 -652 0
-123 -168 -653 0
-124 -169 -654 0
-125 -170 -655 0
-121 -171 -646 0
-122 -172 -647 0
-123 -173 -648 0
-124 -174 -649 0
-125 -175 -650 0
-121 -176 -661 0
-122 -177 -662 0
-123 -178 -663 0
-124 -179 -664 0
-125 -180 -665 0
-121 -181 -656 0
-122 -182 -657 0
-123 -183 -658 0
-124 -184 -659 0
-125 -185 -660 0
-121 -186 -671 0
-122 -187 -672 0
-123 -188 -673 0
-124 -189 -674 0
-125 -190 -675 0
-121 -191 -666 0
-122 -192 -667 0
-123 -193 -668 0
-124 -194 -669 0
-125 -195 -670 0
-121 -196 -681 0
-122 -197 -682 0
-123 -198 -683 0
-124 -199 -684 0
-125 -200 -685 0
-121 -201 -676 0
-122 -202 -677 0
-123 -203 -678 0
-124 -204 -679 0
-125 -205 -680 0
-121 -206 -691 0
-122 -207 -692 0
-123 -208 -693 0
-124 -209 -694 0
-125 -210 -695 0
-121 -211 -686 0
-122 -212 -687 0
-123 -213 -688 0
-124 -214 -689 0
-125 -215 -690 0
-121 -216 -701 0
-122 -217 -702 0
-123 -218 -703 0
-124 -219 -704 0
-125 -220 -705 0
-121 -221 -696 0
-122 -222 -697 0
-123 -223 -698 0
-124 -224 -699 0
-125 -225 -700 0
-121 -226 -711 0
-122 -227 -712 0
-123 -228 -713 0
-124 -229 -714 0
-125 -230 -715 0
-121 -231 -706 0
-122 -232 -707 0
-123 -233 -708 0
-124 -234 -709 0
-125 -235 -710 0
-121 -236 -721 0
-122 -237 -722 0
-123 -238 -723 0
-124 -239 -724 0
-125 -240 -725 0
-121 -241 -716 0
-122 -242 -717 0
-123 -243 -718 0
-124 -244 -719 0
-125 -245 -720 0
-121 -246 -731 0
-122 -247 -732 0
-123 -248 -733 0
-124 -249 -734 0
-125 -250 -735 0
-121 -251 -726 0
-122 -252 -727 0
-123 -253 -728 0
-124 -254 -729 0
-125 -255 -730 0
-121 -256 -741 0
-122 -257 -742 0
-123 -258 -743 0
-124 -259 -744 0
-125 -260 -745 0
-121 -261 -736 0
-122 -262 -737 0
-123 -263 -738 0
-124 -264 -739 0
-125 -265 -740 0
-121 -266 -751 0
-122 -267 -752 0
-123 -268 -753 0
-124 -269 -754 0
-125 -270 -755 0
-121 -271 -746 0
-122 -272 -747 0
-123 -273 -748 0
-124 -274 -749 0
-125 -275 -750 0
-121 -276 -761 0
-122 -277 -762 0
-123 -278 -763 0
-124 -279 -764 0
-125 -280 -765 0
-121 -281 -756 0
-122 -282 -757 0
-123 -283 -758 0
-124 -284 -759 0
-125 -285 -760 0
-121 -286 -771 0
-122 -287 -772 0
-123 -288 -773 0
-124 -289 -774 0
-125 -290 -775 0
-121 -291 -766 0
-122 -292 -767 0
-123 -293 -768 0
-124 -294 -769 0
-125 -295 -770 0
-121 -296 -781 0
-122 -297 -782 0
-123 -298 -783 0
-124 -299 -784 0
-125 -300 -785 0
-121 -301 -776 0
-122 -302 -777 0
-123 -303 -778 0
-124 -304 -779 0
-125 -305 -780 0
-121 -306 -791 0
-122 -307 -792 0
-123 -308 -793 0
-124 -309 -794 0
-125 -310 -795 0
-121 -311 -786 0
-122 -312 -787 0
-123 -313 -788 0
-124 -314 -789 0
-125 -315 -790 0
-121 -316 -481 0
-122 -317 -482 0
-123 -318 -483 0
-124 -319 -484 0
-125 -320 -485 0
-121 -321 -476 0
-122 -322 -477 0
-123 -323 -478 0
-124 -324 -479 0
-125 -325 -480 0
-121 -326 -491 0
-122 -327 -492 0
-123 -328 -493 0
-124 -329 -494 0
-125 -330 -495 0
-121 -331 -486 0
-122 -332 -487 0
-123 -333 -488 0
-124 -334 -489 0
-125 -335 -490 0
-121 -336 -501 0
-122 -337 -502 0
-123 -338 -503 0
-124 -339 -504 0
-125 -340 -505 0
-121 -341 -496 0
-122 -342 -497 0
-123 -343 -498 0
-124 -344 -499 0
-125 -345 -500 0
-121 -346 -511 0
-122 -347 -512 0
-123 -348 -513 0
-124 -349 -514 0
-125 -350 -515 0
-121 -351 -506 0
-122 -352 -507 0
-123 -353 -508 0
-124 -354 -509 0
-125 -355 -510 0
-121 -356 -521 0
-122 -357 -522 0
-123 -358 -523 0
-124 -359 -524 0
-125 -360 -525 0
-121 -361 -516 0
-122 -362 -517 0
-123 -363 -518 0
-124 -364 -519 0
-125 -365 -520 0
-121 -366 -531 0
-122 -367 -532 0
-123 -368 -533 0
-124 -369 -534 0
-125 -370 -535 0
-121 -371 -526 0
-122 -372 -527 0
-123 -373 -528 0
-124 -374 -529 0
-125 -375 -530 0
-121 -376 -541 0
-122 -377 -542 0
-123 -378 -543 0
-124 -379 -544 0
-125 -380 -545 0
-121 -381 -536 0
-122 -382 -537 0
-123 -383 -538 0
-124 -384 -539 0
-125 -385 -540 0
-121 -386 -551 0
-122 -387 -552 0
-123 -388 -553 0
-124 -389 -554 0
-125 -390 -555 0
-121 -391 -546 0
-122 -392 -547 0
-123 -393 -548 0
-124 -394 -549 0
-125 -395 -550 0
-121 -396 -561 0
-122 -397 -562 0
-123 -398 -563 0
-124 -399 -564 0
-125 -400 -565 0
-121 -401 -556 0
-122 -402 -557 0
-123 -403 -558 0
-124 -404 -559 0
-125 -405 -560 0
-121 -406 -571 0
-122 -407 -572 0
-123 -408 -573 0
-124 -409 -574 0
-125 -410 -575 0
-121 -411 -566 0
-122 -412 -567 0
-123 -413 -568 0
-124 -414 -569 0
-125 -415 -570 0
-121 -416 -581 0
-122 -417 -582 0
-123 -418 -583 0
-124 -419 -584 0
-125 -420 -585 0
-121 -421 -576 0
-122 -422 -577 0
-123 -423 -578 0
-124 -424 -579 0
-125 -425 -580 0
-121 -426 -591 0
-122 -427 -592 0
-123 -428 -593 0
-124 -429 -594 0
-125 -430 -595 0
-121 -431 -586 0
-122 -432 -587 0
-123 -433 -588 0
-124 -434 -589 0
-125 -435 -590 0
-121 -436 -601 0
-122 -437 -602 0
-123 -438 -603 0
-124 -439 -604 0
-125 -440 -605 0
-121 -441 -596 0
-122 -442 -597 0
-123 -443 -598 0
-124 -444 -599 0
-125 -445 -600 0
-121 -446 -611 0
-122 -447 -612 0
-123 -448 -613 0
-124 -449 -614 0
-125 -450 -615 0
-121 -451 -606 0
-122 -452 -607 0
-123 -453 -608 0
-124 -454 -609 0
-125 -455 -610 0
-121 -456 -621 0
-122 -457 -622 0
-123 -458 -623 0
-124 -459 -624 0
-125 -460 -625 0
-121 -461 -616 0
-122 -462 -617 0
-123 -463 -618 0
-124 -464 -619 0
-125 -465 -620 0
-121 -466 -631 0
-122 -467 -632 0
-123 -468 -633 0
-124 -469 -634 0
-125 -470 -635 0
-121 -471 -626 0
-122 -472 -627 0
-123 -473 -628 0
-124 -474 -629 0
-125 -475 -630 0
-126 -156 -646 0
-127 -157 -647 0
-128 -158 -648 0
-129 -159 -649 0
-130 -160 -650 0
-126 -161 -651 0
-127 -162 -652 0
-128 -163 -653 0
-129 -164 -654 0
-130 -165 -655 0
-126 -166 -636 0
-127 -167 -637 0
-128 -168 -638 0
-129 -169 -639 0
-130 -170 -640 0
-126 -171 -641 0
-127 -172 -642 0
-128 -173 -643 0
-129 -174 -644 0
-130 -175 -645 0
-126 -176 -666 0
-127 -177 -667 0
-128 -178 -668 0
-129 -179 -669 0
-130 -180 -670 0
-126 -181 -671 0
-127 -182 -672 0
-128 -183 -673 0
-129 -184 -674 0
-130 -185 -675 0
-126 -186 -656 0
-127 -187 -657 0
-128 -188 -658 0
-129 -189 -659 0
-130 -190 -660 0
-126 -191 -661 0
-127 -192 -662 0
-128 -193 -663 0
-129 -194 -664 0
-130 -195 -665 0
-126 -196 -686 0
-127 -197 -687 0
-128 -198 -688 0
-129 -199 -689 0
-130 -200 -690 0
-126 -201 -691 0
-127 -202 -692 0
-128 -203 -693 0
-129 -204 -694 0
-130 -205 -695 0
-126 -206 -676 0
-127 -207 -677 0
-128 -208 -678 0
-129 -209 -679 0
-130 -210 -680 0
-126 -211 -681 0
-127 -212 -682 0
-128 -213 -683 0
-129 -214 -684 0
-130 -215 -685 0
-126 -216 -706 0
-127 -217 -707 0
-128 -218 -708 0
-129 -219 -709 0
-130 -220 -710 0
-126 -221 -711 0
-127 -222 -712 0
-128 -223 -713 0
-129 -224 -714 0
-130 -225 -715 0
-126 -226 -696 0
-127 -227 -697 0
-128 -228 -698 0
-129 -229 -699 0
-130 -230 -700 0
-126 -231 -701 0
-127 -232 -702 0
-128 -233 -703 0
-129 -234 -704 0
-130 -235 -705 0
-126 -236 -726 0
-127 -237 -727 0
-128 -238 -728 0
-129 -239 -729 0
-130 -240 -730 0
-126 -241 -731 0
-127 -242 -732 0
-128 -243 -733 0
-129 -244 -734 0
-130 -245 -735 0
-126 -246 -716 0
-127 -247 -717 0
-128 -248 -718 0
-129 -249 -719 0
-130 -250 -720 0
-126 -251 -721 0
-127 -252 -722 0
-128 -253 -723 0
-129 -254 -724 0
-130 -255 -725 0
-126 -256 -746 0
-127 -257 -747 0
-128 -258 -748 0
-129 -259 -749 0
-130 -260 -750 0
-126 -261 -751 0
-127 -262 -752 0
-128 -263 -753 0
-129 -264 -754 0
-130 -265 -755 0
-126 -266 -736 0
-127 -267 -737 0
-128 -268 -738 0
-129 -269 -739 0
-130 -270 -740 0
-126 -271 -741 0
-127 -272 -742 0
-128 -273 -743 0
-129 -274 -744 0
-130 -275 -745 0
-126 -276 -766 0
-127 -277 -767 0
-128 -278 -768 0
-129 -279 -769 0
-130 -280 -770 0
-126 -281 -771 0
-127 -282 -772 0
-128 -283 -773 0
-129 -284 -774 0
-130 -285 -775 0
-126 -286 -756 0
-127 -287 -757 0
-128 -288 -758 0
-129 -289 -759 0
-130 -290 -760 0
-126 -291 -761 0
-127 -292 -762 0
-128 -293 -763 0
-129 -294 -764 0
-130 -295 -765 0
-126 -296 -786 0
-127 -297 -787 0
-128 -298 -788 0
-129 -299 -789 0
-130 -300 -790 0
-126 -301 -791 0
-127 -302 -792 0
-128 -303 -793 0
-129 -304 -794 0
-130 -305 -795 0
-126 -306 -776 0
-127 -307 -777 0
-128 -308 -778 0
-129 -309 -779 0
-130 -310 -780 0
-126 -311 -781 0
-127 -312 -782 0
-128 -313 -783 0
-129 -314 -784 0
-130 -315 -785 0
-126 -316 -486 0
-127 -317 -487 0
-128 -318 -488 0
-129 -319 -489 0
-130 -320 -490 0
-126 -321 -491 0
-127 -322 -492 0
-128 -323 -493 0
-129 -324 -494 0
-130 -325 -495 0
-126 -326 -476 0
-127 -327 -477 0
-128 -328 -478 0
-129 -329 -479 0
-130 -330 -480 0
-126 -331 -481 0
-127 -332 -482 0
-128 -333 -483 0
-129 -334 -484 0
-130 -335 -485 0
-126 -336 -506 0
-127 -337 -507 0
-128 -338 -508 0
-129 -339 -509 0
-130 -340 -510 0
-126 -341 -511 0
-127 -342 -512 0
-128 -343 -513 0
-129 -344 -514 0
-130 -345 -515 0
-126 -346 -496 0
-127 -347 -497 0
-128 -348 -498 0
-129 -349 -499 0
-130 -350 -500 0
-126 -351 -501 0
-127 -352 -502 0
-128 -353 -503 0
-129 -354 -504 0
-130 -355 -505 0
-126 -356 -526 0
-127 -357 -527 0
-128 -358 -528 0
-129 -359 -529 0
-130 -360 -530 0
-126 -361 -531 0
-127 -362 -532 0
-128 -363 -533 0
-129 -364 -534 0
-130 -365 -535 0
-126 -366 -516 0
-127 -367 -517 0
-128 -368 -518 0
-129 -369 -519 0
-130 -370 -520 0
-126 -371 -521 0
-127 -372 -522 0
-128 -373 -523 0
-129 -374 -524 0
-130 -375 -525 0
-126 -376 -546 0
-127 -377 -547 0
-128 -378 -548 0
-129 -379 -549 0
-130 -380 -550 0
-126 -381 -551 0
-127 -382 -552 0
-128 -383 -553 0
-129 -384 -554 0
-130 -385 -555 0
-126 -386 -536 0
-127 -387 -537 0
-128 -388 -538 0
-129 -389 -539 0
-130 -390 -540 0
-126 -391 -541 0
-127 -392 -542 0
-128 -393 -543 0
-129 -394 -544 0
-130 -395 -545 0
-126 -396 -566 0
-127 -397 -567 0
-128 -398 -568 0
-129 -399 -569 0
-130 -400 -570 0
-126 -401 -571 0
-127 -402 -572 0
-128 -403 -573 0
-129 -404 -574 0
-130 -405 -575 0
-126 -406 -556 0
-127 -407 -557 0
-128 -408 -558 0
-129 -409 -559 0
-130 -410 -560 0
-126 -411 -561 0
-127 -412 -562 0
-128 -413 -563 0
-129 -414 -564 0
-130 -415 -565 0
-126 -416 -586 0
-127 -417 -587 0
-128 -418 -588 0
-129 -419 -589 0
-130 -420 -590 0
-126 -421 -591 0
-127 -422 -592 0
-128 -423 -593 0
-129 -424 -594 0
-130 -425 -595 0
-126 -426 -576 0
-127 -427 -577 0
-128 -428 -578 0
-129 -429 -579 0
-130 -430 -580 0
-126 -431 -581 0
-127 -432 -582 0
-128 -433 -583 0
-129 -434 -584 0
-130 -435 -585 0
-126 -436 -606 0
-127 -437 -607 0
-128 -438 -608 0
-129 -439 -609 0
-130 -440 -610 0
-126 -441 -611 0
-127 -442 -612 0
-128 -443 -613 0
-129 -444 -614 0
-130 -445 -615 0
-126 -446 -596 0
-127 -447 -597 0
-128 -448 -598 0
-129 -449 -599 0
-130 -450 -600 0
-126 -451 -601 0
-127 -452 -602 0
-128 -453 -603 0
-129 -454 -604 0
-130 -455 -605 0
-126 -456 -626 0
-127 -457 -627 0
-128 -458 -628 0
-129 -459 -629 0
-130 -460 -630 0
-126 -461 -631 0
-127 -462 -632 0
-128 -463 -633 0
-129 -464 -634 0
-130 -465 -635 0
-126 -466 -616 0
-127 -467 -617 0
-128 -468 -618 0
-129 -469 -619 0
-130 -470 -620 0
-126 -471 -621 0
-127 -472 -622 0
-128 -473 -623 0
-129 -474 -624 0
-130 -475 -625 0
-126 -156 -651 0
-127 -157 -652 0
-128 -158 -653 0
-129 -159 -654 0
-130 -160 -655 0
-126 -161 -646 0
-127 -162 -647 0
-128 -163 -648 0
-129 -164 -649 0
-130 -165 -650 0
-126 -166 -641 0
-127 -167 -642 0
-128 -168 -643 0
-129 -169 -644 0
-130 -170 -645 0
-126 -171 -636 0
-127 -172 -637 0
-128 -173 -638 0
-129 -174 -639 0
-130 -175 -640 0
-126 -176 -671 0
-127 -177 -672 0
-128 -178 -673 0
-129 -179 -674 0
-130 -180 -675 0
-126 -181 -666 0
-127 -182 -667 0
-128 -183 -668 0
-129 -184 -669 0
-130 -185 -670 0
-126 -186 -661 0
-127 -187 -662 0
-128 -188 -663 0
-129 -189 -664 0
-130 -190 -665 0
-126 -191 -656 0
-127 -192 -657 0
-128 -193 -658 0
-129 -194 -659 0
-130 -195 -660 0
-126 -196 -691 0
-127 -197 -692 0
-128 -198 -693 0
-129 -199 -694 0
-130 -200 -695 0
-126 -201 -686 0
-127 -202 -687 0
-128 -203 -688 0
-129 -204 -689 0
-130 -205 -690 0
-126 -206 -681 0
-127 -207 -682 0
-128 -208 -683 0
-129 -209 -684 0
-130 -210 -685 0
-126 -211 -676 0
-127 -212 -677 0
-128 -213 -678 0
-129 -214 -679 0
-130 -215 -680 0
-126 -216 -711 0
-127 -217 -712 0
-128 -218 -713 0
-129 -219 -714 0
-130 -220 -715 0
-126 -221 -706 0
-127 -222 -707 0
-128 -223 -708 0
-129 -224 -709 0
-130 -225 -710 0
-126 -226 -701 0
-127 -227 -702 0
-128 -228 -703 0
-129 -229 -704 0
-130 -230 -705 0
-126 -231 -696 0
-127 -232 -697 0
-128 -233 -698 0
-129 -234 -699 0
-130 -235 -700 0
-126 -236 -731 0
-127 -237 -732 0
-128 -238 -733 0
-129 -239 -734 0
-130 -240 -735 0
-126 -241 -726 0
-127 -242 -727 0
-128 -243 -728 0
-129 -244 -729 0
-130 -245 -730 0
-126 -246 -721 0
-127 -247 -722 0
-128 -248 -723 0
-129 -249 -724 0
-130 -250 -725 0
-126 -251 -716 0
-127 -252 -717 0
-128 -253 -718 0
-129 -254 -719 0
-130 -255 -720 0
-126 -256 -751 0
-127 -257 -752 0
-128 -258 -753 0
-129 -259 -754 0
-130 -260 -755 0
-126 -261 -746 0
-127 -262 -747 0
-128 -263 -748 0
-129 -264 -749 0
-130 -265 -750 0
-126 -266 -741 0
-127 -267 -742 0
-128 -268 -743 0
-129 -269 -744 0
-130 -270 -745 0
-126 -271 -736 0
-127 -272 -737 0
-128 -273 -738 0
-129 -274 -739 0
-130 -275 -740 0
-126 -276 -771 0
-127 -277 -772 0
-128 -278 -773 0
-129 -279 -774 0
-130 -280 -775 0
-126 -281 -766 0
-127 -282 -767 0
-128 -283 -768 0
-129 -284 -769 0
-130 -285 -770 0
-126 -286 -761 0
-127 -287 -762 0
-128 -288 -763 0
-129 -289 -764 0
-130 -290 -765 0
-126 -291 -756 0
-127 -292 -757 0
-128 -293 -758 0
-129 -294 -759 0
-130 -295 -760 0
-126 -296 -791 0
-127 -297 -792 0
-128 -298 -793 0
-129 -299 -794 0
-130 -300 -795 0
-126 -301 -786 0
-127 -302 -787 0
-128 -303 -788 0
-129 -304 -789 0
-130 -305 -790 0
-126 -306 -781 0
-127 -307 -782 0
-128 -308 -783 0
-129 -309 -784 0
-130 -310 -785 0
-126 -311 -776 0
-127 -312 -777 0
-128 -313 -778 0
-129 -314 -779 0
-130 -315 -780 0
-126 -316 -491 0
-127 -317 -492 0
-128 -318 -493 0
-129 -319 -494 0
-130 -320 -495 0
-126 -321 -486 0
-127 -322 -487 0
-128 -323 -488 0
-129 -324 -489 0
-130 -325 -490 0
-126 -326 -481 0
-127 -327 -482 0
-128 -328 -483 0
-129 -329 -484 0
-130 -330 -485 0
-126 -331 -476 0
-127 -332 -477 0
-128 -333 -478 0
-129 -334 -479 0
-130 -335 -480 0
-126 -336 -511 0
-127 -337 -512 0
-128 -338 -513 0
-129 -339 -514 0
-130 -340 -515 0
-126 -341 -506 0
-127 -342 -507 0
-128 -343 -508 0
-129 -344 -509 0
-130 -345 -510 0
-126 -346 -501 0
-127 -347 -502 0
-128 -348 -503 0
-129 -349 -504 0
-130 -350 -505 0
-126 -351 -496 0
-127 -352 -497 0
-128 -353 -498 0
-129 -354 -499 0
-130 -355 -500 0
-126 -356 -531 0
-127 -357 -532 0
-128 -358 -533 0
-129 -359 -534 0
-130 -360 -535 0
-126 -361 -526 0
-127 -362 -527 0
-128 -363 -528 0
-129 -364 -529 0
-130 -365 -530 0
-126 -366 -521 0
-127 -367 -522 0
-128 -368 -523 0
-129 -369 -524 0
-130 -370 -525 0
-126 -371 -516 0
-127 -372 -517 0
-128 -373 -518 0
-129 -374 -519 0
-130 -375 -520 0
-126 -376 -551 0
-127 -377 -552 0
-128 -378 -553 0
-129 -379 -554 0
-130 -380 -555 0
-126 -381 -546 0
-127 -382 -547 0
-128 -383 -548 0
-129 -384 -549 0
-130 -385 -550 0
-126 -386 -541 0
-127 -387 -542 0
-128 -388 -543 0
-129 -389 -544 0
-130 -390 -545 0
-126 -391 -536 0
-127 -392 -537 0
-128 -393 -538 0
-129 -394 -539 0
-130 -395 -540 0
-126 -396 -571 0
-127 -397 -572 0
-128 -398 -573 0
-129 -399 -574 0
-130 -400 -575 0
-126 -401 -566 0
-127 -402 -567 0
-128 -403 -568 0
-129 -404 -569 0
-130 -405 -570 0
-126 -406 -561 0
-127 -407 -562 0
-128 -408 -563 0
-129 -409 -564 0
-130 -410 -565 0
-126 -411 -556 0
-127 -412 -557 0
-128 -413 -558 0
-129 -414 -559 0
-130 -415 -560 0
-126 -416 -591 0
-127 -417 -592 0
-128 -418 -593 0
-129 -419 -594 0
-130 -420 -595 0
-126 -421 -586 0
-127 -422 -587 0
-128 -423 -588 0
-129 -424 -589 0
-130 -425 -590 0
-126 -426 -581 0
-127 -427 -582 0
-128 -428 -583 0
-129 -429 -584 0
-130 -430 -585 0
-126 -431 -576 0
-127 -432 -577 0
-128 -433 -578 0
-129 -434 -579 0
-130 -435 -580 0
-126 -436 -611 0
-127 -437 -612 0
-128 -438 -613 0
-129 -439 -614 0
-130 -440 -615 0
-126 -441 -606 0
-127 -442 -607 0
-128 -443 -608 0
-129 -444 -609 0
-130 -445 -610 0
-126 -446 -601 0
-127 -447 -602 0
-128 -448 -603 0
-129 -449 -604 0
-130 -450 -605 0
-126 -451 -596 0
-127 -452 -597 0
-128 -453 -598 0
-129 -454 -599 0
-130 -455 -600 0
-126 -456 -631 0
-127 -457 -632 0
-128 -458 -633 0
-129 -459 -634 0
-130 -460 -635 0
-126 -461 -626 0
-127 -462 -627 0
-128 -463 -628 0
-129 -464 -629 0
-130 -465 -630 0
-126 -466 -621 0
-127 -467 -622 0
-128 -468 -623 0
-129 -469 -624 0
-130 -470 -625 0
-126 -471 -616 0
-127 -472 -617 0
-128 -473 -618 0
-129 -474 -619 0
-130 -475 -620 0
-131 -156 -656 0
-132 -157 -657 0
-133 -158 -658 0
-134 -159 -659 0
-135 -160 -660 0
-131 -161 -661 0
-132 -162 -662 0
-133 -163 -663 0
-134 -164 -664 0
-135 -165 -665 0
-131 -166 -666 0
-132 -167 -667 0
-133 -168 -668 0
-134 -169 -669 0
-135 -170 -670 0
-131 -171 -671 0
-132 -172 -672 0
-133 -173 -673 0
-134 -174 -674 0
-135 -175 -675 0
-131 -176 -636 0
-132 -177 -637 0
-133 -178 -638 0
-134 -179 -639 0
-135 -180 -640 0
-131 -181 -641 0
-132 -182 -642 0
-133 -183 -643 0
-134 -184 -644 0
-135 -185 -645 0
-131 -186 -646 0
-132 -187 -647 0
-133 -188 -648 0
-134 -189 -649 0
-135 -190 -650 0
-131 -191 -651 0
-132 -192 -652 0
-133 -193 -653 0
-134 -194 -654 0
-135 -195 -655 0
-131 -196 -696 0
-132 -197 -697 0
-133 -198 -698 0
-134 -199 -699 0
-135 -200 -700 0
-131 -201 -701 0
-132 -202 -702 0
-133 -203 -703 0
-134 -204 -704 0
-135 -205 -705 0
-131 -206 -706 0
-132 -207 -707 0
-133 -208 -708 0
-134 -209 -709 0
-135 -210 -710 0
-131 -211 -711 0
-132 -212 -712 0
-133 -213 -713 0
-134 -214 -714 0
-135 -215 -715 0
-131 -216 -676 0
-132 -217 -677 0
-133 -218 -678 0
-134 -219 -679 0
-135 -220 -680 0
-131 -221 -681 0
-132 -222 -682 0
-133 -223 -683 0
-134 -224 -684 0
-135 -225 -685 0
-131 -226 -686 0
-132 -227 -687 0
-133 -228 -688 0
-134 -229 -689 0
-135 -230 -690 0
-131 -231 -691 0
-132 -232 -692 0
-133 -233 -693 0
-134 -234 -694 0
-135 -235 -695 0
-131 -236 -736 0
-132 -237 -737 0
-133 -238 -738 0
-134 -239 -739 0
-135 -240 -740 0
-131 -241 -741 0
-132 -242 -742 0
-133 -243 -743 0
-134 -244 -744 0
-135 -245 -745 0
-131 -246 -746 0
-132 -247 -747 0
-133 -248 -748 0
-134 -249 -749 0
-135 -250 -750 0
-131 -251 -751 0
-132 -252 -752 0
-133 -253 -753 0
-134 -254 -754 0
-135 -255 -755 0
-131 -256 -716 0
-132 -257 -717 0
-133 -258 -718 0
-134 -259 -719 0
-135 -260 -720 0
-131 -261 -721 0
-132 -262 -722 0
-133 -263 -723 0
-134 -264 -724 0
-135 -265 -725 0
-131 -266 -726 0
-132 -267 -727 0
-133 -268 -728 0
-134 -269 -729 0
-135 -270 -730 0
-131 -271 -731 0
-132 -272 -732 0
-133 -273 -733 0
-134 -274 -734 0
-135 -275 -735 0
-131 -276 -776 0
-132 -277 -777 0
-133 -278 -778 0
-134 -279 -779 0
-135 -280 -780 0
-131 -281 -781 0
-132 -282 -782 0
-133 -283 -783 0
-134 -284 -784 0
-135 -285 -785 0
-131 -286 -786 0
-132 -287 -787 0
-133 -288 -788 0
-134 -289 -789 0
-135 -290 -790 0
-131 -291 -791 0
-132 -292 -792 0
-133 -293 -793 0
-134 -294 -794 0
-135 -295 -795 0
-131 -296 -756 0
-132 -297 -757 0
-133 -298 -758 0
-134 -299 -759 0
-135 -300 -760 0
-131 -301 -761 0
-132 -302 -762 0
-133 -303 -763 0
-134 -304 -764 0
-135 -305 -765 0
-131 -306 -766 0
-132 -307 -767 0
-133 -308 -768 0
-134 -309 -769 0
-135 -310 -770 0
-131 -311 -771 0
-132 -312 -772 0
-133 -313 -773 0
-134 -314 -774 0
-135 -315 -775 0
-131 -316 -496 0
-132 -317 -497 0
-133 -318 -498 0
-134 -319 -499 0
-135 -320 -500 0
-131 -321 -501 0
-132 -322 -502 0
-133 -323 -503 0
-134 -324 -504 0
-135 -325 -505 0
-131 -326 -506 0
-132 -327 -507 0
-133 -328 -508 0
-134 -329 -509 0
-135 -330 -510 0
-131 -331 -511 0
-132 -332 -512 0
-133 -333 -513 0
-134 -334 -514 0
-135 -335 -515 0
-131 -336 -476 0
-132 -337 -477 0
-133 -338 -478 0
-134 -339 -479 0
-135 -340 -480 0
-131 -341 -481 0
-132 -342 -482 0
-133 -343 -483 0
-134 -344 -484 0
-135 -345 -485 0
-131 -346 -486 0
-132 -347 -487 0
-133 -348 -488 0
-134 -349 -489 0
-135 -350 -490 0
-131 -351 -491 0
-132 -352 -492 0
-133 -353 -493 0
-134 -354 -494 0
-135 -355 -495 0
-131 -356 -536 0
-132 -357 -537 0
-133 -358 -538 0
-134 -359 -539 0
-135 -360 -540 0
-131 -361 -541 0
-132 -362 -542 0
-133 -363 -543 0
-134 -364 -544 0
-135 -365 -545 0
-131 -366 -546 0
-132 -367 -547 0
-133 -368 -548 0
-134 -369 -549 0
-135 -370 -550 0
-131 -371 -551 0
-132 -372 -552 0
-133 -373 -553 0
-134 -374 -554 0
-135 -375 -555 0
-131 -376 -516 0
-132 -377 -517 0
-133 -378 -518 0
-134 -379 -519 0
-135 -380 -520 0
-131 -381 -521 0
-132 -382 -522 0
-133 -383 -523 0
-134 -384 -524 0
-135 -385 -525 0
-131 -386 -526 0
-132 -387 -527 0
-133 -388 -528 0
-134 -389 -529 0
-135 -390 -530 0
-131 -391 -531 0
-132 -392 -532 0
-133 -393 -533 0
-134 -394 -534 0
-135 -395 -535 0
-131 -396 -576 0
-132 -397 -577 0
-133 -398 -578 0
-134 -399 -579 0
-135 -400 -580 0
-131 -401 -581 0
-132 -402 -582 0
-133 -403 -583 0
-134 -404 -584 0
-135 -405 -585 0
-131 -406 -586 0
-132 -407 -587 0
-133 -408 -588 0
-134 -409 -589 0
-135 -410 -590 0
-131 -411 -591 0
-132 -412 -592 0
-133 -413 -593 0
-134 -414 -594 0
-135 -415 -595 0
-131 -416 -556 0
-132 -417 -557 0
-133 -418 -558 0
-134 -419 -559 0
-135 -420 -560 0
-131 -421 -561 0
-132 -422 -562 0
-133 -423 -563 0
-134 -424 -564 0
-135 -425 -565 0
-131 -426 -566 0
-132 -427 -567 0
-133 -428 -568 0
-134 -429 -569 0
-135 -430 -570 0
-131 -431 -571 0
-132 -432 -572 0
-133 -433 -573 0
-134 -434 -574 0
-135 -435 -575 0
-131 -436 -616 0
-132 -437 -617 0
-133 -438 -618 0
-134 -439 -619 0
-135 -440 -620 0
-131 -441 -621 0
-132 -442 -622 0
-133 -443 -623 0
-134 -444 -624 0
-135 -445 -625 0
-131 -446 -626 0
-132 -447 -627 0
-133 -448 -628 0
-134 -449 -629 0
-135 -450 -630 0
-131 -451 -631 0
-132 -452 -632 0
-133 -453 -633 0
-134 -454 -634 0
-135 -455 -635 0
-131 -456 -596 0
-132 -457 -597 0
-133 -458 -598 0
-134 -459 -599 0
-135 -460 -600 0
-131 -461 -601 0
-132 -462 -602 0
-133 -463 -603 0
-134 -464 -604 0
-135 -465 -605 0
-131 -466 -606 0
-132 -467 -607 0
-133 -468 -608 0
-134 -469 -609 0
-135 -470 -610 0
-131 -471 -611 0
-132 -472 -612 0
-133 -473 -613 0
-134 -474 -614 0
-135 -475 -615 0
-131 -156 -661 0
-132 -157 -662 0
-133 -158 -663 0
-134 -159 -664 0
-135 -160 -665 0
-131 -161 -656 0
-132 -162 -657 0
-133 -163 -658 0
-134 -164 -659 0
-135 -165 -660 0
-131 -166 -671 0
-132 -167 -672 0
-133 -168 -673 0
-134 -169 -674 0
-135 -170 -675 0
-131 -171 -666 0
-132 -172 -667 0
-133 -173 -668 0
-134 -174 -669 0
-135 -175 -670 0
-131 -176 -641 0
-132 -177 -642 0
-133 -178 -643 0
-134 -179 -644 0
-135 -180 -645 0
-131 -181 -636 0
-132 -182 -637 0
-133 -183 -638 0
-134 -184 -639 0
-135 -185 -640 0
-131 -186 -651 0
-132 -187 -652 0
-133 -188 -653 0
-134 -189 -654 0
-135 -190 -655 0
-131 -191 -646 0
-132 -192 -647 0
-133 -193 -648 0
-134 -194 -649 0
-135 -195 -650 0
-131 -196 -701 0
-132 -197 -702 0
-133 -198 -703 0
-134 -199 -704 0
-135 -200 -705 0
-131 -201 -696 0
-132 -202 -697 0
-133 -203 -698 0
-134 -204 -699 0
-135 -205 -700 0
-131 -206 -711 0
-132 -207 -712 0
-133 -208 -713 0
-134 -209 -714 0
-135 -210 -715 0
-131 -211 -706 0
-132 -212 -707 0
-133 -213 -708 0
-134 -214 -709 0
-135 -215 -710 0
-131 -216 -681 0
-132 -217 -682 0
-133 -218 -683 0
-134 -219 -684 0
-135 -220 -685 0
-131 -221 -676 0
-132 -222 -677 0
-133 -223 -678 0
-134 -224 -679 0
-135 -225 -680 0
-131 -226 -691 0
-132 -227 -692 0
-133 -228 -693 0
-134 -229 -694 0
-135 -230 -695 0
-131 -231 -686 0
-132 -232 -687 0
-133 -233 -688 0
-134 -234 -689 0
-135 -235 -690 0
-131 -236 -741 0
-132 -237 -742 0
-133 -238 -743 0
-134 -239 -744 0
-135 -240 -745 0
-131 -241 -736 0
-132 -242 -737 0
-133 -243 -738 0
-134 -244 -739 0
-135 -245 -740 0
-131 -246 -751 0
-132 -247 -752 0
-133 -248 -753 0
-134 -249 -754 0
-135 -250 -755 0
-131 -251 -746 0
-132 -252 -747 0
-133 -253 -748 0
-134 -254 -749 0
-135 -255 -750 0
-131 -256 -721 0
-132 -257 -722 0
-133 -258 -723 0
-134 -259 -724 0
-135 -260 -725 0
-131 -261 -716 0
-132 -262 -717 0
-133 -263 -718 0
-134 -264 -719 0
-135 -265 -720 0
-131 -266 -731 0
-132 -267 -732 0
-133 -268 -733 0
-134 -269 -734 0
-135 -270 -735 0
-131 -271 -726 0
-132 -272 -727 0
-133 -273 -728 0
-134 -274 -729 0
-135 -275 -730 0
-131 -276 -781 0
-132 -277 -782 0
-133 -278 -783 0
-134 -279 -784 0
-135 -280 -785 0
-131 -281 -776 0
-132 -282 -777 0
-133 -283 -778 0
-134 -284 -779 0
-135 -285 -780 0
-131 -286 -791 0
-132 -287 -792 0
-133 -288 -793 0
-134 -289 -794 0
-135 -290 -795 0
-131 -291 -786 0
-132 -292 -787 0
-133 -293 -788 0
-134 -294 -789 0
-135 -295 -790 0
-131 -296 -761 0
-132 -297 -762 0
-133 -298 -763 0
-134 -299 -764 0
-135 -300 -765 0
-131 -301 -756 0
-132 -302 -757 0
-133 -303 -758 0
-134 -304 -759 0
-135 -305 -760 0
-131 -306 -771 0
-132 -307 -772 0
-133 -308 -773 0
-134 -309 -774 0
-135 -310 -775 0
-131 -311 -766 0
-132 -312 -767 0
-133 -313 -768 0
-134 -314 -769 0
-135 -315 -770 0
-131 -316 -501 0
-132 -317 -502 0
-133 -318 -503 0
-134 -319 -504 0
-135 -320 -505 0
-131 -321 -496 0
-132 -322 -497 0
-133 -323 -498 0
-134 -324 -499 0
-135 -325 -500 0
-131 -326 -511 0
-132 -327 -512 0
-133 -328 -513 0
-134 -329 -514 0
-135 -330 -515 0
-131 -331 -506 0
-132 -332 -507 0
-133 -333 -508 0
-134 -334 -509 0
-135 -335 -510 0
-131 -336 -481 0
-132 -337 -482 0
-133 -338 -483 0
-134 -339 -484 0
-135 -340 -485 0
-131 -341 -476 0
-132 -342 -477 0
-133 -343 -478 0
-134 -344 -479 0
-135 -345 -480 0
-131 -346 -491 0
-132 -347 -492 0
-133 -348 -493 0
-134 -349 -494 0
-135 -350 -495 0
-131 -351 -486 0
-132 -352 -487 0
-133 -353 -488 0
-134 -354 -489 0
-135 -355 -490 0
-131 -356 -541 0
-132 -357 -542 0
-133 -358 -543 0
-134 -359 -544 0
-135 -360 -545 0
-131 -361 -536 0
-132 -362 -537 0
-133 -363 -538 0
-134 -364 -539 0
-135 -365 -540 0
-131 -366 -551 0
-132 -367 -552 0
-133 -368 -553 0
-134 -369 -554 0
-135 -370 -555 0
-131 -371 -546 0
-132 -372 -547 0
-133 -373 -548 0
-134 -374 -549 0
-135 -375 -550 0
-131 -376 -521 0
-132 -377 -522 0
-133 -378 -523 0
-134 -379 -524 0
-135 -380 -525 0
-131 -381 -516 0
-132 -382 -517 0
-133 -383 -518 0
-134 -384 -519 0
-135 -385 -520 0
-131 -386 -531 0
-132 -387 -532 0
-133 -388 -533 0
-134 -389 -534 0
-135 -390 -535 0
-131 -391 -526 0
-132 -392 -527 0
-133 -393 -528 0
-134 -394 -529 0
-135 -395 -530 0
-131 -396 -581 0
-132 -397 -582 0
-133 -398 -583 0
-134 -399 -584 0
-135 -400 -585 0
-131 -401 -576 0
-132 -402 -577 0
-133 -403 -578 0
-134 -404 -579 0
-135 -405 -580 0
-131 -406 -591 0
-132 -407 -592 0
-133 -408 -593 0
-134 -409 -594 0
-135 -410 -595 0
-131 -411 -586 0
-132 -412 -587 0
-133 -413 -588 0
-134 -414 -589 0
-135 -415 -590 0
-131 -416 -561 0
-132 -417 -562 0
-133 -418 -563 0
-134 -419 -564 0
-135 -420 -565 0
-131 -421 -556 0
-132 -422 -557 0
-133 -423 -558 0
-134 -424 -559 0
-135 -425 -560 0
-131 -426 -571 0
-132 -427 -572 0
-133 -428 -573 0
-134 -429 -574 0
-135 -430 -575 0
-131 -431 -566 0
-132 -432 -567 0
-133 -433 -568 0
-134 -434 -569 0
-135 -435 -570 0
-131 -436 -621 0
-132 -437 -622 0
-133 -438 -623 0
-134 -439 -624 0
-135 -440 -625 0
-131 -441 -616 0
-132 -442 -617 0
-133 -443 -618 0
-134 -444 -619 0
-135 -445 -620 0
-131 -446 -631 0
-132 -447 -632 0
-133 -448 -633 0
-134 -449 -634 0
-135 -450 -635 0
-131 -451 -626 0
-132 -452 -627 0
-133 -453 -628 0
-134 -454 -629 0
-135 -455 -630 0
-131 -456 -601 0
-132 -457 -602 0
-133 -458 -603 0
-134 -459 -604 0
-135 -460 -605 0
-131 -461 -596 0
-132 -462 -597 0
-133 -463 -598 0
-134 -464 -599 0
-135 -465 -600 0
-131 -466 -611 0
-132 -467 -612 0
-133 -468 -613 0
-134 -469 -614 0
-135 -470 -615 0
-131 -471 -606 0
-132 -472 -607 0
-133 -473 -608 0
-134 -474 -609 0
-135 -475 -610 0
-131 -156 -666 0
-132 -157 -667 0
-133 -158 -668 0
-134 -159 -669 0
-135 -160 -670 0
-131 -161 -671 0
-132 -162 -672 0
-133 -163 -673 0
-134 -164 -674 0
-135 -165 -675 0
-131 -166 -656 0
-132 -167 -657 0
-133 -168 -658 0
-134 -169 -659 0
-135 -170 -660 0
-131 -171 -661 0
-132 -172 -662 0
-133 -173 -663 0
-134 -174 -664 0
-135 -175 -665 0
-131 -176 -646 0
-132 -177 -647 0
-133 -178 -648 0
-134 -179 -649 0
-135 -180 -650 0
-131 -181 -651 0
-132 -182 -652 0
-133 -183 -653 0
-134 -184 -654 0
-135 -185 -655 0
-131 -186 -636 0
-132 -187 -637 0
-133 -188 -638 0
-134 -189 -639 0
-135 -190 -640 0
-131 -191 -641 0
-132 -192 -642 0
-133 -193 -643 0
-134 -194 -644 0
-135 -195 -645 0
-131 -196 -706 0
-132 -197 -707 0
-133 -198 -708 0
-134 -199 -709 0
-135 -200 -710 0
-131 -201 -711 0
-132 -202 -712 0
-133 -203 -713 0
-134 -204 -714 0
-135 -205 -715 0
-131 -206 -696 0
-132 -207 -697 0
-133 -208 -698 0
-134 -209 -699 0
-135 -210 -700 0
-131 -211 -701 0
-132 -212 -702 0
-133 -213 -703 0
-134 -214 -704 0
-135 -215 -705 0
-131 -216 -686 0
-132 -217 -687 0
-133 -218 -688 0
-134 -219 -689 0
-135 -220 -690 0
-131 -221 -691 0
-132 -222 -692 0
-133 -223 -693 0
-134 -224 -694 0
-135 -225 -695 0
-131 -226 -676 0
-132 -227 -677 0
-133 -228 -678 0
-134 -229 -679 0
-135 -230 -680 0
-131 -231 -681 0
-132 -232 -682 0
-133 -233 -683 0
-134 -234 -684 0
-135 -235 -685 0
-131 -236 -746 0
-132 -237 -747 0
-133 -238 -748 0
-134 -239 -749 0
-135 -240 -750 0
-131 -241 -751 0
-132 -242 -752 0
-133 -243 -753 0
-134 -244 -754 0
-135 -245 -755 0
-131 -246 -736 0
-132 -247 -737 0
-133 -248 -738 0
-134 -249 -739 0
-135 -250 -740 0
-131 -251 -741 0
-132 -252 -742 0
-133 -253 -743 0
-134 -254 -744 0
-135 -255 -745 0
-131 -256 -726 0
-132 -257 -727 0
-133 -258 -728 0
-134 -259 -729 0
-135 -260 -730 0
-131 -261 -731 0
-132 -262 -732 0
-133 -263 -733 0
-134 -264 -734 0
-135 -265 -735 0
-131 -266 -716 0
-132 -267 -717 0
-133 -268 -718 0
-134 -269 -719 0
-135 -270 -720 0
-131 -271 -721 0
-132 -272 -722 0
-133 -273 -723 0
-134 -274 -724 0
-135 -275 -725 0
-131 -276 -786 0
-132 -277 -787 0
-133 -278 -788 0
-134 -279 -789 0
-135 -280 -790 0
-131 -281 -791 0
-132 -282 -792 0
-133 -283 -793 0
-134 -284 -794 0
-135 -285 -795 0
-131 -286 -776 0
-132 -287 -777 0
-133 -288 -778 0
-134 -289 -779 0
-135 -290 -780 0
-131 -291 -781 0
-132 -292 -782 0
-133 -293 -783 0
-134 -294 -784 0
-135 -295 -785 0
-131 -296 -766 0
-132 -297 -767 0
-133 -298 -768 0
-134 -299 -769 0
-135 -300 -770 0
-131 -301 -771 0
-132 -302 -772 0
-133 -303 -773 0
-134 -304 -774 0
-135 -305 -775 0
-131 -306 -756 0
-132 -307 -757 0
-133 -308 -758 0
-134 -309 -759 0
-135 -310 -760 0
-131 -311 -761 0
-132 -312 -762 0
-133 -313 -763 0
-134 -314 -764 0
-135 -315 -765 0
-131 -316 -506 0
-132 -317 -507 0
-133 -318 -508 0
-134 -319 -509 0
-135 -320 -510 0
-131 -321 -511 0
-132 -322 -512 0
-133 -323 -513 0
-134 -324 -514 0
-135 -325 -515 0
-131 -326 -496 0
-132 -327 -497 0
-133 -328 -498 0
-134 -329 -499 0
-135 -330 -500 0
-131 -331 -501 0
-132 -332 -502 0
-133 -333 -503 0
-134 -334 -504 0
-135 -335 -505 0
-131 -336 -486 0
-132 -337 -487 0
-133 -338 -488 0
-134 -339 -489 0
-135 -340 -490 0
-131 -341 -491 0
-132 -342 -492 0
-133 -343 -493 0
-134 -344 -494 0
-135 -345 -495 0
-131 -346 -476 0
-132 -347 -477 0
-133 -348 -478 0
-134 -349 -479 0
-135 -350 -480 0
-131 -351 -481 0
-132 -352 -482 0
-133 -353 -483 0
-134 -354 -484 0
-135 -355 -485 0
-131 -356 -546 0
-132 -357 -547 0
-133 -358 -548 0
-134 -359 -549 0
-135 -360 -550 0
-131 -361 -551 0
-132 -362 -552 0
-133 -363 -553 0
-134 -364 -554 0
-135 -365 -555 0
-131 -366 -536 0
-132 -367 -537 0
-133 -368 -538 0
-134 -369 -539 0
-135 -370 -540 0
-131 -371 -541 0
-132 -372 -542 0
-133 -373 -543 0
-134 -374 -544 0
-135 -375 -545 0
-131 -376 -526 0
-132 -377 -527 0
-133 -378 -528 0
-134 -379 -529 0
-135 -380 -530 0
-131 -381 -531 0
-132 -382 -532 0
-133 -383 -533 0
-134 -384 -534 0
-135 -385 -535 0
-131 -386 -516 0
-132 -387 -517 0
-133 -388 -518 0
-134 -389 -519 0
-135 -390 -520 0
-131 -391 -521 0
-132 -392 -522 0
-133 -393 -523 0
-134 -394 -524 0
-135 -395 -525 0
-131 -396 -586 0
-132 -397 -587 0
-133 -398 -588 0
-134 -399 -589 0
-135 -400 -590 0
-131 -401 -591 0
-132 -402 -592 0
-133 -403 -593 0
-134 -404 -594 0
-135 -405 -595 0
-131 -406 -576 0
-132 -407 -577 0
-133 -408 -578 0
-134 -409 -579 0
-135 -410 -580 0
-131 -411 -581 0
-132 -412 -582 0
-133 -413 -583 0
-134 -414 -584 0
-135 -415 -585 0
-131 -416 -566 0
-132 -417 -567 0
-133 -418 -568 0
-134 -419 -569 0
-135 -420 -570 0
-131 -421 -571 0
-132 -422 -572 0
-133 -423 -573 0
-134 -424 -574 0
-135 -425 -575 0
-131 -426 -556 0
-132 -427 -557 0
-133 -428 -558 0
-134 -429 -559 0
-135 -430 -560 0
-131 -431 -561 0
-132 -432 -562 0
-133 -433 -563 0
-134 -434 -564 0
-135 -435 -565 0
-131 -436 -626 0
-132 -437 -627 0
-133 -438 -628 0
-134 -439 -629 0
-135 -440 -630 0
-131 -441 -631 0
-132 -442 -632 0
-133 -443 -633 0
-134 -444 -634 0
-135 -445 -635 0
-131 -446 -616 0
-132 -447 -617 0
-133 -448 -618 0
-134 -449 -619 0
-135 -450 -620 0
-131 -451 -621 0
-132 -452 -622 0
-133 -453 -623 0
-134 -454 -624 0
-135 -455 -625 0
-131 -456 -606 0
-132 -457 -607 0
-133 -458 -608 0
-134 -459 -609 0
-135 -460 -610 0
-131 -461 -611 0
-132 -462 -612 0
-133 -463 -613 0
-134 -464 -614 0
-135 -465 -615 0
-131 -466 -596 0
-132 -467 -597 0
-133 -468 -598 0
-134 -469 -599 0
-135 -470 -600 0
-131 -471 -601 0
-132 -472 -602 0
-133 -473 -603 0
-134 -474 -604 0
-135 -475 -605 0
-126 -156 -671 0
-127 -157 -672 0
-128 -158 -673 0
-129 -159 -674 0
-130 -160 -675 0
-126 -161 -666 0
-127 -162 -667 0
-128 -163 -668 0
-129 -164 -669 0
-130 -165 -670 0
-126 -166 -661 0
-127 -167 -662 0
-128 -168 -663 0
-129 -169 -664 0
-130 -170 -665 0
-126 -171 -656 0
-127 -172 -657 0
-128 -173 -658 0
-129 -174 -659 0
-130 -175 -660 0
-126 -176 -651 0
-127 -177 -652 0
-128 -178 -653 0
-129 -179 -654 0
-130 -180 -655 0
-126 -181 -646 0
-127 -182 -647 0
-128 -183 -648 0
-129 -184 -649 0
-130 -185 -650 0
-126 -186 -641 0
-127 -187 -642 0
-128 -188 -643 0
-129 -189 -644 0
-130 -190 -645 0
-126 -191 -636 0
-127 -192 -637 0
-128 -193 -638 0
-129 -194 -639 0
-130 -195 -640 0
-126 -196 -711 0
-127 -197 -712 0
-128 -198 -713 0
-129 -199 -714 0
-130 -200 -715 0
-126 -201 -706 0
-127 -202 -707 0
-128 -203 -708 0
-129 -204 -709 0
-130 -205 -710 0
-126 -206 -701 0
-127 -207 -702 0
-128 -208 -703 0
-129 -209 -704 0
-130 -210 -705 0
-126 -211 -696 0
-127 -212 -697 0
-128 -213 -698 0
-129 -214 -699 0
-130 -215 -700 0
-126 -216 -691 0
-127 -217 -692 0
-128 -218 -693 0
-129 -219 -694 0
-130 -220 -695 0
-126 -221 -686 0
-127 -222 -687 0
-128 -223 -688 0
-129 -224 -689 0
-130 -225 -690 0
-126 -226 -681 0
-127 -227 -682 0
-128 -228 -683 0
-129 -229 -684 0
-130 -230 -685 0
-126 -231 -676 0
-127 -232 -677 0
-128 -233 -678 0
-129 -234 -679 0
-130 -235 -680 0
-126 -236 -751 0
-127 -237 -752 0
-128 -238 -753 0
-129 -239 -754 0
-130 -240 -755 0
-126 -241 -746 0
-127 -242 -747 0
-128 -243 -748 0
-129 -244 -749 0
-130 -245 -750 0
-126 -246 -741 0
-127 -247 -742 0
-128 -248 -743 0
-129 -249 -744 0
-130 -250 -745 0
-126 -251 -736 0
-127 -252 -737 0
-128 -253 -738 0
-129 -254 -739 0
-130 -255 -740 0
-126 -256 -731 0
-127 -257 -732 0
-128 -258 -733 0
-129 -259 -734 0
-130 -260 -735 0
-126 -261 -726 0
-127 -262 -727 0
-128 -263 -728 0
-129 -264 -729 0
-130 -265 -730 0
-126 -266 -721 0
-127 -267 -722 0
-128 -268 -723 0
-129 -269 -724 0
-130 -270 -725 0
-126 -271 -716 0
-127 -272 -717 0
-128 -273 -718 0
-129 -274 -719 0
-130 -275 -720 0
-126 -276 -791 0
-127 -277 -792 0
-128 -278 -793 0
-129 -279 -794 0
-130 -280 -795 0
-126 -281 -786 0
-127 -282 -787 0
-128 -283 -788 0
-129 -284 -789 0
-130 -285 -790 0
-126 -286 -781 0
-127 -287 -782 0
-128 -288 -783 0
-129 -289 -784 0
-130 -290 -785 0
-126 -291 -776 0
-127 -292 -777 0
-128 -293 -778 0
-129 -294 -779 0
-130 -295 -780 0
-126 -296 -771 0
-127 -297 -772 0
-128 -298 -773 0
-129 -299 -774 0
-130 -300 -775 0
-126 -301 -766 0
-127 -302 -767 0
-128 -303 -768 0
-129 -304 -769 0
-130 -305 -770 0
-126 -306 -761 0
-127 -307 -762 0
-128 -308 -763 0
-129 -309 -764 0
-130 -310 -765 0
-126 -311 -756 0
-127 -312 -757 0
-128 -313 -758 0
-129 -314 -759 0
-130 -315 -760 0
-126 -316 -511 0
-127 -317 -512 0
-128 -318 -513 0
-129 -319 -514 0
-130 -320 -515 0
-126 -321 -506 0
-127 -322 -507 0
-128 -323 -508 0
-129 -324 -509 0
-130 -325 -510 0
-126 -326 -501 0
-127 -327 -502 0
-128 -328 -503 0
-129 -329 -504 0
-130 -330 -505 0
-126 -331 -496 0
-127 -332 -497 0
-128 -333 -498 0
-129 -334 -499 0
-130 -335 -500 0
-126 -336 -491 0
-127 -337 -492 0
-128 -338 -493 0
-129 -339 -494 0
-130 -340 -495 0
-126 -341 -486 0
-127 -342 -487 0
-128 -343 -488 0
-129 -344 -489 0
-130 -345 -490 0
-126 -346 -481 0
-127 -347 -482 0
-128 -348 -483 0
-129 -349 -484 0
-130 -350 -485 0
-126 -351 -476 0
-127 -352 -477 0
-128 -353 -478 0
-129 -354 -479 0
-130 -355 -480 0
-126 -356 -551 0
-127 -357 -552 0
-128 -358 -553 0
-129 -359 -554 0
-130 -360 -555 0
-126 -361 -546 0
-127 -362 -547 0
-128 -363 -548 0
-129 -364 -549 0
-130 -365 -550 0
-126 -366 -541 0
-127 -367 -542 0
-128 -368 -543 0
-129 -369 -544 0
-130 -370 -545 0
-126 -371 -536 0
-127 -372 -537 0
-128 -373 -538 0
-129 -374 -539 0
-130 -375 -540 0
-126 -376 -531 0
-127 -377 -532 0
-128 -378 -533 0
-129 -379 -534 0
-130 -380 -535 0
-126 -381 -526 0
-127 -382 -527 0
-128 -383 -528 0
-129 -384 -529 0
-130 -385 -530 0
-126 -386 -521 0
-127 -387 -522 0
-128 -388 -523 0
-129 -389 -524 0
-130 -390 -525 0
-126 -391 -516 0
-127 -392 -517 0
-128 -393 -518 0
-129 -394 -519 0
-130 -395 -520 0
-126 -396 -591 0
-127 -397 -592 0
-128 -398 -593 0
-129 -399 -594 0
-130 -400 -595 0
-126 -401 -586 0
-127 -402 -587 0
-128 -403 -588 0
-129 -404 -589 0
-130 -405 -590 0
-126 -406 -581 0
-127 -407 -582 0
-128 -408 -583 0
-129 -409 -584 0
-130 -410 -585 0
-126 -411 -576 0
-127 -412 -577 0
-128 -413 -578 0
-129 -414 -579 0
-130 -415 -580 0
-126 -416 -571 0
-127 -417 -572 0
-128 -418 -573 0
-129 -419 -574 0
-130 -420 -575 0
-126 -421 -566 0
-127 -422 -567 0
-128 -423 -568 0
-129 -424 -569 0
-130 -425 -570 0
-126 -426 -561 0
-127 -427 -562 0
-128 -428 -563 0
-129 -429 -564 0
-130 -430 -565 0
-126 -431 -556 0
-127 -432 -557 0
-128 -433 -558 0
-129 -434 -559 0
-130 -435 -560 0
-126 -436 -631 0
-127 -437 -632 0
-128 -438 -633 0
-129 -439 -634 0
-130 -440 -635 0
-126 -441 -626 0
-127 -442 -627 0
-128 -443 -628 0
-129 -444 -629 0
-130 -445 -630 0
-126 -446 -621 0
-127 -447 -622 0
-128 -448 -623 0
-129 -449 -624 0
-130 -450 -625 0
-126 -451 -616 0
-127 -452 -617 0
-128 -453 -618 0
-129 -454 -619 0
-130 -455 -620 0
-126 -456 -611 0
-127 -457 -612 0
-128 -458 -613 0
-129 -459 -614 0
-130 -460 -615 0
-126 -461 -606 0
-127 -462 -607 0
-128 -463 -608 0
-129 -464 -609 0
-130 -465 -610 0
-126 -466 -601 0
-127 -467 -602 0
-128 -468 -603 0
-129 -469 -604 0
-130 -470 -605 0
-126 -471 -596 0
-127 -472 -597 0
-128 -473 -598 0
-129 -474 -599 0
-130 -475 -600 0
-121 -156 -676 0
-122 -157 -677 0
-123 -158 -678 0
-124 -159 -679 0
-125 -160 -680 0
-121 -161 -681 0
-122 -162 -682 0
-123 -163 -683 0
-124 -164 -684 0
-125 -165 -685 0
-121 -166 -686 0
-122 -167 -687 0
-123 -168 -688 0
-124 -169 -689 0
-125 -170 -690 0
-121 -171 -691 0
-122 -172 -692 0
-123 -173 -693 0
-124 -174 -694 0
-125 -175 -695 0
-121 -176 -696 0
-122 -177 -697 0
-123 -178 -698 0
-124 -179 -699 0
-125 -180 -700 0
-121 -181 -701 0
-122 -182 -702 0
-123 -183 -703 0
-124 -184 -704 0
-125 -185 -705 0
-121 -186 -706 0
-122 -187 -707 0
-123 -188 -708 0
-124 -189 -709 0
-125 -190 -710 0
-121 -191 -711 0
-122 -192 -712 0
-123 -193 -713 0
-124 -194 -714 0
-125 -195 -715 0
-121 -196 -636 0
-122 -197 -637 0
-123 -198 -638 0
-124 -199 -639 0
-125 -200 -640 0
-121 -201 -641 0
-122 -202 -642 0
-123 -203 -643 0
-124 -204 -644 0
-125 -205 -645 0
-121 -206 -646 0
-122 -207 -647 0
-123 -208 -648 0
-124 -209 -649 0
-125 -210 -650 0
-121 -211 -651 0
-122 -212 -652 0
-123 -213 -653 0
-124 -214 -654 0
-125 -215 -655 0
-121 -216 -656 0
-122 -217 -657 0
-123 -218 -658 0
-124 -219 -659 0
-125 -220 -660 0
-121 -221 -661 0
-122 -222 -662 0
-123 -223 -663 0
-124 -224 -664 0
-125 -225 -665 0
-121 -226 -666 0
-122 -227 -667 0
-123 -228 -668 0
-124 -229 -669 0
-125 -230 -670 0
-121 -231 -671 0
-122 -232 -672 0
-123 -233 -673 0
-124 -234 -674 0
-125 -235 -675 0
-121 -236 -756 0
-122 -237 -757 0
-123 -238 -758 0
-124 -239 -759 0
-125 -240 -760 0
-121 -241 -761 0
-122 -242 -762 0
-123 -243 -763 0
-124 -244 -764 0
-125 -245 -765 0
-121 -246 -766 0
-122 -247 -767 0
-123 -248 -768 0
-124 -249 -769 0
-125 -250 -770 0
-121 -251 -771 0
-122 -252 -772 0
-123 -253 -773 0
-124 -254 -774 0
-125 -255 -775 0
-121 -256 -776 0
-122 -257 -777 0
-123 -258 -778 0
-124 -259 -779 0
-125 -260 -780 0
-121 -261 -781 0
-122 -262 -782 0
-123 -263 -783 0
-124 -264 -784 0
-125 -265 -785 0
-121 -266 -786 0
-122 -267 -787 0
-123 -268 -788 0
-124 -269 -789 0
-125 -270 -790 0
-121 -271 -791 0
-122 -272 -792 0
-123 -273 -793 0
-124 -274 -794 0
-125 -275 -795 0
-121 -276 -716 0
-122 -277 -717 0
-123 -278 -718 0
-124 -279 -719 0
-125 -280 -720 0
-121 -281 -721 0
-122 -282 -722 0
-123 -283 -723 0
-124 -284 -724 0
-125 -285 -725 0
-121 -286 -726 0
-122 -287 -727 0
-123 -288 -728 0
-124 -289 -729 0
-125 -290 -730 0
-121 -291 -731 0
-122 -292 -732 0
-123 -293 -733 0
-124 -294 -734 0
-125 -295 -735 0
-121 -296 -736 0
-122 -297 -737 0
-123 -298 -738 0
-124 -299 -739 0
-125 -300 -740 0
-121 -301 -741 0
-122 -302 -742 0
-123 -303 -743 0
-124 -304 -744 0
-125 -305 -745 0
-121 -306 -746 0
-122 -307 -747 0
-123 -308 -748 0
-124 -309 -749 0
-125 -310 -750 0
-121 -311 -751 0
-122 -312 -752 0
-123 -313 -753 0
-124 -314 -754 0
-125 -315 -755 0
-121 -316 -516 0
-122 -317 -517 0
-123 -318 -518 0
-124 -319 -519 0
-125 -320 -520 0
-121 -321 -521 0
-122 -322 -522 0
-123 -323 -523 0
-124 -324 -524 0
-125 -325 -525 0
-121 -326 -526 0
-122 -327 -527 0
-123 -328 -528 0
-124 -329 -529 0
-125 -330 -530 0
-121 -331 -531 0
-122 -332 -532 0
-123 -333 -533 0
-124 -334 -534 0
-125 -335 -535 0
-121 -336 -536 0
-122 -337 -537 0
-123 -338 -538 0
-124 -339 -539 0
-125 -340 -540 0
-121 -341 -541 0
-122 -342 -542 0
-123 -343 -543 0
-124 -344 -544 0
-125 -345 -545 0
-121 -346 -546 0
-122 -347 -547 0
-123 -348 -548 0
-124 -349 -549 0
-125 -350 -550 0
-121 -351 -551 0
-122 -352 -552 0
-123 -353 -553 0
-124 -354 -554 0
-125 -355 -555 0
-121 -356 -476 0
-122 -357 -477 0
-123 -358 -478 0
-124 -359 -479 0
-125 -360 -480 0
-121 -361 -481 0
-122 -362 -482 0
-123 -363 -483 0
-124 -364 -484 0
-125 -365 -485 0
-121 -366 -486 0
-122 -367 -487 0
-123 -368 -488 0
-124 -369 -489 0
-125 -370 -490 0
-121 -371 -491 0
-122 -372 -492 0
-123 -373 -493 0
-124 -374 -494 0
-125 -375 -495 0
-121 -376 -496 0
-122 -377 -497 0
-123 -378 -498 0
-124 -379 -499 0
-125 -380 -500 0
-121 -381 -501 0
-122 -382 -502 0
-123 -383 -503 0
-124 -384 -504 0
-125 -385 -505 0
-121 -386 -506 0
-122 -387 -507 0
-123 -388 -508 0
-124 -389 -509 0
-125 -390 -510 0
-121 -391 -511 0
-122 -392 -512 0
-123 -393 -513 0
-124 -394 -514 0
-125 -395 -515 0
-121 -396 -596 0
-122 -397 -597 0
-123 -398 -598 0
-124 -399 -599 0
-125 -400 -600 0
-121 -401 -601 0
-122 -402 -602 0
-123 -403 -603 0
-124 -404 -604 0
-125 -405 -605 0
-121 -406 -606 0
-122 -407 -607 0
-123 -408 -608 0
-124 -409 -609 0
-125 -410 -610 0
-121 -411 -611 0
-122 -412 -612 0
-123 -413 -613 0
-124 -414 -614 0
-125 -415 -615 0
-121 -416 -616 0
-122 -417 -617 0
-123 -418 -618 0
-124 -419 -619 0
-125 -420 -620 0
-121 -421 -621 0
-122 -422 -622 0
-123 -423 -623 0
-124 -424 -624 0
-125 -425 -625 0
-121 -426 -626 0
-122 -427 -627 0
-123 -428 -628 0
-124 -429 -629 0
-125 -430 -630 0
-121 -431 -631 0
-122 -432 -632 0
-123 -433 -633 0
-124 -434 -634 0
-125 -435 -635 0
-121 -436 -556 0
-122 -437 -557 0
-123 -438 -558 0
-124 -439 -559 0
-125 -440 -560 0
-121 -441 -561 0
-122 -442 -562 0
-123 -443 -563 0
-124 -444 -564 0
-125 -445 -565 0
-121 -446 -566 0
-122 -447 -567 0
-123 -448 -568 0
-124 -449 -569 0
-125 -450 -570 0
-121 -451 -571 0
-122 -452 -572 0
-123 -453 -573 0
-124 -454 -574 0
-125 -455 -575 0
-121 -456 -576 0
-122 -457 -577 0
-123 -458 -578 0
-124 -459 -579 0
-125 -460 -580 0
-121 -461 -581 0
-122 -462 -582 0
-123 -463 -583 0
-124 -464 -584 0
-125 -465 -585 0
-121 -466 -586 0
-122 -467 -587 0
-123 -468 -588 0
-124 -469 -589 0
-125 -470 -590 0
-121 -471 -591 0
-122 -472 -592 0
-123 -473 -593 0
-124 -474 -594 0
-125 -475 -595 0
-131 -156 -681 0
-132 -157 -682 0
-133 -158 -683 0
-134 -159 -684 0
-135 -160 -685 0
-131 -161 -676 0
-132 -162 -677 0
-133 -163 -678 0
-134 -164 -679 0
-135 -165 -680 0
-131 -166 -691 0
-132 -167 -692 0
-133 -168 -693 0
-134 -169 -694 0
-135 -170 -695 0
-131 -171 -686 0
-132 -172 -687 0
-133 -173 -688 0
-134 -174 -689 0
-135 -175 -690 0
-131 -176 -701 0
-132 -177 -702 0
-133 -178 -703 0
-134 -179 -704 0
-135 -180 -705 0
-131 -181 -696 0
-132 -182 -697 0
-133 -183 -698 0
-134 -184 -699 0
-135 -185 -700 0
-131 -186 -711 0
-132 -187 -712 0
-133 -188 -713 0
-134 -189 -714 0
-135 -190 -715 0
-131 -191 -706 0
-132 -192 -707 0
-133 -193 -708 0
-134 -194 -709 0
-135 -195 -710 0
-131 -196 -641 0
-132 -197 -642 0
-133 -198 -643 0
-134 -199 -644 0
-135 -200 -645 0
-131 -201 -636 0
-132 -202 -637 0
-133 -203 -638 0
-134 -204 -639 0
-135 -205 -640 0
-131 -206 -651 0
-132 -207 -652 0
-133 -208 -653 0
-134 -209 -654 0
-135 -210 -655 0
-131 -211 -646 0
-132 -212 -647 0
-133 -213 -648 0
-134 -214 -649 0
-135 -215 -650 0
-131 -216 -661 0
-132 -217 -662 0
-133 -218 -663 0
-134 -219 -664 0
-135 -220 -665 0
-131 -221 -656 0
-132 -222 -657 0
-133 -223 -658 0
-134 -224 -659 0
-135 -225 -660 0
-131 -226 -671 0
-132 -227 -672 0
-133 -228 -673 0
-134 -229 -674 0
-135 -230 -675 0
-131 -231 -666 0
-132 -232 -667 0
-133 -233 -668 0
-134 -234 -669 0
-135 -235 -670 0
-131 -236 -761 0
-132 -237 -762 0
-133 -238 -763 0
-134 -239 -764 0
-135 -240 -765 0
-131 -241 -756 0
-132 -242 -757 0
-133 -243 -758 0
-134 -244 -759 0
-135 -245 -760 0
-131 -246 -771 0
-132 -247 -772 0
-133 -248 -773 0
-134 -249 -774 0
-135 -250 -775 0
-131 -251 -766 0
-132 -252 -767 0
-133 -253 -768 0
-134 -254 -769 0
-135 -255 -770 0
-131 -256 -781 0
-132 -257 -782 0
-133 -258 -783 0
-134 -259 -784 0
-135 -260 -785 0
-131 -261 -776 0
-132 -262 -777 0
-133 -263 -778 0
-134 -264 -779 0
-135 -265 -780 0
-131 -266 -791 0
-132 -267 -792 0
-133 -268 -793 0
-134 -269 -794 0
-135 -270 -795 0
-131 -271 -786 0
-132 -272 -787 0
-133 -273 -788 0
-134 -274 -789 0
-135 -275 -790 0
-131 -276 -721 0
-132 -277 -722 0
-133 -278 -723 0
-134 -279 -724 0
-135 -280 -725 0
-131 -281 -716 0
-132 -282 -717 0
-133 -283 -718 0
-134 -284 -719 0
-135 -285 -720 0
-131 -286 -731 0
-132 -287 -732 0
-133 -288 -733 0
-134 -289 -734 0
-135 -290 -735 0
-131 -291 -726 0
-132 -292 -727 0
-133 -293 -728 0
-134 -294 -729 0
-135 -295 -730 0
-131 -296 -741 0
-132 -297 -742 0
-133 -298 -743 0
-134 -299 -744 0
-135 -300 -745 0
-131 -301 -736 0
-132 -302 -737 0
-133 -303 -738 0
-134 -304 -739 0
-135 -305 -740 0
-131 -306 -751 0
-132 -307 -752 0
-133 -308 -753 0
-134 -309 -754 0
-135 -310 -755 0
-131 -311 -746 0
-132 -312 -747 0
-133 -313 -748 0
-134 -314 -749 0
-135 -315 -750 0
-131 -316 -521 0
-132 -317 -522 0
-133 -318 -523 0
-134 -319 -524 0
-135 -320 -525 0
-131 -321 -516 0
-132 -322 -517 0
-133 -323 -518 0
-134 -324 -519 0
-135 -325 -520 0
-131 -326 -531 0
-132 -327 -532 0
-133 -328 -533 0
-134 -329 -534 0
-135 -330 -535 0
-131 -331 -526 0
-132 -332 -527 0
-133 -333 -528 0
-134 -334 -529 0
-135 -335 -530 0
-131 -336 -541 0
-132 -337 -542 0
-133 -338 -543 0
-134 -339 -544 0
-135 -340 -545 0
-131 -341 -536 0
-132 -342 -537 0
-133 -343 -538 0
-134 -344 -539 0
-135 -345 -540 0
-131 -346 -551 0
-132 -347 -552 0
-133 -348 -553 0
-134 -349 -554 0
-135 -350 -555 0
-131 -351 -546 0
-132 -352 -547 0
-133 -353 -548 0
-134 -354 -549 0
-135 -355 -550 0
-131 -356 -481 0
-132 -357 -482 0
-133 -358 -483 0
-134 -359 -484 0
-135 -360 -485 0
-131 -361 -476 0
-132 -362 -477 0
-133 -363 -478 0
-134 -364 -479 0
-135 -365 -480 0
-131 -366 -491 0
-132 -367 -492 0
-133 -368 -493 0
-134 -369 -494 0
-135 -370 -495 0
-131 -371 -486 0
-132 -372 -487 0
-133 -373 -488 0
-134 -374 -489 0
-135 -375 -490 0
-131 -376 -501 0
-132 -377 -502 0
-133 -378 -503 0
-134 -379 -504 0
-135 -380 -505 0
-131 -381 -496 0
-132 -382 -497 0
-133 -383 -498 0
-134 -384 -499 0
-135 -385 -500 0
-131 -386 -511 0
-132 -387 -512 0
-133 -388 -513 0
-134 -389 -514 0
-135 -390 -515 0
-131 -391 -506 0
-132 -392 -507 0
-133 -393 -508 0
-134 -394 -509 0
-135 -395 -510 0
-131 -396 -601 0
-132 -397 -602 0
-133 -398 -603 0
-134 -399 -604 0
-135 -400 -605 0
-131 -401 -596 0
-132 -402 -597 0
-133 -403 -598 0
-134 -404 -599 0
-135 -405 -600 0
-131 -406 -611 0
-132 -407 -612 0
-133 -408 -613 0
-134 -409 -614 0
-135 -410 -615 0
-131 -411 -606 0
-132 -412 -607 0
-133 -413 -608 0
-134 -414 -609 0
-135 -415 -610 0
-131 -416 -621 0
-132 -417 -622 0
-133 -418 -623 0
-134 -419 -624 0
-135 -420 -625 0
-131 -421 -616 0
-132 -422 -617 0
-133 -423 -618 0
-134 -424 -619 0
-135 -425 -620 0
-131 -426 -631 0
-132 -427 -632 0
-133 -428 -633 0
-134 -429 -634 0
-135 -430 -635 0
-131 -431 -626 0
-132 -432 -627 0
-133 -433 -628 0
-134 -434 -629 0
-135 -435 -630 0
-131 -436 -561 0
-132 -437 -562 0
-133 -438 -563 0
-134 -439 -564 0
-135 -440 -565 0
-131 -441 -556 0
-132 -442 -557 0
-133 -443 -558 0
-134 -444 -559 0
-135 -445 -560 0
-131 -446 -571 0
-132 -447 -572 0
-133 -448 -573 0
-134 -449 -574 0
-135 -450 -575 0
-131 -451 -566 0
-132 -452 -567 0
-133 -453 -568 0
-134 -454 -569 0
-135 -455 -570 0
-131 -456 -581 0
-132 -457 -582 0
-133 -458 -583 0
-134 -459 -584 0
-135 -460 -585 0
-131 -461 -576 0
-132 -462 -577 0
-133 -463 -578 0
-134 -464 -579 0
-135 -465 -580 0
-131 -466 -591 0
-132 -467 -592 0
-133 -468 -593 0
-134 -469 -594 0
-135 -470 -595 0
-131 -471 -586 0
-132 -472 -587 0
-133 -473 -588 0
-134 -474 -589 0
-135 -475 -590 0
-121 -156 -686 0
-122 -157 -687 0
-123 -158 -688 0
-124 -159 -689 0
-125 -160 -690 0
-121 -161 -691 0
-122 -162 -692 0
-123 -163 -693 0
-124 -164 -694 0
-125 -165 -695 0
-121 -166 -676 0
-122 -167 -677 0
-123 -168 -678 0
-124 -169 -679 0
-125 -170 -680 0
-121 -171 -681 0
-122 -172 -682 0
-123 -173 -683 0
-124 -174 -684 0
-125 -175 -685 0
-121 -176 -706 0
-122 -177 -707 0
-123 -178 -708 0
-124 -179 -709 0
-125 -180 -710 0
-121 -181 -711 0
-122 -182 -712 0
-123 -183 -713 0
-124 -184 -714 0
-125 -185 -715 0
-121 -186 -696 0
-122 -187 -697 0
-123 -188 -698 0
-124 -189 -699 0
-125 -190 -700 0
-121 -191 -701 0
-122 -192 -702 0
-123 -193 -703 0
-124 -194 -704 0
-125 -195 -705 0
-121 -196 -646 0
-122 -197 -647 0
-123 -198 -648 0
-124 -199 -649 0
-125 -200 -650 0
-121 -201 -651 0
-122 -202 -652 0
-123 -203 -653 0
-124 -204 -654 0
-125 -205 -655 0
-121 -206 -636 0
-122 -207 -637 0
-123 -208 -638 0
-124 -209 -639 0
-125 -210 -640 0
-121 -211 -641 0
-122 -212 -642 0
-123 -213 -643 0
-124 -214 -644 0
-125 -215 -645 0
-121 -216 -666 0
-122 -217 -667 0
-123 -218 -668 0
-124 -219 -669 0
-125 -220 -670 0
-121 -221 -671 0
-122 -222 -672 0
-123 -223 -673 0
-124 -224 -674 0
-125 -225 -675 0
-121 -226 -656 0
-122 -227 -657 0
-123 -228 -658 0
-124 -229 -659 0
-125 -230 -660 0
-121 -231 -661 0
-122 -232 -662 0
-123 -233 -663 0
-124 -234 -664 0
-125 -235 -665 0
-121 -236 -766 0
-122 -237 -767 0
-123 -238 -768 0
-124 -239 -769 0
-125 -240 -770 0
-121 -241 -771 0
-122 -242 -772 0
-123 -243 -773 0
-124 -244 -774 0
-125 -245 -775 0
-121 -246 -756 0
-122 -247 -757 0
-123 -248 -758 0
-124 -249 -759 0
-125 -250 -760 0
-121 -251 -761 0
-122 -252 -762 0
-123 -253 -763 0
-124 -254 -764 0
-125 -255 -765 0
-121 -256 -786 0
-122 -257 -787 0
-123 -258 -788 0
-124 -259 -789 0
-125 -260 -790 0
-121 -261 -791 0
-122 -262 -792 0
-123 -263 -793 0
-124 -264 -794 0
-125 -265 -795 0
-121 -266 -776 0
-122 -267 -777 0
-123 -268 -778 0
-124 -269 -779 0
-125 -270 -780 0
-121 -271 -781 0
-122 -272 -782 0
-123 -273 -783 0
-124 -274 -784 0
-125 -275 -785 0
-121 -276 -726 0
-122 -277 -727 0
-123 -278 -728 0
-124 -279 -729 0
-125 -280 -730 0
-121 -281 -731 0
-122 -282 -732 0
-123 -283 -733 0
-124 -284 -734 0
-125 -285 -735 0
-121 -286 -716 0
-122 -287 -717 0
-123 -288 -718 0
-124 -289 -719 0
-125 -290 -720 0
-121 -291 -721 0
-122 -292 -722 0
-123 -293 -723 0
-124 -294 -724 0
-125 -295 -725 0
-121 -296 -746 0
-122 -297 -747 0
-123 -298 -748 0
-124 -299 -749 0
-125 -300 -750 0
-121 -301 -751 0
-122 -302 -752 0
-123 -303 -753 0
-124 -304 -754 0
-125 -305 -755 0
-121 -306 -736 0
-122 -307 -737 0
-123 -308 -738 0
-124 -309 -739 0
-125 -310 -740 0
-121 -311 -741 0
-122 -312 -742 0
-123 -313 -743 0
-124 -314 -744 0
-125 -315 -745 0
-121 -316 -526 0
-122 -317 -527 0
-123 -318 -528 0
-124 -319 -529 0
-125 -320 -530 0
-121 -321 -531 0
-122 -322 -532 0
-123 -323 -533 0
-124 -324 -534 0
-125 -325 -535 0
-121 -326 -516 0
-122 -327 -517 0
-123 -328 -518 0
-124 -329 -519 0
-125 -330 -520 0
-121 -331 -521 0
-122 -332 -522 0
-123 -333 -523 0
-124 -334 -524 0
-125 -335 -525 0
-121 -336 -546 0
-122 -337 -547 0
-123 -338 -548 0
-124 -339 -549 0
-125 -340 -550 0
-121 -341 -551 0
-122 -342 -552 0
-123 -343 -553 0
-124 -344 -554 0
-125 -345 -555 0
-121 -346 -536 0
-122 -347 -537 0
-123 -348 -538 0
-124 -349 -539 0
-125 -350 -540 0
-121 -351 -541 0
-122 -352 -542 0
-123 -353 -543 0
-124 -354 -544 0
-125 -355 -545 0
-121 -356 -486 0
-122 -357 -487 0
-123 -358 -488 0
-124 -359 -489 0
-125 -360 -490 0
-121 -361 -491 0
-122 -362 -492 0
-123 -363 -493 0
-124 -364 -494 0
-125 -365 -495 0
-121 -366 -476 0
-122 -367 -477 0
-123 -368 -478 0
-124 -369 -479 0
-125 -370 -480 0
-121 -371 -481 0
-122 -372 -482 0
-123 -373 -483 0
-124 -374 -484 0
-125 -375 -485 0
-121 -376 -506 0
-122 -377 -507 0
-123 -378 -508 0
-124 -379 -509 0
-125 -380 -510 0
-121 -381 -511 0
-122 -382 -512 0
-123 -383 -513 0
-124 -384 -514 0
-125 -385 -515 0
-121 -386 -496 0
-122 -387 -497 0
-123 -388 -498 0
-124 -389 -499 0
-125 -390 -500 0
-121 -391 -501 0
-122 -392 -502 0
-123 -393 -503 0
-124 -394 -504 0
-125 -395 -505 0
-121 -396 -606 0
-122 -397 -607 0
-123 -398 -608 0
-124 -399 -609 0
-125 -400 -610 0
-121 -401 -611 0
-122 -402 -612 0
-123 -403 -613 0
-124 -404 -614 0
-125 -405 -615 0
-121 -406 -596 0
-122 -407 -597 0
-123 -408 -598 0
-124 -409 -599 0
-125 -410 -600 0
-121 -411 -601 0
-122 -412 -602 0
-123 -413 -603 0
-124 -414 -604 0
-125 -415 -605 0
-121 -416 -626 0
-122 -417 -627 0
-123 -418 -628 0
-124 -419 -629 0
-125 -420 -630 0
-121 -421 -631 0
-122 -422 -632 0
-123 -423 -633 0
-124 -424 -634 0
-125 -425 -635 0
-121 -426 -616 0
-122 -427 -617 0
-123 -428 -618 0
-124 -429 -619 0
-125 -430 -620 0
-121 -431 -621 0
-122 -432 -622 0
-123 -433 -623 0
-124 -434 -624 0
-125 -435 -625 0
-121 -436 -566 0
-122 -437 -567 0
-123 -438 -568 0
-124 -439 -569 0
-125 -440 -570 0
-121 -441 -571 0
-122 -442 -572 0
-123 -443 -573 0
-124 -444 -574 0
-125 -445 -575 0
-121 -446 -556 0
-122 -447 -557 0
-123 -448 -558 0
-124 -449 -559 0
-125 -450 -560 0
-121 -451 -561 0
-122 -452 -562 0
-123 -453 -563 0
-124 -454 -564 0
-125 -455 -565 0
-121 -456 -586 0
-122 -457 -587 0
-123 -458 -588 0
-124 -459 -589 0
-125 -460 -590 0
-121 -461 -591 0
-122 -462 -592 0
-123 -463 -593 0
-124 -464 -594 0
-125 -465 -595 0
-121 -466 -576 0
-122 -467 -577 0
-123 -468 -578 0
-124 -469 -579 0
-125 -470 -580 0
-121 -471 -581 0
-122 -472 -582 0
-123 -473 -583 0
-124 -474 -584 0
-125 -475 -585 0
-126 -156 -691 0
-127 -157 -692 0
-128 -158 -693 0
-129 -159 -694 0
-130 -160 -695 0
-126 -161 -686 0
-127 -162 -687 0
-128 -163 -688 0
-129 -164 -689 0
-130 -165 -690 0
-126 -166 -681 0
-127 -167 -682 0
-128 -168 -683 0
-129 -169 -684 0
-130 -170 -685 0
-126 -171 -676 0
-127 -172 -677 0
-128 -173 -678 0
-129 -174 -679 0
-130 -175 -680 0
-126 -176 -711 0
-127 -177 -712 0
-128 -178 -713 0
-129 -179 -714 0
-130 -180 -715 0
-126 -181 -706 0
-127 -182 -707 0
-128 -183 -708 0
-129 -184 -709 0
-130 -185 -710 0
-126 -186 -701 0
-127 -187 -702 0
-128 -188 -703 0
-129 -189 -704 0
-130 -190 -705 0
-126 -191 -696 0
-127 -192 -697 0
-128 -193 -698 0
-129 -194 -699 0
-130 -195 -700 0
-126 -196 -651 0
-127 -197 -652 0
-128 -198 -653 0
-129 -199 -654 0
-130 -200 -655 0
-126 -201 -646 0
-127 -202 -647 0
-128 -203 -648 0
-129 -204 -649 0
-130 -205 -650 0
-126 -206 -641 0
-127 -207 -642 0
-128 -208 -643 0
-129 -209 -644 0
-130 -210 -645 0
-126 -211 -636 0
-127 -212 -637 0
-128 -213 -638 0
-129 -214 -639 0
-130 -215 -640 0
-126 -216 -671 0
-127 -217 -672 0
-128 -218 -673 0
-129 -219 -674 0
-130 -220 -675 0
-126 -221 -666 0
-127 -222 -667 0
-128 -223 -668 0
-129 -224 -669 0
-130 -225 -670 0
-126 -226 -661 0
-127 -227 -662 0
-128 -228 -663 0
-129 -229 -664 0
-130 -230 -665 0
-126 -231 -656 0
-127 -232 -657 0
-128 -233 -658 0
-129 -234 -659 0
-130 -235 -660 0
-126 -236 -771 0
-127 -237 -772 0
-128 -238 -773 0
-129 -239 -774 0
-130 -240 -775 0
-126 -241 -766 0
-127 -242 -767 0
-128 -243 -768 0
-129 -244 -769 0
-130 -245 -770 0
-126 -246 -761 0
-127 -247 -762 0
-128 -248 -763 0
-129 -249 -764 0
-130 -250 -765 0
-126 -251 -756 0
-127 -252 -757 0
-128 -253 -758 0
-129 -254 -759 0
-130 -255 -760 0
-126 -256 -791 0
-127 -257 -792 0
-128 -258 -793 0
-129 -259 -794 0
-130 -260 -795 0
-126 -261 -786 0
-127 -262 -787 0
-128 -263 -788 0
-129 -264 -789 0
-130 -265 -790 0
-126 -266 -781 0
-127 -267 -782 0
-128 -268 -783 0
-129 -269 -784 0
-130 -270 -785 0
-126 -271 -776 0
-127 -272 -777 0
-128 -273 -778 0
-129 -274 -779 0
-130 -275 -780 0
-126 -276 -731 0
-127 -277 -732 0
-128 -278 -733 0
-129 -279 -734 0
-130 -280 -735 0
-126 -281 -726 0
-127 -282 -727 0
-128 -283 -728 0
-129 -284 -729 0
-130 -285 -730 0
-126 -286 -721 0
-127 -287 -722 0
-128 -288 -723 0
-129 -289 -724 0
-130 -290 -725 0
-126 -291 -716 0
-127 -292 -717 0
-128 -293 -718 0
-129 -294 -719 0
-130 -295 -720 0
-126 -296 -751 0
-127 -297 -752 0
-128 -298 -753 0
-129 -299 -754 0
-130 -300 -755 0
-126 -301 -746 0
-127 -302 -747 0
-128 -303 -748 0
-129 -304 -749 0
-130 -305 -750 0
-126 -306 -741 0
-127 -307 -742 0
-128 -308 -743 0
-129 -309 -744 0
-130 -310 -745 0
-126 -311 -736 0
-127 -312 -737 0
-128 -313 -738 0
-129 -314 -739 0
-130 -315 -740 0
-126 -316 -531 0
-127 -317 -532 0
-128 -318 -533 0
-129 -319 -534 0
-130 -320 -535 0
-126 -321 -526 0
-127 -322 -527 0
-128 -323 -528 0
-129 -324 -529 0
-130 -325 -530 0
-126 -326 -521 0
-127 -327 -522 0
-128 -328 -523 0
-129 -329 -524 0
-130 -330 -525 0
-126 -331 -516 0
-127 -332 -517 0
-128 -333 -518 0
-129 -334 -519 0
-130 -335 -520 0
-126 -336 -551 0
-127 -337 -552 0
-128 -338 -553 0
-129 -339 -554 0
-130 -340 -555 0
-126 -341 -546 0
-127 -342 -547 0
-128 -343 -548 0
-129 -344 -549 0
-130 -345 -550 0
-126 -346 -541 0
-127 -347 -542 0
-128 -348 -543 0
-129 -349 -544 0
-130 -350 -545 0
-126 -351 -536 0
-127 -352 -537 0
-128 -353 -538 0
-129 -354 -539 0
-130 -355 -540 0
-126 -356 -491 0
-127 -357 -492 0
-128 -358 -493 0
-129 -359 -494 0
-130 -360 -495 0
-126 -361 -486 0
-127 -362 -487 0
-128 -363 -488 0
-129 -364 -489 0
-130 -365 -490 0
-126 -366 -481 0
-127 -367 -482 0
-128 -368 -483 0
-129 -369 -484 0
-130 -370 -485 0
-126 -371 -476 0
-127 -372 -477 0
-128 -373 -478 0
-129 -374 -479 0
-130 -375 -480 0
-126 -376 -511 0
-127 -377 -512 0
-128 -378 -513 0
-129 -379 -514 0
-130 -380 -515 0
-126 -381 -506 0
-127 -382 -507 0
-128 -383 -508 0
-129 -384 -509 0
-130 -385 -510 0
-126 -386 -501 0
-127 -387 -502 0
-128 -388 -503 0
-129 -389 -504 0
-130 -390 -505 0
-126 -391 -496 0
-127 -392 -497 0
-128 -393 -498 0
-129 -394 -499 0
-130 -395 -500 0
-126 -396 -611 0
-127 -397 -612 0
-128 -398 -613 0
-129 -399 -614 0
-130 -400 -615 0
-126 -401 -606 0
-127 -402 -607 0
-128 -403 -608 0
-129 -404 -609 0
-130 -405 -610 0
-126 -406 -601 0
-127 -407 -602 0
-128 -408 -603 0
-129 -409 -604 0
-130 -410 -605 0
-126 -411 -596 0
-127 -412 -597 0
-128 -413 -598 0
-129 -414 -599 0
-130 -415 -600 0
-126 -416 -631 0
-127 -417 -632 0
-128 -418 -633 0
-129 -419 -634 0
-130 -420 -635 0
-126 -421 -626 0
-127 -422 -627 0
-128 -423 -628 0
-129 -424 -629 0
-130 -425 -630 0
-126 -426 -621 0
-127 -427 -622 0
-128 -428 -623 0
-129 -429 -624 0
-130 -430 -625 0
-126 -431 -616 0
-127 -432 -617 0
-128 -433 -618 0
-129 -434 -619 0
-130 -435 -620 0
-126 -436 -571 0
-127 -437 -572 0
-128 -438 -573 0
-129 -439 -574 0
-130 -440 -575 0
-126 -441 -566 0
-127 -442 -567 0
-128 -443 -568 0
-129 -444 -569 0
-130 -445 -570 0
-126 -446 -561 0
-127 -447 -562 0
-128 -448 -563 0
-129 -449 -564 0
-130 -450 -565 0
-126 -451 -556 0
-127 -452 -557 0
-128 -453 -558 0
-129 -454 -559 0
-130 -455 -560 0
-126 -456 -591 0
-127 -457 -592 0
-128 -458 -593 0
-129 -459 -594 0
-130 -460 -595 0
-126 -461 -586 0
-127 -462 -587 0
-128 -463 -588 0
-129 -464 -589 0
-130 -465 -590 0
-126 -466 -581 0
-127 -467 -582 0
-128 -468 -583 0
-129 -469 -584 0
-130 -470 -585 0
-126 -471 -576 0
-127 -472 -577 0
-128 -473 -578 0
-129 -474 -579 0
-130 -475 -580 0
-121 -156 -696 0
-122 -157 -697 0
-123 -158 -698 0
-124 -159 -699 0
-125 -160 -700 0
-121 -161 -701 0
-122 -162 -702 0
-123 -163 -703 0
-124 -164 -704 0
-125 -165 -705 0
-121 -166 -706 0
-122 -167 -707 0
-123 -168 -708 0
-124 -169 -709 0
-125 -170 -710 0
-121 -171 -711 0
-122 -172 -712 0
-123 -173 -713 0
-124 -174 -714 0
-125 -175 -715 0
-121 -176 -676 0
-122 -177 -677 0
-123 -178 -678 0
-124 -179 -679 0
-125 -180 -680 0
-121 -181 -681 0
-122 -182 -682 0
-123 -183 -683 0
-124 -184 -684 0
-125 -185 -685 0
-121 -186 -686 0
-122 -187 -687 0
-123 -188 -688 0
-124 -189 -689 0
-125 -190 -690 0
-121 -191 -691 0
-122 -192 -692 0
-123 -193 -693 0
-124 -194 -694 0
-125 -195 -695 0
-121 -196 -656 0
-122 -197 -657 0
-123 -198 -658 0
-124 -199 -659 0
-125 -200 -660 0
-121 -201 -661 0
-122 -202 -662 0
-123 -203 -663 0
-124 -204 -664 0
-125 -205 -665 0
-121 -206 -666 0
-122 -207 -667 0
-123 -208 -668 0
-124 -209 -669 0
-125 -210 -670 0
-121 -211 -671 0
-122 -212 -672 0
-123 -213 -673 0
-124 -214 -674 0
-125 -215 -675 0
-121 -216 -636 0
-122 -217 -637 0
-123 -218 -638 0
-124 -219 -639 0
-125 -220 -640 0
-121 -221 -641 0
-122 -222 -642 0
-123 -223 -643 0
-124 -224 -644 0
-125 -225 -645 0
-121 -226 -646 0
-122 -227 -647 0
-123 -228 -648 0
-124 -229 -649 0
-125 -230 -650 0
-121 -231 -651 0
-122 -232 -652 0
-123 -233 -653 0
-124 -234 -654 0
-125 -235 -655 0
-121 -236 -776 0
-122 -237 -777 0
-123 -238 -778 0
-124 -239 -779 0
-125 -240 -780 0
-121 -241 -781 0
-122 -242 -782 0
-123 -243 -783 0
-124 -244 -784 0
-125 -245 -785 0
-121 -246 -786 0
-122 -247 -787 0
-123 -248 -788 0
-124 -249 -789 0
-125 -250 -790 0
-121 -251 -791 0
-122 -252 -792 0
-123 -253 -793 0
-124 -254 -794 0
-125 -255 -795 0
-121 -256 -756 0
-122 -257 -757 0
-123 -258 -758 0
-124 -259 -759 0
-125 -260 -760 0
-121 -261 -761 0
-122 -262 -762 0
-123 -263 -763 0
-124 -264 -764 0
-125 -265 -765 0
-121 -266 -766 0
-122 -267 -767 0
-123 -268 -768 0
-124 -269 -769 0
-125 -270 -770 0
-121 -271 -771 0
-122 -272 -772 0
-123 -273 -773 0
-124 -274 -774 0
-125 -275 -775 0
-121 -276 -736 0
-122 -277 -737 0
-123 -278 -738 0
-124 -279 -739 0
-125 -280 -740 0
-121 -281 -741 0
-122 -282 -742 0
-123 -283 -743 0
-124 -284 -744 0
-125 -285 -745 0
-121 -286 -746 0
-122 -287 -747 0
-123 -288 -748 0
-124 -289 -749 0
-125 -290 -750 0
-121 -291 -751 0
-122 -292 -752 0
-123 -293 -753 0
-124 -294 -754 0
-125 -295 -755 0
-121 -296 -716 0
-122 -297 -717 0
-123 -298 -718 0
-124 -299 -719 0
-125 -300 -720 0
-121 -301 -721 0
-122 -302 -722 0
-123 -303 -723 0
-124 -304 -724 0
-125 -305 -725 0
-121 -306 -726 0
-122 -307 -727 0
-123 -308 -728 0
-124 -309 -729 0
-125 -310 -730 0
-121 -311 -731 0
-122 -312 -732 0
-123 -313 -733 0
-124 -314 -734 0
-125 -315 -735 0
-121 -316 -536 0
-122 -317 -537 0
-123 -318 -538 0
-124 -319 -539 0
-125 -320 -540 0
-121 -321 -541 0
-122 -322 -542 0
-123 -323 -543 0
-124 -324 -544 0
-125 -325 -545 0
-121 -326 -546 0
-122 -327 -547 0
-123 -328 -548 0
-124 -329 -549 0
-125 -330 -550 0
-121 -331 -551 0
-122 -332 -552 0
-123 -333 -553 0
-124 -334 -554 0
-125 -335 -555 0
-121 -336 -516 0
-122 -337 -517 0
-123 -338 -518 0
-124 -339 -519 0
-125 -340 -520 0
-121 -341 -521 0
-122 -342 -522 0
-123 -343 -523 0
-124 -344 -524 0
-125 -345 -525 0
-121 -346 -526 0
-122 -347 -527 0
-123 -348 -528 0
-124 -349 -529 0
-125 -350 -530 0
-121 -351 -531 0
-122 -352 -532 0
-123 -353 -533 0
-124 -354 -534 0
-125 -355 -535 0
-121 -356 -496 0
-122 -357 -497 0
-123 -358 -498 0
-124 -359 -499 0
-125 -360 -500 0
-121 -361 -501 0
-122 -362 -502 0
-123 -363 -503 0
-124 -364 -504 0
-125 -365 -505 0
-121 -366 -506 0
-122 -367 -507 0
-123 -368 -508 0
-124 -369 -509 0
-125 -370 -510 0
-121 -371 -511 0
-122 -372 -512 0
-123 -373 -513 0
-124 -374 -514 0
-125 -375 -515 0
-121 -376 -476 0
-122 -377 -477 0
-123 -378 -478 0
-124 -379 -479 0
-125 -380 -480 0
-121 -381 -481 0
-122 -382 -482 0
-123 -383 -483 0
-124 -384 -484 0
-125 -385 -485 0
-121 -386 -486 0
-122 -387 -487 0
-123 -388 -488 0
-124 -389 -489 0
-125 -390 -490 0
-121 -391 -491 0
-122 -392 -492 0
-123 -393 -493 0
-124 -394 -494 0
-125 -395 -495 0
-121 -396 -616 0
-122 -397 -617 0
-123 -398 -618 0
-124 -399 -619 0
-125 -400 -620 0
-121 -401 -621 0
-122 -402 -622 0
-123 -403 -623 0
-124 -404 -624 0
-125 -405 -625 0
-121 -406 -626 0
-122 -407 -627 0
-123 -408 -628 0
-124 -409 -629 0
-125 -410 -630 0
-121 -411 -631 0
-122 -412 -632 0
-123 -413 -633 0
-124 -414 -634 0
-125 -415 -635 0
-121 -416 -596 0
-122 -417 -597 0
-123 -418 -598 0
-124 -419 -599 0
-125 -420 -600 0
-121 -421 -601 0
-122 -422 -602 0
-123 -423 -603 0
-124 -424 -604 0
-125 -425 -605 0
-121 -426 -606 0
-122 -427 -607 0
-123 -428 -608 0
-124 -429 -609 0
-125 -430 -610 0
-121 -431 -611 0
-122 -432 -612 0
-123 -433 -613 0
-124 -434 -614 0
-125 -435 -615 0
-121 -436 -576 0
-122 -437 -577 0
-123 -438 -578 0
-124 -439 -579 0
-125 -440 -580 0
-121 -441 -581 0
-122 -442 -582 0
-123 -443 -583 0
-124 -444 -584 0
-125 -445 -585 0
-121 -446 -586 0
-122 -447 -587 0
-123 -448 -588 0
-124 -449 -589 0
-125 -450 -590 0
-121 -451 -591 0
-122 -452 -592 0
-123 -453 -593 0
-124 -454 -594 0
-125 -455 -595 0
-121 -456 -556 0
-122 -457 -557 0
-123 -458 -558 0
-124 -459 -559 0
-125 -460 -560 0
-121 -461 -561 0
-122 -462 -562 0
-123 -463 -563 0
-124 -464 -564 0
-125 -465 -565 0
-121 -466 -566 0
-122 -467 -567 0
-123 -468 -568 0
-124 -469 -569 0
-125 -470 -570 0
-121 -471 -571 0
-122 -472 -572 0
-123 -473 -573 0
-124 -474 -574 0
-125 -475 -575 0
-126 -156 -701 0
-127 -157 -702 0
-128 -158 -703 0
-129 -159 -704 0
-130 -160 -705 0
-126 -161 -696 0
-127 -162 -697 0
-128 -163 -698 0
-129 -164 -699 0
-130 -165 -700 0
-126 -166 -711 0
-127 -167 -712 0
-128 -168 -713 0
-129 -169 -714 0
-130 -170 -715 0
-126 -171 -706 0
-127 -172 -707 0
-128 -173 -708 0
-129 -174 -709 0
-130 -175 -710 0
-126 -176 -681 0
-127 -177 -682 0
-128 -178 -683 0
-129 -179 -684 0
-130 -180 -685 0
-126 -181 -676 0
-127 -182 -677 0
-128 -183 -678 0
-129 -184 -679 0
-130 -185 -680 0
-126 -186 -691 0
-127 -187 -692 0
-128 -188 -693 0
-129 -189 -694 0
-130 -190 -695 0
-126 -191 -686 0
-127 -192 -687 0
-128 -193 -688 0
-129 -194 -689 0
-130 -195 -690 0
-126 -196 -661 0
-127 -197 -662 0
-128 -198 -663 0
-129 -199 -664 0
-130 -200 -665 0
-126 -201 -656 0
-127 -202 -657 0
-128 -203 -658 0
-129 -204 -659 0
-130 -205 -660 0
-126 -206 -671 0
-127 -207 -672 0
-128 -208 -673 0
-129 -209 -674 0
-130 -210 -675 0
-126 -211 -666 0
-127 -212 -667 0
-128 -213 -668 0
-129 -214 -669 0
-130 -215 -670 0
-126 -216 -641 0
-127 -217 -642 0
-128 -218 -643 0
-129 -219 -644 0
-130 -220 -645 0
-126 -221 -636 0
-127 -222 -637 0
-128 -223 -638 0
-129 -224 -639 0
-130 -225 -640 0
-126 -226 -651 0
-127 -227 -652 0
-128 -228 -653 0
-129 -229 -654 0
-130 -230 -655 0
-126 -231 -646 0
-127 -232 -647 0
-128 -233 -648 0
-129 -234 -649 0
-130 -235 -650 0
-126 -236 -781 0
-127 -237 -782 0
-128 -238 -783 0
-129 -239 -784 0
-130 -240 -785 0
-126 -241 -776 0
-127 -242 -777 0
-128 -243 -778 0
-129 -244 -779 0
-130 -245 -780 0
-126 -246 -791 0
-127 -247 -792 0
-128 -248 -793 0
-129 -249 -794 0
-130 -250 -795 0
-126 -251 -786 0
-127 -252 -787 0
-128 -253 -788 0
-129 -254 -789 0
-130 -255 -790 0
-126 -256 -761 0
-127 -257 -762 0
-128 -258 -763 0
-129 -259 -764 0
-130 -260 -765 0
-126 -261 -756 0
-127 -262 -757 0
-128 -263 -758 0
-129 -264 -759 0
-130 -265 -760 0
-126 -266 -771 0
-127 -267 -772 0
-128 -268 -773 0
-129 -269 -774 0
-130 -270 -775 0
-126 -271 -766 0
-127 -272 -767 0
-128 -273 -768 0
-129 -274 -769 0
-130 -275 -770 0
-126 -276 -741 0
-127 -277 -742 0
-128 -278 -743 0
-129 -279 -744 0
-130 -280 -745 0
-126 -281 -736 0
-127 -282 -737 0
-128 -283 -738 0
-129 -284 -739 0
-130 -285 -740 0
-126 -286 -751 0
-127 -287 -752 0
-128 -288 -753 0
-129 -289 -754 0
-130 -290 -755 0
-126 -291 -746 0
-127 -292 -747 0
-128 -293 -748 0
-129 -294 -749 0
-130 -295 -750 0
-126 -296 -721 0
-127 -297 -722 0
-128 -298 -723 0
-129 -299 -724 0
-130 -300 -725 0
-126 -301 -716 0
-127 -302 -717 0
-128 -303 -718 0
-129 -304 -719 0
-130 -305 -720 0
-126 -306 -731 0
-127 -307 -732 0
-128 -308 -733 0
-129 -309 -734 0
-130 -310 -735 0
-126 -311 -726 0
-127 -312 -727 0
-128 -313 -728 0
-129 -314 -729 0
-130 -315 -730 0
-126 -316 -541 0
-127 -317 -542 0
-128 -318 -543 0
-129 -319 -544 0
-130 -320 -545 0
-126 -321 -536 0
-127 -322 -537 0
-128 -323 -538 0
-129 -324 -539 0
-130 -325 -540 0
-126 -326 -551 0
-127 -327 -552 0
-128 -328 -553 0
-129 -329 -554 0
-130 -330 -555 0
-126 -331 -546 0
-127 -332 -547 0
-128 -333 -548 0
-129 -334 -549 0
-130 -335 -550 0
-126 -336 -521 0
-127 -337 -522 0
-128 -338 -523 0
-129 -339 -524 0
-130 -340 -525 0
-126 -341 -516 0
-127 -342 -517 0
-128 -343 -518 0
-129 -344 -519 0
-130 -345 -520 0
-126 -346 -531 0
-127 -347 -532 0
-128 -348 -533 0
-129 -349 -534 0
-130 -350 -535 0
-126 -351 -526 0
-127 -352 -527 0
-128 -353 -528 0
-129 -354 -529 0
-130 -355 -530 0
-126 -356 -501 0
-127 -357 -502 0
-128 -358 -503 0
-129 -359 -504 0
-130 -360 -505 0
-126 -361 -496 0
-127 -362 -497 0
-128 -363 -498 0
-129 -364 -499 0
-130 -365 -500 0
-126 -366 -511 0
-127 -367 -512 0
-128 -368 -513 0
-129 -369 -514 0
-130 -370 -515 0
-126 -371 -506 0
-127 -372 -507 0
-128 -373 -508 0
-129 -374 -509 0
-130 -375 -510 0
-126 -376 -481 0
-127 -377 -482 0
-128 -378 -483 0
-129 -379 -484 0
-130 -380 -485 0
-126 -381 -476 0
-127 -382 -477 0
-128 -383 -478 0
-129 -384 -479 0
-130 -385 -480 0
-126 -386 -491 0
-127 -387 -492 0
-128 -388 -493 0
-129 -389 -494 0
-130 -390 -495 0
-126 -391 -486 0
-127 -392 -487 0
-128 -393 -488 0
-129 -394 -489 0
-130 -395 -490 0
-126 -396 -621 0
-127 -397 -622 0
-128 -398 -623 0
-129 -399 -624 0
-130 -400 -625 0
-126 -401 -616 0
-127 -402 -617 0
-128 -403 -618 0
-129 -404 -619 0
-130 -405 -620 0
-126 -406 -631 0
-127 -407 -632 0
-128 -408 -633 0
-129 -409 -634 0
-130 -410 -635 0
-126 -411 -626 0
-127 -412 -627 0
-128 -413 -628 0
-129 -414 -629 0
-130 -415 -630 0
-126 -416 -601 0
-127 -417 -602 0
-128 -418 -603 0
-129 -419 -604 0
-130 -420 -605 0
-126 -421 -596 0
-127 -422 -597 0
-128 -423 -598 0
-129 -424 -599 0
-130 -425 -600 0
-126 -426 -611 0
-127 -427 -612 0
-128 -428 -613 0
-129 -429 -614 0
-130 -430 -615 0
-126 -431 -606 0
-127 -432 -607 0
-128 -433 -608 0
-129 -434 -609 0
-130 -435 -610 0
-126 -436 -581 0
-127 -437 -582 0
-128 -438 -583 0
-129 -439 -584 0
-130 -440 -585 0
-126 -441 -576 0
-127 -442 -577 0
-128 -443 -578 0
-129 -444 -579 0
-130 -445 -580 0
-126 -446 -591 0
-127 -447 -592 0
-128 -448 -593 0
-129 -449 -594 0
-130 -450 -595 0
-126 -451 -586 0
-127 -452 -587 0
-128 -453 -588 0
-129 -454 -589 0
-130 -455 -590 0
-126 -456 -561 0
-127 -457 -562 0
-128 -458 -563 0
-129 -459 -564 0
-130 -460 -565 0
-126 -461 -556 0
-127 -462 -557 0
-128 -463 -558 0
-129 -464 -559 0
-130 -465 -560 0
-126 -466 -571 0
-127 -467 -572 0
-128 -468 -573 0
-129 -469 -574 0
-130 -470 -575 0
-126 -471 -566 0
-127 -472 -567 0
-128 -473 -568 0
-129 -474 -569 0
-130 -475 -570 0
-131 -156 -706 0
-132 -157 -707 0
-133 -158 -708 0
-134 -159 -709 0
-135 -160 -710 0
-131 -161 -711 0
-132 -162 -712 0
-133 -163 -713 0
-134 -164 -714 0
-135 -165 -715 0
-131 -166 -696 0
-132 -167 -697 0
-133 -168 -698 0
-134 -169 -699 0
-135 -170 -700 0
-131 -171 -701 0
-132 -172 -702 0
-133 -173 -703 0
-134 -174 -704 0
-135 -175 -705 0
-131 -176 -686 0
-132 -177 -687 0
-133 -178 -688 0
-134 -179 -689 0
-135 -180 -690 0
-131 -181 -691 0
-132 -182 -692 0
-133 -183 -693 0
-134 -184 -694 0
-135 -185 -695 0
-131 -186 -676 0
-132 -187 -677 0
-133 -188 -678 0
-134 -189 -679 0
-135 -190 -680 0
-131 -191 -681 0
-132 -192 -682 0
-133 -193 -683 0
-134 -194 -684 0
-135 -195 -685 0
-131 -196 -666 0
-132 -197 -667 0
-133 -198 -668 0
-134 -199 -669 0
-135 -200 -670 0
-131 -201 -671 0
-132 -202 -672 0
-133 -203 -673 0
-134 -204 -674 0
-135 -205 -675 0
-131 -206 -656 0
-132 -207 -657 0
-133 -208 -658 0
-134 -209 -659 0
-135 -210 -660 0
-131 -211 -661 0
-132 -212 -662 0
-133 -213 -663 0
-134 -214 -664 0
-135 -215 -665 0
-131 -216 -646 0
-132 -217 -647 0
-133 -218 -648 0
-134 -219 -649 0
-135 -220 -650 0
-131 -221 -651 0
-132 -222 -652 0
-133 -223 -653 0
-134 -224 -654 0
-135 -225 -655 0
-131 -226 -636 0
-132 -227 -637 0
-133 -228 -638 0
-134 -229 -639 0
-135 -230 -640 0
-131 -231 -641 0
-132 -232 -642 0
-133 -233 -643 0
-134 -234 -644 0
-135 -235 -645 0
-131 -236 -786 0
-132 -237 -787 0
-133 -238 -788 0
-134 -239 -789 0
-135 -240 -790 0
-131 -241 -791 0
-132 -242 -792 0
-133 -243 -793 0
-134 -244 -794 0
-135 -245 -795 0
-131 -246 -776 0
-132 -247 -777 0
-133 -248 -778 0
-134 -249 -779 0
-135 -250 -780 0
-131 -251 -781 0
-132 -252 -782 0
-133 -253 -783 0
-134 -254 -784 0
-135 -255 -785 0
-131 -256 -766 0
-132 -257 -767 0
-133 -258 -768 0
-134 -259 -769 0
-135 -260 -770 0
-131 -261 -771 0
-132 -262 -772 0
-133 -263 -773 0
-134 -264 -774 0
-135 -265 -775 0
-131 -266 -756 0
-132 -267 -757 0
-133 -268 -758 0
-134 -269 -759 0
-135 -270 -760 0
-131 -271 -761 0
-132 -272 -762 0
-133 -273 -763 0
-134 -274 -764 0
-135 -275 -765 0
-131 -276 -746 0
-132 -277 -747 0
-133 -278 -748 0
-134 -279 -749 0
-135 -280 -750 0
-131 -281 -751 0
-132 -282 -752 0
-133 -283 -753 0
-134 -284 -754 0
-135 -285 -755 0
-131 -286 -736 0
-132 -287 -737 0
-133 -288 -738 0
-134 -289 -739 0
-135 -290 -740 0
-131 -291 -741 0
-132 -292 -742 0
-133 -293 -743 0
-134 -294 -744 0
-135 -295 -745 0
-131 -296 -726 0
-132 -297 -727 0
-133 -298 -728 0
-134 -299 -729 0
-135 -300 -730 0
-131 -301 -731 0
-132 -302 -732 0
-133 -303 -733 0
-134 -304 -734 0
-135 -305 -735 0
-131 -306 -716 0
-132 -307 -717 0
-133 -308 -718 0
-134 -309 -719 0
-135 -310 -720 0
-131 -311 -721 0
-132 -312 -722 0
-133 -313 -723 0
-134 -314 -724 0
-135 -315 -725 0
-131 -316 -546 0
-132 -317 -547 0
-133 -318 -548 0
-134 -319 -549 0
-135 -320 -550 0
-131 -321 -551 0
-132 -322 -552 0
-133 -323 -553 0
-134 -324 -554 0
-135 -325 -555 0
-131 -326 -536 0
-132 -327 -537 0
-133 -328 -538 0
-134 -329 -539 0
-135 -330 -540 0
-131 -331 -541 0
-132 -332 -542 0
-133 -333 -543 0
-134 -334 -544 0
-135 -335 -545 0
-131 -336 -526 0
-132 -337 -527 0
-133 -338 -528 0
-134 -339 -529 0
-135 -340 -530 0
-131 -341 -531 0
-132 -342 -532 0
-133 -343 -533 0
-134 -344 -534 0
-135 -345 -535 0
-131 -346 -516 0
-132 -347 -517 0
-133 -348 -518 0
-134 -349 -519 0
-135 -350 -520 0
-131 -351 -521 0
-132 -352 -522 0
-133 -353 -523 0
-134 -354 -524 0
-135 -355 -525 0
-131 -356 -506 0
-132 -357 -507 0
-133 -358 -508 0
-134 -359 -509 0
-135 -360 -510 0
-131 -361 -511 0
-132 -362 -512 0
-133 -363 -513 0
-134 -364 -514 0
-135 -365 -515 0
-131 -366 -496 0
-132 -367 -497 0
-133 -368 -498 0
-134 -369 -499 0
-135 -370 -500 0
-131 -371 -501 0
-132 -372 -502 0
-133 -373 -503 0
-134 -374 -504 0
-135 -375 -505 0
-131 -376 -486 0
-132 -377 -487 0
-133 -378 -488 0
-134 -379 -489 0
-135 -380 -490 0
-131 -381 -491 0
-132 -382 -492 0
-133 -383 -493 0
-134 -384 -494 0
-135 -385 -495 0
-131 -386 -476 0
-132 -387 -477 0
-133 -388 -478 0
-134 -389 -479 0
-135 -390 -480 0
-131 -391 -481 0
-132 -392 -482 0
-133 -393 -483 0
-134 -394 -484 0
-135 -395 -485 0
-131 -396 -626 0
-132 -397 -627 0
-133 -398 -628 0
-134 -399 -629 0
-135 -400 -630 0
-131 -401 -631 0
-132 -402 -632 0
-133 -403 -633 0
-134 -404 -634 0
-135 -405 -635 0
-131 -406 -616 0
-132 -407 -617 0
-133 -408 -618 0
-134 -409 -619 0
-135 -410 -620 0
-131 -411 -621 0
-132 -412 -622 0
-133 -413 -623 0
-134 -414 -624 0
-135 -415 -625 0
-131 -416 -606 0
-132 -417 -607 0
-133 -418 -608 0
-134 -419 -609 0
-135 -420 -610 0
-131 -421 -611 0
-132 -422 -612 0
-133 -423 -613 0
-134 -424 -614 0
-135 -425 -615 0
-131 -426 -596 0
-132 -427 -597 0
-133 -428 -598 0
-134 -429 -599 0
-135 -430 -600 0
-131 -431 -601 0
-132 -432 -602 0
-133 -433 -603 0
-134 -434 -604 0
-135 -435 -605 0
-131 -436 -586 0
-132 -437 -587 0
-133 -438 -588 0
-134 -439 -589 0
-135 -440 -590 0
-131 -441 -591 0
-132 -442 -592 0
-133 -443 -593 0
-134 -444 -594 0
-135 -445 -595 0
-131 -446 -576 0
-132 -447 -577 0
-133 -448 -578 0
-134 -449 -579 0
-135 -450 -580 0
-131 -451 -581 0
-132 -452 -582 0
-133 -453 -583 0
-134 -454 -584 0
-135 -455 -585 0
-131 -456 -566 0
-132 -457 -567 0
-133 -458 -568 0
-134 -459 -569 0
-135 -460 -570 0
-131 -461 -571 0
-132 -462 -572 0
-133 -463 -573 0
-134 -464 -574 0
-135 -465 -575 0
-131 -466 -556 0
-132 -467 -557 0
-133 -468 -558 0
-134 -469 -559 0
-135 -470 -560 0
-131 -471 -561 0
-132 -472 -562 0
-133 -473 -563 0
-134 -474 -564 0
-135 -475 -565 0
-121 -156 -711 0
-122 -157 -712 0
-123 -158 -713 0
-124 -159 -714 0
-125 -160 -715 0
-121 -161 -706 0
-122 -162 -707 0
-123 -163 -708 0
-124 -164 -709 0
-125 -165 -710 0
-121 -166 -701 0
-122 -167 -702 0
-123 -168 -703 0
-124 -169 -704 0
-125 -170 -705 0
-121 -171 -696 0
-122 -172 -697 0
-123 -173 -698 0
-124 -174 -699 0
-125 -175 -700 0
-121 -176 -691 0
-122 -177 -692 0
-123 -178 -693 0
-124 -179 -694 0
-125 -180 -695 0
-121 -181 -686 0
-122 -182 -687 0
-123 -183 -688 0
-124 -184 -689 0
-125 -185 -690 0
-121 -186 -681 0
-122 -187 -682 0
-123 -188 -683 0
-124 -189 -684 0
-125 -190 -685 0
-121 -191 -676 0
-122 -192 -677 0
-123 -193 -678 0
-124 -194 -679 0
-125 -195 -680 0
-121 -196 -671 0
-122 -197 -672 0
-123 -198 -673 0
-124 -199 -674 0
-125 -200 -675 0
-121 -201 -666 0
-122 -202 -667 0
-123 -203 -668 0
-124 -204 -669 0
-125 -205 -670 0
-121 -206 -661 0
-122 -207 -662 0
-123 -208 -663 0
-124 -209 -664 0
-125 -210 -665 0
-121 -211 -656 0
-122 -212 -657 0
-123 -213 -658 0
-124 -214 -659 0
-125 -215 -660 0
-121 -216 -651 0
-122 -217 -652 0
-123 -218 -653 0
-124 -219 -654 0
-125 -220 -655 0
-121 -221 -646 0
-122 -222 -647 0
-123 -223 -648 0
-124 -224 -649 0
-125 -225 -650 0
-121 -226 -641 0
-122 -227 -642 0
-123 -228 -643 0
-124 -229 -644 0
-125 -230 -645 0
-121 -231 -636 0
-122 -232 -637 0
-123 -233 -638 0
-124 -234 -639 0
-125 -235 -640 0
-121 -236 -791 0
-122 -237 -792 0
-123 -238 -793 0
-124 -239 -794 0
-125 -240 -795 0
-121 -241 -786 0
-122 -242 -787 0
-123 -243 -788 0
-124 -244 -789 0
-125 -245 -790 0
-121 -246 -781 0
-122 -247 -782 0
-123 -248 -783 0
-124 -249 -784 0
-125 -250 -785 0
-121 -251 -776 0
-122 -252 -777 0
-123 -253 -778 0
-124 -254 -779 0
-125 -255 -780 0
-121 -256 -771 0
-122 -257 -772 0
-123 -258 -773 0
-124 -259 -774 0
-125 -260 -775 0
-121 -261 -766 0
-122 -262 -767 0
-123 -263 -768 0
-124 -264 -769 0
-125 -265 -770 0
-121 -266 -761 0
-122 -267 -762 0
-123 -268 -763 0
-124 -269 -764 0
-125 -270 -765 0
-121 -271 -756 0
-122 -272 -757 0
-123 -273 -758 0
-124 -274 -759 0
-125 -275 -760 0
-121 -276 -751 0
-122 -277 -752 0
-123 -278 -753 0
-124 -279 -754 0
-125 -280 -755 0
-121 -281 -746 0
-122 -282 -747 0
-123 -283 -748 0
-124 -284 -749 0
-125 -285 -750 0
-121 -286 -741 0
-122 -287 -742 0
-123 -288 -743 0
-124 -289 -744 0
-125 -290 -745 0
-121 -291 -736 0
-122 -292 -737 0
-123 -293 -738 0
-124 -294 -739 0
-125 -295 -740 0
-121 -296 -731 0
-122 -297 -732 0
-123 -298 -733 0
-124 -299 -734 0
-125 -300 -735 0
-121 -301 -726 0
-122 -302 -727 0
-123 -303 -728 0
-124 -304 -729 0
-125 -305 -730 0
-121 -306 -721 0
-122 -307 -722 0
-123 -308 -723 0
-124 -309 -724 0
-125 -310 -725 0
-121 -311 -716 0
-122 -312 -717 0
-123 -313 -718 0
-124 -314 -719 0
-125 -315 -720 0
-121 -316 -551 0
-122 -317 -552 0
-123 -318 -553 0
-124 -319 -554 0
-125 -320 -555 0
-121 -321 -546 0
-122 -322 -547 0
-123 -323 -548 0
-124 -324 -549 0
-125 -325 -550 0
-121 -326 -541 0
-122 -327 -542 0
-123 -328 -543 0
-124 -329 -544 0
-125 -330 -545 0
-121 -331 -536 0
-122 -332 -537 0
-123 -333 -538 0
-124 -334 -539 0
-125 -335 -540 0
-121 -336 -531 0
-122 -337 -532 0
-123 -338 -533 0
-124 -339 -534 0
-125 -340 -535 0
-121 -341 -526 0
-122 -342 -527 0
-123 -343 -528 0
-124 -344 -529 0
-125 -345 -530 0
-121 -346 -521 0
-122 -347 -522 0
-123 -348 -523 0
-124 -349 -524 0
-125 -350 -525 0
-121 -351 -516 0
-122 -352 -517 0
-123 -353 -518 0
-124 -354 -519 0
-125 -355 -520 0
-121 -356 -511 0
-122 -357 -512 0
-123 -358 -513 0
-124 -359 -514 0
-125 -360 -515 0
-121 -361 -506 0
-122 -362 -507 0
-123 -363 -508 0
-124 -364 -509 0
-125 -365 -510 0
-121 -366 -501 0
-122 -367 -502 0
-123 -368 -503 0
-124 -369 -504 0
-125 -370 -505 0
-121 -371 -496 0
-122 -372 -497 0
-123 -373 -498 0
-124 -374 -499 0
-125 -375 -500 0
-121 -376 -491 0
-122 -377 -492 0
-123 -378 -493 0
-124 -379 -494 0
-125 -380 -495 0
-121 -381 -486 0
-122 -382 -487 0
-123 -383 -488 0
-124 -384 -489 0
-125 -385 -490 0
-121 -386 -481 0
-122 -387 -482 0
-123 -388 -483 0
-124 -389 -484 0
-125 -390 -485 0
-121 -391 -476 0
-122 -392 -477 0
-123 -393 -478 0
-124 -394 -479 0
-125 -395 -480 0
-121 -396 -631 0
-122 -397 -632 0
-123 -398 -633 0
-124 -399 -634 0
-125 -400 -635 0
-121 -401 -626 0
-122 -402 -627 0
-123 -403 -628 0
-124 -404 -629 0
-125 -405 -630 0
-121 -406 -621 0
-122 -407 -622 0
-123 -408 -623 0
-124 -409 -624 0
-125 -410 -625 0
-121 -411 -616 0
-122 -412 -617 0
-123 -413 -618 0
-124 -414 -619 0
-125 -415 -620 0
-121 -416 -611 0
-122 -417 -612 0
-123 -418 -613 0
-124 -419 -614 0
-125 -420 -615 0
-121 -421 -606 0
-122 -422 -607 0
-123 -423 -608 0
-124 -424 -609 0
-125 -425 -610 0
-121 -426 -601 0
-122 -427 -602 0
-123 -428 -603 0
-124 -429 -604 0
-125 -430 -605 0
-121 -431 -596 0
-122 -432 -597 0
-123 -433 -598 0
-124 -434 -599 0
-125 -435 -600 0
-121 -436 -591 0
-122 -437 -592 0
-123 -438 -593 0
-124 -439 -594 0
-125 -440 -595 0
-121 -441 -586 0
-122 -442 -587 0
-123 -443 -588 0
-124 -444 -589 0
-125 -445 -590 0
-121 -446 -581 0
-122 -447 -582 0
-123 -448 -583 0
-124 -449 -584 0
-125 -450 -585 0
-121 -451 -576 0
-122 -452 -577 0
-123 -453 -578 0
-124 -454 -579 0
-125 -455 -580 0
-121 -456 -571 0
-122 -457 -572 0
-123 -458 -573 0
-124 -459 -574 0
-125 -460 -575 0
-121 -461 -566 0
-122 -462 -567 0
-123 -463 -568 0
-124 -464 -569 0
-125 -465 -570 0
-121 -466 -561 0
-122 -467 -562 0
-123 -468 -563 0
-124 -469 -564 0
-125 -470 -565 0
-121 -471 -556 0
-122 -472 -557 0
-123 -473 -558 0
-124 -474 -559 0
-125 -475 -560 0
-136 -156 -716 0
-137 -157 -717 0
-138 -158 -718 0
-139 -159 -719 0
-140 -160 -720 0
-136 -161 -721 0
-137 -162 -722 0
-138 -163 -723 0
-139 -164 -724 0
-140 -165 -725 0
-136 -166 -726 0
-137 -167 -727 0
-138 -168 -728 0
-139 -169 -729 0
-140 -170 -730 0
-136 -171 -731 0
-137 -172 -732 0
-138 -173 -733 0
-139 -174 -734 0
-140 -175 -735 0
-136 -176 -736 0
-137 -177 -737 0
-138 -178 -738 0
-139 -179 -739 0
-140 -180 -740 0
-136 -181 -741 0
-137 -182 -742 0
-138 -183 -743 0
-139 -184 -744 0
-140 -185 -745 0
-136 -186 -746 0
-137 -187 -747 0
-138 -188 -748 0
-139 -189 -749 0
-140 -190 -750 0
-136 -191 -751 0
-137 -192 -752 0
-138 -193 -753 0
-139 -194 -754 0
-140 -195 -755 0
-136 -196 -756 0
-137 -197 -757 0
-138 -198 -758 0
-139 -199 -759 0
-140 -200 -760 0
-136 -201 -761 0
-137 -202 -762 0
-138 -203 -763 0
-139 -204 -764 0
-140 -205 -765 0
-136 -206 -766 0
-137 -207 -767 0
-138 -208 -768 0
-139 -209 -769 0
-140 -210 -770 0
-136 -211 -771 0
-137 -212 -772 0
-138 -213 -773 0
-139 -214 -774 0
-140 -215 -775 0
-136 -216 -776 0
-137 -217 -777 0
-138 -218 -778 0
-139 -219 -779 0
-140 -220 -780 0
-136 -221 -781 0
-137 -222 -782 0
-138 -223 -783 0
-139 -224 -784 0
-140 -225 -785 0
-136 -226 -786 0
-137 -227 -787 0
-138 -228 -788 0
-139 -229 -789 0
-140 -230 -790 0
-136 -231 -791 0
-137 -232 -792 0
-138 -233 -793 0
-139 -234 -794 0
-140 -235 -795 0
-136 -236 -636 0
-137 -237 -637 0
-138 -238 -638 0
-139 -239 -639 0
-140 -240 -640 0
-136 -241 -641 0
-137 -242 -642 0
-138 -243 -643 0
-139 -244 -644 0
-140 -245 -645 0
-136 -246 -646 0
-137 -247 -647 0
-138 -248 -648 0
-139 -249 -649 0
-140 -250 -650 0
-136 -251 -651 0
-137 -252 -652 0
-138 -253 -653 0
-139 -254 -654 0
-140 -255 -655 0
-136 -256 -656 0
-137 -257 -657 0
-138 -258 -658 0
-139 -259 -659 0
-140 -260 -660 0
-136 -261 -661 0
-137 -262 -662 0
-138 -263 -663 0
-139 -264 -664 0
-140 -265 -665 0
-136 -266 -666 0
-137 -267 -667 0
-138 -268 -668 0
-139 -269 -669 0
-140 -270 -670 0
-136 -271 -671 0
-137 -272 -672 0
-138 -273 -673 0
-139 -274 -674 0
-140 -275 -675 0
-136 -276 -676 0
-137 -277 -677 0
-138 -278 -678 0
-139 -279 -679 0
-140 -280 -680 0
-136 -281 -681 0
-137 -282 -682 0
-138 -283 -683 0
-139 -284 -684 0
-140 -285 -685 0
-136 -286 -686 0
-137 -287 -687 0
-138 -288 -688 0
-139 -289 -689 0
-140 -290 -690 0
-136 -291 -691 0
-137 -292 -692 0
-138 -293 -693 0
-139 -294 -694 0
-140 -295 -695 0
-136 -296 -696 0
-137 -297 -697 0
-138 -298 -698 0
-139 -299 -699 0
-140 -300 -700 0
-136 -301 -701 0
-137 -302 -702 0
-138 -303 -703 0
-139 -304 -704 0
-140 -305 -705 0
-136 -306 -706 0
-137 -307 -707 0
-138 -308 -708 0
-139 -309 -709 0
-140 -310 -710 0
-136 -311 -711 0
-137 -312 -712 0
-138 -313 -713 0
-139 -314 -714 0
-140 -315 -715 0
-136 -316 -556 0
-137 -317 -557 0
-138 -318 -558 0
-139 -319 -559 0
-140 -320 -560 0
-136 -321 -561 0
-137 -322 -562 0
-138 -323 -563 0
-139 -324 -564 0
-140 -325 -565 0
-136 -326 -566 0
-137 -327 -567 0
-138 -328 -568 0
-139 -329 -569 0
-140 -330 -570 0
-136 -331 -571 0
-137 -332 -572 0
-138 -333 -573 0
-139 -334 -574 0
-140 -335 -575 0
-136 -336 -576 0
-137 -337 -577 0
-138 -338 -578 0
-139 -339 -579 0
-140 -340 -580 0
-136 -341 -581 0
-137 -342 -582 0
-138 -343 -583 0
-139 -344 -584 0
-140 -345 -585 0
-136 -346 -586 0
-137 -347 -587 0
-138 -348 -588 0
-139 -349 -589 0
-140 -350 -590 0
-136 -351 -591 0
-137 -352 -592 0
-138 -353 -593 0
-139 -354 -594 0
-140 -355 -595 0
-136 -356 -596 0
-137 -357 -597 0
-138 -358 -598 0
-139 -359 -599 0
-140 -360 -600 0
-136 -361 -601 0
-137 -362 -602 0
-138 -363 -603 0
-139 -364 -604 0
-140 -365 -605 0
-136 -366 -606 0
-137 -367 -607 0
-138 -368 -608 0
-139 -369 -609 0
-140 -370 -610 0
-136 -371 -611 0
-137 -372 -612 0
-138 -373 -613 0
-139 -374 -614 0
-140 -375 -615 0
-136 -376 -616 0
-137 -377 -617 0
-138 -378 -618 0
-139 -379 -619 0
-140 -380 -620 0
-136 -381 -621 0
-137 -382 -622 0
-138 -383 -623 0
-139 -384 -624 0
-140 -385 -625 0
-136 -386 -626 0
-137 -387 -627 0
-138 -388 -628 0
-139 -389 -629 0
-140 -390 -630 0
-136 -391 -631 0
-137 -392 -632 0
-138 -393 -633 0
-139 -394 -634 0
-140 -395 -635 0
-136 -396 -476 0
-137 -397 -477 0
-138 -398 -478 0
-139 -399 -479 0
-140 -400 -480 0
-136 -401 -481 0
-137 -402 -482 0
-138 -403 -483 0
-139 -404 -484 0
-140 -405 -485 0
-136 -406 -486 0
-137 -407 -487 0
-138 -408 -488 0
-139 -409 -489 0
-140 -410 -490 0
-136 -411 -491 0
-137 -412 -492 0
-138 -413 -493 0
-139 -414 -494 0
-140 -415 -495 0
-136 -416 -496 0
-137 -417 -497 0
-138 -418 -498 0
-139 -419 -499 0
-140 -420 -500 0
-136 -421 -501 0
-137 -422 -502 0
-138 -423 -503 0
-139 -424 -504 0
-140 -425 -505 0
-136 -426 -506 0
-137 -427 -507 0
-138 -428 -508 0
-139 -429 -509 0
-140 -430 -510 0
-136 -431 -511 0
-137 -432 -512 0
-138 -433 -513 0
-139 -434 -514 0
-140 -435 -515 0
-136 -436 -516 0
-137 -437 -517 0
-138 -438 -518 0
-139 -439 -519 0
-140 -440 -520 0
-136 -441 -521 0
-137 -442 -522 0
-138 -443 -523 0
-139 -444 -524 0
-140 -445 -525 0
-136 -446 -526 0
-137 -447 -527 0
-138 -448 -528 0
-139 -449 -529 0
-140 -450 -530 0
-136 -451 -531 0
-137 -452 -532 0
-138 -453 -533 0
-139 -454 -534 0
-140 -455 -535 0
-136 -456 -536 0
-137 -457 -537 0
-138 -458 -538 0
-139 -459 -539 0
-140 -460 -540 0
-136 -461 -541 0
-137 -462 -542 0
-138 -463 -543 0
-139 -464 -544 0
-140 -465 -545 0
-136 -466 -546 0
-137 -467 -547 0
-138 -468 -548 0
-139 -469 -549 0
-140 -470 -550 0
-136 -471 -551 0
-137 -472 -552 0
-138 -473 -553 0
-139 -474 -554 0
-140 -475 -555 0
-141 -156 -721 0
-142 -157 -722 0
-143 -158 -723 0
-144 -159 -724 0
-145 -160 -725 0
-141 -161 -716 0
-142 -162 -717 0
-143 -163 -718 0
-144 -164 -719 0
-145 -165 -720 0
-141 -166 -731 0
-142 -167 -732 0
-143 -168 -733 0
-144 -169 -734 0
-145 -170 -735 0
-141 -171 -726 0
-142 -172 -727 0
-143 -173 -728 0
-144 -174 -729 0
-145 -175 -730 0
-141 -176 -741 0
-142 -177 -742 0
-143 -178 -743 0
-144 -179 -744 0
-145 -180 -745 0
-141 -181 -736 0
-142 -182 -737 0
-143 -183 -738 0
-144 -184 -739 0
-145 -185 -740 0
-141 -186 -751 0
-142 -187 -752 0
-143 -188 -753 0
-144 -189 -754 0
-145 -190 -755 0
-141 -191 -746 0
-142 -192 -747 0
-143 -193 -748 0
-144 -194 -749 0
-145 -195 -750 0
-141 -196 -761 0
-142 -197 -762 0
-143 -198 -763 0
-144 -199 -764 0
-145 -200 -765 0
-141 -201 -756 0
-142 -202 -757 0
-143 -203 -758 0
-144 -204 -759 0
-145 -205 -760 0
-141 -206 -771 0
-142 -207 -772 0
-143 -208 -773 0
-144 -209 -774 0
-145 -210 -775 0
-141 -211 -766 0
-142 -212 -767 0
-143 -213 -768 0
-144 -214 -769 0
-145 -215 -770 0
-141 -216 -781 0
-142 -217 -782 0
-143 -218 -783 0
-144 -219 -784 0
-145 -220 -785 0
-141 -221 -776 0
-142 -222 -777 0
-143 -223 -778 0
-144 -224 -779 0
-145 -225 -780 0
-141 -226 -791 0
-142 -227 -792 0
-143 -228 -793 0
-144 -229 -794 0
-145 -230 -795 0
-141 -231 -786 0
-142 -232 -787 0
-143 -233 -788 0
-144 -234 -789 0
-145 -235 -790 0
-141 -236 -641 0
-142 -237 -642 0
-143 -238 -643 0
-144 -239 -644 0
-145 -240 -645 0
-141 -241 -636 0
-142 -242 -637 0
-143 -243 -638 0
-144 -244 -639 0
-145 -245 -640 0
-141 -246 -651 0
-142 -247 -652 0
-143 -248 -653 0
-144 -249 -654 0
-145 -250 -655 0
-141 -251 -646 0
-142 -252 -647 0
-143 -253 -648 0
-144 -254 -649 0
-145 -255 -650 0
-141 -256 -661 0
-142 -257 -662 0
-143 -258 -663 0
-144 -259 -664 0
-145 -260 -665 0
-141 -261 -656 0
-142 -262 -657 0
-143 -263 -658 0
-144 -264 -659 0
-145 -265 -660 0
-141 -266 -671 0
-142 -267 -672 0
-143 -268 -673 0
-144 -269 -674 0
-145 -270 -675 0
-141 -271 -666 0
-142 -272 -667 0
-143 -273 -668 0
-144 -274 -669 0
-145 -275 -670 0
-141 -276 -681 0
-142 -277 -682 0
-143 -278 -683 0
-144 -279 -684 0
-145 -280 -685 0
-141 -281 -676 0
-142 -282 -677 0
-143 -283 -678 0
-144 -284 -679 0
-145 -285 -680 0
-141 -286 -691 0
-142 -287 -692 0
-143 -288 -693 0
-144 -289 -694 0
-145 -290 -695 0
-141 -291 -686 0
-142 -292 -687 0
-143 -293 -688 0
-144 -294 -689 0
-145 -295 -690 0
-141 -296 -701 0
-142 -297 -702 0
-143 -298 -703 0
-144 -299 -704 0
-145 -300 -705 0
-141 -301 -696 0
-142 -302 -697 0
-143 -303 -698 0
-144 -304 -699 0
-145 -305 -700 0
-141 -306 -711 0
-142 -307 -712 0
-143 -308 -713 0
-144 -309 -714 0
-145 -310 -715 0
-141 -311 -706 0
-142 -312 -707 0
-143 -313 -708 0
-144 -314 -709 0
-145 -315 -710 0
-141 -316 -561 0
-142 -317 -562 0
-143 -318 -563 0
-144 -319 -564 0
-145 -320 -565 0
-141 -321 -556 0
-142 -322 -557 0
-143 -323 -558 0
-144 -324 -559 0
-145 -325 -560 0
-141 -326 -571 0
-142 -327 -572 0
-143 -328 -573 0
-144 -329 -574 0
-145 -330 -575 0
-141 -331 -566 0
-142 -332 -567 0
-143 -333 -568 0
-144 -334 -569 0
-145 -335 -570 0
-141 -336 -581 0
-142 -337 -582 0
-143 -338 -583 0
-144 -339 -584 0
-145 -340 -585 0
-141 -341 -576 0
-142 -342 -577 0
-143 -343 -578 0
-144 -344 -579 0
-145 -345 -580 0
-141 -346 -591 0
-142 -347 -592 0
-143 -348 -593 0
-144 -349 -594 0
-145 -350 -595 0
-141 -351 -586 0
-142 -352 -587 0
-143 -353 -588 0
-144 -354 -589 0
-145 -355 -590 0
-141 -356 -601 0
-142 -357 -602 0
-143 -358 -603 0
-144 -359 -604 0
-145 -360 -605 0
-141 -361 -596 0
-142 -362 -597 0
-143 -363 -598 0
-144 -364 -599 0
-145 -365 -600 0
-141 -366 -611 0
-142 -367 -612 0
-143 -368 -613 0
-144 -369 -614 0
-145 -370 -615 0
-141 -371 -606 0
-142 -372 -607 0
-143 -373 -608 0
-144 -374 -609 0
-145 -375 -610 0
-141 -376 -621 0
-142 -377 -622 0
-143 -378 -623 0
-144 -379 -624 0
-145 -380 -625 0
-141 -381 -616 0
-142 -382 -617 0
-143 -383 -618 0
-144 -384 -619 0
-145 -385 -620 0
-141 -386 -631 0
-142 -387 -632 0
-143 -388 -633 0
-144 -389 -634 0
-145 -390 -635 0
-141 -391 -626 0
-142 -392 -627 0
-143 -393 -628 0
-144 -394 -629 0
-145 -395 -630 0
-141 -396 -481 0
-142 -397 -482 0
-143 -398 -483 0
-144 -399 -484 0
-145 -400 -485 0
-141 -401 -476 0
-142 -402 -477 0
-143 -403 -478 0
-144 -404 -479 0
-145 -405 -480 0
-141 -406 -491 0
-142 -407 -492 0
-143 -408 -493 0
-144 -409 -494 0
-145 -410 -495 0
-141 -411 -486 0
-142 -412 -487 0
-143 -413 -488 0
-144 -414 -489 0
-145 -415 -490 0
-141 -416 -501 0
-142 -417 -502 0
-143 -418 -503 0
-144 -419 -504 0
-145 -420 -505 0
-141 -421 -496 0
-142 -422 -497 0
-143 -423 -498 0
-144 -424 -499 0
-145 -425 -500 0
-141 -426 -511 0
-142 -427 -512 0
-143 -428 -513 0
-144 -429 -514 0
-145 -430 -515 0
-141 -431 -506 0
-142 -432 -507 0
-143 -433 -508 0
-144 -434 -509 0
-145 -435 -510 0
-141 -436 -521 0
-142 -437 -522 0
-143 -438 -523 0
-144 -439 -524 0
-145 -440 -525 0
-141 -441 -516 0
-142 -442 -517 0
-143 -443 -518 0
-144 -444 -519 0
-145 -445 -520 0
-141 -446 -531 0
-142 -447 -532 0
-143 -448 -533 0
-144 -449 -534 0
-145 -450 -535 0
-141 -451 -526 0
-142 -452 -527 0
-143 -453 -528 0
-144 -454 -529 0
-145 -455 -530 0
-141 -456 -541 0
-142 -457 -542 0
-143 -458 -543 0
-144 -459 -544 0
-145 -460 -545 0
-141 -461 -536 0
-142 -462 -537 0
-143 -463 -538 0
-144 -464 -539 0
-145 -465 -540 0
-141 -466 -551 0
-142 -467 -552 0
-143 -468 -553 0
-144 -469 -554 0
-145 -470 -555 0
-141 -471 -546 0
-142 -472 -547 0
-143 -473 -548 0
-144 -474 -549 0
-145 -475 -550 0
-146 -156 -726 0
-147 -157 -727 0
-148 -158 -728 0
-149 -159 -729 0
-150 -160 -730 0
-146 -161 -731 0
-147 -162 -732 0
-148 -163 -733 0
-149 -164 -734 0
-150 -165 -735 0
-146 -166 -716 0
-147 -167 -717 0
-148 -168 -718 0
-149 -169 -719 0
-150 -170 -720 0
-146 -171 -721 0
-147 -172 -722 0
-148 -173 -723 0
-149 -174 -724 0
-150 -175 -725 0
-146 -176 -746 0
-147 -177 -747 0
-148 -178 -748 0
-149 -179 -749 0
-150 -180 -750 0
-146 -181 -751 0
-147 -182 -752 0
-148 -183 -753 0
-149 -184 -754 0
-150 -185 -755 0
-146 -186 -736 0
-147 -187 -737 0
-148 -188 -738 0
-149 -189 -739 0
-150 -190 -740 0
-146 -191 -741 0
-147 -192 -742 0
-148 -193 -743 0
-149 -194 -744 0
-150 -195 -745 0
-146 -196 -766 0
-147 -197 -767 0
-148 -198 -768 0
-149 -199 -769 0
-150 -200 -770 0
-146 -201 -771 0
-147 -202 -772 0
-148 -203 -773 0
-149 -204 -774 0
-150 -205 -775 0
-146 -206 -756 0
-147 -207 -757 0
-148 -208 -758 0
-149 -209 -759 0
-150 -210 -760 0
-146 -211 -761 0
-147 -212 -762 0
-148 -213 -763 0
-149 -214 -764 0
-150 -215 -765 0
-146 -216 -786 0
-147 -217 -787 0
-148 -218 -788 0
-149 -219 -789 0
-150 -220 -790 0
-146 -221 -791 0
-147 -222 -792 0
-148 -223 -793 0
-149 -224 -794 0
-150 -225 -795 0
-146 -226 -776 0
-147 -227 -777 0
-148 -228 -778 0
-149 -229 -779 0
-150 -230 -780 0
-146 -231 -781 0
-147 -232 -782 0
-148 -233 -783 0
-149 -234 -784 0
-150 -235 -785 0
-146 -236 -646 0
-147 -237 -647 0
-148 -238 -648 0
-149 -239 -649 0
-150 -240 -650 0
-146 -241 -651 0
-147 -242 -652 0
-148 -243 -653 0
-149 -244 -654 0
-150 -245 -655 0
-146 -246 -636 0
-147 -247 -637 0
-148 -248 -638 0
-149 -249 -639 0
-150 -250 -640 0
-146 -251 -641 0
-147 -252 -642 0
-148 -253 -643 0
-149 -254 -644 0
-150 -255 -645 0
-146 -256 -666 0
-147 -257 -667 0
-148 -258 -668 0
-149 -259 -669 0
-150 -260 -670 0
-146 -261 -671 0
-147 -262 -672 0
-148 -263 -673 0
-149 -264 -674 0
-150 -265 -675 0
-146 -266 -656 0
-147 -267 -657 0
-148 -268 -658 0
-149 -269 -659 0
-150 -270 -660 0
-146 -271 -661 0
-147 -272 -662 0
-148 -273 -663 0
-149 -274 -664 0
-150 -275 -665 0
-146 -276 -686 0
-147 -277 -687 0
-148 -278 -688 0
-149 -279 -689 0
-150 -280 -690 0
-146 -281 -691 0
-147 -282 -692 0
-148 -283 -693 0
-149 -284 -694 0
-150 -285 -695 0
-146 -286 -676 0
-147 -287 -677 0
-148 -288 -678 0
-149 -289 -679 0
-150 -290 -680 0
-146 -291 -681 0
-147 -292 -682 0
-148 -293 -683 0
-149 -294 -684 0
-150 -295 -685 0
-146 -296 -706 0
-147 -297 -707 0
-148 -298 -708 0
-149 -299 -709 0
-150 -300 -710 0
-146 -301 -711 0
-147 -302 -712 0
-148 -303 -713 0
-149 -304 -714 0
-150 -305 -715 0
-146 -306 -696 0
-147 -307 -697 0
-148 -308 -698 0
-149 -309 -699 0
-150 -310 -700 0
-146 -311 -701 0
-147 -312 -702 0
-148 -313 -703 0
-149 -314 -704 0
-150 -315 -705 0
-146 -316 -566 0
-147 -317 -567 0
-148 -318 -568 0
-149 -319 -569 0
-150 -320 -570 0
-146 -321 -571 0
-147 -322 -572 0
-148 -323 -573 0
-149 -324 -574 0
-150 -325 -575 0
-146 -326 -556 0
-147 -327 -557 0
-148 -328 -558 0
-149 -329 -559 0
-150 -330 -560 0
-146 -331 -561 0
-147 -332 -562 0
-148 -333 -563 0
-149 -334 -564 0
-150 -335 -565 0
-146 -336 -586 0
-147 -337 -587 0
-148 -338 -588 0
-149 -339 -589 0
-150 -340 -590 0
-146 -341 -591 0
-147 -342 -592 0
-148 -343 -593 0
-149 -344 -594 0
-150 -345 -595 0
-146 -346 -576 0
-147 -347 -577 0
-148 -348 -578 0
-149 -349 -579 0
-150 -350 -580 0
-146 -351 -581 0
-147 -352 -582 0
-148 -353 -583 0
-149 -354 -584 0
-150 -355 -585 0
-146 -356 -606 0
-147 -357 -607 0
-148 -358 -608 0
-149 -359 -609 0
-150 -360 -610 0
-146 -361 -611 0
-147 -362 -612 0
-148 -363 -613 0
-149 -364 -614 0
-150 -365 -615 0
-146 -366 -596 0
-147 -367 -597 0
-148 -368 -598 0
-149 -369 -599 0
-150 -370 -600 0
-146 -371 -601 0
-147 -372 -602 0
-148 -373 -603 0
-149 -374 -604 0
-150 -375 -605 0
-146 -376 -626 0
-147 -377 -627 0
-148 -378 -628 0
-149 -379 -629 0
-150 -380 -630 0
-146 -381 -631 0
-147 -382 -632 0
-148 -383 -633 0
-149 -384 -634 0
-150 -385 -635 0
-146 -386 -616 0
-147 -387 -617 0
-148 -388 -618 0
-149 -389 -619 0
-150 -390 -620 0
-146 -391 -621 0
-147 -392 -622 0
-148 -393 -623 0
-149 -394 -624 0
-150 -395 -625 0
-146 -396 -486 0
-147 -397 -487 0
-148 -398 -488 0
-149 -399 -489 0
-150 -400 -490 0
-146 -401 -491 0
-147 -402 -492 0
-148 -403 -493 0
-149 -404 -494 0
-150 -405 -495 0
-146 -406 -476 0
-147 -407 -477 0
-148 -408 -478 0
-149 -409 -479 0
-150 -410 -480 0
-146 -411 -481 0
-147 -412 -482 0
-148 -413 -483 0
-149 -414 -484 0
-150 -415 -485 0
-146 -416 -506 0
-147 -417 -507 0
-148 -418 -508 0
-149 -419 -509 0
-150 -420 -510 0
-146 -421 -511 0
-147 -422 -512 0
-148 -423 -513 0
-149 -424 -514 0
-150 -425 -515 0
-146 -426 -496 0
-147 -427 -497 0
-148 -428 -498 0
-149 -429 -499 0
-150 -430 -500 0
-146 -431 -501 0
-147 -432 -502 0
-148 -433 -503 0
-149 -434 -504 0
-150 -435 -505 0
-146 -436 -526 0
-147 -437 -527 0
-148 -438 -528 0
-149 -439 -529 0
-150 -440 -530 0
-146 -441 -531 0
-147 -442 -532 0
-148 -443 -533 0
-149 -444 -534 0
-150 -445 -535 0
-146 -446 -516 0
-147 -447 -517 0
-148 -448 -518 0
-149 -449 -519 0
-150 -450 -520 0
-146 -451 -521 0
-147 -452 -522 0
-148 -453 -523 0
-149 -454 -524 0
-150 -455 -525 0
-146 -456 -546 0
-147 -457 -547 0
-148 -458 -548 0
-149 -459 -549 0
-150 -460 -550 0
-146 -461 -551 0
-147 -462 -552 0
-148 -463 -553 0
-149 -464 -554 0
-150 -465 -555 0
-146 -466 -536 0
-147 -467 -537 0
-148 -468 -538 0
-149 -469 -539 0
-150 -470 -540 0
-146 -471 -541 0
-147 -472 -542 0
-148 -473 -543 0
-149 -474 -544 0
-150 -475 -545 0
-146 -156 -731 0
-147 -157 -732 0
-148 -158 -733 0
-149 -159 -734 0
-150 -160 -735 0
-146 -161 -726 0
-147 -162 -727 0
-148 -163 -728 0
-149 -164 -729 0
-150 -165 -730 0
-146 -166 -721 0
-147 -167 -722 0
-148 -168 -723 0
-149 -169 -724 0
-150 -170 -725 0
-146 -171 -716 0
-147 -172 -717 0
-148 -173 -718 0
-149 -174 -719 0
-150 -175 -720 0
-146 -176 -751 0
-147 -177 -752 0
-148 -178 -753 0
-149 -179 -754 0
-150 -180 -755 0
-146 -181 -746 0
-147 -182 -747 0
-148 -183 -748 0
-149 -184 -749 0
-150 -185 -750 0
-146 -186 -741 0
-147 -187 -742 0
-148 -188 -743 0
-149 -189 -744 0
-150 -190 -745 0
-146 -191 -736 0
-147 -192 -737 0
-148 -193 -738 0
-149 -194 -739 0
-150 -195 -740 0
-146 -196 -771 0
-147 -197 -772 0
-148 -198 -773 0
-149 -199 -774 0
-150 -200 -775 0
-146 -201 -766 0
-147 -202 -767 0
-148 -203 -768 0
-149 -204 -769 0
-150 -205 -770 0
-146 -206 -761 0
-147 -207 -762 0
-148 -208 -763 0
-149 -209 -764 0
-150 -210 -765 0
-146 -211 -756 0
-147 -212 -757 0
-148 -213 -758 0
-149 -214 -759 0
-150 -215 -760 0
-146 -216 -791 0
-147 -217 -792 0
-148 -218 -793 0
-149 -219 -794 0
-150 -220 -795 0
-146 -221 -786 0
-147 -222 -787 0
-148 -223 -788 0
-149 -224 -789 0
-150 -225 -790 0
-146 -226 -781 0
-147 -227 -782 0
-148 -228 -783 0
-149 -229 -784 0
-150 -230 -785 0
-146 -231 -776 0
-147 -232 -777 0
-148 -233 -778 0
-149 -234 -779 0
-150 -235 -780 0
-146 -236 -651 0
-147 -237 -652 0
-148 -238 -653 0
-149 -239 -654 0
-150 -240 -655 0
-146 -241 -646 0
-147 -242 -647 0
-148 -243 -648 0
-149 -244 -649 0
-150 -245 -650 0
-146 -246 -641 0
-147 -247 -642 0
-148 -248 -643 0
-149 -249 -644 0
-150 -250 -645 0
-146 -251 -636 0
-147 -252 -637 0
-148 -253 -638 0
-149 -254 -639 0
-150 -255 -640 0
-146 -256 -671 0
-147 -257 -672 0
-148 -258 -673 0
-149 -259 -674 0
-150 -260 -675 0
-146 -261 -666 0
-147 -262 -667 0
-148 -263 -668 0
-149 -264 -669 0
-150 -265 -670 0
-146 -266 -661 0
-147 -267 -662 0
-148 -268 -663 0
-149 -269 -664 0
-150 -270 -665 0
-146 -271 -656 0
-147 -272 -657 0
-148 -273 -658 0
-149 -274 -659 0
-150 -275 -660 0
-146 -276 -691 0
-147 -277 -692 0
-148 -278 -693 0
-149 -279 -694 0
-150 -280 -695 0
-146 -281 -686 0
-147 -282 -687 0
-148 -283 -688 0
-149 -284 -689 0
-150 -285 -690 0
-146 -286 -681 0
-147 -287 -682 0
-148 -288 -683 0
-149 -289 -684 0
-150 -290 -685 0
-146 -291 -676 0
-147 -292 -677 0
-148 -293 -678 0
-149 -294 -679 0
-150 -295 -680 0
-146 -296 -711 0
-147 -297 -712 0
-148 -298 -713 0
-149 -299 -714 0
-150 -300 -715 0
-146 -301 -706 0
-147 -302 -707 0
-148 -303 -708 0
-149 -304 -709 0
-150 -305 -710 0
-146 -306 -701 0
-147 -307 -702 0
-148 -308 -703 0
-149 -309 -704 0
-150 -310 -705 0
-146 -311 -696 0
-147 -312 -697 0
-148 -313 -698 0
-149 -314 -699 0
-150 -315 -700 0
-146 -316 -571 0
-147 -317 -572 0
-148 -318 -573 0
-149 -319 -574 0
-150 -320 -575 0
-146 -321 -566 0
-147 -322 -567 0
-148 -323 -568 0
-149 -324 -569 0
-150 -325 -570 0
-146 -326 -561 0
-147 -327 -562 0
-148 -328 -563 0
-149 -329 -564 0
-150 -330 -565 0
-146 -331 -556 0
-147 -332 -557 0
-148 -333 -558 0
-149 -334 -559 0
-150 -335 -560 0
-146 -336 -591 0
-147 -337 -592 0
-148 -338 -593 0
-149 -339 -594 0
-150 -340 -595 0
-146 -341 -586 0
-147 -342 -587 0
-148 -343 -588 0
-149 -344 -589 0
-150 -345 -590 0
-146 -346 -581 0
-147 -347 -582 0
-148 -348 -583 0
-149 -349 -584 0
-150 -350 -585 0
-146 -351 -576 0
-147 -352 -577 0
-148 -353 -578 0
-149 -354 -579 0
-150 -355 -580 0
-146 -356 -611 0
-147 -357 -612 0
-148 -358 -613 0
-149 -359 -614 0
-150 -360 -615 0
-146 -361 -606 0
-147 -362 -607 0
-148 -363 -608 0
-149 -364 -609 0
-150 -365 -610 0
-146 -366 -601 0
-147 -367 -602 0
-148 -368 -603 0
-149 -369 -604 0
-150 -370 -605 0
-146 -371 -596 0
-147 -372 -597 0
-148 -373 -598 0
-149 -374 -599 0
-150 -375 -600 0
-146 -376 -631 0
-147 -377 -632 0
-148 -378 -633 0
-149 -379 -634 0
-150 -380 -635 0
-146 -381 -626 0
-147 -382 -627 0
-148 -383 -628 0
-149 -384 -629 0
-150 -385 -630 0
-146 -386 -621 0
-147 -387 -622 0
-148 -388 -623 0
-149 -389 -624 0
-150 -390 -625 0
-146 -391 -616 0
-147 -392 -617 0
-148 -393 -618 0
-149 -394 -619 0
-150 -395 -620 0
-146 -396 -491 0
-147 -397 -492 0
-148 -398 -493 0
-149 -399 -494 0
-150 -400 -495 0
-146 -401 -486 0
-147 -402 -487 0
-148 -403 -488 0
-149 -404 -489 0
-150 -405 -490 0
-146 -406 -481 0
-147 -407 -482 0
-148 -408 -483 0
-149 -409 -484 0
-150 -410 -485 0
-146 -411 -476 0
-147 -412 -477 0
-148 -413 -478 0
-149 -414 -479 0
-150 -415 -480 0
-146 -416 -511 0
-147 -417 -512 0
-148 -418 -513 0
-149 -419 -514 0
-150 -420 -515 0
-146 -421 -506 0
-147 -422 -507 0
-148 -423 -508 0
-149 -424 -509 0
-150 -425 -510 0
-146 -426 -501 0
-147 -427 -502 0
-148 -428 -503 0
-149 -429 -504 0
-150 -430 -505 0
-146 -431 -496 0
-147 -432 -497 0
-148 -433 -498 0
-149 -434 -499 0
-150 -435 -500 0
-146 -436 -531 0
-147 -437 -532 0
-148 -438 -533 0
-149 -439 -534 0
-150 -440 -535 0
-146 -441 -526 0
-147 -442 -527 0
-148 -443 -528 0
-149 -444 -529 0
-150 -445 -530 0
-146 -446 -521 0
-147 -447 -522 0
-148 -448 -523 0
-149 -449 -524 0
-150 -450 -525 0
-146 -451 -516 0
-147 -452 -517 0
-148 -453 -518 0
-149 -454 -519 0
-150 -455 -520 0
-146 -456 -551 0
-147 -457 -552 0
-148 -458 -553 0
-149 -459 -554 0
-150 -460 -555 0
-146 -461 -546 0
-147 -462 -547 0
-148 -463 -548 0
-149 -464 -549 0
-150 -465 -550 0
-146 -466 -541 0
-147 -467 -542 0
-148 -468 -543 0
-149 -469 -544 0
-150 -470 -545 0
-146 -471 -536 0
-147 -472 -537 0
-148 -473 -538 0
-149 -474 -539 0
-150 -475 -540 0
-151 -156 -736 0
-152 -157 -737 0
-153 -158 -738 0
-154 -159 -739 0
-155 -160 -740 0
-151 -161 -741 0
-152 -162 -742 0
-153 -163 -743 0
-154 -164 -744 0
-155 -165 -745 0
-151 -166 -746 0
-152 -167 -747 0
-153 -168 -748 0
-154 -169 -749 0
-155 -170 -750 0
-151 -171 -751 0
-152 -172 -752 0
-153 -173 -753 0
-154 -174 -754 0
-155 -175 -755 0
-151 -176 -716 0
-152 -177 -717 0
-153 -178 -718 0
-154 -179 -719 0
-155 -180 -720 0
-151 -181 -721 0
-152 -182 -722 0
-153 -183 -723 0
-154 -184 -724 0
-155 -185 -725 0
-151 -186 -726 0
-152 -187 -727 0
-153 -188 -728 0
-154 -189 -729 0
-155 -190 -730 0
-151 -191 -731 0
-152 -192 -732 0
-153 -193 -733 0
-154 -194 -734 0
-155 -195 -735 0
-151 -196 -776 0
-152 -197 -777 0
-153 -198 -778 0
-154 -199 -779 0
-155 -200 -780 0
-151 -201 -781 0
-152 -202 -782 0
-153 -203 -783 0
-154 -204 -784 0
-155 -205 -785 0
-151 -206 -786 0
-152 -207 -787 0
-153 -208 -788 0
-154 -209 -789 0
-155 -210 -790 0
-151 -211 -791 0
-152 -212 -792 0
-153 -213 -793 0
-154 -214 -794 0
-155 -215 -795 0
-151 -216 -756 0
-152 -217 -757 0
-153 -218 -758 0
-154 -219 -759 0
-155 -220 -760 0
-151 -221 -761 0
-152 -222 -762 0
-153 -223 -763 0
-154 -224 -764 0
-155 -225 -765 0
-151 -226 -766 0
-152 -227 -767 0
-153 -228 -768 0
-154 -229 -769 0
-155 -230 -770 0
-151 -231 -771 0
-152 -232 -772 0
-153 -233 -773 0
-154 -234 -774 0
-155 -235 -775 0
-151 -236 -656 0
-152 -237 -657 0
-153 -238 -658 0
-154 -239 -659 0
-155 -240 -660 0
-151 -241 -661 0
-152 -242 -662 0
-153 -243 -663 0
-154 -244 -664 0
-155 -245 -665 0
-151 -246 -666 0
-152 -247 -667 0
-153 -248 -668 0
-154 -249 -669 0
-155 -250 -670 0
-151 -251 -671 0
-152 -252 -672 0
-153 -253 -673 0
-154 -254 -674 0
-155 -255 -675 0
-151 -256 -636 0
-152 -257 -637 0
-153 -258 -638 0
-154 -259 -639 0
-155 -260 -640 0
-151 -261 -641 0
-152 -262 -642 0
-153 -263 -643 0
-154 -264 -644 0
-155 -265 -645 0
-151 -266 -646 0
-152 -267 -647 0
-153 -268 -648 0
-154 -269 -649 0
-155 -270 -650 0
-151 -271 -651 0
-152 -272 -652 0
-153 -273 -653 0
-154 -274 -654 0
-155 -275 -655 0
-151 -276 -696 0
-152 -277 -697 0
-153 -278 -698 0
-154 -279 -699 0
-155 -280 -700 0
-151 -281 -701 0
-152 -282 -702 0
-153 -283 -703 0
-154 -284 -704 0
-155 -285 -705 0
-151 -286 -706 0
-152 -287 -707 0
-153 -288 -708 0
-154 -289 -709 0
-155 -290 -710 0
-151 -291 -711 0
-152 -292 -712 0
-153 -293 -713 0
-154 -294 -714 0
-155 -295 -715 0
-151 -296 -676 0
-152 -297 -677 0
-153 -298 -678 0
-154 -299 -679 0
-155 -300 -680 0
-151 -301 -681 0
-152 -302 -682 0
-153 -303 -683 0
-154 -304 -684 0
-155 -305 -685 0
-151 -306 -686 0
-152 -307 -687 0
-153 -308 -688 0
-154 -309 -689 0
-155 -310 -690 0
-151 -311 -691 0
-152 -312 -692 0
-153 -313 -693 0
-154 -314 -694 0
-155 -315 -695 0
-151 -316 -576 0
-152 -317 -577 0
-153 -318 -578 0
-154 -319 -579 0
-155 -320 -580 0
-151 -321 -581 0
-152 -322 -582 0
-153 -323 -583 0
-154 -324 -584 0
-155 -325 -585 0
-151 -326 -586 0
-152 -327 -587 0
-153 -328 -588 0
-154 -329 -589 0
-155 -330 -590 0
-151 -331 -591 0
-152 -332 -592 0
-153 -333 -593 0
-154 -334 -594 0
-155 -335 -595 0
-151 -336 -556 0
-152 -337 -557 0
-153 -338 -558 0
-154 -339 -559 0
-155 -340 -560 0
-151 -341 -561 0
-152 -342 -562 0
-153 -343 -563 0
-154 -344 -564 0
-155 -345 -565 0
-151 -346 -566 0
-152 -347 -567 0
-153 -348 -568 0
-154 -349 -569 0
-155 -350 -570 0
-151 -351 -571 0
-152 -352 -572 0
-153 -353 -573 0
-154 -354 -574 0
-155 -355 -575 0
-151 -356 -616 0
-152 -357 -617 0
-153 -358 -618 0
-154 -359 -619 0
-155 -360 -620 0
-151 -361 -621 0
-152 -362 -622 0
-153 -363 -623 0
-154 -364 -624 0
-155 -365 -625 0
-151 -366 -626 0
-152 -367 -627 0
-153 -368 -628 0
-154 -369 -629 0
-155 -370 -630 0
-151 -371 -631 0
-152 -372 -632 0
-153 -373 -633 0
-154 -374 -634 0
-155 -375 -635 0
-151 -376 -596 0
-152 -377 -597 0
-153 -378 -598 0
-154 -379 -599 0
-155 -380 -600 0
-151 -381 -601 0
-152 -382 -602 0
-153 -383 -603 0
-154 -384 -604 0
-155 -385 -605 0
-151 -386 -606 0
-152 -387 -607 0
-153 -388 -608 0
-154 -389 -609 0
-155 -390 -610 0
-151 -391 -611 0
-152 -392 -612 0
-153 -393 -613 0
-154 -394 -614 0
-155 -395 -615 0
-151 -396 -496 0
-152 -397 -497 0
-153 -398 -498 0
-154 -399 -499 0
-155 -400 -500 0
-151 -401 -501 0
-152 -402 -502 0
-153 -403 -503 0
-154 -404 -504 0
-155 -405 -505 0
-151 -406 -506 0
-152 -407 -507 0
-153 -408 -508 0
-154 -409 -509 0
-155 -410 -510 0
-151 -411 -511 0
-152 -412 -512 0
-153 -413 -513 0
-154 -414 -514 0
-155 -415 -515 0
-151 -416 -476 0
-152 -417 -477 0
-153 -418 -478 0
-154 -419 -479 0
-155 -420 -480 0
-151 -421 -481 0
-152 -422 -482 0
-153 -423 -483 0
-154 -424 -484 0
-155 -425 -485 0
-151 -426 -486 0
-152 -427 -487 0
-153 -428 -488 0
-154 -429 -489 0
-155 -430 -490 0
-151 -431 -491 0
-152 -432 -492 0
-153 -433 -493 0
-154 -434 -494 0
-155 -435 -495 0
-151 -436 -536 0
-152 -437 -537 0
-153 -438 -538 0
-154 -439 -539 0
-155 -440 -540 0
-151 -441 -541 0
-152 -442 -542 0
-153 -443 -543 0
-154 -444 -544 0
-155 -445 -545 0
-151 -446 -546 0
-152 -447 -547 0
-153 -448 -548 0
-154 -449 -549 0
-155 -450 -550 0
-151 -451 -551 0
-152 -452 -552 0
-153 -453 -553 0
-154 -454 -554 0
-155 -455 -555 0
-151 -456 -516 0
-152 -457 -517 0
-153 -458 -518 0
-154 -459 -519 0
-155 -460 -520 0
-151 -461 -521 0
-152 -462 -522 0
-153 -463 -523 0
-154 -464 -524 0
-155 -465 -525 0
-151 -466 -526 0
-152 -467 -527 0
-153 -468 -528 0
-154 -469 -529 0
-155 -470 -530 0
-151 -471 -531 0
-152 -472 -532 0
-153 -473 -533 0
-154 -474 -534 0
-155 -475 -535 0
-151 -156 -741 0
-152 -157 -742 0
-153 -158 -743 0
-154 -159 -744 0
-155 -160 -745 0
-151 -161 -736 0
-152 -162 -737 0
-153 -163 -738 0
-154 -164 -739 0
-155 -165 -740 0
-151 -166 -751 0
-152 -167 -752 0
-153 -168 -753 0
-154 -169 -754 0
-155 -170 -755 0
-151 -171 -746 0
-152 -172 -747 0
-153 -173 -748 0
-154 -174 -749 0
-155 -175 -750 0
-151 -176 -721 0
-152 -177 -722 0
-153 -178 -723 0
-154 -179 -724 0
-155 -180 -725 0
-151 -181 -716 0
-152 -182 -717 0
-153 -183 -718 0
-154 -184 -719 0
-155 -185 -720 0
-151 -186 -731 0
-152 -187 -732 0
-153 -188 -733 0
-154 -189 -734 0
-155 -190 -735 0
-151 -191 -726 0
-152 -192 -727 0
-153 -193 -728 0
-154 -194 -729 0
-155 -195 -730 0
-151 -196 -781 0
-152 -197 -782 0
-153 -198 -783 0
-154 -199 -784 0
-155 -200 -785 0
-151 -201 -776 0
-152 -202 -777 0
-153 -203 -778 0
-154 -204 -779 0
-155 -205 -780 0
-151 -206 -791 0
-152 -207 -792 0
-153 -208 -793 0
-154 -209 -794 0
-155 -210 -795 0
-151 -211 -786 0
-152 -212 -787 0
-153 -213 -788 0
-154 -214 -789 0
-155 -215 -790 0
-151 -216 -761 0
-152 -217 -762 0
-153 -218 -763 0
-154 -219 -764 0
-155 -220 -765 0
-151 -221 -756 0
-152 -222 -757 0
-153 -223 -758 0
-154 -224 -759 0
-155 -225 -760 0
-151 -226 -771 0
-152 -227 -772 0
-153 -228 -773 0
-154 -229 -774 0
-155 -230 -775 0
-151 -231 -766 0
-152 -232 -767 0
-153 -233 -768 0
-154 -234 -769 0
-155 -235 -770 0
-151 -236 -661 0
-152 -237 -662 0
-153 -238 -663 0
-154 -239 -664 0
-155 -240 -665 0
-151 -241 -656 0
-152 -242 -657 0
-153 -243 -658 0
-154 -244 -659 0
-155 -245 -660 0
-151 -246 -671 0
-152 -247 -672 0
-153 -248 -673 0
-154 -249 -674 0
-155 -250 -675 0
-151 -251 -666 0
-152 -252 -667 0
-153 -253 -668 0
-154 -254 -669 0
-155 -255 -670 0
-151 -256 -641 0
-152 -257 -642 0
-153 -258 -643 0
-154 -259 -644 0
-155 -260 -645 0
-151 -261 -636 0
-152 -262 -637 0
-153 -263 -638 0
-154 -264 -639 0
-155 -265 -640 0
-151 -266 -651 0
-152 -267 -652 0
-153 -268 -653 0
-154 -269 -654 0
-155 -270 -655 0
-151 -271 -646 0
-152 -272 -647 0
-153 -273 -648 0
-154 -274 -649 0
-155 -275 -650 0
-151 -276 -701 0
-152 -277 -702 0
-153 -278 -703 0
-154 -279 -704 0
-155 -280 -705 0
-151 -281 -696 0
-152 -282 -697 0
-153 -283 -698 0
-154 -284 -699 0
-155 -285 -700 0
-151 -286 -711 0
-152 -287 -712 0
-153 -288 -713 0
-154 -289 -714 0
-155 -290 -715 0
-151 -291 -706 0
-152 -292 -707 0
-153 -293 -708 0
-154 -294 -709 0
-155 -295 -710 0
-151 -296 -681 0
-152 -297 -682 0
-153 -298 -683 0
-154 -299 -684 0
-155 -300 -685 0
-151 -301 -676 0
-152 -302 -677 0
-153 -303 -678 0
-154 -304 -679 0
-155 -305 -680 0
-151 -306 -691 0
-152 -307 -692 0
-153 -308 -693 0
-154 -309 -694 0
-155 -310 -695 0
-151 -311 -686 0
-152 -312 -687 0
-153 -313 -688 0
-154 -314 -689 0
-155 -315 -690 0
-151 -316 -581 0
-152 -317 -582 0
-153 -318 -583 0
-154 -319 -584 0
-155 -320 -585 0
-151 -321 -576 0
-152 -322 -577 0
-153 -323 -578 0
-154 -324 -579 0
-155 -325 -580 0
-151 -326 -591 0
-152 -327 -592 0
-153 -328 -593 0
-154 -329 -594 0
-155 -330 -595 0
-151 -331 -586 0
-152 -332 -587 0
-153 -333 -588 0
-154 -334 -589 0
-155 -335 -590 0
-151 -336 -561 0
-152 -337 -562 0
-153 -338 -563 0
-154 -339 -564 0
-155 -340 -565 0
-151 -341 -556 0
-152 -342 -557 0
-153 -343 -558 0
-154 -344 -559 0
-155 -345 -560 0
-151 -346 -571 0
-152 -347 -572 0
-153 -348 -573 0
-154 -349 -574 0
-155 -350 -575 0
-151 -351 -566 0
-152 -352 -567 0
-153 -353 -568 0
-154 -354 -569 0
-155 -355 -570 0
-151 -356 -621 0
-152 -357 -622 0
-153 -358 -623 0
-154 -359 -624 0
-155 -360 -625 0
-151 -361 -616 0
-152 -362 -617 0
-153 -363 -618 0
-154 -364 -619 0
-155 -365 -620 0
-151 -366 -631 0
-152 -367 -632 0
-153 -368 -633 0
-154 -369 -634 0
-155 -370 -635 0
-151 -371 -626 0
-152 -372 -627 0
-153 -373 -628 0
-154 -374 -629 0
-155 -375 -630 0
-151 -376 -601 0
-152 -377 -602 0
-153 -378 -603 0
-154 -379 -604 0
-155 -380 -605 0
-151 -381 -596 0
-152 -382 -597 0
-153 -383 -598 0
-154 -384 -599 0
-155 -385 -600 0
-151 -386 -611 0
-152 -387 -612 0
-153 -388 -613 0
-154 -389 -614 0
-155 -390 -615 0
-151 -391 -606 0
-152 -392 -607 0
-153 -393 -608 0
-154 -394 -609 0
-155 -395 -610 0
-151 -396 -501 0
-152 -397 -502 0
-153 -398 -503 0
-154 -399 -504 0
-155 -400 -505 0
-151 -401 -496 0
-152 -402 -497 0
-153 -403 -498 0
-154 -404 -499 0
-155 -405 -500 0
-151 -406 -511 0
-152 -407 -512 0
-153 -408 -513 0
-154 -409 -514 0
-155 -410 -515 0
-151 -411 -506 0
-152 -412 -507 0
-153 -413 -508 0
-154 -414 -509 0
-155 -415 -510 0
-151 -416 -481 0
-152 -417 -482 0
-153 -418 -483 0
-154 -419 -484 0
-155 -420 -485 0
-151 -421 -476 0
-152 -422 -477 0
-153 -423 -478 0
-154 -424 -479 0
-155 -425 -480 0
-151 -426 -491 0
-152 -427 -492 0
-153 -428 -493 0
-154 -429 -494 0
-155 -430 -495 0
-151 -431 -486 0
-152 -432 -487 0
-153 -433 -488 0
-154 -434 -489 0
-155 -435 -490 0
-151 -436 -541 0
-152 -437 -542 0
-153 -438 -543 0
-154 -439 -544 0
-155 -440 -545 0
-151 -441 -536 0
-152 -442 -537 0
-153 -443 -538 0
-154 -444 -539 0
-155 -445 -540 0
-151 -446 -551 0
-152 -447 -552 0
-153 -448 -553 0
-154 -449 -554 0
-155 -450 -555 0
-151 -451 -546 0
-152 -452 -547 0
-153 -453 -548 0
-154 -454 -549 0
-155 -455 -550 0
-151 -456 -521 0
-152 -457 -522 0
-153 -458 -523 0
-154 -459 -524 0
-155 -460 -525 0
-151 -461 -516 0
-152 -462 -517 0
-153 -463 -518 0
-154 -464 -519 0
-155 -465 -520 0
-151 -466 -531 0
-152 -467 -532 0
-153 -468 -533 0
-154 -469 -534 0
-155 -470 -535 0
-151 -471 -526 0
-152 -472 -527 0
-153 -473 -528 0
-154 -474 -529 0
-155 -475 -530 0
-151 -156 -746 0
-152 -157 -747 0
-153 -158 -748 0
-154 -159 -749 0
-155 -160 -750 0
-151 -161 -751 0
-152 -162 -752 0
-153 -163 -753 0
-154 -164 -754 0
-155 -165 -755 0
-151 -166 -736 0
-152 -167 -737 0
-153 -168 -738 0
-154 -169 -739 0
-155 -170 -740 0
-151 -171 -741 0
-152 -172 -742 0
-153 -173 -743 0
-154 -174 -744 0
-155 -175 -745 0
-151 -176 -726 0
-152 -177 -727 0
-153 -178 -728 0
-154 -179 -729 0
-155 -180 -730 0
-151 -181 -731 0
-152 -182 -732 0
-153 -183 -733 0
-154 -184 -734 0
-155 -185 -735 0
-151 -186 -716 0
-152 -187 -717 0
-153 -188 -718 0
-154 -189 -719 0
-155 -190 -720 0
-151 -191 -721 0
-152 -192 -722 0
-153 -193 -723 0
-154 -194 -724 0
-155 -195 -725 0
-151 -196 -786 0
-152 -197 -787 0
-153 -198 -788 0
-154 -199 -789 0
-155 -200 -790 0
-151 -201 -791 0
-152 -202 -792 0
-153 -203 -793 0
-154 -204 -794 0
-155 -205 -795 0
-151 -206 -776 0
-152 -207 -777 0
-153 -208 -778 0
-154 -209 -779 0
-155 -210 -780 0
-151 -211 -781 0
-152 -212 -782 0
-153 -213 -783 0
-154 -214 -784 0
-155 -215 -785 0
-151 -216 -766 0
-152 -217 -767 0
-153 -218 -768 0
-154 -219 -769 0
-155 -220 -770 0
-151 -221 -771 0
-152 -222 -772 0
-153 -223 -773 0
-154 -224 -774 0
-155 -225 -775 0
-151 -226 -756 0
-152 -227 -757 0
-153 -228 -758 0
-154 -229 -759 0
-155 -230 -760 0
-151 -231 -761 0
-152 -232 -762 0
-153 -233 -763 0
-154 -234 -764 0
-155 -235 -765 0
-151 -236 -666 0
-152 -237 -667 0
-153 -238 -668 0
-154 -239 -669 0
-155 -240 -670 0
-151 -241 -671 0
-152 -242 -672 0
-153 -243 -673 0
-154 -244 -674 0
-155 -245 -675 0
-151 -246 -656 0
-152 -247 -657 0
-153 -248 -658 0
-154 -249 -659 0
-155 -250 -660 0
-151 -251 -661 0
-152 -252 -662 0
-153 -253 -663 0
-154 -254 -664 0
-155 -255 -665 0
-151 -256 -646 0
-152 -257 -647 0
-153 -258 -648 0
-154 -259 -649 0
-155 -260 -650 0
-151 -261 -651 0
-152 -262 -652 0
-153 -263 -653 0
-154 -264 -654 0
-155 -265 -655 0
-151 -266 -636 0
-152 -267 -637 0
-153 -268 -638 0
-154 -269 -639 0
-155 -270 -640 0
-151 -271 -641 0
-152 -272 -642 0
-153 -273 -643 0
-154 -274 -644 0
-155 -275 -645 0
-151 -276 -706 0
-152 -277 -707 0
-153 -278 -708 0
-154 -279 -709 0
-155 -280 -710 0
-151 -281 -711 0
-152 -282 -712 0
-153 -283 -713 0
-154 -284 -714 0
-155 -285 -715 0
-151 -286 -696 0
-152 -287 -697 0
-153 -288 -698 0
-154 -289 -699 0
-155 -290 -700 0
-151 -291 -701 0
-152 -292 -702 0
-153 -293 -703 0
-154 -294 -704 0
-155 -295 -705 0
-151 -296 -686 0
-152 -297 -687 0
-153 -298 -688 0
-154 -299 -689 0
-155 -300 -690 0
-151 -301 -691 0
-152 -302 -692 0
-153 -303 -693 0
-154 -304 -694 0
-155 -305 -695 0
-151 -306 -676 0
-152 -307 -677 0
-153 -308 -678 0
-154 -309 -679 0
-155 -310 -680 0
-151 -311 -681 0
-152 -312 -682 0
-153 -313 -683 0
-154 -314 -684 0
-155 -315 -685 0
-151 -316 -586 0
-152 -317 -587 0
-153 -318 -588 0
-154 -319 -589 0
-155 -320 -590 0
-151 -321 -591 0
-152 -322 -592 0
-153 -323 -593 0
-154 -324 -594 0
-155 -325 -595 0
-151 -326 -576 0
-152 -327 -577 0
-153 -328 -578 0
-154 -329 -579 0
-155 -330 -580 0
-151 -331 -581 0
-152 -332 -582 0
-153 -333 -583 0
-154 -334 -584 0
-155 -335 -585 0
-151 -336 -566 0
-152 -337 -567 0
-153 -338 -568 0
-154 -339 -569 0
-155 -340 -570 0
-151 -341 -571 0
-152 -342 -572 0
-153 -343 -573 0
-154 -344 -574 0
-155 -345 -575 0
-151 -346 -556 0
-152 -347 -557 0
-153 -348 -558 0
-154 -349 -559 0
-155 -350 -560 0
-151 -351 -561 0
-152 -352 -562 0
-153 -353 -563 0
-154 -354 -564 0
-155 -355 -565 0
-151 -356 -626 0
-152 -357 -627 0
-153 -358 -628 0
-154 -359 -629 0
-155 -360 -630 0
-151 -361 -631 0
-152 -362 -632 0
-153 -363 -633 0
-154 -364 -634 0
-155 -365 -635 0
-151 -366 -616 0
-152 -367 -617 0
-153 -368 -618 0
-154 -369 -619 0
-155 -370 -620 0
-151 -371 -621 0
-152 -372 -622 0
-153 -373 -623 0
-154 -374 -624 0
-155 -375 -625 0
-151 -376 -606 0
-152 -377 -607 0
-153 -378 -608 0
-154 -379 -609 0
-155 -380 -610 0
-151 -381 -611 0
-152 -382 -612 0
-153 -383 -613 0
-154 -384 -614 0
-155 -385 -615 0
-151 -386 -596 0
-152 -387 -597 0
-153 -388 -598 0
-154 -389 -599 0
-155 -390 -600 0
-151 -391 -601 0
-152 -392 -602 0
-153 -393 -603 0
-154 -394 -604 0
-155 -395 -605 0
-151 -396 -506 0
-152 -397 -507 0
-153 -398 -508 0
-154 -399 -509 0
-155 -400 -510 0
-151 -401 -511 0
-152 -402 -512 0
-153 -403 -513 0
-154 -404 -514 0
-155 -405 -515 0
-151 -406 -496 0
-152 -407 -497 0
-153 -408 -498 0
-154 -409 -499 0
-155 -410 -500 0
-151 -411 -501 0
-152 -412 -502 0
-153 -413 -503 0
-154 -414 -504 0
-155 -415 -505 0
-151 -416 -486 0
-152 -417 -487 0
-153 -418 -488 0
-154 -419 -489 0
-155 -420 -490 0
-151 -421 -491 0
-152 -422 -492 0
-153 -423 -493 0
-154 -424 -494 0
-155 -425 -495 0
-151 -426 -476 0
-152 -427 -477 0
-153 -428 -478 0
-154 -429 -479 0
-155 -430 -480 0
-151 -431 -481 0
-152 -432 -482 0
-153 -433 -483 0
-154 -434 -484 0
-155 -435 -485 0
-151 -436 -546 0
-152 -437 -547 0
-153 -438 -548 0
-154 -439 -549 0
-155 -440 -550 0
-151 -441 -551 0
-152 -442 -552 0
-153 -443 -553 0
-154 -444 -554 0
-155 -445 -555 0
-151 -446 -536 0
-152 -447 -537 0
-153 -448 -538 0
-154 -449 -539 0
-155 -450 -540 0
-151 -451 -541 0
-152 -452 -542 0
-153 -453 -543 0
-154 -454 -544 0
-155 -455 -545 0
-151 -456 -526 0
-152 -457 -527 0
-153 -458 -528 0
-154 -459 -529 0
-155 -460 -530 0
-151 -461 -531 0
-152 -462 -532 0
-153 -463 -533 0
-154 -464 -534 0
-155 -465 -535 0
-151 -466 -516 0
-152 -467 -517 0
-153 -468 -518 0
-154 -469 -519 0
-155 -470 -520 0
-151 -471 -521 0
-152 -472 -522 0
-153 -473 -523 0
-154 -474 -524 0
-155 -475 -525 0
-146 -156 -751 0
-147 -157 -752 0
-148 -158 -753 0
-149 -159 -754 0
-150 -160 -755 0
-146 -161 -746 0
-147 -162 -747 0
-148 -163 -748 0
-149 -164 -749 0
-150 -165 -750 0
-146 -166 -741 0
-147 -167 -742 0
-148 -168 -743 0
-149 -169 -744 0
-150 -170 -745 0
-146 -171 -736 0
-147 -172 -737 0
-148 -173 -738 0
-149 -174 -739 0
-150 -175 -740 0
-146 -176 -731 0
-147 -177 -732 0
-148 -178 -733 0
-149 -179 -734 0
-150 -180 -735 0
-146 -181 -726 0
-147 -182 -727 0
-148 -183 -728 0
-149 -184 -729 0
-150 -185 -730 0
-146 -186 -721 0
-147 -187 -722 0
-148 -188 -723 0
-149 -189 -724 0
-150 -190 -725 0
-146 -191 -716 0
-147 -192 -717 0
-148 -193 -718 0
-149 -194 -719 0
-150 -195 -720 0
-146 -196 -791 0
-147 -197 -792 0
-148 -198 -793 0
-149 -199 -794 0
-150 -200 -795 0
-146 -201 -786 0
-147 -202 -787 0
-148 -203 -788 0
-149 -204 -789 0
-150 -205 -790 0
-146 -206 -781 0
-147 -207 -782 0
-148 -208 -783 0
-149 -209 -784 0
-150 -210 -785 0
-146 -211 -776 0
-147 -212 -777 0
-148 -213 -778 0
-149 -214 -779 0
-150 -215 -780 0
-146 -216 -771 0
-147 -217 -772 0
-148 -218 -773 0
-149 -219 -774 0
-150 -220 -775 0
-146 -221 -766 0
-147 -222 -767 0
-148 -223 -768 0
-149 -224 -769 0
-150 -225 -770 0
-146 -226 -761 0
-147 -227 -762 0
-148 -228 -763 0
-149 -229 -764 0
-150 -230 -765 0
-146 -231 -756 0
-147 -232 -757 0
-148 -233 -758 0
-149 -234 -759 0
-150 -235 -760 0
-146 -236 -671 0
-147 -237 -672 0
-148 -238 -673 0
-149 -239 -674 0
-150 -240 -675 0
-146 -241 -666 0
-147 -242 -667 0
-148 -243 -668 0
-149 -244 -669 0
-150 -245 -670 0
-146 -246 -661 0
-147 -247 -662 0
-148 -248 -663 0
-149 -249 -664 0
-150 -250 -665 0
-146 -251 -656 0
-147 -252 -657 0
-148 -253 -658 0
-149 -254 -659 0
-150 -255 -660 0
-146 -256 -651 0
-147 -257 -652 0
-148 -258 -653 0
-149 -259 -654 0
-150 -260 -655 0
-146 -261 -646 0
-147 -262 -647 0
-148 -263 -648 0
-149 -264 -649 0
-150 -265 -650 0
-146 -266 -641 0
-147 -267 -642 0
-148 -268 -643 0
-149 -269 -644 0
-150 -270 -645 0
-146 -271 -636 0
-147 -272 -637 0
-148 -273 -638 0
-149 -274 -639 0
-150 -275 -640 0
-146 -276 -711 0
-147 -277 -712 0
-148 -278 -713 0
-149 -279 -714 0
-150 -280 -715 0
-146 -281 -706 0
-147 -282 -707 0
-148 -283 -708 0
-149 -284 -709 0
-150 -285 -710 0
-146 -286 -701 0
-147 -287 -702 0
-148 -288 -703 0
-149 -289 -704 0
-150 -290 -705 0
-146 -291 -696 0
-147 -292 -697 0
-148 -293 -698 0
-149 -294 -699 0
-150 -295 -700 0
-146 -296 -691 0
-147 -297 -692 0
-148 -298 -693 0
-149 -299 -694 0
-150 -300 -695 0
-146 -301 -686 0
-147 -302 -687 0
-148 -303 -688 0
-149 -304 -689 0
-150 -305 -690 0
-146 -306 -681 0
-147 -307 -682 0
-148 -308 -683 0
-149 -309 -684 0
-150 -310 -685 0
-146 -311 -676 0
-147 -312 -677 0
-148 -313 -678 0
-149 -314 -679 0
-150 -315 -680 0
-146 -316 -591 0
-147 -317 -592 0
-148 -318 -593 0
-149 -319 -594 0
-150 -320 -595 0
-146 -321 -586 0
-147 -322 -587 0
-148 -323 -588 0
-149 -324 -589 0
-150 -325 -590 0
-146 -326 -581 0
-147 -327 -582 0
-148 -328 -583 0
-149 -329 -584 0
-150 -330 -585 0
-146 -331 -576 0
-147 -332 -577 0
-148 -333 -578 0
-149 -334 -579 0
-150 -335 -580 0
-146 -336 -571 0
-147 -337 -572 0
-148 -338 -573 0
-149 -339 -574 0
-150 -340 -575 0
-146 -341 -566 0
-147 -342 -567 0
-148 -343 -568 0
-149 -344 -569 0
-150 -345 -570 0
-146 -346 -561 0
-147 -347 -562 0
-148 -348 -563 0
-149 -349 -564 0
-150 -350 -565 0
-146 -351 -556 0
-147 -352 -557 0
-148 -353 -558 0
-149 -354 -559 0
-150 -355 -560 0
-146 -356 -631 0
-147 -357 -632 0
-148 -358 -633 0
-149 -359 -634 0
-150 -360 -635 0
-146 -361 -626 0
-147 -362 -627 0
-148 -363 -628 0
-149 -364 -629 0
-150 -365 -630 0
-146 -366 -621 0
-147 -367 -622 0
-148 -368 -623 0
-149 -369 -624 0
-150 -370 -625 0
-146 -371 -616 0
-147 -372 -617 0
-148 -373 -618 0
-149 -374 -619 0
-150 -375 -620 0
-146 -376 -611 0
-147 -377 -612 0
-148 -378 -613 0
-149 -379 -614 0
-150 -380 -615 0
-146 -381 -606 0
-147 -382 -607 0
-148 -383 -608 0
-149 -384 -609 0
-150 -385 -610 0
-146 -386 -601 0
-147 -387 -602 0
-148 -388 -603 0
-149 -389 -604 0
-150 -390 -605 0
-146 -391 -596 0
-147 -392 -597 0
-148 -393 -598 0
-149 -394 -599 0
-150 -395 -600 0
-146 -396 -511 0
-147 -397 -512 0
-148 -398 -513 0
-149 -399 -514 0
-150 -400 -515 0
-146 -401 -506 0
-147 -402 -507 0
-148 -403 -508 0
-149 -404 -509 0
-150 -405 -510 0
-146 -406 -501 0
-147 -407 -502 0
-148 -408 -503 0
-149 -409 -504 0
-150 -410 -505 0
-146 -411 -496 0
-147 -412 -497 0
-148 -413 -498 0
-149 -414 -499 0
-150 -415 -500 0
-146 -416 -491 0
-147 -417 -492 0
-148 -418 -493 0
-149 -419 -494 0
-150 -420 -495 0
-146 -421 -486 0
-147 -422 -487 0
-148 -423 -488 0
-149 -424 -489 0
-150 -425 -490 0
-146 -426 -481 0
-147 -427 -482 0
-148 -428 -483 0
-149 -429 -484 0
-150 -430 -485 0
-146 -431 -476 0
-147 -432 -477 0
-148 -433 -478 0
-149 -434 -479 0
-150 -435 -480 0
-146 -436 -551 0
-147 -437 -552 0
-148 -438 -553 0
-149 -439 -554 0
-150 -440 -555 0
-146 -441 -546 0
-147 -442 -547 0
-148 -443 -548 0
-149 -444 -549 0
-150 -445 -550 0
-146 -446 -541 0
-147 -447 -542 0
-148 -448 -543 0
-149 -449 -544 0
-150 -450 -545 0
-146 -451 -536 0
-147 -452 -537 0
-148 -453 -538 0
-149 -454 -539 0
-150 -455 -540 0
-146 -456 -531 0
-147 -457 -532 0
-148 -458 -533 0
-149 -459 -534 0
-150 -460 -535 0
-146 -461 -526 0
-147 -462 -527 0
-148 -463 -528 0
-149 -464 -529 0
-150 -465 -530 0
-146 -466 -521 0
-147 -467 -522 0
-148 -468 -523 0
-149 -469 -524 0
-150 -470 -525 0
-146 -471 -516 0
-147 -472 -517 0
-148 -473 -518 0
-149 -474 -519 0
-150 -475 -520 0
-141 -156 -756 0
-142 -157 -757 0
-143 -158 -758 0
-144 -159 -759 0
-145 -160 -760 0
-141 -161 -761 0
-142 -162 -762 0
-143 -163 -763 0
-144 -164 -764 0
-145 -165 -765 0
-141 -166 -766 0
-142 -167 -767 0
-143 -168 -768 0
-144 -169 -769 0
-145 -170 -770 0
-141 -171 -771 0
-142 -172 -772 0
-143 -173 -773 0
-144 -174 -774 0
-145 -175 -775 0
-141 -176 -776 0
-142 -177 -777 0
-143 -178 -778 0
-144 -179 -779 0
-145 -180 -780 0
-141 -181 -781 0
-142 -182 -782 0
-143 -183 -783 0
-144 -184 -784 0
-145 -185 -785 0
-141 -186 -786 0
-142 -187 -787 0
-143 -188 -788 0
-144 -189 -789 0
-145 -190 -790 0
-141 -191 -791 0
-142 -192 -792 0
-143 -193 -793 0
-144 -194 -794 0
-145 -195 -795 0
-141 -196 -716 0
-142 -197 -717 0
-143 -198 -718 0
-144 -199 -719 0
-145 -200 -720 0
-141 -201 -721 0
-142 -202 -722 0
-143 -203 -723 0
-144 -204 -724 0
-145 -205 -725 0
-141 -206 -726 0
-142 -207 -727 0
-143 -208 -728 0
-144 -209 -729 0
-145 -210 -730 0
-141 -211 -731 0
-142 -212 -732 0
-143 -213 -733 0
-144 -214 -734 0
-145 -215 -735 0
-141 -216 -736 0
-142 -217 -737 0
-143 -218 -738 0
-144 -219 -739 0
-145 -220 -740 0
-141 -221 -741 0
-142 -222 -742 0
-143 -223 -743 0
-144 -224 -744 0
-145 -225 -745 0
-141 -226 -746 0
-142 -227 -747 0
-143 -228 -748 0
-144 -229 -749 0
-145 -230 -750 0
-141 -231 -751 0
-142 -232 -752 0
-143 -233 -753 0
-144 -234 -754 0
-145 -235 -755 0
-141 -236 -676 0
-142 -237 -677 0
-143 -238 -678 0
-144 -239 -679 0
-145 -240 -680 0
-141 -241 -681 0
-142 -242 -682 0
-143 -243 -683 0
-144 -244 -684 0
-145 -245 -685 0
-141 -246 -686 0
-142 -247 -687 0
-143 -248 -688 0
-144 -249 -689 0
-145 -250 -690 0
-141 -251 -691 0
-142 -252 -692 0
-143 -253 -693 0
-144 -254 -694 0
-145 -255 -695 0
-141 -256 -696 0
-142 -257 -697 0
-143 -258 -698 0
-144 -259 -699 0
-145 -260 -700 0
-141 -261 -701 0
-142 -262 -702 0
-143 -263 -703 0
-144 -264 -704 0
-145 -265 -705 0
-141 -266 -706 0
-142 -267 -707 0
-143 -268 -708 0
-144 -269 -709 0
-145 -270 -710 0
-141 -271 -711 0
-142 -272 -712 0
-143 -273 -713 0
-144 -274 -714 0
-145 -275 -715 0
-141 -276 -636 0
-142 -277 -637 0
-143 -278 -638 0
-144 -279 -639 0
-145 -280 -640 0
-141 -281 -641 0
-142 -282 -642 0
-143 -283 -643 0
-144 -284 -644 0
-145 -285 -645 0
-141 -286 -646 0
-142 -287 -647 0
-143 -288 -648 0
-144 -289 -649 0
-145 -290 -650 0
-141 -291 -651 0
-142 -292 -652 0
-143 -293 -653 0
-144 -294 -654 0
-145 -295 -655 0
-141 -296 -656 0
-142 -297 -657 0
-143 -298 -658 0
-144 -299 -659 0
-145 -300 -660 0
-141 -301 -661 0
-142 -302 -662 0
-143 -303 -663 0
-144 -304 -664 0
-145 -305 -665 0
-141 -306 -666 0
-142 -307 -667 0
-143 -308 -668 0
-144 -309 -669 0
-145 -310 -670 0
-141 -311 -671 0
-142 -312 -672 0
-143 -313 -673 0
-144 -314 -674 0
-145 -315 -675 0
-141 -316 -596 0
-142 -317 -597 0
-143 -318 -598 0
-144 -319 -599 0
-145 -320 -600 0
-141 -321 -601 0
-142 -322 -602 0
-143 -323 -603 0
-144 -324 -604 0
-145 -325 -605 0
-141 -326 -606 0
-142 -327 -607 0
-143 -328 -608 0
-144 -329 -609 0
-145 -330 -610 0
-141 -331 -611 0
-142 -332 -612 0
-143 -333 -613 0
-144 -334 -614 0
-145 -335 -615 0
-141 -336 -616 0
-142 -337 -617 0
-143 -338 -618 0
-144 -339 -619 0
-145 -340 -620 0
-141 -341 -621 0
-142 -342 -622 0
-143 -343 -623 0
-144 -344 -624 0
-145 -345 -625 0
-141 -346 -626 0
-142 -347 -627 0
-143 -348 -628 0
-144 -349 -629 0
-145 -350 -630 0
-141 -351 -631 0
-142 -352 -632 0
-143 -353 -633 0
-144 -354 -634 0
-145 -355 -635 0
-141 -356 -556 0
-142 -357 -557 0
-143 -358 -558 0
-144 -359 -559 0
-145 -360 -560 0
-141 -361 -561 0
-142 -362 -562 0
-143 -363 -563 0
-144 -364 -564 0
-145 -365 -565 0
-141 -366 -566 0
-142 -367 -567 0
-143 -368 -568 0
-144 -369 -569 0
-145 -370 -570 0
-141 -371 -571 0
-142 -372 -572 0
-143 -373 -573 0
-144 -374 -574 0
-145 -375 -575 0
-141 -376 -576 0
-142 -377 -577 0
-143 -378 -578 0
-144 -379 -579 0
-145 -380 -580 0
-141 -381 -581 0
-142 -382 -582 0
-143 -383 -583 0
-144 -384 -584 0
-145 -385 -585 0
-141 -386 -586 0
-142 -387 -587 0
-143 -388 -588 0
-144 -389 -589 0
-145 -390 -590 0
-141 -391 -591 0
-142 -392 -592 0
-143 -393 -593 0
-144 -394 -594 0
-145 -395 -595 0
-141 -396 -516 0
-142 -397 -517 0
-143 -398 -518 0
-144 -399 -519 0
-145 -400 -520 0
-141 -401 -521 0
-142 -402 -522 0
-143 -403 -523 0
-144 -404 -524 0
-145 -405 -525 0
-141 -406 -526 0
-142 -407 -527 0
-143 -408 -528 0
-144 -409 -529 0
-145 -410 -530 0
-141 -411 -531 0
-142 -412 -532 0
-143 -413 -533 0
-144 -414 -534 0
-145 -415 -535 0
-141 -416 -536 0
-142 -417 -537 0
-143 -418 -538 0
-144 -419 -539 0
-145 -420 -540 0
-141 -421 -541 0
-142 -422 -542 0
-143 -423 -543 0
-144 -424 -544 0
-145 -425 -545 0
-141 -426 -546 0
-142 -427 -547 0
-143 -428 -548 0
-144 -429 -549 0
-145 -430 -550 0
-141 -431 -551 0
-142 -432 -552 0
-143 -433 -553 0
-144 -434 -554 0
-145 -435 -555 0
-141 -436 -476 0
-142 -437 -477 0
-143 -438 -478 0
-144 -439 -479 0
-145 -440 -480 0
-141 -441 -481 0
-142 -442 -482 0
-143 -443 -483 0
-144 -444 -484 0
-145 -445 -485 0
-141 -446 -486 0
-142 -447 -487 0
-143 -448 -488 0
-144 -449 -489 0
-145 -450 -490 0
-141 -451 -491 0
-142 -452 -492 0
-143 -453 -493 0
-144 -454 -494 0
-145 -455 -495 0
-141 -456 -496 0
-142 -457 -497 0
-143 -458 -498 0
-144 -459 -499 0
-145 -460 -500 0
-141 -461 -501 0
-142 -462 -502 0
-143 -463 -503 0
-144 -464 -504 0
-145 -465 -505 0
-141 -466 -506 0
-142 -467 -507 0
-143 -468 -508 0
-144 -469 -509 0
-145 -470 -510 0
-141 -471 -511 0
-142 -472 -512 0
-143 -473 -513 0
-144 -474 -514 0
-145 -475 -515 0
-151 -156 -761 0
-152 -157 -762 0
-153 -158 -763 0
-154 -159 -764 0
-155 -160 -765 0
-151 -161 -756 0
-152 -162 -757 0
-153 -163 -758 0
-154 -164 -759 0
-155 -165 -760 0
-151 -166 -771 0
-152 -167 -772 0
-153 -168 -773 0
-154 -169 -774 0
-155 -170 -775 0
-151 -171 -766 0
-152 -172 -767 0
-153 -173 -768 0
-154 -174 -769 0
-155 -175 -770 0
-151 -176 -781 0
-152 -177 -782 0
-153 -178 -783 0
-154 -179 -784 0
-155 -180 -785 0
-151 -181 -776 0
-152 -182 -777 0
-153 -183 -778 0
-154 -184 -779 0
-155 -185 -780 0
-151 -186 -791 0
-152 -187 -792 0
-153 -188 -793 0
-154 -189 -794 0
-155 -190 -795 0
-151 -191 -786 0
-152 -192 -787 0
-153 -193 -788 0
-154 -194 -789 0
-155 -195 -790 0
-151 -196 -721 0
-152 -197 -722 0
-153 -198 -723 0
-154 -199 -724 0
-155 -200 -725 0
-151 -201 -716 0
-152 -202 -717 0
-153 -203 -718 0
-154 -204 -719 0
-155 -205 -720 0
-151 -206 -731 0
-152 -207 -732 0
-153 -208 -733 0
-154 -209 -734 0
-155 -210 -735 0
-151 -211 -726 0
-152 -212 -727 0
-153 -213 -728 0
-154 -214 -729 0
-155 -215 -730 0
-151 -216 -741 0
-152 -217 -742 0
-153 -218 -743 0
-154 -219 -744 0
-155 -220 -745 0
-151 -221 -736 0
-152 -222 -737 0
-153 -223 -738 0
-154 -224 -739 0
-155 -225 -740 0
-151 -226 -751 0
-152 -227 -752 0
-153 -228 -753 0
-154 -229 -754 0
-155 -230 -755 0
-151 -231 -746 0
-152 -232 -747 0
-153 -233 -748 0
-154 -234 -749 0
-155 -235 -750 0
-151 -236 -681 0
-152 -237 -682 0
-153 -238 -683 0
-154 -239 -684 0
-155 -240 -685 0
-151 -241 -676 0
-152 -242 -677 0
-153 -243 -678 0
-154 -244 -679 0
-155 -245 -680 0
-151 -246 -691 0
-152 -247 -692 0
-153 -248 -693 0
-154 -249 -694 0
-155 -250 -695 0
-151 -251 -686 0
-152 -252 -687 0
-153 -253 -688 0
-154 -254 -689 0
-155 -255 -690 0
-151 -256 -701 0
-152 -257 -702 0
-153 -258 -703 0
-154 -259 -704 0
-155 -260 -705 0
-151 -261 -696 0
-152 -262 -697 0
-153 -263 -698 0
-154 -264 -699 0
-155 -265 -700 0
-151 -266 -711 0
-152 -267 -712 0
-153 -268 -713 0
-154 -269 -714 0
-155 -270 -715 0
-151 -271 -706 0
-152 -272 -707 0
-153 -273 -708 0
-154 -274 -709 0
-155 -275 -710 0
-151 -276 -641 0
-152 -277 -642 0
-153 -278 -643 0
-154 -279 -644 0
-155 -280 -645 0
-151 -281 -636 0
-152 -282 -637 0
-153 -283 -638 0
-154 -284 -639 0
-155 -285 -640 0
-151 -286 -651 0
-152 -287 -652 0
-153 -288 -653 0
-154 -289 -654 0
-155 -290 -655 0
-151 -291 -646 0
-152 -292 -647 0
-153 -293 -648 0
-154 -294 -649 0
-155 -295 -650 0
-151 -296 -661 0
-152 -297 -662 0
-153 -298 -663 0
-154 -299 -664 0
-155 -300 -665 0
-151 -301 -656 0
-152 -302 -657 0
-153 -303 -658 0
-154 -304 -659 0
-155 -305 -660 0
-151 -306 -671 0
-152 -307 -672 0
-153 -308 -673 0
-154 -309 -674 0
-155 -310 -675 0
-151 -311 -666 0
-152 -312 -667 0
-153 -313 -668 0
-154 -314 -669 0
-155 -315 -670 0
-151 -316 -601 0
-152 -317 -602 0
-153 -318 -603 0
-154 -319 -604 0
-155 -320 -605 0
-151 -321 -596 0
-152 -322 -597 0
-153 -323 -598 0
-154 -324 -599 0
-155 -325 -600 0
-151 -326 -611 0
-152 -327 -612 0
-153 -328 -613 0
-154 -329 -614 0
-155 -330 -615 0
-151 -331 -606 0
-152 -332 -607 0
-153 -333 -608 0
-154 -334 -609 0
-155 -335 -610 0
-151 -336 -621 0
-152 -337 -622 0
-153 -338 -623 0
-154 -339 -624 0
-155 -340 -625 0
-151 -341 -616 0
-152 -342 -617 0
-153 -343 -618 0
-154 -344 -619 0
-155 -345 -620 0
-151 -346 -631 0
-152 -347 -632 0
-153 -348 -633 0
-154 -349 -634 0
-155 -350 -635 0
-151 -351 -626 0
-152 -352 -627 0
-153 -353 -628 0
-154 -354 -629 0
-155 -355 -630 0
-151 -356 -561 0
-152 -357 -562 0
-153 -358 -563 0
-154 -359 -564 0
-155 -360 -565 0
-151 -361 -556 0
-152 -362 -557 0
-153 -363 -558 0
-154 -364 -559 0
-155 -365 -560 0
-151 -366 -571 0
-152 -367 -572 0
-153 -368 -573 0
-154 -369 -574 0
-155 -370 -575 0
-151 -371 -566 0
-152 -372 -567 0
-153 -373 -568 0
-154 -374 -569 0
-155 -375 -570 0
-151 -376 -581 0
-152 -377 -582 0
-153 -378 -583 0
-154 -379 -584 0
-155 -380 -585 0
-151 -381 -576 0
-152 -382 -577 0
-153 -383 -578 0
-154 -384 -579 0
-155 -385 -580 0
-151 -386 -591 0
-152 -387 -592 0
-153 -388 -593 0
-154 -389 -594 0
-155 -390 -595 0
-151 -391 -586 0
-152 -392 -587 0
-153 -393 -588 0
-154 -394 -589 0
-155 -395 -590 0
-151 -396 -521 0
-152 -397 -522 0
-153 -398 -523 0
-154 -399 -524 0
-155 -400 -525 0
-151 -401 -516 0
-152 -402 -517 0
-153 -403 -518 0
-154 -404 -519 0
-155 -405 -520 0
-151 -406 -531 0
-152 -407 -532 0
-153 -408 -533 0
-154 -409 -534 0
-155 -410 -535 0
-151 -411 -526 0
-152 -412 -527 0
-153 -413 -528 0
-154 -414 -529 0
-155 -415 -530 0
-151 -416 -541 0
-152 -417 -542 0
-153 -418 -543 0
-154 -419 -544 0
-155 -420 -545 0
-151 -421 -536 0
-152 -422 -537 0
-153 -423 -538 0
-154 -424 -539 0
-155 -425 -540 0
-151 -426 -551 0
-152 -427 -552 0
-153 -428 -553 0
-154 -429 -554 0
-155 -430 -555 0
-151 -431 -546 0
-152 -432 -547 0
-153 -433 -548 0
-154 -434 -549 0
-155 -435 -550 0
-151 -436 -481 0
-152 -437 -482 0
-153 -438 -483 0
-154 -439 -484 0
-155 -440 -485 0
-151 -441 -476 0
-152 -442 -477 0
-153 -443 -478 0
-154 -444 -479 0
-155 -445 -480 0
-151 -446 -491 0
-152 -447 -492 0
-153 -448 -493 0
-154 -449 -494 0
-155 -450 -495 0
-151 -451 -486 0
-152 -452 -487 0
-153 -453 -488 0
-154 -454 -489 0
-155 -455 -490 0
-151 -456 -501 0
-152 -457 -502 0
-153 -458 -503 0
-154 -459 -504 0
-155 -460 -505 0
-151 -461 -496 0
-152 -462 -497 0
-153 -463 -498 0
-154 -464 -499 0
-155 -465 -500 0
-151 -466 -511 0
-152 -467 -512 0
-153 -468 -513 0
-154 -469 -514 0
-155 -470 -515 0
-151 -471 -506 0
-152 -472 -507 0
-153 -473 -508 0
-154 -474 -509 0
-155 -475 -510 0
-141 -156 -766 0
-142 -157 -767 0
-143 -158 -768 0
-144 -159 -769 0
-145 -160 -770 0
-141 -161 -771 0
-142 -162 -772 0
-143 -163 -773 0
-144 -164 -774 0
-145 -165 -775 0
-141 -166 -756 0
-142 -167 -757 0
-143 -168 -758 0
-144 -169 -759 0
-145 -170 -760 0
-141 -171 -761 0
-142 -172 -762 0
-143 -173 -763 0
-144 -174 -764 0
-145 -175 -765 0
-141 -176 -786 0
-142 -177 -787 0
-143 -178 -788 0
-144 -179 -789 0
-145 -180 -790 0
-141 -181 -791 0
-142 -182 -792 0
-143 -183 -793 0
-144 -184 -794 0
-145 -185 -795 0
-141 -186 -776 0
-142 -187 -777 0
-143 -188 -778 0
-144 -189 -779 0
-145 -190 -780 0
-141 -191 -781 0
-142 -192 -782 0
-143 -193 -783 0
-144 -194 -784 0
-145 -195 -785 0
-141 -196 -726 0
-142 -197 -727 0
-143 -198 -728 0
-144 -199 -729 0
-145 -200 -730 0
-141 -201 -731 0
-142 -202 -732 0
-143 -203 -733 0
-144 -204 -734 0
-145 -205 -735 0
-141 -206 -716 0
-142 -207 -717 0
-143 -208 -718 0
-144 -209 -719 0
-145 -210 -720 0
-141 -211 -721 0
-142 -212 -722 0
-143 -213 -723 0
-144 -214 -724 0
-145 -215 -725 0
-141 -216 -746 0
-142 -217 -747 0
-143 -218 -748 0
-144 -219 -749 0
-145 -220 -750 0
-141 -221 -751 0
-142 -222 -752 0
-143 -223 -753 0
-144 -224 -754 0
-145 -225 -755 0
-141 -226 -736 0
-142 -227 -737 0
-143 -228 -738 0
-144 -229 -739 0
-145 -230 -740 0
-141 -231 -741 0
-142 -232 -742 0
-143 -233 -743 0
-144 -234 -744 0
-145 -235 -745 0
-141 -236 -686 0
-142 -237 -687 0
-143 -238 -688 0
-144 -239 -689 0
-145 -240 -690 0
-141 -241 -691 0
-142 -242 -692 0
-143 -243 -693 0
-144 -244 -694 0
-145 -245 -695 0
-141 -246 -676 0
-142 -247 -677 0
-143 -248 -678 0
-144 -249 -679 0
-145 -250 -680 0
-141 -251 -681 0
-142 -252 -682 0
-143 -253 -683 0
-144 -254 -684 0
-145 -255 -685 0
-141 -256 -706 0
-142 -257 -707 0
-143 -258 -708 0
-144 -259 -709 0
-145 -260 -710 0
-141 -261 -711 0
-142 -262 -712 0
-143 -263 -713 0
-144 -264 -714 0
-145 -265 -715 0
-141 -266 -696 0
-142 -267 -697 0
-143 -268 -698 0
-144 -269 -699 0
-145 -270 -700 0
-141 -271 -701 0
-142 -272 -702 0
-143 -273 -703 0
-144 -274 -704 0
-145 -275 -705 0
-141 -276 -646 0
-142 -277 -647 0
-143 -278 -648 0
-144 -279 -649 0
-145 -280 -650 0
-141 -281 -651 0
-142 -282 -652 0
-143 -283 -653 0
-144 -284 -654 0
-145 -285 -655 0
-141 -286 -636 0
-142 -287 -637 0
-143 -288 -638 0
-144 -289 -639 0
-145 -290 -640 0
-141 -291 -641 0
-142 -292 -642 0
-143 -293 -643 0
-144 -294 -644 0
-145 -295 -645 0
-141 -296 -666 0
-142 -297 -667 0
-143 -298 -668 0
-144 -299 -669 0
-145 -300 -670 0
-141 -301 -671 0
-142 -302 -672 0
-143 -303 -673 0
-144 -304 -674 0
-145 -305 -675 0
-141 -306 -656 0
-142 -307 -657 0
-143 -308 -658 0
-144 -309 -659 0
-145 -310 -660 0
-141 -311 -661 0
-142 -312 -662 0
-143 -313 -663 0
-144 -314 -664 0
-145 -315 -665 0
-141 -316 -606 0
-142 -317 -607 0
-143 -318 -608 0
-144 -319 -609 0
-145 -320 -610 0
-141 -321 -611 0
-142 -322 -612 0
-143 -323 -613 0
-144 -324 -614 0
-145 -325 -615 0
-141 -326 -596 0
-142 -327 -597 0
-143 -328 -598 0
-144 -329 -599 0
-145 -330 -600 0
-141 -331 -601 0
-142 -332 -602 0
-143 -333 -603 0
-144 -334 -604 0
-145 -335 -605 0
-141 -336 -626 0
-142 -337 -627 0
-143 -338 -628 0
-144 -339 -629 0
-145 -340 -630 0
-141 -341 -631 0
-142 -342 -632 0
-143 -343 -633 0
-144 -344 -634 0
-145 -345 -635 0
-141 -346 -616 0
-142 -347 -617 0
-143 -348 -618 0
-144 -349 -619 0
-145 -350 -620 0
-141 -351 -621 0
-142 -352 -622 0
-143 -353 -623 0
-144 -354 -624 0
-145 -355 -625 0
-141 -356 -566 0
-142 -357 -567 0
-143 -358 -568 0
-144 -359 -569 0
-145 -360 -570 0
-141 -361 -571 0
-142 -362 -572 0
-143 -363 -573 0
-144 -364 -574 0
-145 -365 -575 0
-141 -366 -556 0
-142 -367 -557 0
-143 -368 -558 0
-144 -369 -559 0
-145 -370 -560 0
-141 -371 -561 0
-142 -372 -562 0
-143 -373 -563 0
-144 -374 -564 0
-145 -375 -565 0
-141 -376 -586 0
-142 -377 -587 0
-143 -378 -588 0
-144 -379 -589 0
-145 -380 -590 0
-141 -381 -591 0
-142 -382 -592 0
-143 -383 -593 0
-144 -384 -594 0
-145 -385 -595 0
-141 -386 -576 0
-142 -387 -577 0
-143 -388 -578 0
-144 -389 -579 0
-145 -390 -580 0
-141 -391 -581 0
-142 -392 -582 0
-143 -393 -583 0
-144 -394 -584 0
-145 -395 -585 0
-141 -396 -526 0
-142 -397 -527 0
-143 -398 -528 0
-144 -399 -529 0
-145 -400 -530 0
-141 -401 -531 0
-142 -402 -532 0
-143 -403 -533 0
-144 -404 -534 0
-145 -405 -535 0
-141 -406 -516 0
-142 -407 -517 0
-143 -408 -518 0
-144 -409 -519 0
-145 -410 -520 0
-141 -411 -521 0
-142 -412 -522 0
-143 -413 -523 0
-144 -414 -524 0
-145 -415 -525 0
-141 -416 -546 0
-142 -417 -547 0
-143 -418 -548 0
-144 -419 -549 0
-145 -420 -550 0
-141 -421 -551 0
-142 -422 -552 0
-143 -423 -553 0
-144 -424 -554 0
-145 -425 -555 0
-141 -426 -536 0
-142 -427 -537 0
-143 -428 -538 0
-144 -429 -539 0
-145 -430 -540 0
-141 -431 -541 0
-142 -432 -542 0
-143 -433 -543 0
-144 -434 -544 0
-145 -435 -545 0
-141 -436 -486 0
-142 -437 -487 0
-143 -438 -488 0
-144 -439 -489 0
-145 -440 -490 0
-141 -441 -491 0
-142 -442 -492 0
-143 -443 -493 0
-144 -444 -494 0
-145 -445 -495 0
-141 -446 -476 0
-142 -447 -477 0
-143 -448 -478 0
-144 -449 -479 0
-145 -450 -480 0
-141 -451 -481 0
-142 -452 -482 0
-143 -453 -483 0
-144 -454 -484 0
-145 -455 -485 0
-141 -456 -506 0
-142 -457 -507 0
-143 -458 -508 0
-144 -459 -509 0
-145 -460 -510 0
-141 -461 -511 0
-142 -462 -512 0
-143 -463 -513 0
-144 -464 -514 0
-145 -465 -515 0
-141 -466 -496 0
-142 -467 -497 0
-143 -468 -498 0
-144 -469 -499 0
-145 -470 -500 0
-141 -471 -501 0
-142 -472 -502 0
-143 -473 -503 0
-144 -474 -504 0
-145 -475 -505 0
-146 -156 -771 0
-147 -157 -772 0
-148 -158 -773 0
-149 -159 -774 0
-150 -160 -775 0
-146 -161 -766 0
-147 -162 -767 0
-148 -163 -768 0
-149 -164 -769 0
-150 -165 -770 0
-146 -166 -761 0
-147 -167 -762 0
-148 -168 -763 0
-149 -169 -764 0
-150 -170 -765 0
-146 -171 -756 0
-147 -172 -757 0
-148 -173 -758 0
-149 -174 -759 0
-150 -175 -760 0
-146 -176 -791 0
-147 -177 -792 0
-148 -178 -793 0
-149 -179 -794 0
-150 -180 -795 0
-146 -181 -786 0
-147 -182 -787 0
-148 -183 -788 0
-149 -184 -789 0
-150 -185 -790 0
-146 -186 -781 0
-147 -187 -782 0
-148 -188 -783 0
-149 -189 -784 0
-150 -190 -785 0
-146 -191 -776 0
-147 -192 -777 0
-148 -193 -778 0
-149 -194 -779 0
-150 -195 -780 0
-146 -196 -731 0
-147 -197 -732 0
-148 -198 -733 0
-149 -199 -734 0
-150 -200 -735 0
-146 -201 -726 0
-147 -202 -727 0
-148 -203 -728 0
-149 -204 -729 0
-150 -205 -730 0
-146 -206 -721 0
-147 -207 -722 0
-148 -208 -723 0
-149 -209 -724 0
-150 -210 -725 0
-146 -211 -716 0
-147 -212 -717 0
-148 -213 -718 0
-149 -214 -719 0
-150 -215 -720 0
-146 -216 -751 0
-147 -217 -752 0
-148 -218 -753 0
-149 -219 -754 0
-150 -220 -755 0
-146 -221 -746 0
-147 -222 -747 0
-148 -223 -748 0
-149 -224 -749 0
-150 -225 -750 0
-146 -226 -741 0
-147 -227 -742 0
-148 -228 -743 0
-149 -229 -744 0
-150 -230 -745 0
-146 -231 -736 0
-147 -232 -737 0
-148 -233 -738 0
-149 -234 -739 0
-150 -235 -740 0
-146 -236 -691 0
-147 -237 -692 0
-148 -238 -693 0
-149 -239 -694 0
-150 -240 -695 0
-146 -241 -686 0
-147 -242 -687 0
-148 -243 -688 0
-149 -244 -689 0
-150 -245 -690 0
-146 -246 -681 0
-147 -247 -682 0
-148 -248 -683 0
-149 -249 -684 0
-150 -250 -685 0
-146 -251 -676 0
-147 -252 -677 0
-148 -253 -678 0
-149 -254 -679 0
-150 -255 -680 0
-146 -256 -711 0
-147 -257 -712 0
-148 -258 -713 0
-149 -259 -714 0
-150 -260 -715 0
-146 -261 -706 0
-147 -262 -707 0
-148 -263 -708 0
-149 -264 -709 0
-150 -265 -710 0
-146 -266 -701 0
-147 -267 -702 0
-148 -268 -703 0
-149 -269 -704 0
-150 -270 -705 0
-146 -271 -696 0
-147 -272 -697 0
-148 -273 -698 0
-149 -274 -699 0
-150 -275 -700 0
-146 -276 -651 0
-147 -277 -652 0
-148 -278 -653 0
-149 -279 -654 0
-150 -280 -655 0
-146 -281 -646 0
-147 -282 -647 0
-148 -283 -648 0
-149 -284 -649 0
-150 -285 -650 0
-146 -286 -641 0
-147 -287 -642 0
-148 -288 -643 0
-149 -289 -644 0
-150 -290 -645 0
-146 -291 -636 0
-147 -292 -637 0
-148 -293 -638 0
-149 -294 -639 0
-150 -295 -640 0
-146 -296 -671 0
-147 -297 -672 0
-148 -298 -673 0
-149 -299 -674 0
-150 -300 -675 0
-146 -301 -666 0
-147 -302 -667 0
-148 -303 -668 0
-149 -304 -669 0
-150 -305 -670 0
-146 -306 -661 0
-147 -307 -662 0
-148 -308 -663 0
-149 -309 -664 0
-150 -310 -665 0
-146 -311 -656 0
-147 -312 -657 0
-148 -313 -658 0
-149 -314 -659 0
-150 -315 -660 0
-146 -316 -611 0
-147 -317 -612 0
-148 -318 -613 0
-149 -319 -614 0
-150 -320 -615 0
-146 -321 -606 0
-147 -322 -607 0
-148 -323 -608 0
-149 -324 -609 0
-150 -325 -610 0
-146 -326 -601 0
-147 -327 -602 0
-148 -328 -603 0
-149 -329 -604 0
-150 -330 -605 0
-146 -331 -596 0
-147 -332 -597 0
-148 -333 -598 0
-149 -334 -599 0
-150 -335 -600 0
-146 -336 -631 0
-147 -337 -632 0
-148 -338 -633 0
-149 -339 -634 0
-150 -340 -635 0
-146 -341 -626 0
-147 -342 -627 0
-148 -343 -628 0
-149 -344 -629 0
-150 -345 -630 0
-146 -346 -621 0
-147 -347 -622 0
-148 -348 -623 0
-149 -349 -624 0
-150 -350 -625 0
-146 -351 -616 0
-147 -352 -617 0
-148 -353 -618 0
-149 -354 -619 0
-150 -355 -620 0
-146 -356 -571 0
-147 -357 -572 0
-148 -358 -573 0
-149 -359 -574 0
-150 -360 -575 0
-146 -361 -566 0
-147 -362 -567 0
-148 -363 -568 0
-149 -364 -569 0
-150 -365 -570 0
-146 -366 -561 0
-147 -367 -562 0
-148 -368 -563 0
-149 -369 -564 0
-150 -370 -565 0
-146 -371 -556 0
-147 -372 -557 0
-148 -373 -558 0
-149 -374 -559 0
-150 -375 -560 0
-146 -376 -591 0
-147 -377 -592 0
-148 -378 -593 0
-149 -379 -594 0
-150 -380 -595 0
-146 -381 -586 0
-147 -382 -587 0
-148 -383 -588 0
-149 -384 -589 0
-150 -385 -590 0
-146 -386 -581 0
-147 -387 -582 0
-148 -388 -583 0
-149 -389 -584 0
-150 -390 -585 0
-146 -391 -576 0
-147 -392 -577 0
-148 -393 -578 0
-149 -394 -579 0
-150 -395 -580 0
-146 -396 -531 0
-147 -397 -532 0
-148 -398 -533 0
-149 -399 -534 0
-150 -400 -535 0
-146 -401 -526 0
-147 -402 -527 0
-148 -403 -528 0
-149 -404 -529 0
-150 -405 -530 0
-146 -406 -521 0
-147 -407 -522 0
-148 -408 -523 0
-149 -409 -524 0
-150 -410 -525 0
-146 -411 -516 0
-147 -412 -517 0
-148 -413 -518 0
-149 -414 -519 0
-150 -415 -520 0
-146 -416 -551 0
-147 -417 -552 0
-148 -418 -553 0
-149 -419 -554 0
-150 -420 -555 0
-146 -421 -546 0
-147 -422 -547 0
-148 -423 -548 0
-149 -424 -549 0
-150 -425 -550 0
-146 -426 -541 0
-147 -427 -542 0
-148 -428 -543 0
-149 -429 -544 0
-150 -430 -545 0
-146 -431 -536 0
-147 -432 -537 0
-148 -433 -538 0
-149 -434 -539 0
-150 -435 -540 0
-146 -436 -491 0
-147 -437 -492 0
-148 -438 -493 0
-149 -439 -494 0
-150 -440 -495 0
-146 -441 -486 0
-147 -442 -487 0
-148 -443 -488 0
-149 -444 -489 0
-150 -445 -490 0
-146 -446 -481 0
-147 -447 -482 0
-148 -448 -483 0
-149 -449 -484 0
-150 -450 -485 0
-146 -451 -476 0
-147 -452 -477 0
-148 -453 -478 0
-149 -454 -479 0
-150 -455 -480 0
-146 -456 -511 0
-147 -457 -512 0
-148 -458 -513 0
-149 -459 -514 0
-150 -460 -515 0
-146 -461 -506 0
-147 -462 -507 0
-148 -463 -508 0
-149 -464 -509 0
-150 -465 -510 0
-146 -466 -501 0
-147 -467 -502 0
-148 -468 -503 0
-149 -469 -504 0
-150 -470 -505 0
-146 -471 -496 0
-147 -472 -497 0
-148 -473 -498 0
-149 -474 -499 0
-150 -475 -500 0
-141 -156 -776 0
-142 -157 -777 0
-143 -158 -778 0
-144 -159 -779 0
-145 -160 -780 0
-141 -161 -781 0
-142 -162 -782 0
-143 -163 -783 0
-144 -164 -784 0
-145 -165 -785 0
-141 -166 -786 0
-142 -167 -787 0
-143 -168 -788 0
-144 -169 -789 0
-145 -170 -790 0
-141 -171 -791 0
-142 -172 -792 0
-143 -173 -793 0
-144 -174 -794 0
-145 -175 -795 0
-141 -176 -756 0
-142 -177 -757 0
-143 -178 -758 0
-144 -179 -759 0
-145 -180 -760 0
-141 -181 -761 0
-142 -182 -762 0
-143 -183 -763 0
-144 -184 -764 0
-145 -185 -765 0
-141 -186 -766 0
-142 -187 -767 0
-143 -188 -768 0
-144 -189 -769 0
-145 -190 -770 0
-141 -191 -771 0
-142 -192 -772 0
-143 -193 -773 0
-144 -194 -774 0
-145 -195 -775 0
-141 -196 -736 0
-142 -197 -737 0
-143 -198 -738 0
-144 -199 -739 0
-145 -200 -740 0
-141 -201 -741 0
-142 -202 -742 0
-143 -203 -743 0
-144 -204 -744 0
-145 -205 -745 0
-141 -206 -746 0
-142 -207 -747 0
-143 -208 -748 0
-144 -209 -749 0
-145 -210 -750 0
-141 -211 -751 0
-142 -212 -752 0
-143 -213 -753 0
-144 -214 -754 0
-145 -215 -755 0
-141 -216 -716 0
-142 -217 -717 0
-143 -218 -718 0
-144 -219 -719 0
-145 -220 -720 0
-141 -221 -721 0
-142 -222 -722 0
-143 -223 -723 0
-144 -224 -724 0
-145 -225 -725 0
-141 -226 -726 0
-142 -227 -727 0
-143 -228 -728 0
-144 -229 -729 0
-145 -230 -730 0
-141 -231 -731 0
-142 -232 -732 0
-143 -233 -733 0
-144 -234 -734 0
-145 -235 -735 0
-141 -236 -696 0
-142 -237 -697 0
-143 -238 -698 0
-144 -239 -699 0
-145 -240 -700 0
-141 -241 -701 0
-142 -242 -702 0
-143 -243 -703 0
-144 -244 -704 0
-145 -245 -705 0
-141 -246 -706 0
-142 -247 -707 0
-143 -248 -708 0
-144 -249 -709 0
-145 -250 -710 0
-141 -251 -711 0
-142 -252 -712 0
-143 -253 -713 0
-144 -254 -714 0
-145 -255 -715 0
-141 -256 -676 0
-142 -257 -677 0
-143 -258 -678 0
-144 -259 -679 0
-145 -260 -680 0
-141 -261 -681 0
-142 -262 -682 0
-143 -263 -683 0
-144 -264 -684 0
-145 -265 -685 0
-141 -266 -686 0
-142 -267 -687 0
-143 -268 -688 0
-144 -269 -689 0
-145 -270 -690 0
-141 -271 -691 0
-142 -272 -692 0
-143 -273 -693 0
-144 -274 -694 0
-145 -275 -695 0
-141 -276 -656 0
-142 -277 -657 0
-143 -278 -658 0
-144 -279 -659 0
-145 -280 -660 0
-141 -281 -661 0
-142 -282 -662 0
-143 -283 -663 0
-144 -284 -664 0
-145 -285 -665 0
-141 -286 -666 0
-142 -287 -667 0
-143 -288 -668 0
-144 -289 -669 0
-145 -290 -670 0
-141 -291 -671 0
-142 -292 -672 0
-143 -293 -673 0
-144 -294 -674 0
-145 -295 -675 0
-141 -296 -636 0
-142 -297 -637 0
-143 -298 -638 0
-144 -299 -639 0
-145 -300 -640 0
-141 -301 -641 0
-142 -302 -642 0
-143 -303 -643 0
-144 -304 -644 0
-145 -305 -645 0
-141 -306 -646 0
-142 -307 -647 0
-143 -308 -648 0
-144 -309 -649 0
-145 -310 -650 0
-141 -311 -651 0
-142 -312 -652 0
-143 -313 -653 0
-144 -314 -654 0
-145 -315 -655 0
-141 -316 -616 0
-142 -317 -617 0
-143 -318 -618 0
-144 -319 -619 0
-145 -320 -620 0
-141 -321 -621 0
-142 -322 -622 0
-143 -323 -623 0
-144 -324 -624 0
-145 -325 -625 0
-141 -326 -626 0
-142 -327 -627 0
-143 -328 -628 0
-144 -329 -629 0
-145 -330 -630 0
-141 -331 -631 0
-142 -332 -632 0
-143 -333 -633 0
-144 -334 -634 0
-145 -335 -635 0
-141 -336 -596 0
-142 -337 -597 0
-143 -338 -598 0
-144 -339 -599 0
-145 -340 -600 0
-141 -341 -601 0
-142 -342 -602 0
-143 -343 -603 0
-144 -344 -604 0
-145 -345 -605 0
-141 -346 -606 0
-142 -347 -607 0
-143 -348 -608 0
-144 -349 -609 0
-145 -350 -610 0
-141 -351 -611 0
-142 -352 -612 0
-143 -353 -613 0
-144 -354 -614 0
-145 -355 -615 0
-141 -356 -576 0
-142 -357 -577 0
-143 -358 -578 0
-144 -359 -579 0
-145 -360 -580 0
-141 -361 -581 0
-142 -362 -582 0
-143 -363 -583 0
-144 -364 -584 0
-145 -365 -585 0
-141 -366 -586 0
-142 -367 -587 0
-143 -368 -588 0
-144 -369 -589 0
-145 -370 -590 0
-141 -371 -591 0
-142 -372 -592 0
-143 -373 -593 0
-144 -374 -594 0
-145 -375 -595 0
-141 -376 -556 0
-142 -377 -557 0
-143 -378 -558 0
-144 -379 -559 0
-145 -380 -560 0
-141 -381 -561 0
-142 -382 -562 0
-143 -383 -563 0
-144 -384 -564 0
-145 -385 -565 0
-141 -386 -566 0
-142 -387 -567 0
-143 -388 -568 0
-144 -389 -569 0
-145 -390 -570 0
-141 -391 -571 0
-142 -392 -572 0
-143 -393 -573 0
-144 -394 -574 0
-145 -395 -575 0
-141 -396 -536 0
-142 -397 -537 0
-143 -398 -538 0
-144 -399 -539 0
-145 -400 -540 0
-141 -401 -541 0
-142 -402 -542 0
-143 -403 -543 0
-144 -404 -544 0
-145 -405 -545 0
-141 -406 -546 0
-142 -407 -547 0
-143 -408 -548 0
-144 -409 -549 0
-145 -410 -550 0
-141 -411 -551 0
-142 -412 -552 0
-143 -413 -553 0
-144 -414 -554 0
-145 -415 -555 0
-141 -416 -516 0
-142 -417 -517 0
-143 -418 -518 0
-144 -419 -519 0
-145 -420 -520 0
-141 -421 -521 0
-142 -422 -522 0
-143 -423 -523 0
-144 -424 -524 0
-145 -425 -525 0
-141 -426 -526 0
-142 -427 -527 0
-143 -428 -528 0
-144 -429 -529 0
-145 -430 -530 0
-141 -431 -531 0
-142 -432 -532 0
-143 -433 -533 0
-144 -434 -534 0
-145 -435 -535 0
-141 -436 -496 0
-142 -437 -497 0
-143 -438 -498 0
-144 -439 -499 0
-145 -440 -500 0
-141 -441 -501 0
-142 -442 -502 0
-143 -443 -503 0
-144 -444 -504 0
-145 -445 -505 0
-141 -446 -506 0
-142 -447 -507 0
-143 -448 -508 0
-144 -449 -509 0
-145 -450 -510 0
-141 -451 -511 0
-142 -452 -512 0
-143 -453 -513 0
-144 -454 -514 0
-145 -455 -515 0
-141 -456 -476 0
-142 -457 -477 0
-143 -458 -478 0
-144 -459 -479 0
-145 -460 -480 0
-141 -461 -481 0
-142 -462 -482 0
-143 -463 -483 0
-144 -464 -484 0
-145 -465 -485 0
-141 -466 -486 0
-142 -467 -487 0
-143 -468 -488 0
-144 -469 -489 0
-145 -470 -490 0
-141 -471 -491 0
-142 -472 -492 0
-143 -473 -493 0
-144 -474 -494 0
-145 -475 -495 0
-146 -156 -781 0
-147 -157 -782 0
-148 -158 -783 0
-149 -159 -784 0
-150 -160 -785 0
-146 -161 -776 0
-147 -162 -777 0
-148 -163 -778 0
-149 -164 -779 0
-150 -165 -780 0
-146 -166 -791 0
-147 -167 -792 0
-148 -168 -793 0
-149 -169 -794 0
-150 -170 -795 0
-146 -171 -786 0
-147 -172 -787 0
-148 -173 -788 0
-149 -174 -789 0
-150 -175 -790 0
-146 -176 -761 0
-147 -177 -762 0
-148 -178 -763 0
-149 -179 -764 0
-150 -180 -765 0
-146 -181 -756 0
-147 -182 -757 0
-148 -183 -758 0
-149 -184 -759 0
-150 -185 -760 0
-146 -186 -771 0
-147 -187 -772 0
-148 -188 -773 0
-149 -189 -774 0
-150 -190 -775 0
-146 -191 -766 0
-147 -192 -767 0
-148 -193 -768 0
-149 -194 -769 0
-150 -195 -770 0
-146 -196 -741 0
-147 -197 -742 0
-148 -198 -743 0
-149 -199 -744 0
-150 -200 -745 0
-146 -201 -736 0
-147 -202 -737 0
-148 -203 -738 0
-149 -204 -739 0
-150 -205 -740 0
-146 -206 -751 0
-147 -207 -752 0
-148 -208 -753 0
-149 -209 -754 0
-150 -210 -755 0
-146 -211 -746 0
-147 -212 -747 0
-148 -213 -748 0
-149 -214 -749 0
-150 -215 -750 0
-146 -216 -721 0
-147 -217 -722 0
-148 -218 -723 0
-149 -219 -724 0
-150 -220 -725 0
-146 -221 -716 0
-147 -222 -717 0
-148 -223 -718 0
-149 -224 -719 0
-150 -225 -720 0
-146 -226 -731 0
-147 -227 -732 0
-148 -228 -733 0
-149 -229 -734 0
-150 -230 -735 0
-146 -231 -726 0
-147 -232 -727 0
-148 -233 -728 0
-149 -234 -729 0
-150 -235 -730 0
-146 -236 -701 0
-147 -237 -702 0
-148 -238 -703 0
-149 -239 -704 0
-150 -240 -705 0
-146 -241 -696 0
-147 -242 -697 0
-148 -243 -698 0
-149 -244 -699 0
-150 -245 -700 0
-146 -246 -711 0
-147 -247 -712 0
-148 -248 -713 0
-149 -249 -714 0
-150 -250 -715 0
-146 -251 -706 0
-147 -252 -707 0
-148 -253 -708 0
-149 -254 -709 0
-150 -255 -710 0
-146 -256 -681 0
-147 -257 -682 0
-148 -258 -683 0
-149 -259 -684 0
-150 -260 -685 0
-146 -261 -676 0
-147 -262 -677 0
-148 -263 -678 0
-149 -264 -679 0
-150 -265 -680 0
-146 -266 -691 0
-147 -267 -692 0
-148 -268 -693 0
-149 -269 -694 0
-150 -270 -695 0
-146 -271 -686 0
-147 -272 -687 0
-148 -273 -688 0
-149 -274 -689 0
-150 -275 -690 0
-146 -276 -661 0
-147 -277 -662 0
-148 -278 -663 0
-149 -279 -664 0
-150 -280 -665 0
-146 -281 -656 0
-147 -282 -657 0
-148 -283 -658 0
-149 -284 -659 0
-150 -285 -660 0
-146 -286 -671 0
-147 -287 -672 0
-148 -288 -673 0
-149 -289 -674 0
-150 -290 -675 0
-146 -291 -666 0
-147 -292 -667 0
-148 -293 -668 0
-149 -294 -669 0
-150 -295 -670 0
-146 -296 -641 0
-147 -297 -642 0
-148 -298 -643 0
-149 -299 -644 0
-150 -300 -645 0
-146 -301 -636 0
-147 -302 -637 0
-148 -303 -638 0
-149 -304 -639 0
-150 -305 -640 0
-146 -306 -651 0
-147 -307 -652 0
-148 -308 -653 0
-149 -309 -654 0
-150 -310 -655 0
-146 -311 -646 0
-147 -312 -647 0
-148 -313 -648 0
-149 -314 -649 0
-150 -315 -650 0
-146 -316 -621 0
-147 -317 -622 0
-148 -318 -623 0
-149 -319 -624 0
-150 -320 -625 0
-146 -321 -616 0
-147 -322 -617 0
-148 -323 -618 0
-149 -324 -619 0
-150 -325 -620 0
-146 -326 -631 0
-147 -327 -632 0
-148 -328 -633 0
-149 -329 -634 0
-150 -330 -635 0
-146 -331 -626 0
-147 -332 -627 0
-148 -333 -628 0
-149 -334 -629 0
-150 -335 -630 0
-146 -336 -601 0
-147 -337 -602 0
-148 -338 -603 0
-149 -339 -604 0
-150 -340 -605 0
-146 -341 -596 0
-147 -342 -597 0
-148 -343 -598 0
-149 -344 -599 0
-150 -345 -600 0
-146 -346 -611 0
-147 -347 -612 0
-148 -348 -613 0
-149 -349 -614 0
-150 -350 -615 0
-146 -351 -606 0
-147 -352 -607 0
-148 -353 -608 0
-149 -354 -609 0
-150 -355 -610 0
-146 -356 -581 0
-147 -357 -582 0
-148 -358 -583 0
-149 -359 -584 0
-150 -360 -585 0
-146 -361 -576 0
-147 -362 -577 0
-148 -363 -578 0
-149 -364 -579 0
-150 -365 -580 0
-146 -366 -591 0
-147 -367 -592 0
-148 -368 -593 0
-149 -369 -594 0
-150 -370 -595 0
-146 -371 -586 0
-147 -372 -587 0
-148 -373 -588 0
-149 -374 -589 0
-150 -375 -590 0
-146 -376 -561 0
-147 -377 -562 0
-148 -378 -563 0
-149 -379 -564 0
-150 -380 -565 0
-146 -381 -556 0
-147 -382 -557 0
-148 -383 -558 0
-149 -384 -559 0
-150 -385 -560 0
-146 -386 -571 0
-147 -387 -572 0
-148 -388 -573 0
-149 -389 -574 0
-150 -390 -575 0
-146 -391 -566 0
-147 -392 -567 0
-148 -393 -568 0
-149 -394 -569 0
-150 -395 -570 0
-146 -396 -541 0
-147 -397 -542 0
-148 -398 -543 0
-149 -399 -544 0
-150 -400 -545 0
-146 -401 -536 0
-147 -402 -537 0
-148 -403 -538 0
-149 -404 -539 0
-150 -405 -540 0
-146 -406 -551 0
-147 -407 -552 0
-148 -408 -553 0
-149 -409 -554 0
-150 -410 -555 0
-146 -411 -546 0
-147 -412 -547 0
-148 -413 -548 0
-149 -414 -549 0
-150 -415 -550 0
-146 -416 -521 0
-147 -417 -522 0
-148 -418 -523 0
-149 -419 -524 0
-150 -420 -525 0
-146 -421 -516 0
-147 -422 -517 0
-148 -423 -518 0
-149 -424 -519 0
-150 -425 -520 0
-146 -426 -531 0
-147 -427 -532 0
-148 -428 -533 0
-149 -429 -534 0
-150 -430 -535 0
-146 -431 -526 0
-147 -432 -527 0
-148 -433 -528 0
-149 -434 -529 0
-150 -435 -530 0
-146 -436 -501 0
-147 -437 -502 0
-148 -438 -503 0
-149 -439 -504 0
-150 -440 -505 0
-146 -441 -496 0
-147 -442 -497 0
-148 -443 -498 0
-149 -444 -499 0
-150 -445 -500 0
-146 -446 -511 0
-147 -447 -512 0
-148 -448 -513 0
-149 -449 -514 0
-150 -450 -515 0
-146 -451 -506 0
-147 -452 -507 0
-148 -453 -508 0
-149 -454 -509 0
-150 -455 -510 0
-146 -456 -481 0
-147 -457 -482 0
-148 -458 -483 0
-149 -459 -484 0
-150 -460 -485 0
-146 -461 -476 0
-147 -462 -477 0
-148 -463 -478 0
-149 -464 -479 0
-150 -465 -480 0
-146 -466 -491 0
-147 -467 -492 0
-148 -468 -493 0
-149 -469 -494 0
-150 -470 -495 0
-146 -471 -486 0
-147 -472 -487 0
-148 -473 -488 0
-149 -474 -489 0
-150 -475 -490 0
-151 -156 -786 0
-152 -157 -787 0
-153 -158 -788 0
-154 -159 -789 0
-155 -160 -790 0
-151 -161 -791 0
-152 -162 -792 0
-153 -163 -793 0
-154 -164 -794 0
-155 -165 -795 0
-151 -166 -776 0
-152 -167 -777 0
-153 -168 -778 0
-154 -169 -779 0
-155 -170 -780 0
-151 -171 -781 0
-152 -172 -782 0
-153 -173 -783 0
-154 -174 -784 0
-155 -175 -785 0
-151 -176 -766 0
-152 -177 -767 0
-153 -178 -768 0
-154 -179 -769 0
-155 -180 -770 0
-151 -181 -771 0
-152 -182 -772 0
-153 -183 -773 0
-154 -184 -774 0
-155 -185 -775 0
-151 -186 -756 0
-152 -187 -757 0
-153 -188 -758 0
-154 -189 -759 0
-155 -190 -760 0
-151 -191 -761 0
-152 -192 -762 0
-153 -193 -763 0
-154 -194 -764 0
-155 -195 -765 0
-151 -196 -746 0
-152 -197 -747 0
-153 -198 -748 0
-154 -199 -749 0
-155 -200 -750 0
-151 -201 -751 0
-152 -202 -752 0
-153 -203 -753 0
-154 -204 -754 0
-155 -205 -755 0
-151 -206 -736 0
-152 -207 -737 0
-153 -208 -738 0
-154 -209 -739 0
-155 -210 -740 0
-151 -211 -741 0
-152 -212 -742 0
-153 -213 -743 0
-154 -214 -744 0
-155 -215 -745 0
-151 -216 -726 0
-152 -217 -727 0
-153 -218 -728 0
-154 -219 -729 0
-155 -220 -730 0
-151 -221 -731 0
-152 -222 -732 0
-153 -223 -733 0
-154 -224 -734 0
-155 -225 -735 0
-151 -226 -716 0
-152 -227 -717 0
-153 -228 -718 0
-154 -229 -719 0
-155 -230 -720 0
-151 -231 -721 0
-152 -232 -722 0
-153 -233 -723 0
-154 -234 -724 0
-155 -235 -725 0
-151 -236 -706 0
-152 -237 -707 0
-153 -238 -708 0
-154 -239 -709 0
-155 -240 -710 0
-151 -241 -711 0
-152 -242 -712 0
-153 -243 -713 0
-154 -244 -714 0
-155 -245 -715 0
-151 -246 -696 0
-152 -247 -697 0
-153 -248 -698 0
-154 -249 -699 0
-155 -250 -700 0
-151 -251 -701 0
-152 -252 -702 0
-153 -253 -703 0
-154 -254 -704 0
-155 -255 -705 0
-151 -256 -686 0
-152 -257 -687 0
-153 -258 -688 0
-154 -259 -689 0
-155 -260 -690 0
-151 -261 -691 0
-152 -262 -692 0
-153 -263 -693 0
-154 -264 -694 0
-155 -265 -695 0
-151 -266 -676 0
-152 -267 -677 0
-153 -268 -678 0
-154 -269 -679 0
-155 -270 -680 0
-151 -271 -681 0
-152 -272 -682 0
-153 -273 -683 0
-154 -274 -684 0
-155 -275 -685 0
-151 -276 -666 0
-152 -277 -667 0
-153 -278 -668 0
-154 -279 -669 0
-155 -280 -670 0
-151 -281 -671 0
-152 -282 -672 0
-153 -283 -673 0
-154 -284 -674 0
-155 -285 -675 0
-151 -286 -656 0
-152 -287 -657 0
-153 -288 -658 0
-154 -289 -659 0
-155 -290 -660 0
-151 -291 -661 0
-152 -292 -662 0
-153 -293 -663 0
-154 -294 -664 0
-155 -295 -665 0
-151 -296 -646 0
-152 -297 -647 0
-153 -298 -648 0
-154 -299 -649 0
-155 -300 -650 0
-151 -301 -651 0
-152 -302 -652 0
-153 -303 -653 0
-154 -304 -654 0
-155 -305 -655 0
-151 -306 -636 0
-152 -307 -637 0
-153 -308 -638 0
-154 -309 -639 0
-155 -310 -640 0
-151 -311 -641 0
-152 -312 -642 0
-153 -313 -643 0
-154 -314 -644 0
-155 -315 -645 0
-151 -316 -626 0
-152 -317 -627 0
-153 -318 -628 0
-154 -319 -629 0
-155 -320 -630 0
-151 -321 -631 0
-152 -322 -632 0
-153 -323 -633 0
-154 -324 -634 0
-155 -325 -635 0
-151 -326 -616 0
-152 -327 -617 0
-153 -328 -618 0
-154 -329 -619 0
-155 -330 -620 0
-151 -331 -621 0
-152 -332 -622 0
-153 -333 -623 0
-154 -334 -624 0
-155 -335 -625 0
-151 -336 -606 0
-152 -337 -607 0
-153 -338 -608 0
-154 -339 -609 0
-155 -340 -610 0
-151 -341 -611 0
-152 -342 -612 0
-153 -343 -613 0
-154 -344 -614 0
-155 -345 -615 0
-151 -346 -596 0
-152 -347 -597 0
-153 -348 -598 0
-154 -349 -599 0
-155 -350 -600 0
-151 -351 -601 0
-152 -352 -602 0
-153 -353 -603 0
-154 -354 -604 0
-155 -355 -605 0
-151 -356 -586 0
-152 -357 -587 0
-153 -358 -588 0
-154 -359 -589 0
-155 -360 -590 0
-151 -361 -591 0
-152 -362 -592 0
-153 -363 -593 0
-154 -364 -594 0
-155 -365 -595 0
-151 -366 -576 0
-152 -367 -577 0
-153 -368 -578 0
-154 -369 -579 0
-155 -370 -580 0
-151 -371 -581 0
-152 -372 -582 0
-153 -373 -583 0
-154 -374 -584 0
-155 -375 -585 0
-151 -376 -566 0
-152 -377 -567 0
-153 -378 -568 0
-154 -379 -569 0
-155 -380 -570 0
-151 -381 -571 0
-152 -382 -572 0
-153 -383 -573 0
-154 -384 -574 0
-155 -385 -575 0
-151 -386 -556 0
-152 -387 -557 0
-153 -388 -558 0
-154 -389 -559 0
-155 -390 -560 0
-151 -391 -561 0
-152 -392 -562 0
-153 -393 -563 0
-154 -394 -564 0
-155 -395 -565 0
-151 -396 -546 0
-152 -397 -547 0
-153 -398 -548 0
-154 -399 -549 0
-155 -400 -550 0
-151 -401 -551 0
-152 -402 -552 0
-153 -403 -553 0
-154 -404 -554 0
-155 -405 -555 0
-151 -406 -536 0
-152 -407 -537 0
-153 -408 -538 0
-154 -409 -539 0
-155 -410 -540 0
-151 -411 -541 0
-152 -412 -542 0
-153 -413 -543 0
-154 -414 -544 0
-155 -415 -545 0
-151 -416 -526 0
-152 -417 -527 0
-153 -418 -528 0
-154 -419 -529 0
-155 -420 -530 0
-151 -421 -531 0
-152 -422 -532 0
-153 -423 -533 0
-154 -424 -534 0
-155 -425 -535 0
-151 -426 -516 0
-152 -427 -517 0
-153 -428 -518 0
-154 -429 -519 0
-155 -430 -520 0
-151 -431 -521 0
-152 -432 -522 0
-153 -433 -523 0
-154 -434 -524 0
-155 -435 -525 0
-151 -436 -506 0
-152 -437 -507 0
-153 -438 -508 0
-154 -439 -509 0
-155 -440 -510 0
-151 -441 -511 0
-152 -442 -512 0
-153 -443 -513 0
-154 -444 -514 0
-155 -445 -515 0
-151 -446 -496 0
-152 -447 -497 0
-153 -448 -498 0
-154 -449 -499 0
-155 -450 -500 0
-151 -451 -501 0
-152 -452 -502 0
-153 -453 -503 0
-154 -454 -504 0
-155 -455 -505 0
-151 -456 -486 0
-152 -457 -487 0
-153 -458 -488 0
-154 -459 -489 0
-155 -460 -490 0
-151 -461 -491 0
-152 -462 -492 0
-153 -463 -493 0
-154 -464 -494 0
-155 -465 -495 0
-151 -466 -476 0
-152 -467 -477 0
-153 -468 -478 0
-154 -469 -479 0
-155 -470 -480 0
-151 -471 -481 0
-152 -472 -482 0
-153 -473 -483 0
-154 -474 -484 0
-155 -475 -485 0
-141 -156 -791 0
-142 -157 -792 0
-143 -158 -793 0
-144 -159 -794 0
-145 -160 -795 0
-141 -161 -786 0
-142 -162 -787 0
-143 -163 -788 0
-144 -164 -789 0
-145 -165 -790 0
-141 -166 -781 0
-142 -167 -782 0
-143 -168 -783 0
-144 -169 -784 0
-145 -170 -785 0
-141 -171 -776 0
-142 -172 -777 0
-143 -173 -778 0
-144 -174 -779 0
-145 -175 -780 0
-141 -176 -771 0
-142 -177 -772 0
-143 -178 -773 0
-144 -179 -774 0
-145 -180 -775 0
-141 -181 -766 0
-142 -182 -767 0
-143 -183 -768 0
-144 -184 -769 0
-145 -185 -770 0
-141 -186 -761 0
-142 -187 -762 0
-143 -188 -763 0
-144 -189 -764 0
-145 -190 -765 0
-141 -191 -756 0
-142 -192 -757 0
-143 -193 -758 0
-144 -194 -759 0
-145 -195 -760 0
-141 -196 -751 0
-142 -197 -752 0
-143 -198 -753 0
-144 -199 -754 0
-145 -200 -755 0
-141 -201 -746 0
-142 -202 -747 0
-143 -203 -748 0
-144 -204 -749 0
-145 -205 -750 0
-141 -206 -741 0
-142 -207 -742 0
-143 -208 -743 0
-144 -209 -744 0
-145 -210 -745 0
-141 -211 -736 0
-142 -212 -737 0
-143 -213 -738 0
-144 -214 -739 0
-145 -215 -740 0
-141 -216 -731 0
-142 -217 -732 0
-143 -218 -733 0
-144 -219 -734 0
-145 -220 -735 0
-141 -221 -726 0
-142 -222 -727 0
-143 -223 -728 0
-144 -224 -729 0
-145 -225 -730 0
-141 -226 -721 0
-142 -227 -722 0
-143 -228 -723 0
-144 -229 -724 0
-145 -230 -725 0
-141 -231 -716 0
-142 -232 -717 0
-143 -233 -718 0
-144 -234 -719 0
-145 -235 -720 0
-141 -236 -711 0
-142 -237 -712 0
-143 -238 -713 0
-144 -239 -714 0
-145 -240 -715 0
-141 -241 -706 0
-142 -242 -707 0
-143 -243 -708 0
-144 -244 -709 0
-145 -245 -710 0
-141 -246 -701 0
-142 -247 -702 0
-143 -248 -703 0
-144 -249 -704 0
-145 -250 -705 0
-141 -251 -696 0
-142 -252 -697 0
-143 -253 -698 0
-144 -254 -699 0
-145 -255 -700 0
-141 -256 -691 0
-142 -257 -692 0
-143 -258 -693 0
-144 -259 -694 0
-145 -260 -695 0
-141 -261 -686 0
-142 -262 -687 0
-143 -263 -688 0
-144 -264 -689 0
-145 -265 -690 0
-141 -266 -681 0
-142 -267 -682 0
-143 -268 -683 0
-144 -269 -684 0
-145 -270 -685 0
-141 -271 -676 0
-142 -272 -677 0
-143 -273 -678 0
-144 -274 -679 0
-145 -275 -680 0
-141 -276 -671 0
-142 -277 -672 0
-143 -278 -673 0
-144 -279 -674 0
-145 -280 -675 0
-141 -281 -666 0
-142 -282 -667 0
-143 -283 -668 0
-144 -284 -669 0
-145 -285 -670 0
-141 -286 -661 0
-142 -287 -662 0
-143 -288 -663 0
-144 -289 -664 0
-145 -290 -665 0
-141 -291 -656 0
-142 -292 -657 0
-143 -293 -658 0
-144 -294 -659 0
-145 -295 -660 0
-141 -296 -651 0
-142 -297 -652 0
-143 -298 -653 0
-144 -299 -654 0
-145 -300 -655 0
-141 -301 -646 0
-142 -302 -647 0
-143 -303 -648 0
-144 -304 -649 0
-145 -305 -650 0
-141 -306 -641 0
-142 -307 -642 0
-143 -308 -643 0
-144 -309 -644 0
-145 -310 -645 0
-141 -311 -636 0
-142 -312 -637 0
-143 -313 -638 0
-144 -314 -639 0
-145 -315 -640 0
-141 -316 -631 0
-142 -317 -632 0
-143 -318 -633 0
-144 -319 -634 0
-145 -320 -635 0
-141 -321 -626 0
-142 -322 -627 0
-143 -323 -628 0
-144 -324 -629 0
-145 -325 -630 0
-141 -326 -621 0
-142 -327 -622 0
-143 -328 -623 0
-144 -329 -624 0
-145 -330 -625 0
-141 -331 -616 0
-142 -332 -617 0
-143 -333 -618 0
-144 -334 -619 0
-145 -335 -620 0
-141 -336 -611 0
-142 -337 -612 0
-143 -338 -613 0
-144 -339 -614 0
-145 -340 -615 0
-141 -341 -606 0
-142 -342 -607 0
-143 -343 -608 0
-144 -344 -609 0
-145 -345 -610 0
-141 -346 -601 0
-142 -347 -602 0
-143 -348 -603 0
-144 -349 -604 0
-145 -350 -605 0
-141 -351 -596 0
-142 -352 -597 0
-143 -353 -598 0
-144 -354 -599 0
-145 -355 -600 0
-141 -356 -591 0
-142 -357 -592 0
-143 -358 -593 0
-144 -359 -594 0
-145 -360 -595 0
-141 -361 -586 0
-142 -362 -587 0
-143 -363 -588 0
-144 -364 -589 0
-145 -365 -590 0
-141 -366 -581 0
-142 -367 -582 0
-143 -368 -583 0
-144 -369 -584 0
-145 -370 -585 0
-141 -371 -576 0
-142 -372 -577 0
-143 -373 -578 0
-144 -374 -579 0
-145 -375 -580 0
-141 -376 -571 0
-142 -377 -572 0
-143 -378 -573 0
-144 -379 -574 0
-145 -380 -575 0
-141 -381 -566 0
-142 -382 -567 0
-143 -383 -568 0
-144 -384 -569 0
-145 -385 -570 0
-141 -386 -561 0
-142 -387 -562 0
-143 -388 -563 0
-144 -389 -564 0
-145 -390 -565 0
-141 -391 -556 0
-142 -392 -557 0
-143 -393 -558 0
-144 -394 -559 0
-145 -395 -560 0
-141 -396 -551 0
-142 -397 -552 0
-143 -398 -553 0
-144 -399 -554 0
-145 -400 -555 0
-141 -401 -546 0
-142 -402 -547 0
-143 -403 -548 0
-144 -404 -549 0
-145 -405 -550 0
-141 -406 -541 0
-142 -407 -542 0
-143 -408 -543 0
-144 -409 -544 0
-145 -410 -545 0
-141 -411 -536 0
-142 -412 -537 0
-143 -413 -538 0
-144 -414 -539 0
-145 -415 -540 0
-141 -416 -531 0
-142 -417 -532 0
-143 -418 -533 0
-144 -419 -534 0
-145 -420 -535 0
-141 -421 -526 0
-142 -422 -527 0
-143 -423 -528 0
-144 -424 -529 0
-145 -425 -530 0
-141 -426 -521 0
-142 -427 -522 0
-143 -428 -523 0
-144 -429 -524 0
-145 -430 -525 0
-141 -431 -516 0
-142 -432 -517 0
-143 -433 -518 0
-144 -434 -519 0
-145 -435 -520 0
-141 -436 -511 0
-142 -437 -512 0
-143 -438 -513 0
-144 -439 -514 0
-145 -440 -515 0
-141 -441 -506 0
-142 -442 -507 0
-143 -443 -508 0
-144 -444 -509 0
-145 -445 -510 0
-141 -446 -501 0
-142 -447 -502 0
-143 -448 -503 0
-144 -449 -504 0
-145 -450 -505 0
-141 -451 -496 0
-142 -452 -497 0
-143 -453 -498 0
-144 -454 -499 0
-145 -455 -500 0
-141 -456 -491 0
-142 -457 -492 0
-143 -458 -493 0
-144 -459 -494 0
-145 -460 -495 0
-141 -461 -486 0
-142 -462 -487 0
-143 -463 -488 0
-144 -464 -489 0
-145 -465 -490 0
-141 -466 -481 0
-142 -467 -482 0
-143 -468 -483 0
-144 -469 -484 0
-145 -470 -485 0
-141 -471 -476 0
-142 -472 -477 0
-143 -473 -478 0
-144 -474 -479 0
-145 -475 -480 0
