p cnf 255 11101
1 2 3 4 5 0
-1 -2 0
-1 -3 0
-1 -4 0
-1 -5 0
-2 -3 0
-2 -4 0
-2 -5 0
-3 -4 0
-3 -5 0
-4 -5 0
6 7 8 9 10 0
-6 -7 0
-6 -8 0
-6 -9 0
-6 -10 0
-7 -8 0
-7 -9 0
-7 -10 0
-8 -9 0
-8 -10 0
-9 -10 0
11 12 13 14 15 0
-11 -12 0
-11 -13 0
-11 -14 0
-11 -15 0
-12 -13 0
-12 -14 0
-12 -15 0
-13 -14 0
-13 -15 0
-14 -15 0
16 17 18 19 20 0
-16 -17 0
-16 -18 0
-16 -19 0
-16 -20 0
-17 -18 0
-17 -19 0
-17 -20 0
-18 -19 0
-18 -20 0
-19 -20 0
21 22 23 24 25 0
-21 -22 0
-21 -23 0
-21 -24 0
-21 -25 0
-22 -23 0
-22 -24 0
-22 -25 0
-23 -24 0
-23 -25 0
-24 -25 0
26 27 28 29 30 0
-26 -27 0
-26 -28 0
-26 -29 0
-26 -30 0
-27 -28 0
-27 -29 0
-27 -30 0
-28 -29 0
-28 -30 0
-29 -30 0
31 32 33 34 35 0
-31 -32 0
-31 -33 0
-31 -34 0
-31 -35 0
-32 -33 0
-32 -34 0
-32 -35 0
-33 -34 0
-33 -35 0
-34 -35 0
36 37 38 39 40 0
-36 -37 0
-36 -38 0
-36 -39 0
-36 -40 0
-37 -38 0
-37 -39 0
-37 -40 0
-38 -39 0
-38 -40 0
-39 -40 0
41 42 43 44 45 0
-41 -42 0
-41 -43 0
-41 -44 0
-41 -45 0
-42 -43 0
-42 -44 0
-42 -45 0
-43 -44 0
-43 -45 0
-44 -45 0
46 47 48 49 50 0
-46 -47 0
-46 -48 0
-46 -49 0
-46 -50 0
-47 -48 0
-47 -49 0
-47 -50 0
-48 -49 0
-48 -50 0
-49 -50 0
51 52 53 54 55 0
-51 -52 0
-51 -53 0
-51 -54 0
-51 -55 0
-52 -53 0
-52 -54 0
-52 -55 0
-53 -54 0
-53 -55 0
-54 -55 0
56 57 58 59 60 0
-56 -57 0
-56 -58 0
-56 -59 0
-56 -60 0
-57 -58 0
-57 -59 0
-57 -60 0
-58 -59 0
-58 -60 0
-59 -60 0
61 62 63 64 65 0
-61 -62 0
-61 -63 0
-61 -64 0
-61 -65 0
-62 -63 0
-62 -64 0
-62 -65 0
-63 -64 0
-63 -65 0
-64 -65 0
66 67 68 69 70 0
-66 -67 0
-66 -68 0
-66 -69 0
-66 -70 0
-67 -68 0
-67 -69 0
-67 -70 0
-68 -69 0
-68 -70 0
-69 -70 0
71 72 73 74 75 0
-71 -72 0
-71 -73 0
-71 -74 0
-71 -75 0
-72 -73 0
-72 -74 0
-72 -75 0
-73 -74 0
-73 -75 0
-74 -75 0
76 77 78 79 80 0
-76 -77 0
-76 -78 0
-76 -79 0
-76 -80 0
-77 -78 0
-77 -79 0
-77 -80 0
-78 -79 0
-78 -80 0
-79 -80 0
81 82 83 84 85 0
-81 -82 0
-81 -83 0
-81 -84 0
-81 -85 0
-82 -83 0
-82 -84 0
-82 -85 0
-83 -84 0
-83 -85 0
-84 -85 0
86 87 88 89 90 0
-86 -87 0
-86 -88 0
-86 -89 0
-86 -90 0
-87 -88 0
-87 -89 0
-87 -90 0
-88 -89 0
-88 -90 0
-89 -90 0
91 92 93 94 95 0
-91 -92 0
-91 -93 0
-91 -94 0
-91 -95 0
-92 -93 0
-92 -94 0
-92 -95 0
-93 -94 0
-93 -95 0
-94 -95 0
96 97 98 99 100 0
-96 -97 0
-96 -98 0
-96 -99 0
-96 -100 0
-97 -98 0
-97 -99 0
-97 -100 0
-98 -99 0
-98 -100 0
-99 -100 0
101 102 103 104 105 0
-101 -102 0
-101 -103 0
-101 -104 0
-101 -105 0
-102 -103 0
-102 -104 0
-102 -105 0
-103 -104 0
-103 -105 0
-104 -105 0
106 107 108 109 110 0
-106 -107 0
-106 -108 0
-106 -109 0
-106 -110 0
-107 -108 0
-107 -109 0
-107 -110 0
-108 -109 0
-108 -110 0
-109 -110 0
111 112 113 114 115 0
-111 -112 0
-111 -113 0
-111 -114 0
-111 -115 0
-112 -113 0
-112 -114 0
-112 -115 0
-113 -114 0
-113 -115 0
-114 -115 0
116 117 118 119 120 0
-116 -117 0
-116 -118 0
-116 -119 0
-116 -120 0
-117 -118 0
-117 -119 0
-117 -120 0
-118 -119 0
-118 -120 0
-119 -120 0
121 122 123 124 125 0
-121 -122 0
-121 -123 0
-121 -124 0
-121 -125 0
-122 -123 0
-122 -124 0
-122 -125 0
-123 -124 0
-123 -125 0
-124 -125 0
126 127 128 129 130 0
-126 -127 0
-126 -128 0
-126 -129 0
-126 -130 0
-127 -128 0
-127 -129 0
-127 -130 0
-128 -129 0
-128 -130 0
-129 -130 0
131 132 133 134 135 0
-131 -132 0
-131 -133 0
-131 -134 0
-131 -135 0
-132 -133 0
-132 -134 0
-132 -135 0
-133 -134 0
-133 -135 0
-134 -135 0
136 137 138 139 140 0
-136 -137 0
-136 -138 0
-136 -139 0
-136 -140 0
-137 -138 0
-137 -139 0
-137 -140 0
-138 -139 0
-138 -140 0
-139 -140 0
141 142 143 144 145 0
-141 -142 0
-141 -143 0
-141 -144 0
-141 -145 0
-142 -143 0
-142 -144 0
-142 -145 0
-143 -144 0
-143 -145 0
-144 -145 0
146 147 148 149 150 0
-146 -147 0
-146 -148 0
-146 -149 0
-146 -150 0
-147 -148 0
-147 -149 0
-147 -150 0
-148 -149 0
-148 -150 0
-149 -150 0
151 152 153 154 155 0
-151 -152 0
-151 -153 0
-151 -154 0
-151 -155 0
-152 -153 0
-152 -154 0
-152 -155 0
-153 -154 0
-153 -155 0
-154 -155 0
156 157 158 159 160 0
-156 -157 0
-156 -158 0
-156 -159 0
-156 -160 0
-157 -158 0
-157 -159 0
-157 -160 0
-158 -159 0
-158 -160 0
-159 -160 0
161 162 163 164 165 0
-161 -162 0
-161 -163 0
-161 -164 0
-161 -165 0
-162 -163 0
-162 -164 0
-162 -165 0
-163 -164 0
-163 -165 0
-164 -165 0
166 167 168 169 170 0
-166 -167 0
-166 -168 0
-166 -169 0
-166 -170 0
-167 -168 0
-167 -169 0
-167 -170 0
-168 -169 0
-168 -170 0
-169 -170 0
171 172 173 174 175 0
-171 -172 0
-171 -173 0
-171 -174 0
-171 -175 0
-172 -173 0
-172 -174 0
-172 -175 0
-173 -174 0
-173 -175 0
-174 -175 0
176 177 178 179 180 0
-176 -177 0
-176 -178 0
-176 -179 0
-176 -180 0
-177 -178 0
-177 -179 0
-177 -180 0
-178 -179 0
-178 -180 0
-179 -180 0
181 182 183 184 185 0
-181 -182 0
-181 -183 0
-181 -184 0
-181 -185 0
-182 -183 0
-182 -184 0
-182 -185 0
-183 -184 0
-183 -185 0
-184 -185 0
186 187 188 189 190 0
-186 -187 0
-186 -188 0
-186 -189 0
-186 -190 0
-187 -188 0
-187 -189 0
-187 -190 0
-188 -189 0
-188 -190 0
-189 -190 0
191 192 193 194 195 0
-191 -192 0
-191 -193 0
-191 -194 0
-191 -195 0
-192 -193 0
-192 -194 0
-192 -195 0
-193 -194 0
-193 -195 0
-194 -195 0
196 197 198 199 200 0
-196 -197 0
-196 -198 0
-196 -199 0
-196 -200 0
-197 -198 0
-197 -199 0
-197 -200 0
-198 -199 0
-198 -200 0
-199 -200 0
201 202 203 204 205 0
-201 -202 0
-201 -203 0
-201 -204 0
-201 -205 0
-202 -203 0
-202 -204 0
-202 -205 0
-203 -204 0
-203 -205 0
-204 -205 0
206 207 208 209 210 0
-206 -207 0
-206 -208 0
-206 -209 0
-206 -210 0
-207 -208 0
-207 -209 0
-207 -210 0
-208 -209 0
-208 -210 0
-209 -210 0
211 212 213 214 215 0
-211 -212 0
-211 -213 0
-211 -214 0
-211 -215 0
-212 -213 0
-212 -214 0
-212 -215 0
-213 -214 0
-213 -215 0
-214 -215 0
216 217 218 219 220 0
-216 -217 0
-216 -218 0
-216 -219 0
-216 -220 0
-217 -218 0
-217 -219 0
-217 -220 0
-218 -219 0
-218 -220 0
-219 -220 0
221 222 223 224 225 0
-221 -222 0
-221 -223 0
-221 -224 0
-221 -225 0
-222 -223 0
-222 -224 0
-222 -225 0
-223 -224 0
-223 -225 0
-224 -225 0
226 227 228 229 230 0
-226 -227 0
-226 -228 0
-226 -229 0
-226 -230 0
-227 -228 0
-227 -229 0
-227 -230 0
-228 -229 0
-228 -230 0
-229 -230 0
231 232 233 234 235 0
-231 -232 0
-231 -233 0
-231 -234 0
-231 -235 0
-232 -233 0
-232 -234 0
-232 -235 0
-233 -234 0
-233 -235 0
-234 -235 0
236 237 238 239 240 0
-236 -237 0
-236 -238 0
-236 -239 0
-236 -240 0
-237 -238 0
-237 -239 0
-237 -240 0
-238 -239 0
-238 -240 0
-239 -240 0
241 242 243 244 245 0
-241 -242 0
-241 -243 0
-241 -244 0
-241 -245 0
-242 -243 0
-242 -244 0
-242 -245 0
-243 -244 0
-243 -245 0
-244 -245 0
246 247 248 249 250 0
-246 -247 0
-246 -248 0
-246 -249 0
-246 -250 0
-247 -248 0
-247 -249 0
-247 -250 0
-248 -249 0
-248 -250 0
-249 -250 0
251 252 253 254 255 0
-251 -252 0
-251 -253 0
-251 -254 0
-251 -255 0
-252 -253 0
-252 -254 0
-252 -255 0
-253 -254 0
-253 -255 0
-254 -255 0
-76 -151 0
-77 -152 0
-78 -153 0
-79 -154 0
-80 -155 0
-126 -236 0
-127 -237 0
-128 -238 0
-129 -239 0
-130 -240 0
-121 -226 0
-122 -227 0
-123 -228 0
-124 -229 0
-125 -230 0
-91 -161 0
-92 -162 0
-93 -163 0
-94 -164 0
-95 -165 0
-21 -106 0
-22 -107 0
-23 -108 0
-24 -109 0
-25 -110 0
-1 -11 0
-2 -12 0
-3 -13 0
-4 -14 0
-5 -15 0
-16 -96 0
-17 -97 0
-18 -98 0
-19 -99 0
-20 -100 0
-36 -191 0
-37 -192 0
-38 -193 0
-39 -194 0
-40 -195 0
-91 -221 0
-92 -222 0
-93 -223 0
-94 -224 0
-95 -225 0
-61 -186 0
-62 -187 0
-63 -188 0
-64 -189 0
-65 -190 0
-116 -216 0
-117 -217 0
-118 -218 0
-119 -219 0
-120 -220 0
-111 -206 0
-112 -207 0
-113 -208 0
-114 -209 0
-115 -210 0
-21 -196 0
-22 -197 0
-23 -198 0
-24 -199 0
-25 -200 0
-141 -181 0
-142 -182 0
-143 -183 0
-144 -184 0
-145 -185 0
-26 -216 0
-27 -217 0
-28 -218 0
-29 -219 0
-30 -220 0
-41 -211 0
-42 -212 0
-43 -213 0
-44 -214 0
-45 -215 0
-51 -166 0
-52 -167 0
-53 -168 0
-54 -169 0
-55 -170 0
-66 -131 0
-67 -132 0
-68 -133 0
-69 -134 0
-70 -135 0
-86 -241 0
-87 -242 0
-88 -243 0
-89 -244 0
-90 -245 0
-81 -141 0
-82 -142 0
-83 -143 0
-84 -144 0
-85 -145 0
-56 -206 0
-57 -207 0
-58 -208 0
-59 -209 0
-60 -210 0
-166 -251 0
-167 -252 0
-168 -253 0
-169 -254 0
-170 -255 0
-101 -186 0
-102 -187 0
-103 -188 0
-104 -189 0
-105 -190 0
-1 -6 0
-2 -7 0
-3 -8 0
-4 -9 0
-5 -10 0
-71 -121 0
-72 -122 0
-73 -123 0
-74 -124 0
-75 -125 0
-31 -236 0
-32 -237 0
-33 -238 0
-34 -239 0
-35 -240 0
-6 -11 0
-7 -12 0
-8 -13 0
-9 -14 0
-10 -15 0
-106 -196 0
-107 -197 0
-108 -198 0
-109 -199 0
-110 -200 0
-156 -231 0
-157 -232 0
-158 -233 0
-159 -234 0
-160 -235 0
-46 -156 0
-47 -157 0
-48 -158 0
-49 -159 0
-50 -160 0
-41 -146 0
-42 -147 0
-43 -148 0
-44 -149 0
-45 -150 0
-56 -111 0
-57 -112 0
-58 -113 0
-59 -114 0
-60 -115 0
-71 -226 0
-72 -227 0
-73 -228 0
-74 -229 0
-75 -230 0
-96 -176 0
-97 -177 0
-98 -178 0
-99 -179 0
-100 -180 0
-171 -241 0
-172 -242 0
-173 -243 0
-174 -244 0
-175 -245 0
-46 -231 0
-47 -232 0
-48 -233 0
-49 -234 0
-50 -235 0
-31 -126 0
-32 -127 0
-33 -128 0
-34 -129 0
-35 -130 0
-161 -221 0
-162 -222 0
-163 -223 0
-164 -224 0
-165 -225 0
-36 -136 0
-37 -137 0
-38 -138 0
-39 -139 0
-40 -140 0
-51 -251 0
-52 -252 0
-53 -253 0
-54 -254 0
-55 -255 0
-66 -246 0
-67 -247 0
-68 -248 0
-69 -249 0
-70 -250 0
-76 -201 0
-77 -202 0
-78 -203 0
-79 -204 0
-80 -205 0
-81 -181 0
-82 -182 0
-83 -183 0
-84 -184 0
-85 -185 0
-61 -101 0
-62 -102 0
-63 -103 0
-64 -104 0
-65 -105 0
-131 -246 0
-132 -247 0
-133 -248 0
-134 -249 0
-135 -250 0
-146 -211 0
-147 -212 0
-148 -213 0
-149 -214 0
-150 -215 0
-26 -116 0
-27 -117 0
-28 -118 0
-29 -119 0
-30 -120 0
-16 -176 0
-17 -177 0
-18 -178 0
-19 -179 0
-20 -180 0
-86 -171 0
-87 -172 0
-88 -173 0
-89 -174 0
-90 -175 0
-136 -191 0
-137 -192 0
-138 -193 0
-139 -194 0
-140 -195 0
-151 -201 0
-152 -202 0
-153 -203 0
-154 -204 0
-155 -205 0
-96 -186 -191 0
-97 -187 -192 0
-98 -188 -193 0
-99 -189 -194 0
-100 -190 -195 0
-46 -246 -251 0
-47 -247 -252 0
-48 -248 -253 0
-49 -249 -254 0
-50 -250 -255 0
-81 -106 -166 0
-82 -107 -167 0
-83 -108 -168 0
-84 -109 -169 0
-85 -110 -170 0
-51 -81 -101 0
-52 -82 -102 0
-53 -83 -103 0
-54 -84 -104 0
-55 -85 -105 0
-131 -216 -231 0
-132 -217 -232 0
-133 -218 -233 0
-134 -219 -234 0
-135 -220 -235 0
-56 -126 -251 0
-57 -127 -252 0
-58 -128 -253 0
-59 -129 -254 0
-60 -130 -255 0
-46 -61 -96 0
-47 -62 -97 0
-48 -63 -98 0
-49 -64 -99 0
-50 -65 -100 0
-6 -76 -86 0
-7 -77 -87 0
-8 -78 -88 0
-9 -79 -89 0
-10 -80 -90 0
-131 -176 -211 0
-132 -177 -212 0
-133 -178 -213 0
-134 -179 -214 0
-135 -180 -215 0
-101 -216 -246 0
-102 -217 -247 0
-103 -218 -248 0
-104 -219 -249 0
-105 -220 -250 0
-126 -211 -251 0
-127 -212 -252 0
-128 -213 -253 0
-129 -214 -254 0
-130 -215 -255 0
-146 -171 -221 0
-147 -172 -222 0
-148 -173 -223 0
-149 -174 -224 0
-150 -175 -225 0
-36 -131 -231 0
-37 -132 -232 0
-38 -133 -233 0
-39 -134 -234 0
-40 -135 -235 0
-6 -241 -251 0
-7 -242 -252 0
-8 -243 -253 0
-9 -244 -254 0
-10 -245 -255 0
-66 -136 -161 0
-67 -137 -162 0
-68 -138 -163 0
-69 -139 -164 0
-70 -140 -165 0
-106 -206 -211 0
-107 -207 -212 0
-108 -208 -213 0
-109 -209 -214 0
-110 -210 -215 0
-56 -121 -131 0
-57 -122 -132 0
-58 -123 -133 0
-59 -124 -134 0
-60 -125 -135 0
-81 -126 -221 0
-82 -127 -222 0
-83 -128 -223 0
-84 -129 -224 0
-85 -130 -225 0
-51 -61 -136 0
-52 -62 -137 0
-53 -63 -138 0
-54 -64 -139 0
-55 -65 -140 0
-11 -131 -141 0
-12 -132 -142 0
-13 -133 -143 0
-14 -134 -144 0
-15 -135 -145 0
-61 -176 -201 0
-62 -177 -202 0
-63 -178 -203 0
-64 -179 -204 0
-65 -180 -205 0
-26 -41 -201 0
-27 -42 -202 0
-28 -43 -203 0
-29 -44 -204 0
-30 -45 -205 0
-91 -186 -231 0
-92 -187 -232 0
-93 -188 -233 0
-94 -189 -234 0
-95 -190 -235 0
-151 -161 -176 0
-152 -162 -177 0
-153 -163 -178 0
-154 -164 -179 0
-155 -165 -180 0
-31 -146 -156 0
-32 -147 -157 0
-33 -148 -158 0
-34 -149 -159 0
-35 -150 -160 0
-96 -126 -201 0
-97 -127 -202 0
-98 -128 -203 0
-99 -129 -204 0
-100 -130 -205 0
-61 -81 -131 0
-62 -82 -132 0
-63 -83 -133 0
-64 -84 -134 0
-65 -85 -135 0
-11 -96 -126 0
-12 -97 -127 0
-13 -98 -128 0
-14 -99 -129 0
-15 -100 -130 0
-91 -96 -171 0
-92 -97 -172 0
-93 -98 -173 0
-94 -99 -174 0
-95 -100 -175 0
-46 -61 -161 0
-47 -62 -162 0
-48 -63 -163 0
-49 -64 -164 0
-50 -65 -165 0
-41 -51 -236 0
-42 -52 -237 0
-43 -53 -238 0
-44 -54 -239 0
-45 -55 -240 0
-151 -166 -181 0
-152 -167 -182 0
-153 -168 -183 0
-154 -169 -184 0
-155 -170 -185 0
-21 -111 -146 0
-22 -112 -147 0
-23 -113 -148 0
-24 -114 -149 0
-25 -115 -150 0
-66 -76 -176 0
-67 -77 -177 0
-68 -78 -178 0
-69 -79 -179 0
-70 -80 -180 0
-56 -101 -166 0
-57 -102 -167 0
-58 -103 -168 0
-59 -104 -169 0
-60 -105 -170 0
-26 -191 -201 0
-27 -192 -202 0
-28 -193 -203 0
-29 -194 -204 0
-30 -195 -205 0
-41 -131 -136 0
-42 -132 -137 0
-43 -133 -138 0
-44 -134 -139 0
-45 -135 -140 0
-121 -171 -201 0
-122 -172 -202 0
-123 -173 -203 0
-124 -174 -204 0
-125 -175 -205 0
-21 -181 -241 0
-22 -182 -242 0
-23 -183 -243 0
-24 -184 -244 0
-25 -185 -245 0
-41 -201 -236 0
-42 -202 -237 0
-43 -203 -238 0
-44 -204 -239 0
-45 -205 -240 0
-41 -56 -101 0
-42 -57 -102 0
-43 -58 -103 0
-44 -59 -104 0
-45 -60 -105 0
-71 -146 -171 0
-72 -147 -172 0
-73 -148 -173 0
-74 -149 -174 0
-75 -150 -175 0
-86 -191 -221 0
-87 -192 -222 0
-88 -193 -223 0
-89 -194 -224 0
-90 -195 -225 0
-6 -101 -111 0
-7 -102 -112 0
-8 -103 -113 0
-9 -104 -114 0
-10 -105 -115 0
-121 -146 -231 0
-122 -147 -232 0
-123 -148 -233 0
-124 -149 -234 0
-125 -150 -235 0
-41 -206 -241 0
-42 -207 -242 0
-43 -208 -243 0
-44 -209 -244 0
-45 -210 -245 0
-76 -101 -196 0
-77 -102 -197 0
-78 -103 -198 0
-79 -104 -199 0
-80 -105 -200 0
-21 -91 -176 0
-22 -92 -177 0
-23 -93 -178 0
-24 -94 -179 0
-25 -95 -180 0
-1 -126 -131 0
-2 -127 -132 0
-3 -128 -133 0
-4 -129 -134 0
-5 -130 -135 0
-136 -186 -231 0
-137 -187 -232 0
-138 -188 -233 0
-139 -189 -234 0
-140 -190 -235 0
-36 -76 -131 0
-37 -77 -132 0
-38 -78 -133 0
-39 -79 -134 0
-40 -80 -135 0
-1 -31 -61 0
-2 -32 -62 0
-3 -33 -63 0
-4 -34 -64 0
-5 -35 -65 0
-46 -191 -196 0
-47 -192 -197 0
-48 -193 -198 0
-49 -194 -199 0
-50 -195 -200 0
-1 -196 -231 0
-2 -197 -232 0
-3 -198 -233 0
-4 -199 -234 0
-5 -200 -235 0
-51 -206 -221 0
-52 -207 -222 0
-53 -208 -223 0
-54 -209 -224 0
-55 -210 -225 0
-136 -151 -216 0
-137 -152 -217 0
-138 -153 -218 0
-139 -154 -219 0
-140 -155 -220 0
-6 -121 -166 0
-7 -122 -167 0
-8 -123 -168 0
-9 -124 -169 0
-10 -125 -170 0
-1 -101 -161 0
-2 -102 -162 0
-3 -103 -163 0
-4 -104 -164 0
-5 -105 -165 0
-66 -221 -236 0
-67 -222 -237 0
-68 -223 -238 0
-69 -224 -239 0
-70 -225 -240 0
-36 -56 -141 0
-37 -57 -142 0
-38 -58 -143 0
-39 -59 -144 0
-40 -60 -145 0
-51 -76 -141 0
-52 -77 -142 0
-53 -78 -143 0
-54 -79 -144 0
-55 -80 -145 0
-21 -46 -221 0
-22 -47 -222 0
-23 -48 -223 0
-24 -49 -224 0
-25 -50 -225 0
-11 -106 -126 0
-12 -107 -127 0
-13 -108 -128 0
-14 -109 -129 0
-15 -110 -130 0
-66 -171 -196 0
-67 -172 -197 0
-68 -173 -198 0
-69 -174 -199 0
-70 -175 -200 0
-146 -206 -251 0
-147 -207 -252 0
-148 -208 -253 0
-149 -209 -254 0
-150 -210 -255 0
-111 -161 -176 0
-112 -162 -177 0
-113 -163 -178 0
-114 -164 -179 0
-115 -165 -180 0
-31 -51 -221 0
-32 -52 -222 0
-33 -53 -223 0
-34 -54 -224 0
-35 -55 -225 0
-101 -121 -196 0
-102 -122 -197 0
-103 -123 -198 0
-104 -124 -199 0
-105 -125 -200 0
-161 -191 -206 0
-162 -192 -207 0
-163 -193 -208 0
-164 -194 -209 0
-165 -195 -210 0
-1 -176 -236 0
-2 -177 -237 0
-3 -178 -238 0
-4 -179 -239 0
-5 -180 -240 0
-21 -91 -241 0
-22 -92 -242 0
-23 -93 -243 0
-24 -94 -244 0
-25 -95 -245 0
-156 -216 -221 0
-157 -217 -222 0
-158 -218 -223 0
-159 -219 -224 0
-160 -220 -225 0
-11 -16 -61 0
-12 -17 -62 0
-13 -18 -63 0
-14 -19 -64 0
-15 -20 -65 0
-11 -216 -241 0
-12 -217 -242 0
-13 -218 -243 0
-14 -219 -244 0
-15 -220 -245 0
-11 -111 -126 0
-12 -112 -127 0
-13 -113 -128 0
-14 -114 -129 0
-15 -115 -130 0
-51 -71 -201 0
-52 -72 -202 0
-53 -73 -203 0
-54 -74 -204 0
-55 -75 -205 0
-111 -181 -231 0
-112 -182 -232 0
-113 -183 -233 0
-114 -184 -234 0
-115 -185 -235 0
-16 -26 -131 0
-17 -27 -132 0
-18 -28 -133 0
-19 -29 -134 0
-20 -30 -135 0
-31 -201 -221 0
-32 -202 -222 0
-33 -203 -223 0
-34 -204 -224 0
-35 -205 -225 0
-61 -76 -171 0
-62 -77 -172 0
-63 -78 -173 0
-64 -79 -174 0
-65 -80 -175 0
-66 -71 -186 0
-67 -72 -187 0
-68 -73 -188 0
-69 -74 -189 0
-70 -75 -190 0
-86 -116 -136 0
-87 -117 -137 0
-88 -118 -138 0
-89 -119 -139 0
-90 -120 -140 0
-166 -211 -246 0
-167 -212 -247 0
-168 -213 -248 0
-169 -214 -249 0
-170 -215 -250 0
-21 -111 -161 0
-22 -112 -162 0
-23 -113 -163 0
-24 -114 -164 0
-25 -115 -165 0
-36 -181 -196 0
-37 -182 -197 0
-38 -183 -198 0
-39 -184 -199 0
-40 -185 -200 0
-21 -121 -206 0
-22 -122 -207 0
-23 -123 -208 0
-24 -124 -209 0
-25 -125 -210 0
-41 -181 -221 0
-42 -182 -222 0
-43 -183 -223 0
-44 -184 -224 0
-45 -185 -225 0
-71 -191 -251 0
-72 -192 -252 0
-73 -193 -253 0
-74 -194 -254 0
-75 -195 -255 0
-36 -201 -226 0
-37 -202 -227 0
-38 -203 -228 0
-39 -204 -229 0
-40 -205 -230 0
-136 -161 -211 0
-137 -162 -212 0
-138 -163 -213 0
-139 -164 -214 0
-140 -165 -215 0
-41 -46 -131 0
-42 -47 -132 0
-43 -48 -133 0
-44 -49 -134 0
-45 -50 -135 0
-21 -46 -171 0
-22 -47 -172 0
-23 -48 -173 0
-24 -49 -174 0
-25 -50 -175 0
-1 -116 -136 0
-2 -117 -137 0
-3 -118 -138 0
-4 -119 -139 0
-5 -120 -140 0
-71 -156 -236 0
-72 -157 -237 0
-73 -158 -238 0
-74 -159 -239 0
-75 -160 -240 0
-141 -186 -191 0
-142 -187 -192 0
-143 -188 -193 0
-144 -189 -194 0
-145 -190 -195 0
-6 -191 -216 0
-7 -192 -217 0
-8 -193 -218 0
-9 -194 -219 0
-10 -195 -220 0
-86 -151 -216 0
-87 -152 -217 0
-88 -153 -218 0
-89 -154 -219 0
-90 -155 -220 0
-46 -166 -176 0
-47 -167 -177 0
-48 -168 -178 0
-49 -169 -179 0
-50 -170 -180 0
-146 -166 -181 0
-147 -167 -182 0
-148 -168 -183 0
-149 -169 -184 0
-150 -170 -185 0
-6 -46 -81 0
-7 -47 -82 0
-8 -48 -83 0
-9 -49 -84 0
-10 -50 -85 0
-61 -76 -236 0
-62 -77 -237 0
-63 -78 -238 0
-64 -79 -239 0
-65 -80 -240 0
-6 -141 -146 0
-7 -142 -147 0
-8 -143 -148 0
-9 -144 -149 0
-10 -145 -150 0
-6 -101 -126 0
-7 -102 -127 0
-8 -103 -128 0
-9 -104 -129 0
-10 -105 -130 0
-81 -176 -231 0
-82 -177 -232 0
-83 -178 -233 0
-84 -179 -234 0
-85 -180 -235 0
-46 -76 -116 0
-47 -77 -117 0
-48 -78 -118 0
-49 -79 -119 0
-50 -80 -120 0
-26 -31 -156 0
-27 -32 -157 0
-28 -33 -158 0
-29 -34 -159 0
-30 -35 -160 0
-81 -171 -251 0
-82 -172 -252 0
-83 -173 -253 0
-84 -174 -254 0
-85 -175 -255 0
-16 -41 -246 0
-17 -42 -247 0
-18 -43 -248 0
-19 -44 -249 0
-20 -45 -250 0
-101 -151 -226 0
-102 -152 -227 0
-103 -153 -228 0
-104 -154 -229 0
-105 -155 -230 0
-46 -181 -226 0
-47 -182 -227 0
-48 -183 -228 0
-49 -184 -229 0
-50 -185 -230 0
-71 -81 -196 0
-72 -82 -197 0
-73 -83 -198 0
-74 -84 -199 0
-75 -85 -200 0
-36 -46 -176 0
-37 -47 -177 0
-38 -48 -178 0
-39 -49 -179 0
-40 -50 -180 0
-56 -131 -146 0
-57 -132 -147 0
-58 -133 -148 0
-59 -134 -149 0
-60 -135 -150 0
-1 -96 -171 0
-2 -97 -172 0
-3 -98 -173 0
-4 -99 -174 0
-5 -100 -175 0
-6 -176 -231 0
-7 -177 -232 0
-8 -178 -233 0
-9 -179 -234 0
-10 -180 -235 0
-161 -166 -186 0
-162 -167 -187 0
-163 -168 -188 0
-164 -169 -189 0
-165 -170 -190 0
-11 -46 -91 0
-12 -47 -92 0
-13 -48 -93 0
-14 -49 -94 0
-15 -50 -95 0
-11 -141 -156 0
-12 -142 -157 0
-13 -143 -158 0
-14 -144 -159 0
-15 -145 -160 0
-61 -76 -121 0
-62 -77 -122 0
-63 -78 -123 0
-64 -79 -124 0
-65 -80 -125 0
-51 -76 -156 0
-52 -77 -157 0
-53 -78 -158 0
-54 -79 -159 0
-55 -80 -160 0
-101 -116 -206 0
-102 -117 -207 0
-103 -118 -208 0
-104 -119 -209 0
-105 -120 -210 0
-11 -196 -226 0
-12 -197 -227 0
-13 -198 -228 0
-14 -199 -229 0
-15 -200 -230 0
-26 -196 -211 0
-27 -197 -212 0
-28 -198 -213 0
-29 -199 -214 0
-30 -200 -215 0
-31 -216 -221 0
-32 -217 -222 0
-33 -218 -223 0
-34 -219 -224 0
-35 -220 -225 0
-46 -121 -241 0
-47 -122 -242 0
-48 -123 -243 0
-49 -124 -244 0
-50 -125 -245 0
-16 -56 -156 0
-17 -57 -157 0
-18 -58 -158 0
-19 -59 -159 0
-20 -60 -160 0
-31 -231 -246 0
-32 -232 -247 0
-33 -233 -248 0
-34 -234 -249 0
-35 -235 -250 0
-91 -106 -181 0
-92 -107 -182 0
-93 -108 -183 0
-94 -109 -184 0
-95 -110 -185 0
-106 -191 -251 0
-107 -192 -252 0
-108 -193 -253 0
-109 -194 -254 0
-110 -195 -255 0
-151 -176 -191 0
-152 -177 -192 0
-153 -178 -193 0
-154 -179 -194 0
-155 -180 -195 0
-76 -226 -241 0
-77 -227 -242 0
-78 -228 -243 0
-79 -229 -244 0
-80 -230 -245 0
-21 -81 -136 0
-22 -82 -137 0
-23 -83 -138 0
-24 -84 -139 0
-25 -85 -140 0
-121 -176 -206 0
-122 -177 -207 0
-123 -178 -208 0
-124 -179 -209 0
-125 -180 -210 0
-96 -101 -226 0
-97 -102 -227 0
-98 -103 -228 0
-99 -104 -229 0
-100 -105 -230 0
-41 -66 -251 0
-42 -67 -252 0
-43 -68 -253 0
-44 -69 -254 0
-45 -70 -255 0
-166 -171 -201 0
-167 -172 -202 0
-168 -173 -203 0
-169 -174 -204 0
-170 -175 -205 0
-61 -71 -181 0
-62 -72 -182 0
-63 -73 -183 0
-64 -74 -184 0
-65 -75 -185 0
-31 -101 -161 0
-32 -102 -162 0
-33 -103 -163 0
-34 -104 -164 0
-35 -105 -165 0
-46 -51 -211 0
-47 -52 -212 0
-48 -53 -213 0
-49 -54 -214 0
-50 -55 -215 0
-56 -76 -161 0
-57 -77 -162 0
-58 -78 -163 0
-59 -79 -164 0
-60 -80 -165 0
-86 -96 -121 0
-87 -97 -122 0
-88 -98 -123 0
-89 -99 -124 0
-90 -100 -125 0
-106 -121 -221 0
-107 -122 -222 0
-108 -123 -223 0
-109 -124 -224 0
-110 -125 -225 0
-76 -96 -156 0
-77 -97 -157 0
-78 -98 -158 0
-79 -99 -159 0
-80 -100 -160 0
-6 -41 -51 0
-7 -42 -52 0
-8 -43 -53 0
-9 -44 -54 0
-10 -45 -55 0
-26 -121 -196 0
-27 -122 -197 0
-28 -123 -198 0
-29 -124 -199 0
-30 -125 -200 0
-26 -81 -176 0
-27 -82 -177 0
-28 -83 -178 0
-29 -84 -179 0
-30 -85 -180 0
-21 -101 -191 0
-22 -102 -192 0
-23 -103 -193 0
-24 -104 -194 0
-25 -105 -195 0
-31 -61 -166 0
-32 -62 -167 0
-33 -63 -168 0
-34 -64 -169 0
-35 -65 -170 0
-136 -196 -246 0
-137 -197 -247 0
-138 -198 -248 0
-139 -199 -249 0
-140 -200 -250 0
-41 -216 -251 0
-42 -217 -252 0
-43 -218 -253 0
-44 -219 -254 0
-45 -220 -255 0
-51 -106 -116 0
-52 -107 -117 0
-53 -108 -118 0
-54 -109 -119 0
-55 -110 -120 0
-46 -86 -111 0
-47 -87 -112 0
-48 -88 -113 0
-49 -89 -114 0
-50 -90 -115 0
-36 -221 -231 0
-37 -222 -232 0
-38 -223 -233 0
-39 -224 -234 0
-40 -225 -235 0
-131 -161 -206 0
-132 -162 -207 0
-133 -163 -208 0
-134 -164 -209 0
-135 -165 -210 0
-61 -91 -236 0
-62 -92 -237 0
-63 -93 -238 0
-64 -94 -239 0
-65 -95 -240 0
-26 -181 -246 0
-27 -182 -247 0
-28 -183 -248 0
-29 -184 -249 0
-30 -185 -250 0
-6 -116 -126 0
-7 -117 -127 0
-8 -118 -128 0
-9 -119 -129 0
-10 -120 -130 0
-1 -136 -141 0
-2 -137 -142 0
-3 -138 -143 0
-4 -139 -144 0
-5 -140 -145 0
-71 -136 -221 0
-72 -137 -222 0
-73 -138 -223 0
-74 -139 -224 0
-75 -140 -225 0
-71 -151 -246 0
-72 -152 -247 0
-73 -153 -248 0
-74 -154 -249 0
-75 -155 -250 0
-41 -136 -236 0
-42 -137 -237 0
-43 -138 -238 0
-44 -139 -239 0
-45 -140 -240 0
-46 -106 -141 0
-47 -107 -142 0
-48 -108 -143 0
-49 -109 -144 0
-50 -110 -145 0
-126 -146 -206 0
-127 -147 -207 0
-128 -148 -208 0
-129 -149 -209 0
-130 -150 -210 0
-31 -56 -231 0
-32 -57 -232 0
-33 -58 -233 0
-34 -59 -234 0
-35 -60 -235 0
-51 -181 -221 0
-52 -182 -222 0
-53 -183 -223 0
-54 -184 -224 0
-55 -185 -225 0
-21 -96 -251 0
-22 -97 -252 0
-23 -98 -253 0
-24 -99 -254 0
-25 -100 -255 0
-101 -171 -231 0
-102 -172 -232 0
-103 -173 -233 0
-104 -174 -234 0
-105 -175 -235 0
-51 -86 -151 0
-52 -87 -152 0
-53 -88 -153 0
-54 -89 -154 0
-55 -90 -155 0
-101 -131 -211 0
-102 -132 -212 0
-103 -133 -213 0
-104 -134 -214 0
-105 -135 -215 0
-11 -61 -91 0
-12 -62 -92 0
-13 -63 -93 0
-14 -64 -94 0
-15 -65 -95 0
-46 -161 -211 0
-47 -162 -212 0
-48 -163 -213 0
-49 -164 -214 0
-50 -165 -215 0
-66 -86 -141 0
-67 -87 -142 0
-68 -88 -143 0
-69 -89 -144 0
-70 -90 -145 0
-91 -156 -201 0
-92 -157 -202 0
-93 -158 -203 0
-94 -159 -204 0
-95 -160 -205 0
-66 -181 -206 0
-67 -182 -207 0
-68 -183 -208 0
-69 -184 -209 0
-70 -185 -210 0
-6 -96 -161 0
-7 -97 -162 0
-8 -98 -163 0
-9 -99 -164 0
-10 -100 -165 0
-106 -151 -181 0
-107 -152 -182 0
-108 -153 -183 0
-109 -154 -184 0
-110 -155 -185 0
-41 -81 -231 0
-42 -82 -232 0
-43 -83 -233 0
-44 -84 -234 0
-45 -85 -235 0
-61 -106 -146 0
-62 -107 -147 0
-63 -108 -148 0
-64 -109 -149 0
-65 -110 -150 0
-11 -26 -76 0
-12 -27 -77 0
-13 -28 -78 0
-14 -29 -79 0
-15 -30 -80 0
-16 -206 -246 0
-17 -207 -247 0
-18 -208 -248 0
-19 -209 -249 0
-20 -210 -250 0
-101 -151 -241 0
-102 -152 -242 0
-103 -153 -243 0
-104 -154 -244 0
-105 -155 -245 0
-111 -176 -191 0
-112 -177 -192 0
-113 -178 -193 0
-114 -179 -194 0
-115 -180 -195 0
-106 -156 -186 0
-107 -157 -187 0
-108 -158 -188 0
-109 -159 -189 0
-110 -160 -190 0
-21 -191 -206 0
-22 -192 -207 0
-23 -193 -208 0
-24 -194 -209 0
-25 -195 -210 0
-11 -191 -241 0
-12 -192 -242 0
-13 -193 -243 0
-14 -194 -244 0
-15 -195 -245 0
-56 -221 -246 0
-57 -222 -247 0
-58 -223 -248 0
-59 -224 -249 0
-60 -225 -250 0
-61 -181 -251 0
-62 -182 -252 0
-63 -183 -253 0
-64 -184 -254 0
-65 -185 -255 0
-111 -151 -221 0
-112 -152 -222 0
-113 -153 -223 0
-114 -154 -224 0
-115 -155 -225 0
-151 -206 -246 0
-152 -207 -247 0
-153 -208 -248 0
-154 -209 -249 0
-155 -210 -250 0
-56 -91 -166 0
-57 -92 -167 0
-58 -93 -168 0
-59 -94 -169 0
-60 -95 -170 0
-121 -211 -241 0
-122 -212 -242 0
-123 -213 -243 0
-124 -214 -244 0
-125 -215 -245 0
-16 -151 -241 0
-17 -152 -242 0
-18 -153 -243 0
-19 -154 -244 0
-20 -155 -245 0
-21 -101 -141 0
-22 -102 -142 0
-23 -103 -143 0
-24 -104 -144 0
-25 -105 -145 0
-111 -156 -226 0
-112 -157 -227 0
-113 -158 -228 0
-114 -159 -229 0
-115 -160 -230 0
-86 -111 -121 0
-87 -112 -122 0
-88 -113 -123 0
-89 -114 -124 0
-90 -115 -125 0
-46 -81 -236 0
-47 -82 -237 0
-48 -83 -238 0
-49 -84 -239 0
-50 -85 -240 0
-16 -56 -171 0
-17 -57 -172 0
-18 -58 -173 0
-19 -59 -174 0
-20 -60 -175 0
-36 -86 -96 0
-37 -87 -97 0
-38 -88 -98 0
-39 -89 -99 0
-40 -90 -100 0
-166 -206 -231 0
-167 -207 -232 0
-168 -208 -233 0
-169 -209 -234 0
-170 -210 -235 0
-116 -181 -206 0
-117 -182 -207 0
-118 -183 -208 0
-119 -184 -209 0
-120 -185 -210 0
-71 -96 -151 0
-72 -97 -152 0
-73 -98 -153 0
-74 -99 -154 0
-75 -100 -155 0
-136 -156 -201 0
-137 -157 -202 0
-138 -158 -203 0
-139 -159 -204 0
-140 -160 -205 0
-36 -211 -241 0
-37 -212 -242 0
-38 -213 -243 0
-39 -214 -244 0
-40 -215 -245 0
-166 -186 -241 0
-167 -187 -242 0
-168 -188 -243 0
-169 -189 -244 0
-170 -190 -245 0
-31 -56 -181 0
-32 -57 -182 0
-33 -58 -183 0
-34 -59 -184 0
-35 -60 -185 0
-1 -166 -171 0
-2 -167 -172 0
-3 -168 -173 0
-4 -169 -174 0
-5 -170 -175 0
-131 -216 -226 0
-132 -217 -227 0
-133 -218 -228 0
-134 -219 -229 0
-135 -220 -230 0
-26 -101 -181 0
-27 -102 -182 0
-28 -103 -183 0
-29 -104 -184 0
-30 -105 -185 0
-6 -36 -61 0
-7 -37 -62 0
-8 -38 -63 0
-9 -39 -64 0
-10 -40 -65 0
-1 -16 -56 0
-2 -17 -57 0
-3 -18 -58 0
-4 -19 -59 0
-5 -20 -60 0
-21 -41 -156 0
-22 -42 -157 0
-23 -43 -158 0
-24 -44 -159 0
-25 -45 -160 0
-36 -216 -246 0
-37 -217 -247 0
-38 -218 -248 0
-39 -219 -249 0
-40 -220 -250 0
-16 -76 -226 0
-17 -77 -227 0
-18 -78 -228 0
-19 -79 -229 0
-20 -80 -230 0
-16 -36 -206 0
-17 -37 -207 0
-18 -38 -208 0
-19 -39 -209 0
-20 -40 -210 0
-56 -91 -231 0
-57 -92 -232 0
-58 -93 -233 0
-59 -94 -234 0
-60 -95 -235 0
-6 -241 -246 0
-7 -242 -247 0
-8 -243 -248 0
-9 -244 -249 0
-10 -245 -250 0
-36 -121 -176 0
-37 -122 -177 0
-38 -123 -178 0
-39 -124 -179 0
-40 -125 -180 0
-116 -161 -241 0
-117 -162 -242 0
-118 -163 -243 0
-119 -164 -244 0
-120 -165 -245 0
-1 -21 -61 0
-2 -22 -62 0
-3 -23 -63 0
-4 -24 -64 0
-5 -25 -65 0
-6 -96 -111 0
-7 -97 -112 0
-8 -98 -113 0
-9 -99 -114 0
-10 -100 -115 0
-36 -81 -156 0
-37 -82 -157 0
-38 -83 -158 0
-39 -84 -159 0
-40 -85 -160 0
-1 -181 -221 0
-2 -182 -222 0
-3 -183 -223 0
-4 -184 -224 0
-5 -185 -225 0
-6 -56 -91 0
-7 -57 -92 0
-8 -58 -93 0
-9 -59 -94 0
-10 -60 -95 0
-1 -36 -86 0
-2 -37 -87 0
-3 -38 -88 0
-4 -39 -89 0
-5 -40 -90 0
-6 -111 -166 0
-7 -112 -167 0
-8 -113 -168 0
-9 -114 -169 0
-10 -115 -170 0
-66 -151 -181 0
-67 -152 -182 0
-68 -153 -183 0
-69 -154 -184 0
-70 -155 -185 0
-6 -206 -231 0
-7 -207 -232 0
-8 -208 -233 0
-9 -209 -234 0
-10 -210 -235 0
-96 -166 -221 0
-97 -167 -222 0
-98 -168 -223 0
-99 -169 -224 0
-100 -170 -225 0
-1 -186 -226 0
-2 -187 -227 0
-3 -188 -228 0
-4 -189 -229 0
-5 -190 -230 0
-1 -201 -251 0
-2 -202 -252 0
-3 -203 -253 0
-4 -204 -254 0
-5 -205 -255 0
-66 -196 -206 0
-67 -197 -207 0
-68 -198 -208 0
-69 -199 -209 0
-70 -200 -210 0
-91 -226 -246 0
-92 -227 -247 0
-93 -228 -248 0
-94 -229 -249 0
-95 -230 -250 0
-11 -151 -171 0
-12 -152 -172 0
-13 -153 -173 0
-14 -154 -174 0
-15 -155 -175 0
-26 -96 -241 0
-27 -97 -242 0
-28 -98 -243 0
-29 -99 -244 0
-30 -100 -245 0
-16 -131 -161 0
-17 -132 -162 0
-18 -133 -163 0
-19 -134 -164 0
-20 -135 -165 0
-26 -56 -221 0
-27 -57 -222 0
-28 -58 -223 0
-29 -59 -224 0
-30 -60 -225 0
-56 -141 -156 0
-57 -142 -157 0
-58 -143 -158 0
-59 -144 -159 0
-60 -145 -160 0
-141 -161 -211 0
-142 -162 -212 0
-143 -163 -213 0
-144 -164 -214 0
-145 -165 -215 0
-11 -41 -76 0
-12 -42 -77 0
-13 -43 -78 0
-14 -44 -79 0
-15 -45 -80 0
-61 -181 -201 0
-62 -182 -202 0
-63 -183 -203 0
-64 -184 -204 0
-65 -185 -205 0
-11 -96 -121 0
-12 -97 -122 0
-13 -98 -123 0
-14 -99 -124 0
-15 -100 -125 0
-161 -236 -251 0
-162 -237 -252 0
-163 -238 -253 0
-164 -239 -254 0
-165 -240 -255 0
-161 -196 -231 0
-162 -197 -232 0
-163 -198 -233 0
-164 -199 -234 0
-165 -200 -235 0
-91 -151 -211 0
-92 -152 -212 0
-93 -153 -213 0
-94 -154 -214 0
-95 -155 -215 0
-56 -146 -161 0
-57 -147 -162 0
-58 -148 -163 0
-59 -149 -164 0
-60 -150 -165 0
-156 -161 -191 0
-157 -162 -192 0
-158 -163 -193 0
-159 -164 -194 0
-160 -165 -195 0
-46 -66 -161 0
-47 -67 -162 0
-48 -68 -163 0
-49 -69 -164 0
-50 -70 -165 0
-171 -196 -221 0
-172 -197 -222 0
-173 -198 -223 0
-174 -199 -224 0
-175 -200 -225 0
-61 -101 -186 0
-62 -102 -187 0
-63 -103 -188 0
-64 -104 -189 0
-65 -105 -190 0
-26 -151 -176 0
-27 -152 -177 0
-28 -153 -178 0
-29 -154 -179 0
-30 -155 -180 0
-31 -131 -166 0
-32 -132 -167 0
-33 -133 -168 0
-34 -134 -169 0
-35 -135 -170 0
-51 -116 -246 0
-52 -117 -247 0
-53 -118 -248 0
-54 -119 -249 0
-55 -120 -250 0
-96 -146 -251 0
-97 -147 -252 0
-98 -148 -253 0
-99 -149 -254 0
-100 -150 -255 0
-86 -141 -151 0
-87 -142 -152 0
-88 -143 -153 0
-89 -144 -154 0
-90 -145 -155 0
-31 -136 -171 0
-32 -137 -172 0
-33 -138 -173 0
-34 -139 -174 0
-35 -140 -175 0
-76 -86 -136 0
-77 -87 -137 0
-78 -88 -138 0
-79 -89 -139 0
-80 -90 -140 0
-151 -161 -236 0
-152 -162 -237 0
-153 -163 -238 0
-154 -164 -239 0
-155 -165 -240 0
-26 -61 -111 0
-27 -62 -112 0
-28 -63 -113 0
-29 -64 -114 0
-30 -65 -115 0
-86 -106 -136 0
-87 -107 -137 0
-88 -108 -138 0
-89 -109 -139 0
-90 -110 -140 0
-136 -176 -181 0
-137 -177 -182 0
-138 -178 -183 0
-139 -179 -184 0
-140 -180 -185 0
-41 -111 -166 0
-42 -112 -167 0
-43 -113 -168 0
-44 -114 -169 0
-45 -115 -170 0
-31 -111 -201 0
-32 -112 -202 0
-33 -113 -203 0
-34 -114 -204 0
-35 -115 -205 0
-36 -186 -221 0
-37 -187 -222 0
-38 -188 -223 0
-39 -189 -224 0
-40 -190 -225 0
-61 -96 -246 0
-62 -97 -247 0
-63 -98 -248 0
-64 -99 -249 0
-65 -100 -250 0
-86 -161 -206 0
-87 -162 -207 0
-88 -163 -208 0
-89 -164 -209 0
-90 -165 -210 0
-41 -186 -246 0
-42 -187 -247 0
-43 -188 -248 0
-44 -189 -249 0
-45 -190 -250 0
-26 -76 -161 0
-27 -77 -162 0
-28 -78 -163 0
-29 -79 -164 0
-30 -80 -165 0
-46 -136 -146 0
-47 -137 -147 0
-48 -138 -148 0
-49 -139 -149 0
-50 -140 -150 0
-46 -96 -126 0
-47 -97 -127 0
-48 -98 -128 0
-49 -99 -129 0
-50 -100 -130 0
-6 -111 -116 0
-7 -112 -117 0
-8 -113 -118 0
-9 -114 -119 0
-10 -115 -120 0
-41 -131 -196 0
-42 -132 -197 0
-43 -133 -198 0
-44 -134 -199 0
-45 -135 -200 0
-1 -106 -136 0
-2 -107 -137 0
-3 -108 -138 0
-4 -109 -139 0
-5 -110 -140 0
-16 -71 -241 0
-17 -72 -242 0
-18 -73 -243 0
-19 -74 -244 0
-20 -75 -245 0
-26 -136 -211 0
-27 -137 -212 0
-28 -138 -213 0
-29 -139 -214 0
-30 -140 -215 0
-86 -181 -236 0
-87 -182 -237 0
-88 -183 -238 0
-89 -184 -239 0
-90 -185 -240 0
-116 -136 -221 0
-117 -137 -222 0
-118 -138 -223 0
-119 -139 -224 0
-120 -140 -225 0
-146 -196 -201 0
-147 -197 -202 0
-148 -198 -203 0
-149 -199 -204 0
-150 -200 -205 0
-86 -101 -221 0
-87 -102 -222 0
-88 -103 -223 0
-89 -104 -224 0
-90 -105 -225 0
-46 -116 -181 0
-47 -117 -182 0
-48 -118 -183 0
-49 -119 -184 0
-50 -120 -185 0
-46 -131 -206 0
-47 -132 -207 0
-48 -133 -208 0
-49 -134 -209 0
-50 -135 -210 0
-11 -21 -36 0
-12 -22 -37 0
-13 -23 -38 0
-14 -24 -39 0
-15 -25 -40 0
-11 -111 -121 0
-12 -112 -122 0
-13 -113 -123 0
-14 -114 -124 0
-15 -115 -125 0
-61 -156 -181 0
-62 -157 -182 0
-63 -158 -183 0
-64 -159 -184 0
-65 -160 -185 0
-131 -151 -251 0
-132 -152 -252 0
-133 -153 -253 0
-134 -154 -254 0
-135 -155 -255 0
-56 -66 -96 0
-57 -67 -97 0
-58 -68 -98 0
-59 -69 -99 0
-60 -70 -100 0
-26 -36 -206 0
-27 -37 -207 0
-28 -38 -208 0
-29 -39 -209 0
-30 -40 -210 0
-106 -206 -221 0
-107 -207 -222 0
-108 -208 -223 0
-109 -209 -224 0
-110 -210 -225 0
-146 -151 -241 0
-147 -152 -242 0
-148 -153 -243 0
-149 -154 -244 0
-150 -155 -245 0
-106 -166 -201 0
-107 -167 -202 0
-108 -168 -203 0
-109 -169 -204 0
-110 -170 -205 0
-11 -221 -241 0
-12 -222 -242 0
-13 -223 -243 0
-14 -224 -244 0
-15 -225 -245 0
-156 -196 -226 0
-157 -197 -227 0
-158 -198 -228 0
-159 -199 -229 0
-160 -200 -230 0
-36 -96 -221 0
-37 -97 -222 0
-38 -98 -223 0
-39 -99 -224 0
-40 -100 -225 0
-56 -86 -126 0
-57 -87 -127 0
-58 -88 -128 0
-59 -89 -129 0
-60 -90 -130 0
-156 -181 -196 0
-157 -182 -197 0
-158 -183 -198 0
-159 -184 -199 0
-160 -185 -200 0
-31 -146 -166 0
-32 -147 -167 0
-33 -148 -168 0
-34 -149 -169 0
-35 -150 -170 0
-56 -141 -171 0
-57 -142 -172 0
-58 -143 -173 0
-59 -144 -174 0
-60 -145 -175 0
-21 -201 -216 0
-22 -202 -217 0
-23 -203 -218 0
-24 -204 -219 0
-25 -205 -220 0
-21 -96 -101 0
-22 -97 -102 0
-23 -98 -103 0
-24 -99 -104 0
-25 -100 -105 0
-46 -71 -221 0
-47 -72 -222 0
-48 -73 -223 0
-49 -74 -224 0
-50 -75 -225 0
-21 -31 -251 0
-22 -32 -252 0
-23 -33 -253 0
-24 -34 -254 0
-25 -35 -255 0
-166 -196 -216 0
-167 -197 -217 0
-168 -198 -218 0
-169 -199 -219 0
-170 -200 -220 0
-41 -111 -116 0
-42 -112 -117 0
-43 -113 -118 0
-44 -114 -119 0
-45 -115 -120 0
-51 -96 -231 0
-52 -97 -232 0
-53 -98 -233 0
-54 -99 -234 0
-55 -100 -235 0
-51 -56 -211 0
-52 -57 -212 0
-53 -58 -213 0
-54 -59 -214 0
-55 -60 -215 0
-46 -76 -226 0
-47 -77 -227 0
-48 -78 -228 0
-49 -79 -229 0
-50 -80 -230 0
-111 -166 -241 0
-112 -167 -242 0
-113 -168 -243 0
-114 -169 -244 0
-115 -170 -245 0
-16 -51 -161 0
-17 -52 -162 0
-18 -53 -163 0
-19 -54 -164 0
-20 -55 -165 0
-66 -91 -211 0
-67 -92 -212 0
-68 -93 -213 0
-69 -94 -214 0
-70 -95 -215 0
-31 -181 -251 0
-32 -182 -252 0
-33 -183 -253 0
-34 -184 -254 0
-35 -185 -255 0
-116 -151 -196 0
-117 -152 -197 0
-118 -153 -198 0
-119 -154 -199 0
-120 -155 -200 0
-16 -26 -191 0
-17 -27 -192 0
-18 -28 -193 0
-19 -29 -194 0
-20 -30 -195 0
-86 -191 -231 0
-87 -192 -232 0
-88 -193 -233 0
-89 -194 -234 0
-90 -195 -235 0
-36 -206 -226 0
-37 -207 -227 0
-38 -208 -228 0
-39 -209 -229 0
-40 -210 -230 0
-46 -166 -171 0
-47 -167 -172 0
-48 -168 -173 0
-49 -169 -174 0
-50 -170 -175 0
-61 -76 -231 0
-62 -77 -232 0
-63 -78 -233 0
-64 -79 -234 0
-65 -80 -235 0
-1 -176 -181 0
-2 -177 -182 0
-3 -178 -183 0
-4 -179 -184 0
-5 -180 -185 0
-46 -76 -111 0
-47 -77 -112 0
-48 -78 -113 0
-49 -79 -114 0
-50 -80 -115 0
-41 -111 -181 0
-42 -112 -182 0
-43 -113 -183 0
-44 -114 -184 0
-45 -115 -185 0
-1 -126 -141 0
-2 -127 -142 0
-3 -128 -143 0
-4 -129 -144 0
-5 -130 -145 0
-1 -191 -236 0
-2 -192 -237 0
-3 -193 -238 0
-4 -194 -239 0
-5 -195 -240 0
-6 -161 -171 0
-7 -162 -172 0
-8 -163 -173 0
-9 -164 -174 0
-10 -165 -175 0
-91 -111 -116 0
-92 -112 -117 0
-93 -113 -118 0
-94 -114 -119 0
-95 -115 -120 0
-131 -191 -221 0
-132 -192 -222 0
-133 -193 -223 0
-134 -194 -224 0
-135 -195 -225 0
-56 -101 -241 0
-57 -102 -242 0
-58 -103 -243 0
-59 -104 -244 0
-60 -105 -245 0
-126 -171 -216 0
-127 -172 -217 0
-128 -173 -218 0
-129 -174 -219 0
-130 -175 -220 0
-116 -171 -251 0
-117 -172 -252 0
-118 -173 -253 0
-119 -174 -254 0
-120 -175 -255 0
-126 -131 -196 0
-127 -132 -197 0
-128 -133 -198 0
-129 -134 -199 0
-130 -135 -200 0
-1 -31 -71 0
-2 -32 -72 0
-3 -33 -73 0
-4 -34 -74 0
-5 -35 -75 0
-51 -101 -116 0
-52 -102 -117 0
-53 -103 -118 0
-54 -104 -119 0
-55 -105 -120 0
-36 -91 -196 0
-37 -92 -197 0
-38 -93 -198 0
-39 -94 -199 0
-40 -95 -200 0
-71 -86 -196 0
-72 -87 -197 0
-73 -88 -198 0
-74 -89 -199 0
-75 -90 -200 0
-126 -136 -201 0
-127 -137 -202 0
-128 -138 -203 0
-129 -139 -204 0
-130 -140 -205 0
-31 -86 -246 0
-32 -87 -247 0
-33 -88 -248 0
-34 -89 -249 0
-35 -90 -250 0
-101 -156 -221 0
-102 -157 -222 0
-103 -158 -223 0
-104 -159 -224 0
-105 -160 -225 0
-161 -226 -231 0
-162 -227 -232 0
-163 -228 -233 0
-164 -229 -234 0
-165 -230 -235 0
-11 -146 -156 0
-12 -147 -157 0
-13 -148 -158 0
-14 -149 -159 0
-15 -150 -160 0
-86 -136 -251 0
-87 -137 -252 0
-88 -138 -253 0
-89 -139 -254 0
-90 -140 -255 0
-46 -111 -191 0
-47 -112 -192 0
-48 -113 -193 0
-49 -114 -194 0
-50 -115 -195 0
-16 -86 -126 0
-17 -87 -127 0
-18 -88 -128 0
-19 -89 -129 0
-20 -90 -130 0
-41 -51 -196 0
-42 -52 -197 0
-43 -53 -198 0
-44 -54 -199 0
-45 -55 -200 0
-41 -106 -241 0
-42 -107 -242 0
-43 -108 -243 0
-44 -109 -244 0
-45 -110 -245 0
-11 -51 -86 0
-12 -52 -87 0
-13 -53 -88 0
-14 -54 -89 0
-15 -55 -90 0
-101 -176 -251 0
-102 -177 -252 0
-103 -178 -253 0
-104 -179 -254 0
-105 -180 -255 0
-16 -196 -246 0
-17 -197 -247 0
-18 -198 -248 0
-19 -199 -249 0
-20 -200 -250 0
-61 -151 -191 0
-62 -152 -192 0
-63 -153 -193 0
-64 -154 -194 0
-65 -155 -195 0
-16 -51 -111 0
-17 -52 -112 0
-18 -53 -113 0
-19 -54 -114 0
-20 -55 -115 0
-111 -221 -236 0
-112 -222 -237 0
-113 -223 -238 0
-114 -224 -239 0
-115 -225 -240 0
-76 -81 -101 0
-77 -82 -102 0
-78 -83 -103 0
-79 -84 -104 0
-80 -85 -105 0
-106 -201 -231 0
-107 -202 -232 0
-108 -203 -233 0
-109 -204 -234 0
-110 -205 -235 0
-151 -181 -191 0
-152 -182 -192 0
-153 -183 -193 0
-154 -184 -194 0
-155 -185 -195 0
-26 -146 -161 0
-27 -147 -162 0
-28 -148 -163 0
-29 -149 -164 0
-30 -150 -165 0
-111 -181 -241 0
-112 -182 -242 0
-113 -183 -243 0
-114 -184 -244 0
-115 -185 -245 0
-111 -141 -221 0
-112 -142 -222 0
-113 -143 -223 0
-114 -144 -224 0
-115 -145 -225 0
-121 -236 -251 0
-122 -237 -252 0
-123 -238 -253 0
-124 -239 -254 0
-125 -240 -255 0
-71 -116 -161 0
-72 -117 -162 0
-73 -118 -163 0
-74 -119 -164 0
-75 -120 -165 0
-46 -106 -251 0
-47 -107 -252 0
-48 -108 -253 0
-49 -109 -254 0
-50 -110 -255 0
-16 -81 -186 0
-17 -82 -187 0
-18 -83 -188 0
-19 -84 -189 0
-20 -85 -190 0
-51 -76 -216 0
-52 -77 -217 0
-53 -78 -218 0
-54 -79 -219 0
-55 -80 -220 0
-56 -151 -236 0
-57 -152 -237 0
-58 -153 -238 0
-59 -154 -239 0
-60 -155 -240 0
-41 -106 -126 0
-42 -107 -127 0
-43 -108 -128 0
-44 -109 -129 0
-45 -110 -130 0
-151 -196 -241 0
-152 -197 -242 0
-153 -198 -243 0
-154 -199 -244 0
-155 -200 -245 0
-111 -161 -251 0
-112 -162 -252 0
-113 -163 -253 0
-114 -164 -254 0
-115 -165 -255 0
-41 -161 -201 0
-42 -162 -202 0
-43 -163 -203 0
-44 -164 -204 0
-45 -165 -205 0
-36 -131 -141 0
-37 -132 -142 0
-38 -133 -143 0
-39 -134 -144 0
-40 -135 -145 0
-41 -71 -111 0
-42 -72 -112 0
-43 -73 -113 0
-44 -74 -114 0
-45 -75 -115 0
-36 -126 -161 0
-37 -127 -162 0
-38 -128 -163 0
-39 -129 -164 0
-40 -130 -165 0
-1 -46 -51 0
-2 -47 -52 0
-3 -48 -53 0
-4 -49 -54 0
-5 -50 -55 0
-26 -181 -241 0
-27 -182 -242 0
-28 -183 -243 0
-29 -184 -244 0
-30 -185 -245 0
-21 -161 -236 0
-22 -162 -237 0
-23 -163 -238 0
-24 -164 -239 0
-25 -165 -240 0
-81 -191 -226 0
-82 -192 -227 0
-83 -193 -228 0
-84 -194 -229 0
-85 -195 -230 0
-36 -91 -146 0
-37 -92 -147 0
-38 -93 -148 0
-39 -94 -149 0
-40 -95 -150 0
-1 -211 -216 0
-2 -212 -217 0
-3 -213 -218 0
-4 -214 -219 0
-5 -215 -220 0
-126 -186 -221 0
-127 -187 -222 0
-128 -188 -223 0
-129 -189 -224 0
-130 -190 -225 0
-136 -146 -196 0
-137 -147 -197 0
-138 -148 -198 0
-139 -149 -199 0
-140 -150 -200 0
-6 -26 -61 0
-7 -27 -62 0
-8 -28 -63 0
-9 -29 -64 0
-10 -30 -65 0
-6 -121 -126 0
-7 -122 -127 0
-8 -123 -128 0
-9 -124 -129 0
-10 -125 -130 0
-26 -106 -206 0
-27 -107 -207 0
-28 -108 -208 0
-29 -109 -209 0
-30 -110 -210 0
-41 -86 -161 0
-42 -87 -162 0
-43 -88 -163 0
-44 -89 -164 0
-45 -90 -165 0
-26 -66 -186 0
-27 -67 -187 0
-28 -68 -188 0
-29 -69 -189 0
-30 -70 -190 0
-21 -86 -201 0
-22 -87 -202 0
-23 -88 -203 0
-24 -89 -204 0
-25 -90 -205 0
-51 -131 -146 0
-52 -132 -147 0
-53 -133 -148 0
-54 -134 -149 0
-55 -135 -150 0
-76 -96 -216 0
-77 -97 -217 0
-78 -98 -218 0
-79 -99 -219 0
-80 -100 -220 0
-136 -166 -226 0
-137 -167 -227 0
-138 -168 -228 0
-139 -169 -229 0
-140 -170 -230 0
-1 -26 -86 0
-2 -27 -87 0
-3 -28 -88 0
-4 -29 -89 0
-5 -30 -90 0
-51 -201 -246 0
-52 -202 -247 0
-53 -203 -248 0
-54 -204 -249 0
-55 -205 -250 0
-26 -31 -166 0
-27 -32 -167 0
-28 -33 -168 0
-29 -34 -169 0
-30 -35 -170 0
-1 -191 -251 0
-2 -192 -252 0
-3 -193 -253 0
-4 -194 -254 0
-5 -195 -255 0
-51 -106 -176 0
-52 -107 -177 0
-53 -108 -178 0
-54 -109 -179 0
-55 -110 -180 0
-111 -176 -186 0
-112 -177 -187 0
-113 -178 -188 0
-114 -179 -189 0
-115 -180 -190 0
-36 -141 -251 0
-37 -142 -252 0
-38 -143 -253 0
-39 -144 -254 0
-40 -145 -255 0
-76 -91 -96 0
-77 -92 -97 0
-78 -93 -98 0
-79 -94 -99 0
-80 -95 -100 0
-101 -136 -206 0
-102 -137 -207 0
-103 -138 -208 0
-104 -139 -209 0
-105 -140 -210 0
-161 -206 -216 0
-162 -207 -217 0
-163 -208 -218 0
-164 -209 -219 0
-165 -210 -220 0
-61 -206 -211 0
-62 -207 -212 0
-63 -208 -213 0
-64 -209 -214 0
-65 -210 -215 0
-61 -71 -126 0
-62 -72 -127 0
-63 -73 -128 0
-64 -74 -129 0
-65 -75 -130 0
-161 -166 -196 0
-162 -167 -197 0
-163 -168 -198 0
-164 -169 -199 0
-165 -170 -200 0
-141 -166 -236 0
-142 -167 -237 0
-143 -168 -238 0
-144 -169 -239 0
-145 -170 -240 0
-46 -186 -241 0
-47 -187 -242 0
-48 -188 -243 0
-49 -189 -244 0
-50 -190 -245 0
-156 -191 -211 0
-157 -192 -212 0
-158 -193 -213 0
-159 -194 -214 0
-160 -195 -215 0
-161 -186 -226 0
-162 -187 -227 0
-163 -188 -228 0
-164 -189 -229 0
-165 -190 -230 0
-51 -91 -191 0
-52 -92 -192 0
-53 -93 -193 0
-54 -94 -194 0
-55 -95 -195 0
-151 -211 -216 0
-152 -212 -217 0
-153 -213 -218 0
-154 -214 -219 0
-155 -215 -220 0
-56 -96 -136 0
-57 -97 -137 0
-58 -98 -138 0
-59 -99 -139 0
-60 -100 -140 0
-11 -101 -171 0
-12 -102 -172 0
-13 -103 -173 0
-14 -104 -174 0
-15 -105 -175 0
-26 -236 -241 0
-27 -237 -242 0
-28 -238 -243 0
-29 -239 -244 0
-30 -240 -245 0
-26 -196 -221 0
-27 -197 -222 0
-28 -198 -223 0
-29 -199 -224 0
-30 -200 -225 0
-96 -136 -251 0
-97 -137 -252 0
-98 -138 -253 0
-99 -139 -254 0
-100 -140 -255 0
-26 -46 -106 0
-27 -47 -107 0
-28 -48 -108 0
-29 -49 -109 0
-30 -50 -110 0
-21 -66 -121 0
-22 -67 -122 0
-23 -68 -123 0
-24 -69 -124 0
-25 -70 -125 0
-116 -236 -246 0
-117 -237 -247 0
-118 -238 -248 0
-119 -239 -249 0
-120 -240 -250 0
-11 -176 -246 0
-12 -177 -247 0
-13 -178 -248 0
-14 -179 -249 0
-15 -180 -250 0
-166 -171 -211 0
-167 -172 -212 0
-168 -173 -213 0
-169 -174 -214 0
-170 -175 -215 0
-31 -136 -216 0
-32 -137 -217 0
-33 -138 -218 0
-34 -139 -219 0
-35 -140 -220 0
-171 -206 -246 0
-172 -207 -247 0
-173 -208 -248 0
-174 -209 -249 0
-175 -210 -250 0
-26 -66 -136 0
-27 -67 -137 0
-28 -68 -138 0
-29 -69 -139 0
-30 -70 -140 0
-121 -181 -221 0
-122 -182 -222 0
-123 -183 -223 0
-124 -184 -224 0
-125 -185 -225 0
-116 -146 -181 0
-117 -147 -182 0
-118 -148 -183 0
-119 -149 -184 0
-120 -150 -185 0
-21 -31 -101 0
-22 -32 -102 0
-23 -33 -103 0
-24 -34 -104 0
-25 -35 -105 0
-6 -151 -156 0
-7 -152 -157 0
-8 -153 -158 0
-9 -154 -159 0
-10 -155 -160 0
-41 -116 -191 0
-42 -117 -192 0
-43 -118 -193 0
-44 -119 -194 0
-45 -120 -195 0
-1 -131 -151 0
-2 -132 -152 0
-3 -133 -153 0
-4 -134 -154 0
-5 -135 -155 0
-16 -36 -201 0
-17 -37 -202 0
-18 -38 -203 0
-19 -39 -204 0
-20 -40 -205 0
-86 -206 -251 0
-87 -207 -252 0
-88 -208 -253 0
-89 -209 -254 0
-90 -210 -255 0
-36 -121 -171 0
-37 -122 -172 0
-38 -123 -173 0
-39 -124 -174 0
-40 -125 -175 0
-116 -161 -236 0
-117 -162 -237 0
-118 -163 -238 0
-119 -164 -239 0
-120 -165 -240 0
-6 -96 -106 0
-7 -97 -107 0
-8 -98 -108 0
-9 -99 -109 0
-10 -100 -110 0
-121 -156 -251 0
-122 -157 -252 0
-123 -158 -253 0
-124 -159 -254 0
-125 -160 -255 0
-51 -106 -126 0
-52 -107 -127 0
-53 -108 -128 0
-54 -109 -129 0
-55 -110 -130 0
-146 -181 -191 0
-147 -182 -192 0
-148 -183 -193 0
-149 -184 -194 0
-150 -185 -195 0
-126 -181 -231 0
-127 -182 -232 0
-128 -183 -233 0
-129 -184 -234 0
-130 -185 -235 0
-141 -166 -186 0
-142 -167 -187 0
-143 -168 -188 0
-144 -169 -189 0
-145 -170 -190 0
-36 -116 -236 0
-37 -117 -237 0
-38 -118 -238 0
-39 -119 -239 0
-40 -120 -240 0
-161 -181 -201 0
-162 -182 -202 0
-163 -183 -203 0
-164 -184 -204 0
-165 -185 -205 0
-51 -181 -231 0
-52 -182 -232 0
-53 -183 -233 0
-54 -184 -234 0
-55 -185 -235 0
-76 -86 -246 0
-77 -87 -247 0
-78 -88 -248 0
-79 -89 -249 0
-80 -90 -250 0
-91 -231 -246 0
-92 -232 -247 0
-93 -233 -248 0
-94 -234 -249 0
-95 -235 -250 0
-66 -81 -146 0
-67 -82 -147 0
-68 -83 -148 0
-69 -84 -149 0
-70 -85 -150 0
-86 -106 -246 0
-87 -107 -247 0
-88 -108 -248 0
-89 -109 -249 0
-90 -110 -250 0
-111 -211 -221 0
-112 -212 -222 0
-113 -213 -223 0
-114 -214 -224 0
-115 -215 -225 0
-61 -126 -146 0
-62 -127 -147 0
-63 -128 -148 0
-64 -129 -149 0
-65 -130 -150 0
-11 -101 -121 0
-12 -102 -122 0
-13 -103 -123 0
-14 -104 -124 0
-15 -105 -125 0
-161 -241 -251 0
-162 -242 -252 0
-163 -243 -253 0
-164 -244 -254 0
-165 -245 -255 0
-61 -241 -246 0
-62 -242 -247 0
-63 -243 -248 0
-64 -244 -249 0
-65 -245 -250 0
-66 -126 -171 0
-67 -127 -172 0
-68 -128 -173 0
-69 -129 -174 0
-70 -130 -175 0
-146 -161 -226 0
-147 -162 -227 0
-148 -163 -228 0
-149 -164 -229 0
-150 -165 -230 0
-11 -116 -146 0
-12 -117 -147 0
-13 -118 -148 0
-14 -119 -149 0
-15 -120 -150 0
-21 -61 -246 0
-22 -62 -247 0
-23 -63 -248 0
-24 -64 -249 0
-25 -65 -250 0
-11 -121 -151 0
-12 -122 -152 0
-13 -123 -153 0
-14 -124 -154 0
-15 -125 -155 0
-16 -61 -121 0
-17 -62 -122 0
-18 -63 -123 0
-19 -64 -124 0
-20 -65 -125 0
-111 -136 -181 0
-112 -137 -182 0
-113 -138 -183 0
-114 -139 -184 0
-115 -140 -185 0
-101 -106 -251 0
-102 -107 -252 0
-103 -108 -253 0
-104 -109 -254 0
-105 -110 -255 0
-61 -121 -211 0
-62 -122 -212 0
-63 -123 -213 0
-64 -124 -214 0
-65 -125 -215 0
-21 -231 -236 0
-22 -232 -237 0
-23 -233 -238 0
-24 -234 -239 0
-25 -235 -240 0
-91 -121 -191 0
-92 -122 -192 0
-93 -123 -193 0
-94 -124 -194 0
-95 -125 -195 0
-71 -221 -241 0
-72 -222 -242 0
-73 -223 -243 0
-74 -224 -244 0
-75 -225 -245 0
-56 -76 -121 0
-57 -77 -122 0
-58 -78 -123 0
-59 -79 -124 0
-60 -80 -125 0
-76 -241 -251 0
-77 -242 -252 0
-78 -243 -253 0
-79 -244 -254 0
-80 -245 -255 0
-21 -136 -166 0
-22 -137 -167 0
-23 -138 -168 0
-24 -139 -169 0
-25 -140 -170 0
-91 -96 -226 0
-92 -97 -227 0
-93 -98 -228 0
-94 -99 -229 0
-95 -100 -230 0
-106 -131 -226 0
-107 -132 -227 0
-108 -133 -228 0
-109 -134 -229 0
-110 -135 -230 0
-26 -121 -156 0
-27 -122 -157 0
-28 -123 -158 0
-29 -124 -159 0
-30 -125 -160 0
-86 -166 -181 0
-87 -167 -182 0
-88 -168 -183 0
-89 -169 -184 0
-90 -170 -185 0
-26 -81 -136 0
-27 -82 -137 0
-28 -83 -138 0
-29 -84 -139 0
-30 -85 -140 0
-41 -81 -126 0
-42 -82 -127 0
-43 -83 -128 0
-44 -84 -129 0
-45 -85 -130 0
-86 -111 -131 0
-87 -112 -132 0
-88 -113 -133 0
-89 -114 -134 0
-90 -115 -135 0
-106 -136 -231 0
-107 -137 -232 0
-108 -138 -233 0
-109 -139 -234 0
-110 -140 -235 0
-56 -111 -206 0
-57 -112 -207 0
-58 -113 -208 0
-59 -114 -209 0
-60 -115 -210 0
-1 -146 -151 0
-2 -147 -152 0
-3 -148 -153 0
-4 -149 -154 0
-5 -150 -155 0
-31 -91 -206 0
-32 -92 -207 0
-33 -93 -208 0
-34 -94 -209 0
-35 -95 -210 0
-76 -141 -246 0
-77 -142 -247 0
-78 -143 -248 0
-79 -144 -249 0
-80 -145 -250 0
-36 -156 -206 0
-37 -157 -207 0
-38 -158 -208 0
-39 -159 -209 0
-40 -160 -210 0
-1 -51 -81 0
-2 -52 -82 0
-3 -53 -83 0
-4 -54 -84 0
-5 -55 -85 0
-36 -101 -156 0
-37 -102 -157 0
-38 -103 -158 0
-39 -104 -159 0
-40 -105 -160 0
-6 -76 -91 0
-7 -77 -92 0
-8 -78 -93 0
-9 -79 -94 0
-10 -80 -95 0
-1 -16 -66 0
-2 -17 -67 0
-3 -18 -68 0
-4 -19 -69 0
-5 -20 -70 0
-26 -116 -216 0
-27 -117 -217 0
-28 -118 -218 0
-29 -119 -219 0
-30 -120 -220 0
-81 -111 -176 0
-82 -112 -177 0
-83 -113 -178 0
-84 -114 -179 0
-85 -115 -180 0
-66 -86 -101 0
-67 -87 -102 0
-68 -88 -103 0
-69 -89 -104 0
-70 -90 -105 0
-91 -116 -141 0
-92 -117 -142 0
-93 -118 -143 0
-94 -119 -144 0
-95 -120 -145 0
-1 -21 -71 0
-2 -22 -72 0
-3 -23 -73 0
-4 -24 -74 0
-5 -25 -75 0
-1 -181 -231 0
-2 -182 -232 0
-3 -183 -233 0
-4 -184 -234 0
-5 -185 -235 0
-66 -96 -146 0
-67 -97 -147 0
-68 -98 -148 0
-69 -99 -149 0
-70 -100 -150 0
-11 -26 -36 0
-12 -27 -37 0
-13 -28 -38 0
-14 -29 -39 0
-15 -30 -40 0
-11 -186 -196 0
-12 -187 -197 0
-13 -188 -198 0
-14 -189 -199 0
-15 -190 -200 0
-51 -66 -121 0
-52 -67 -122 0
-53 -68 -123 0
-54 -69 -124 0
-55 -70 -125 0
-6 -206 -241 0
-7 -207 -242 0
-8 -208 -243 0
-9 -209 -244 0
-10 -210 -245 0
-141 -201 -216 0
-142 -202 -217 0
-143 -203 -218 0
-144 -204 -219 0
-145 -205 -220 0
-61 -216 -226 0
-62 -217 -227 0
-63 -218 -228 0
-64 -219 -229 0
-65 -220 -230 0
-161 -176 -211 0
-162 -177 -212 0
-163 -178 -213 0
-164 -179 -214 0
-165 -180 -215 0
-11 -191 -201 0
-12 -192 -202 0
-13 -193 -203 0
-14 -194 -204 0
-15 -195 -205 0
-21 -36 -226 0
-22 -37 -227 0
-23 -38 -228 0
-24 -39 -229 0
-25 -40 -230 0
-81 -106 -236 0
-82 -107 -237 0
-83 -108 -238 0
-84 -109 -239 0
-85 -110 -240 0
-161 -181 -216 0
-162 -182 -217 0
-163 -183 -218 0
-164 -184 -219 0
-165 -185 -220 0
-16 -181 -236 0
-17 -182 -237 0
-18 -183 -238 0
-19 -184 -239 0
-20 -185 -240 0
-141 -176 -246 0
-142 -177 -247 0
-143 -178 -248 0
-144 -179 -249 0
-145 -180 -250 0
-56 -186 -191 0
-57 -187 -192 0
-58 -188 -193 0
-59 -189 -194 0
-60 -190 -195 0
-106 -131 -176 0
-107 -132 -177 0
-108 -133 -178 0
-109 -134 -179 0
-110 -135 -180 0
-56 -106 -151 0
-57 -107 -152 0
-58 -108 -153 0
-59 -109 -154 0
-60 -110 -155 0
-11 -206 -251 0
-12 -207 -252 0
-13 -208 -253 0
-14 -209 -254 0
-15 -210 -255 0
-41 -186 -191 0
-42 -187 -192 0
-43 -188 -193 0
-44 -189 -194 0
-45 -190 -195 0
-76 -121 -166 0
-77 -122 -167 0
-78 -123 -168 0
-79 -124 -169 0
-80 -125 -170 0
-31 -76 -131 0
-32 -77 -132 0
-33 -78 -133 0
-34 -79 -134 0
-35 -80 -135 0
-21 -211 -221 0
-22 -212 -222 0
-23 -213 -223 0
-24 -214 -224 0
-25 -215 -225 0
-56 -176 -251 0
-57 -177 -252 0
-58 -178 -253 0
-59 -179 -254 0
-60 -180 -255 0
-56 -71 -136 0
-57 -72 -137 0
-58 -73 -138 0
-59 -74 -139 0
-60 -75 -140 0
-151 -186 -216 0
-152 -187 -217 0
-153 -188 -218 0
-154 -189 -219 0
-155 -190 -220 0
-31 -131 -176 0
-32 -132 -177 0
-33 -133 -178 0
-34 -134 -179 0
-35 -135 -180 0
-41 -91 -121 0
-42 -92 -122 0
-43 -93 -123 0
-44 -94 -124 0
-45 -95 -125 0
-36 -76 -251 0
-37 -77 -252 0
-38 -78 -253 0
-39 -79 -254 0
-40 -80 -255 0
-31 -91 -156 0
-32 -92 -157 0
-33 -93 -158 0
-34 -94 -159 0
-35 -95 -160 0
-121 -186 -231 0
-122 -187 -232 0
-123 -188 -233 0
-124 -189 -234 0
-125 -190 -235 0
-26 -136 -156 0
-27 -137 -157 0
-28 -138 -158 0
-29 -139 -159 0
-30 -140 -160 0
-51 -61 -206 0
-52 -62 -207 0
-53 -63 -208 0
-54 -64 -209 0
-55 -65 -210 0
-111 -171 -236 0
-112 -172 -237 0
-113 -173 -238 0
-114 -174 -239 0
-115 -175 -240 0
-41 -96 -126 0
-42 -97 -127 0
-43 -98 -128 0
-44 -99 -129 0
-45 -100 -130 0
-111 -131 -216 0
-112 -132 -217 0
-113 -133 -218 0
-114 -134 -219 0
-115 -135 -220 0
-31 -41 -111 0
-32 -42 -112 0
-33 -43 -113 0
-34 -44 -114 0
-35 -45 -115 0
-116 -156 -196 0
-117 -157 -197 0
-118 -158 -198 0
-119 -159 -199 0
-120 -160 -200 0
-21 -41 -116 0
-22 -42 -117 0
-23 -43 -118 0
-24 -44 -119 0
-25 -45 -120 0
-81 -111 -126 0
-82 -112 -127 0
-83 -113 -128 0
-84 -114 -129 0
-85 -115 -130 0
-86 -196 -231 0
-87 -197 -232 0
-88 -198 -233 0
-89 -199 -234 0
-90 -200 -235 0
-6 -51 -76 0
-7 -52 -77 0
-8 -53 -78 0
-9 -54 -79 0
-10 -55 -80 0
-6 -106 -121 0
-7 -107 -122 0
-8 -108 -123 0
-9 -109 -124 0
-10 -110 -125 0
-136 -186 -236 0
-137 -187 -237 0
-138 -188 -238 0
-139 -189 -239 0
-140 -190 -240 0
-46 -56 -251 0
-47 -57 -252 0
-48 -58 -253 0
-49 -59 -254 0
-50 -60 -255 0
-41 -71 -156 0
-42 -72 -157 0
-43 -73 -158 0
-44 -74 -159 0
-45 -75 -160 0
-6 -161 -166 0
-7 -162 -167 0
-8 -163 -168 0
-9 -164 -169 0
-10 -165 -170 0
-21 -111 -216 0
-22 -112 -217 0
-23 -113 -218 0
-24 -114 -219 0
-25 -115 -220 0
-81 -221 -246 0
-82 -222 -247 0
-83 -223 -248 0
-84 -224 -249 0
-85 -225 -250 0
-31 -126 -236 0
-32 -127 -237 0
-33 -128 -238 0
-34 -129 -239 0
-35 -130 -240 0
-51 -156 -161 0
-52 -157 -162 0
-53 -158 -163 0
-54 -159 -164 0
-55 -160 -165 0
-36 -136 -191 0
-37 -137 -192 0
-38 -138 -193 0
-39 -139 -194 0
-40 -140 -195 0
-6 -31 -86 0
-7 -32 -87 0
-8 -33 -88 0
-9 -34 -89 0
-10 -35 -90 0
-31 -76 -196 0
-32 -77 -197 0
-33 -78 -198 0
-34 -79 -199 0
-35 -80 -200 0
-6 -126 -151 0
-7 -127 -152 0
-8 -128 -153 0
-9 -129 -154 0
-10 -130 -155 0
-71 -86 -191 0
-72 -87 -192 0
-73 -88 -193 0
-74 -89 -194 0
-75 -90 -195 0
-1 -106 -146 0
-2 -107 -147 0
-3 -108 -148 0
-4 -109 -149 0
-5 -110 -150 0
-51 -176 -191 0
-52 -177 -192 0
-53 -178 -193 0
-54 -179 -194 0
-55 -180 -195 0
-66 -221 -241 0
-67 -222 -242 0
-68 -223 -243 0
-69 -224 -244 0
-70 -225 -245 0
-126 -191 -241 0
-127 -192 -242 0
-128 -193 -243 0
-129 -194 -244 0
-130 -195 -245 0
-6 -196 -251 0
-7 -197 -252 0
-8 -198 -253 0
-9 -199 -254 0
-10 -200 -255 0
-16 -91 -101 0
-17 -92 -102 0
-18 -93 -103 0
-19 -94 -104 0
-20 -95 -105 0
-81 -146 -206 0
-82 -147 -207 0
-83 -148 -208 0
-84 -149 -209 0
-85 -150 -210 0
-51 -121 -141 0
-52 -122 -142 0
-53 -123 -143 0
-54 -124 -144 0
-55 -125 -145 0
-51 -186 -236 0
-52 -187 -237 0
-53 -188 -238 0
-54 -189 -239 0
-55 -190 -240 0
-16 -141 -166 0
-17 -142 -167 0
-18 -143 -168 0
-19 -144 -169 0
-20 -145 -170 0
-26 -71 -236 0
-27 -72 -237 0
-28 -73 -238 0
-29 -74 -239 0
-30 -75 -240 0
-131 -176 -231 0
-132 -177 -232 0
-133 -178 -233 0
-134 -179 -234 0
-135 -180 -235 0
-31 -51 -226 0
-32 -52 -227 0
-33 -53 -228 0
-34 -54 -229 0
-35 -55 -230 0
-46 -171 -236 0
-47 -172 -237 0
-48 -173 -238 0
-49 -174 -239 0
-50 -175 -240 0
-16 -146 -171 0
-17 -147 -172 0
-18 -148 -173 0
-19 -149 -174 0
-20 -150 -175 0
-21 -51 -226 0
-22 -52 -227 0
-23 -53 -228 0
-24 -54 -229 0
-25 -55 -230 0
-11 -111 -131 0
-12 -112 -132 0
-13 -113 -133 0
-14 -114 -134 0
-15 -115 -135 0
-71 -81 -251 0
-72 -82 -252 0
-73 -83 -253 0
-74 -84 -254 0
-75 -85 -255 0
-61 -116 -171 0
-62 -117 -172 0
-63 -118 -173 0
-64 -119 -174 0
-65 -120 -175 0
-26 -76 -236 0
-27 -77 -237 0
-28 -78 -238 0
-29 -79 -239 0
-30 -80 -240 0
-111 -226 -236 0
-112 -227 -237 0
-113 -228 -238 0
-114 -229 -239 0
-115 -230 -240 0
-11 -186 -211 0
-12 -187 -212 0
-13 -188 -213 0
-14 -189 -214 0
-15 -190 -215 0
-96 -106 -191 0
-97 -107 -192 0
-98 -108 -193 0
-99 -109 -194 0
-100 -110 -195 0
-146 -151 -251 0
-147 -152 -252 0
-148 -153 -253 0
-149 -154 -254 0
-150 -155 -255 0
-56 -81 -131 0
-57 -82 -132 0
-58 -83 -133 0
-59 -84 -134 0
-60 -85 -135 0
-11 -221 -251 0
-12 -222 -252 0
-13 -223 -253 0
-14 -224 -254 0
-15 -225 -255 0
-141 -196 -251 0
-142 -197 -252 0
-143 -198 -253 0
-144 -199 -254 0
-145 -200 -255 0
-31 -201 -226 0
-32 -202 -227 0
-33 -203 -228 0
-34 -204 -229 0
-35 -205 -230 0
-26 -111 -141 0
-27 -112 -142 0
-28 -113 -143 0
-29 -114 -144 0
-30 -115 -145 0
-56 -191 -251 0
-57 -192 -252 0
-58 -193 -253 0
-59 -194 -254 0
-60 -195 -255 0
-161 -171 -246 0
-162 -172 -247 0
-163 -173 -248 0
-164 -174 -249 0
-165 -175 -250 0
-96 -126 -221 0
-97 -127 -222 0
-98 -128 -223 0
-99 -129 -224 0
-100 -130 -225 0
-121 -201 -231 0
-122 -202 -232 0
-123 -203 -233 0
-124 -204 -234 0
-125 -205 -235 0
-86 -156 -161 0
-87 -157 -162 0
-88 -158 -163 0
-89 -159 -164 0
-90 -160 -165 0
-26 -131 -171 0
-27 -132 -172 0
-28 -133 -173 0
-29 -134 -174 0
-30 -135 -175 0
-21 -151 -186 0
-22 -152 -187 0
-23 -153 -188 0
-24 -154 -189 0
-25 -155 -190 0
-31 -71 -141 0
-32 -72 -142 0
-33 -73 -143 0
-34 -74 -144 0
-35 -75 -145 0
-31 -166 -206 0
-32 -167 -207 0
-33 -168 -208 0
-34 -169 -209 0
-35 -170 -210 0
-121 -166 -216 0
-122 -167 -217 0
-123 -168 -218 0
-124 -169 -219 0
-125 -170 -220 0
-71 -181 -211 0
-72 -182 -212 0
-73 -183 -213 0
-74 -184 -214 0
-75 -185 -215 0
-76 -121 -181 0
-77 -122 -182 0
-78 -123 -183 0
-79 -124 -184 0
-80 -125 -185 0
-26 -36 -101 0
-27 -37 -102 0
-28 -38 -103 0
-29 -39 -104 0
-30 -40 -105 0
-6 -31 -36 0
-7 -32 -37 0
-8 -33 -38 0
-9 -34 -39 0
-10 -35 -40 0
-16 -101 -236 0
-17 -102 -237 0
-18 -103 -238 0
-19 -104 -239 0
-20 -105 -240 0
-81 -86 -106 0
-82 -87 -107 0
-83 -88 -108 0
-84 -89 -109 0
-85 -90 -110 0
-91 -111 -241 0
-92 -112 -242 0
-93 -113 -243 0
-94 -114 -244 0
-95 -115 -245 0
-36 -96 -116 0
-37 -97 -117 0
-38 -98 -118 0
-39 -99 -119 0
-40 -100 -120 0
-56 -121 -216 0
-57 -122 -217 0
-58 -123 -218 0
-59 -124 -219 0
-60 -125 -220 0
-26 -161 -246 0
-27 -162 -247 0
-28 -163 -248 0
-29 -164 -249 0
-30 -165 -250 0
-1 -156 -161 0
-2 -157 -162 0
-3 -158 -163 0
-4 -159 -164 0
-5 -160 -165 0
-21 -36 -126 0
-22 -37 -127 0
-23 -38 -128 0
-24 -39 -129 0
-25 -40 -130 0
-81 -211 -251 0
-82 -212 -252 0
-83 -213 -253 0
-84 -214 -254 0
-85 -215 -255 0
-36 -111 -171 0
-37 -112 -172 0
-38 -113 -173 0
-39 -114 -174 0
-40 -115 -175 0
-136 -206 -241 0
-137 -207 -242 0
-138 -208 -243 0
-139 -209 -244 0
-140 -210 -245 0
-41 -51 -141 0
-42 -52 -142 0
-43 -53 -143 0
-44 -54 -144 0
-45 -55 -145 0
-6 -141 -151 0
-7 -142 -152 0
-8 -143 -153 0
-9 -144 -154 0
-10 -145 -155 0
-1 -26 -81 0
-2 -27 -82 0
-3 -28 -83 0
-4 -29 -84 0
-5 -30 -85 0
-1 -121 -146 0
-2 -122 -147 0
-3 -123 -148 0
-4 -124 -149 0
-5 -125 -150 0
-21 -146 -246 0
-22 -147 -247 0
-23 -148 -248 0
-24 -149 -249 0
-25 -150 -250 0
-31 -106 -221 0
-32 -107 -222 0
-33 -108 -223 0
-34 -109 -224 0
-35 -110 -225 0
-51 -136 -146 0
-52 -137 -147 0
-53 -138 -148 0
-54 -139 -149 0
-55 -140 -150 0
-51 -56 -106 0
-52 -57 -107 0
-53 -58 -108 0
-54 -59 -109 0
-55 -60 -110 0
-86 -156 -226 0
-87 -157 -227 0
-88 -158 -228 0
-89 -159 -229 0
-90 -160 -230 0
-146 -171 -191 0
-147 -172 -192 0
-148 -173 -193 0
-149 -174 -194 0
-150 -175 -195 0
-76 -116 -241 0
-77 -117 -242 0
-78 -118 -243 0
-79 -119 -244 0
-80 -120 -245 0
-131 -136 -186 0
-132 -137 -187 0
-133 -138 -188 0
-134 -139 -189 0
-135 -140 -190 0
-91 -166 -171 0
-92 -167 -172 0
-93 -168 -173 0
-94 -169 -174 0
-95 -170 -175 0
-126 -131 -206 0
-127 -132 -207 0
-128 -133 -208 0
-129 -134 -209 0
-130 -135 -210 0
-11 -126 -136 0
-12 -127 -137 0
-13 -128 -138 0
-14 -129 -139 0
-15 -130 -140 0
-51 -126 -201 0
-52 -127 -202 0
-53 -128 -203 0
-54 -129 -204 0
-55 -130 -205 0
-11 -141 -161 0
-12 -142 -162 0
-13 -143 -163 0
-14 -144 -164 0
-15 -145 -165 0
-61 -226 -241 0
-62 -227 -242 0
-63 -228 -243 0
-64 -229 -244 0
-65 -230 -245 0
-96 -121 -196 0
-97 -122 -197 0
-98 -123 -198 0
-99 -124 -199 0
-100 -125 -200 0
-11 -146 -166 0
-12 -147 -167 0
-13 -148 -168 0
-14 -149 -169 0
-15 -150 -170 0
-46 -151 -221 0
-47 -152 -222 0
-48 -153 -223 0
-49 -154 -224 0
-50 -155 -225 0
-21 -31 -211 0
-22 -32 -212 0
-23 -33 -213 0
-24 -34 -214 0
-25 -35 -215 0
-106 -141 -191 0
-107 -142 -192 0
-108 -143 -193 0
-109 -144 -194 0
-110 -145 -195 0
-21 -216 -231 0
-22 -217 -232 0
-23 -218 -233 0
-24 -219 -234 0
-25 -220 -235 0
-31 -231 -251 0
-32 -232 -252 0
-33 -233 -253 0
-34 -234 -254 0
-35 -235 -255 0
-51 -56 -171 0
-52 -57 -172 0
-53 -58 -173 0
-54 -59 -174 0
-55 -60 -175 0
-76 -81 -111 0
-77 -82 -112 0
-78 -83 -113 0
-79 -84 -114 0
-80 -85 -115 0
-31 -181 -211 0
-32 -182 -212 0
-33 -183 -213 0
-34 -184 -214 0
-35 -185 -215 0
-106 -156 -241 0
-107 -157 -242 0
-108 -158 -243 0
-109 -159 -244 0
-110 -160 -245 0
-71 -246 -251 0
-72 -247 -252 0
-73 -248 -253 0
-74 -249 -254 0
-75 -250 -255 0
-116 -241 -246 0
-117 -242 -247 0
-118 -243 -248 0
-119 -244 -249 0
-120 -245 -250 0
-116 -201 -226 0
-117 -202 -227 0
-118 -203 -228 0
-119 -204 -229 0
-120 -205 -230 0
-16 -66 -171 0
-17 -67 -172 0
-18 -68 -173 0
-19 -69 -174 0
-20 -70 -175 0
-41 -196 -226 0
-42 -197 -227 0
-43 -198 -228 0
-44 -199 -229 0
-45 -200 -230 0
-31 -156 -241 0
-32 -157 -242 0
-33 -158 -243 0
-34 -159 -244 0
-35 -160 -245 0
-126 -166 -176 0
-127 -167 -177 0
-128 -168 -178 0
-129 -169 -179 0
-130 -170 -180 0
-1 -26 -31 0
-2 -27 -32 0
-3 -28 -33 0
-4 -29 -34 0
-5 -30 -35 0
-61 -131 -236 0
-62 -132 -237 0
-63 -133 -238 0
-64 -134 -239 0
-65 -135 -240 0
-31 -106 -171 0
-32 -107 -172 0
-33 -108 -173 0
-34 -109 -174 0
-35 -110 -175 0
-66 -71 -206 0
-67 -72 -207 0
-68 -73 -208 0
-69 -74 -209 0
-70 -75 -210 0
-86 -116 -156 0
-87 -117 -157 0
-88 -118 -158 0
-89 -119 -159 0
-90 -120 -160 0
-1 -46 -61 0
-2 -47 -62 0
-3 -48 -63 0
-4 -49 -64 0
-5 -50 -65 0
-16 -56 -226 0
-17 -57 -227 0
-18 -58 -228 0
-19 -59 -229 0
-20 -60 -230 0
-6 -61 -86 0
-7 -62 -87 0
-8 -63 -88 0
-9 -64 -89 0
-10 -65 -90 0
-26 -86 -186 0
-27 -87 -187 0
-28 -88 -188 0
-29 -89 -189 0
-30 -90 -190 0
-36 -181 -216 0
-37 -182 -217 0
-38 -183 -218 0
-39 -184 -219 0
-40 -185 -220 0
-1 -41 -81 0
-2 -42 -82 0
-3 -43 -83 0
-4 -44 -84 0
-5 -45 -85 0
-6 -116 -131 0
-7 -117 -132 0
-8 -118 -133 0
-9 -119 -134 0
-10 -120 -135 0
-26 -141 -231 0
-27 -142 -232 0
-28 -143 -233 0
-29 -144 -234 0
-30 -145 -235 0
-6 -176 -186 0
-7 -177 -187 0
-8 -178 -188 0
-9 -179 -189 0
-10 -180 -190 0
-31 -81 -201 0
-32 -82 -202 0
-33 -83 -203 0
-34 -84 -204 0
-35 -85 -205 0
-1 -196 -201 0
-2 -197 -202 0
-3 -198 -203 0
-4 -199 -204 0
-5 -200 -205 0
-116 -131 -191 0
-117 -132 -192 0
-118 -133 -193 0
-119 -134 -194 0
-120 -135 -195 0
-6 -121 -136 0
-7 -122 -137 0
-8 -123 -138 0
-9 -124 -139 0
-10 -125 -140 0
-26 -146 -236 0
-27 -147 -237 0
-28 -148 -238 0
-29 -149 -239 0
-30 -150 -240 0
-1 -206 -246 0
-2 -207 -247 0
-3 -208 -248 0
-4 -209 -249 0
-5 -210 -250 0
-26 -66 -196 0
-27 -67 -197 0
-28 -68 -198 0
-29 -69 -199 0
-30 -70 -200 0
-31 -46 -186 0
-32 -47 -187 0
-33 -48 -188 0
-34 -49 -189 0
-35 -50 -190 0
-1 -116 -156 0
-2 -117 -157 0
-3 -118 -158 0
-4 -119 -159 0
-5 -120 -160 0
-16 -136 -156 0
-17 -137 -157 0
-18 -138 -158 0
-19 -139 -159 0
-20 -140 -160 0
-91 -141 -151 0
-92 -142 -152 0
-93 -143 -153 0
-94 -144 -154 0
-95 -145 -155 0
-41 -101 -226 0
-42 -102 -227 0
-43 -103 -228 0
-44 -104 -229 0
-45 -105 -230 0
-46 -71 -131 0
-47 -72 -132 0
-48 -73 -133 0
-49 -74 -134 0
-50 -75 -135 0
-91 -201 -206 0
-92 -202 -207 0
-93 -203 -208 0
-94 -204 -209 0
-95 -205 -210 0
-146 -221 -246 0
-147 -222 -247 0
-148 -223 -248 0
-149 -224 -249 0
-150 -225 -250 0
-126 -151 -211 0
-127 -152 -212 0
-128 -153 -213 0
-129 -154 -214 0
-130 -155 -215 0
-16 -101 -136 0
-17 -102 -137 0
-18 -103 -138 0
-19 -104 -139 0
-20 -105 -140 0
-46 -86 -181 0
-47 -87 -182 0
-48 -88 -183 0
-49 -89 -184 0
-50 -90 -185 0
-16 -61 -116 0
-17 -62 -117 0
-18 -63 -118 0
-19 -64 -119 0
-20 -65 -120 0
-91 -176 -236 0
-92 -177 -237 0
-93 -178 -238 0
-94 -179 -239 0
-95 -180 -240 0
-41 -66 -206 0
-42 -67 -207 0
-43 -68 -208 0
-44 -69 -209 0
-45 -70 -210 0
-96 -156 -226 0
-97 -157 -227 0
-98 -158 -228 0
-99 -159 -229 0
-100 -160 -230 0
-96 -116 -206 0
-97 -117 -207 0
-98 -118 -208 0
-99 -119 -209 0
-100 -120 -210 0
-61 -111 -156 0
-62 -112 -157 0
-63 -113 -158 0
-64 -114 -159 0
-65 -115 -160 0
-51 -71 -171 0
-52 -72 -172 0
-53 -73 -173 0
-54 -74 -174 0
-55 -75 -175 0
-11 -181 -196 0
-12 -182 -197 0
-13 -183 -198 0
-14 -184 -199 0
-15 -185 -200 0
-11 -31 -81 0
-12 -32 -82 0
-13 -33 -83 0
-14 -34 -84 0
-15 -35 -85 0
-26 -126 -131 0
-27 -127 -132 0
-28 -128 -133 0
-29 -129 -134 0
-30 -130 -135 0
-26 -121 -151 0
-27 -122 -152 0
-28 -123 -153 0
-29 -124 -154 0
-30 -125 -155 0
-51 -86 -221 0
-52 -87 -222 0
-53 -88 -223 0
-54 -89 -224 0
-55 -90 -225 0
-41 -81 -121 0
-42 -82 -122 0
-43 -83 -123 0
-44 -84 -124 0
-45 -85 -125 0
-91 -116 -251 0
-92 -117 -252 0
-93 -118 -253 0
-94 -119 -254 0
-95 -120 -255 0
-56 -71 -181 0
-57 -72 -182 0
-58 -73 -183 0
-59 -74 -184 0
-60 -75 -185 0
-116 -141 -191 0
-117 -142 -192 0
-118 -143 -193 0
-119 -144 -194 0
-120 -145 -195 0
-121 -161 -201 0
-122 -162 -202 0
-123 -163 -203 0
-124 -164 -204 0
-125 -165 -205 0
-151 -171 -231 0
-152 -172 -232 0
-153 -173 -233 0
-154 -174 -234 0
-155 -175 -235 0
-36 -146 -151 0
-37 -147 -152 0
-38 -148 -153 0
-39 -149 -154 0
-40 -150 -155 0
-36 -106 -131 0
-37 -107 -132 0
-38 -108 -133 0
-39 -109 -134 0
-40 -110 -135 0
-31 -151 -251 0
-32 -152 -252 0
-33 -153 -253 0
-34 -154 -254 0
-35 -155 -255 0
-41 -46 -101 0
-42 -47 -102 0
-43 -48 -103 0
-44 -49 -104 0
-45 -50 -105 0
-81 -156 -171 0
-82 -157 -172 0
-83 -158 -173 0
-84 -159 -174 0
-85 -160 -175 0
-61 -66 -221 0
-62 -67 -222 0
-63 -68 -223 0
-64 -69 -224 0
-65 -70 -225 0
-81 -116 -151 0
-82 -117 -152 0
-83 -118 -153 0
-84 -119 -154 0
-85 -120 -155 0
-131 -186 -196 0
-132 -187 -197 0
-133 -188 -198 0
-134 -189 -199 0
-135 -190 -200 0
-41 -156 -221 0
-42 -157 -222 0
-43 -158 -223 0
-44 -159 -224 0
-45 -160 -225 0
-126 -166 -191 0
-127 -167 -192 0
-128 -168 -193 0
-129 -169 -194 0
-130 -170 -195 0
-81 -101 -121 0
-82 -102 -122 0
-83 -103 -123 0
-84 -104 -124 0
-85 -105 -125 0
-1 -131 -161 0
-2 -132 -162 0
-3 -133 -163 0
-4 -134 -164 0
-5 -135 -165 0
-36 -81 -161 0
-37 -82 -162 0
-38 -83 -163 0
-39 -84 -164 0
-40 -85 -165 0
-41 -61 -151 0
-42 -62 -152 0
-43 -63 -153 0
-44 -64 -154 0
-45 -65 -155 0
-6 -156 -171 0
-7 -157 -172 0
-8 -158 -173 0
-9 -159 -174 0
-10 -160 -175 0
-61 -86 -251 0
-62 -87 -252 0
-63 -88 -253 0
-64 -89 -254 0
-65 -90 -255 0
-81 -131 -201 0
-82 -132 -202 0
-83 -133 -203 0
-84 -134 -204 0
-85 -135 -205 0
-131 -146 -201 0
-132 -147 -202 0
-133 -148 -203 0
-134 -149 -204 0
-135 -150 -205 0
-141 -201 -211 0
-142 -202 -212 0
-143 -203 -213 0
-144 -204 -214 0
-145 -205 -215 0
-31 -76 -241 0
-32 -77 -242 0
-33 -78 -243 0
-34 -79 -244 0
-35 -80 -245 0
-66 -156 -191 0
-67 -157 -192 0
-68 -158 -193 0
-69 -159 -194 0
-70 -160 -195 0
-46 -156 -231 0
-47 -157 -232 0
-48 -158 -233 0
-49 -159 -234 0
-50 -160 -235 0
-46 -51 -116 0
-47 -52 -117 0
-48 -53 -118 0
-49 -54 -119 0
-50 -55 -120 0
-131 -166 -231 0
-132 -167 -232 0
-133 -168 -233 0
-134 -169 -234 0
-135 -170 -235 0
-106 -226 -241 0
-107 -227 -242 0
-108 -228 -243 0
-109 -229 -244 0
-110 -230 -245 0
-141 -221 -241 0
-142 -222 -242 0
-143 -223 -243 0
-144 -224 -244 0
-145 -225 -245 0
-16 -186 -211 0
-17 -187 -212 0
-18 -188 -213 0
-19 -189 -214 0
-20 -190 -215 0
-101 -111 -201 0
-102 -112 -202 0
-103 -113 -203 0
-104 -114 -204 0
-105 -115 -205 0
-51 -121 -186 0
-52 -122 -187 0
-53 -123 -188 0
-54 -124 -189 0
-55 -125 -190 0
-101 -166 -246 0
-102 -167 -247 0
-103 -168 -248 0
-104 -169 -249 0
-105 -170 -250 0
-31 -116 -121 0
-32 -117 -122 0
-33 -118 -123 0
-34 -119 -124 0
-35 -120 -125 0
-31 -41 -221 0
-32 -42 -222 0
-33 -43 -223 0
-34 -44 -224 0
-35 -45 -225 0
-106 -231 -246 0
-107 -232 -247 0
-108 -233 -248 0
-109 -234 -249 0
-110 -235 -250 0
-61 -126 -156 0
-62 -127 -157 0
-63 -128 -158 0
-64 -129 -159 0
-65 -130 -160 0
-76 -126 -141 0
-77 -127 -142 0
-78 -128 -143 0
-79 -129 -144 0
-80 -130 -145 0
-11 -101 -131 0
-12 -102 -132 0
-13 -103 -133 0
-14 -104 -134 0
-15 -105 -135 0
-101 -131 -231 0
-102 -132 -232 0
-103 -133 -233 0
-104 -134 -234 0
-105 -135 -235 0
-11 -21 -91 0
-12 -22 -92 0
-13 -23 -93 0
-14 -24 -94 0
-15 -25 -95 0
-106 -191 -221 0
-107 -192 -222 0
-108 -193 -223 0
-109 -194 -224 0
-110 -195 -225 0
-156 -206 -221 0
-157 -207 -222 0
-158 -208 -223 0
-159 -209 -224 0
-160 -210 -225 0
-41 -61 -216 0
-42 -62 -217 0
-43 -63 -218 0
-44 -64 -219 0
-45 -65 -220 0
-31 -186 -216 0
-32 -187 -217 0
-33 -188 -218 0
-34 -189 -219 0
-35 -190 -220 0
-91 -176 -251 0
-92 -177 -252 0
-93 -178 -253 0
-94 -179 -254 0
-95 -180 -255 0
-41 -136 -141 0
-42 -137 -142 0
-43 -138 -143 0
-44 -139 -144 0
-45 -140 -145 0
-61 -161 -241 0
-62 -162 -242 0
-63 -163 -243 0
-64 -164 -244 0
-65 -165 -245 0
-41 -96 -121 0
-42 -97 -122 0
-43 -98 -123 0
-44 -99 -124 0
-45 -100 -125 0
-36 -41 -231 0
-37 -42 -232 0
-38 -43 -233 0
-39 -44 -234 0
-40 -45 -235 0
-96 -111 -241 0
-97 -112 -242 0
-98 -113 -243 0
-99 -114 -244 0
-100 -115 -245 0
-121 -136 -181 0
-122 -137 -182 0
-123 -138 -183 0
-124 -139 -184 0
-125 -140 -185 0
-61 -81 -196 0
-62 -82 -197 0
-63 -83 -198 0
-64 -84 -199 0
-65 -85 -200 0
-81 -111 -121 0
-82 -112 -122 0
-83 -113 -123 0
-84 -114 -124 0
-85 -115 -125 0
-41 -156 -171 0
-42 -157 -172 0
-43 -158 -173 0
-44 -159 -174 0
-45 -160 -175 0
-46 -61 -226 0
-47 -62 -227 0
-48 -63 -228 0
-49 -64 -229 0
-50 -65 -230 0
-76 -106 -171 0
-77 -107 -172 0
-78 -108 -173 0
-79 -109 -174 0
-80 -110 -175 0
-116 -121 -176 0
-117 -122 -177 0
-118 -123 -178 0
-119 -124 -179 0
-120 -125 -180 0
-76 -126 -206 0
-77 -127 -207 0
-78 -128 -208 0
-79 -129 -209 0
-80 -130 -210 0
-116 -176 -221 0
-117 -177 -222 0
-118 -178 -223 0
-119 -179 -224 0
-120 -180 -225 0
-1 -36 -41 0
-2 -37 -42 0
-3 -38 -43 0
-4 -39 -44 0
-5 -40 -45 0
-136 -196 -216 0
-137 -197 -217 0
-138 -198 -218 0
-139 -199 -219 0
-140 -200 -220 0
-6 -21 -31 0
-7 -22 -32 0
-8 -23 -33 0
-9 -24 -34 0
-10 -25 -35 0
-21 -131 -241 0
-22 -132 -242 0
-23 -133 -243 0
-24 -134 -244 0
-25 -135 -245 0
-101 -161 -191 0
-102 -162 -192 0
-103 -163 -193 0
-104 -164 -194 0
-105 -165 -195 0
-81 -201 -251 0
-82 -202 -252 0
-83 -203 -253 0
-84 -204 -254 0
-85 -205 -255 0
-6 -16 -51 0
-7 -17 -52 0
-8 -18 -53 0
-9 -19 -54 0
-10 -20 -55 0
-66 -116 -121 0
-67 -117 -122 0
-68 -118 -123 0
-69 -119 -124 0
-70 -120 -125 0
-146 -156 -186 0
-147 -157 -187 0
-148 -158 -188 0
-149 -159 -189 0
-150 -160 -190 0
-1 -51 -91 0
-2 -52 -92 0
-3 -53 -93 0
-4 -54 -94 0
-5 -55 -95 0
-121 -131 -241 0
-122 -132 -242 0
-123 -133 -243 0
-124 -134 -244 0
-125 -135 -245 0
-41 -151 -231 0
-42 -152 -232 0
-43 -153 -233 0
-44 -154 -234 0
-45 -155 -235 0
-71 -106 -216 0
-72 -107 -217 0
-73 -108 -218 0
-74 -109 -219 0
-75 -110 -220 0
-76 -86 -206 0
-77 -87 -207 0
-78 -88 -208 0
-79 -89 -209 0
-80 -90 -210 0
-36 -61 -146 0
-37 -62 -147 0
-38 -63 -148 0
-39 -64 -149 0
-40 -65 -150 0
-126 -196 -241 0
-127 -197 -242 0
-128 -198 -243 0
-129 -199 -244 0
-130 -200 -245 0
-31 -41 -171 0
-32 -42 -172 0
-33 -43 -173 0
-34 -44 -174 0
-35 -45 -175 0
-1 -16 -76 0
-2 -17 -77 0
-3 -18 -78 0
-4 -19 -79 0
-5 -20 -80 0
-11 -21 -41 0
-12 -22 -42 0
-13 -23 -43 0
-14 -24 -44 0
-15 -25 -45 0
-131 -141 -211 0
-132 -142 -212 0
-133 -143 -213 0
-134 -144 -214 0
-135 -145 -215 0
-6 -201 -246 0
-7 -202 -247 0
-8 -203 -248 0
-9 -204 -249 0
-10 -205 -250 0
-1 -181 -241 0
-2 -182 -242 0
-3 -183 -243 0
-4 -184 -244 0
-5 -185 -245 0
-96 -151 -186 0
-97 -152 -187 0
-98 -153 -188 0
-99 -154 -189 0
-100 -155 -190 0
-161 -211 -236 0
-162 -212 -237 0
-163 -213 -238 0
-164 -214 -239 0
-165 -215 -240 0
-61 -211 -231 0
-62 -212 -232 0
-63 -213 -233 0
-64 -214 -234 0
-65 -215 -235 0
-66 -96 -156 0
-67 -97 -157 0
-68 -98 -158 0
-69 -99 -159 0
-70 -100 -160 0
-91 -101 -121 0
-92 -102 -122 0
-93 -103 -123 0
-94 -104 -124 0
-95 -105 -125 0
-11 -26 -46 0
-12 -27 -47 0
-13 -28 -48 0
-14 -29 -49 0
-15 -30 -50 0
-16 -111 -151 0
-17 -112 -152 0
-18 -113 -153 0
-19 -114 -154 0
-20 -115 -155 0
-46 -96 -196 0
-47 -97 -197 0
-48 -98 -198 0
-49 -99 -199 0
-50 -100 -200 0
-11 -186 -206 0
-12 -187 -207 0
-13 -188 -208 0
-14 -189 -209 0
-15 -190 -210 0
-16 -71 -131 0
-17 -72 -132 0
-18 -73 -133 0
-19 -74 -134 0
-20 -75 -135 0
-16 -166 -196 0
-17 -167 -197 0
-18 -168 -198 0
-19 -169 -199 0
-20 -170 -200 0
-51 -101 -171 0
-52 -102 -172 0
-53 -103 -173 0
-54 -104 -174 0
-55 -105 -175 0
-56 -236 -246 0
-57 -237 -247 0
-58 -238 -248 0
-59 -239 -249 0
-60 -240 -250 0
-31 -96 -106 0
-32 -97 -107 0
-33 -98 -108 0
-34 -99 -109 0
-35 -100 -110 0
-111 -191 -216 0
-112 -192 -217 0
-113 -193 -218 0
-114 -194 -219 0
-115 -195 -220 0
-11 -191 -211 0
-12 -192 -212 0
-13 -193 -213 0
-14 -194 -214 0
-15 -195 -215 0
-56 -181 -196 0
-57 -182 -197 0
-58 -183 -198 0
-59 -184 -199 0
-60 -185 -200 0
-76 -161 -171 0
-77 -162 -172 0
-78 -163 -173 0
-79 -164 -174 0
-80 -165 -175 0
-11 -136 -161 0
-12 -137 -162 0
-13 -138 -163 0
-14 -139 -164 0
-15 -140 -165 0
-11 -96 -141 0
-12 -97 -142 0
-13 -98 -143 0
-14 -99 -144 0
-15 -100 -145 0
-106 -171 -206 0
-107 -172 -207 0
-108 -173 -208 0
-109 -174 -209 0
-110 -175 -210 0
-71 -126 -131 0
-72 -127 -132 0
-73 -128 -133 0
-74 -129 -134 0
-75 -130 -135 0
-76 -106 -121 0
-77 -107 -122 0
-78 -108 -123 0
-79 -109 -124 0
-80 -110 -125 0
-151 -221 -241 0
-152 -222 -242 0
-153 -223 -243 0
-154 -224 -244 0
-155 -225 -245 0
-31 -36 -121 0
-32 -37 -122 0
-33 -38 -123 0
-34 -39 -124 0
-35 -40 -125 0
-21 -171 -211 0
-22 -172 -212 0
-23 -173 -213 0
-24 -174 -214 0
-25 -175 -215 0
-61 -116 -231 0
-62 -117 -232 0
-63 -118 -233 0
-64 -119 -234 0
-65 -120 -235 0
-26 -136 -166 0
-27 -137 -167 0
-28 -138 -168 0
-29 -139 -169 0
-30 -140 -170 0
-36 -156 -166 0
-37 -157 -167 0
-38 -158 -168 0
-39 -159 -169 0
-40 -160 -170 0
-21 -76 -141 0
-22 -77 -142 0
-23 -78 -143 0
-24 -79 -144 0
-25 -80 -145 0
-76 -196 -251 0
-77 -197 -252 0
-78 -198 -253 0
-79 -199 -254 0
-80 -200 -255 0
-81 -146 -151 0
-82 -147 -152 0
-83 -148 -153 0
-84 -149 -154 0
-85 -150 -155 0
-171 -176 -251 0
-172 -177 -252 0
-173 -178 -253 0
-174 -179 -254 0
-175 -180 -255 0
-71 -146 -186 0
-72 -147 -187 0
-73 -148 -188 0
-74 -149 -189 0
-75 -150 -190 0
-121 -191 -246 0
-122 -192 -247 0
-123 -193 -248 0
-124 -194 -249 0
-125 -195 -250 0
-71 -106 -166 0
-72 -107 -167 0
-73 -108 -168 0
-74 -109 -169 0
-75 -110 -170 0
-76 -86 -156 0
-77 -87 -157 0
-78 -88 -158 0
-79 -89 -159 0
-80 -90 -160 0
-1 -121 -141 0
-2 -122 -142 0
-3 -123 -143 0
-4 -124 -144 0
-5 -125 -145 0
-61 -81 -211 0
-62 -82 -212 0
-63 -83 -213 0
-64 -84 -214 0
-65 -85 -215 0
-1 -236 -241 0
-2 -237 -242 0
-3 -238 -243 0
-4 -239 -244 0
-5 -240 -245 0
-1 -126 -146 0
-2 -127 -147 0
-3 -128 -148 0
-4 -129 -149 0
-5 -130 -150 0
-96 -201 -206 0
-97 -202 -207 0
-98 -203 -208 0
-99 -204 -209 0
-100 -205 -210 0
-26 -76 -181 0
-27 -77 -182 0
-28 -78 -183 0
-29 -79 -184 0
-30 -80 -185 0
-56 -61 -226 0
-57 -62 -227 0
-58 -63 -228 0
-59 -64 -229 0
-60 -65 -230 0
-126 -171 -221 0
-127 -172 -222 0
-128 -173 -223 0
-129 -174 -224 0
-130 -175 -225 0
-6 -216 -251 0
-7 -217 -252 0
-8 -218 -253 0
-9 -219 -254 0
-10 -220 -255 0
-26 -36 -161 0
-27 -37 -162 0
-28 -38 -163 0
-29 -39 -164 0
-30 -40 -165 0
-1 -31 -76 0
-2 -32 -77 0
-3 -33 -78 0
-4 -34 -79 0
-5 -35 -80 0
-6 -111 -136 0
-7 -112 -137 0
-8 -113 -138 0
-9 -114 -139 0
-10 -115 -140 0
-21 -56 -176 0
-22 -57 -177 0
-23 -58 -178 0
-24 -59 -179 0
-25 -60 -180 0
-1 -196 -246 0
-2 -197 -247 0
-3 -198 -248 0
-4 -199 -249 0
-5 -200 -250 0
-41 -76 -171 0
-42 -77 -172 0
-43 -78 -173 0
-44 -79 -174 0
-45 -80 -175 0
-76 -81 -221 0
-77 -82 -222 0
-78 -83 -223 0
-79 -84 -224 0
-80 -85 -225 0
-6 -126 -161 0
-7 -127 -162 0
-8 -128 -163 0
-9 -129 -164 0
-10 -130 -165 0
-21 -71 -201 0
-22 -72 -202 0
-23 -73 -203 0
-24 -74 -204 0
-25 -75 -205 0
-66 -101 -111 0
-67 -102 -112 0
-68 -103 -113 0
-69 -104 -114 0
-70 -105 -115 0
-31 -86 -251 0
-32 -87 -252 0
-33 -88 -253 0
-34 -89 -254 0
-35 -90 -255 0
-91 -186 -196 0
-92 -187 -197 0
-93 -188 -198 0
-94 -189 -199 0
-95 -190 -200 0
-26 -71 -246 0
-27 -72 -247 0
-28 -73 -248 0
-29 -74 -249 0
-30 -75 -250 0
-71 -101 -251 0
-72 -102 -252 0
-73 -103 -253 0
-74 -104 -254 0
-75 -105 -255 0
-61 -136 -171 0
-62 -137 -172 0
-63 -138 -173 0
-64 -139 -174 0
-65 -140 -175 0
-46 -56 -146 0
-47 -57 -147 0
-48 -58 -148 0
-49 -59 -149 0
-50 -60 -150 0
-56 -211 -226 0
-57 -212 -227 0
-58 -213 -228 0
-59 -214 -229 0
-60 -215 -230 0
-1 -176 -251 0
-2 -177 -252 0
-3 -178 -253 0
-4 -179 -254 0
-5 -180 -255 0
-61 -191 -216 0
-62 -192 -217 0
-63 -193 -218 0
-64 -194 -219 0
-65 -195 -220 0
-111 -166 -196 0
-112 -167 -197 0
-113 -168 -198 0
-114 -169 -199 0
-115 -170 -200 0
-16 -146 -181 0
-17 -147 -182 0
-18 -148 -183 0
-19 -149 -184 0
-20 -150 -185 0
-16 -106 -161 0
-17 -107 -162 0
-18 -108 -163 0
-19 -109 -164 0
-20 -110 -165 0
-106 -201 -236 0
-107 -202 -237 0
-108 -203 -238 0
-109 -204 -239 0
-110 -205 -240 0
-81 -121 -246 0
-82 -122 -247 0
-83 -123 -248 0
-84 -124 -249 0
-85 -125 -250 0
-66 -146 -241 0
-67 -147 -242 0
-68 -148 -243 0
-69 -149 -244 0
-70 -150 -245 0
-101 -141 -241 0
-102 -142 -242 0
-103 -143 -243 0
-104 -144 -244 0
-105 -145 -245 0
-56 -66 -116 0
-57 -67 -117 0
-58 -68 -118 0
-59 -69 -119 0
-60 -70 -120 0
-51 -111 -236 0
-52 -112 -237 0
-53 -113 -238 0
-54 -114 -239 0
-55 -115 -240 0
-111 -131 -176 0
-112 -132 -177 0
-113 -133 -178 0
-114 -134 -179 0
-115 -135 -180 0
-16 -81 -191 0
-17 -82 -192 0
-18 -83 -193 0
-19 -84 -194 0
-20 -85 -195 0
-91 -131 -216 0
-92 -132 -217 0
-93 -133 -218 0
-94 -134 -219 0
-95 -135 -220 0
-76 -151 -201 0
-77 -152 -202 0
-78 -153 -203 0
-79 -154 -204 0
-80 -155 -205 0
-56 -86 -146 0
-57 -87 -147 0
-58 -88 -148 0
-59 -89 -149 0
-60 -90 -150 0
-16 -31 -151 0
-17 -32 -152 0
-18 -33 -153 0
-19 -34 -154 0
-20 -35 -155 0
-86 -101 -126 0
-87 -102 -127 0
-88 -103 -128 0
-89 -104 -129 0
-90 -105 -130 0
-106 -126 -226 0
-107 -127 -227 0
-108 -128 -228 0
-109 -129 -229 0
-110 -130 -230 0
-16 -86 -196 0
-17 -87 -197 0
-18 -88 -198 0
-19 -89 -199 0
-20 -90 -200 0
-166 -196 -236 0
-167 -197 -237 0
-168 -198 -238 0
-169 -199 -239 0
-170 -200 -240 0
-26 -171 -201 0
-27 -172 -202 0
-28 -173 -203 0
-29 -174 -204 0
-30 -175 -205 0
-56 -156 -246 0
-57 -157 -247 0
-58 -158 -248 0
-59 -159 -249 0
-60 -160 -250 0
-21 -56 -126 0
-22 -57 -127 0
-23 -58 -128 0
-24 -59 -129 0
-25 -60 -130 0
-166 -176 -246 0
-167 -177 -247 0
-168 -178 -248 0
-169 -179 -249 0
-170 -180 -250 0
-81 -126 -136 0
-82 -127 -137 0
-83 -128 -138 0
-84 -129 -139 0
-85 -130 -140 0
-81 -86 -116 0
-82 -87 -117 0
-83 -88 -118 0
-84 -89 -119 0
-85 -90 -120 0
-71 -86 -151 0
-72 -87 -152 0
-73 -88 -153 0
-74 -89 -154 0
-75 -90 -155 0
-6 -121 -131 0
-7 -122 -132 0
-8 -123 -133 0
-9 -124 -134 0
-10 -125 -135 0
-36 -201 -241 0
-37 -202 -242 0
-38 -203 -243 0
-39 -204 -244 0
-40 -205 -245 0
-36 -56 -106 0
-37 -57 -107 0
-38 -58 -108 0
-39 -59 -109 0
-40 -60 -110 0
-101 -156 -176 0
-102 -157 -177 0
-103 -158 -178 0
-104 -159 -179 0
-105 -160 -180 0
-1 -116 -151 0
-2 -117 -152 0
-3 -118 -153 0
-4 -119 -154 0
-5 -120 -155 0
-6 -196 -211 0
-7 -197 -212 0
-8 -198 -213 0
-9 -199 -214 0
-10 -200 -215 0
-81 -156 -216 0
-82 -157 -217 0
-83 -158 -218 0
-84 -159 -219 0
-85 -160 -220 0
-51 -186 -196 0
-52 -187 -197 0
-53 -188 -198 0
-54 -189 -199 0
-55 -190 -200 0
-146 -206 -216 0
-147 -207 -217 0
-148 -208 -218 0
-149 -209 -219 0
-150 -210 -220 0
-16 -196 -201 0
-17 -197 -202 0
-18 -198 -203 0
-19 -199 -204 0
-20 -200 -205 0
-91 -106 -131 0
-92 -107 -132 0
-93 -108 -133 0
-94 -109 -134 0
-95 -110 -135 0
-41 -121 -251 0
-42 -122 -252 0
-43 -123 -253 0
-44 -124 -254 0
-45 -125 -255 0
-16 -106 -111 0
-17 -107 -112 0
-18 -108 -113 0
-19 -109 -114 0
-20 -110 -115 0
-91 -111 -136 0
-92 -112 -137 0
-93 -113 -138 0
-94 -114 -139 0
-95 -115 -140 0
-61 -116 -131 0
-62 -117 -132 0
-63 -118 -133 0
-64 -119 -134 0
-65 -120 -135 0
-66 -201 -236 0
-67 -202 -237 0
-68 -203 -238 0
-69 -204 -239 0
-70 -205 -240 0
-141 -151 -186 0
-142 -152 -187 0
-143 -153 -188 0
-144 -154 -189 0
-145 -155 -190 0
-101 -136 -211 0
-102 -137 -212 0
-103 -138 -213 0
-104 -139 -214 0
-105 -140 -215 0
-46 -186 -246 0
-47 -187 -247 0
-48 -188 -248 0
-49 -189 -249 0
-50 -190 -250 0
-11 -141 -171 0
-12 -142 -172 0
-13 -143 -173 0
-14 -144 -174 0
-15 -145 -175 0
-36 -51 -196 0
-37 -52 -197 0
-38 -53 -198 0
-39 -54 -199 0
-40 -55 -200 0
-106 -216 -236 0
-107 -217 -237 0
-108 -218 -238 0
-109 -219 -239 0
-110 -220 -240 0
-11 -106 -156 0
-12 -107 -157 0
-13 -108 -158 0
-14 -109 -159 0
-15 -110 -160 0
-171 -246 -251 0
-172 -247 -252 0
-173 -248 -253 0
-174 -249 -254 0
-175 -250 -255 0
-36 -111 -246 0
-37 -112 -247 0
-38 -113 -248 0
-39 -114 -249 0
-40 -115 -250 0
-81 -101 -231 0
-82 -102 -232 0
-83 -103 -233 0
-84 -104 -234 0
-85 -105 -235 0
-11 -196 -241 0
-12 -197 -242 0
-13 -198 -243 0
-14 -199 -244 0
-15 -200 -245 0
-61 -96 -166 0
-62 -97 -167 0
-63 -98 -168 0
-64 -99 -169 0
-65 -100 -170 0
-71 -81 -96 0
-72 -82 -97 0
-73 -83 -98 0
-74 -84 -99 0
-75 -85 -100 0
-86 -186 -201 0
-87 -187 -202 0
-88 -188 -203 0
-89 -189 -204 0
-90 -190 -205 0
-21 -121 -171 0
-22 -122 -172 0
-23 -123 -173 0
-24 -124 -174 0
-25 -125 -175 0
-71 -86 -101 0
-72 -87 -102 0
-73 -88 -103 0
-74 -89 -104 0
-75 -90 -105 0
-1 -6 -11 0
-2 -7 -12 0
-3 -8 -13 0
-4 -9 -14 0
-5 -10 -15 0
-16 -66 -181 0
-17 -67 -182 0
-18 -68 -183 0
-19 -69 -184 0
-20 -70 -185 0
-56 -76 -176 0
-57 -77 -177 0
-58 -78 -178 0
-59 -79 -179 0
-60 -80 -180 0
-76 -191 -236 0
-77 -192 -237 0
-78 -193 -238 0
-79 -194 -239 0
-80 -195 -240 0
-116 -206 -241 0
-117 -207 -242 0
-118 -208 -243 0
-119 -209 -244 0
-120 -210 -245 0
-31 -51 -136 0
-32 -52 -137 0
-33 -53 -138 0
-34 -54 -139 0
-35 -55 -140 0
-26 -126 -191 0
-27 -127 -192 0
-28 -128 -193 0
-29 -129 -194 0
-30 -130 -195 0
-81 -161 -171 0
-82 -162 -172 0
-83 -163 -173 0
-84 -164 -174 0
-85 -165 -175 0
-6 -156 -166 0
-7 -157 -167 0
-8 -158 -168 0
-9 -159 -169 0
-10 -160 -170 0
-86 -111 -186 0
-87 -112 -187 0
-88 -113 -188 0
-89 -114 -189 0
-90 -115 -190 0
-131 -201 -241 0
-132 -202 -242 0
-133 -203 -243 0
-134 -204 -244 0
-135 -205 -245 0
-16 -56 -236 0
-17 -57 -237 0
-18 -58 -238 0
-19 -59 -239 0
-20 -60 -240 0
-46 -181 -191 0
-47 -182 -192 0
-48 -183 -193 0
-49 -184 -194 0
-50 -185 -195 0
-41 -66 -151 0
-42 -67 -152 0
-43 -68 -153 0
-44 -69 -154 0
-45 -70 -155 0
-56 -71 -241 0
-57 -72 -242 0
-58 -73 -243 0
-59 -74 -244 0
-60 -75 -245 0
-6 -21 -76 0
-7 -22 -77 0
-8 -23 -78 0
-9 -24 -79 0
-10 -25 -80 0
-6 -116 -141 0
-7 -117 -142 0
-8 -118 -143 0
-9 -119 -144 0
-10 -120 -145 0
-1 -41 -91 0
-2 -42 -92 0
-3 -43 -93 0
-4 -44 -94 0
-5 -45 -95 0
-21 -66 -191 0
-22 -67 -192 0
-23 -68 -193 0
-24 -69 -194 0
-25 -70 -195 0
-21 -26 -171 0
-22 -27 -172 0
-23 -28 -173 0
-24 -29 -174 0
-25 -30 -175 0
-1 -96 -136 0
-2 -97 -137 0
-3 -98 -138 0
-4 -99 -139 0
-5 -100 -140 0
-51 -71 -116 0
-52 -72 -117 0
-53 -73 -118 0
-54 -74 -119 0
-55 -75 -120 0
-81 -151 -226 0
-82 -152 -227 0
-83 -153 -228 0
-84 -154 -229 0
-85 -155 -230 0
-11 -46 -56 0
-12 -47 -57 0
-13 -48 -58 0
-14 -49 -59 0
-15 -50 -60 0
-131 -166 -226 0
-132 -167 -227 0
-133 -168 -228 0
-134 -169 -229 0
-135 -170 -230 0
-26 -51 -181 0
-27 -52 -182 0
-28 -53 -183 0
-29 -54 -184 0
-30 -55 -185 0
-146 -201 -226 0
-147 -202 -227 0
-148 -203 -228 0
-149 -204 -229 0
-150 -205 -230 0
-1 -101 -141 0
-2 -102 -142 0
-3 -103 -143 0
-4 -104 -144 0
-5 -105 -145 0
-136 -161 -241 0
-137 -162 -242 0
-138 -163 -243 0
-139 -164 -244 0
-140 -165 -245 0
-1 -116 -166 0
-2 -117 -167 0
-3 -118 -168 0
-4 -119 -169 0
-5 -120 -170 0
-141 -171 -196 0
-142 -172 -197 0
-143 -173 -198 0
-144 -174 -199 0
-145 -175 -200 0
-11 -211 -221 0
-12 -212 -222 0
-13 -213 -223 0
-14 -214 -224 0
-15 -215 -225 0
-66 -176 -216 0
-67 -177 -217 0
-68 -178 -218 0
-69 -179 -219 0
-70 -180 -220 0
-86 -96 -201 0
-87 -97 -202 0
-88 -98 -203 0
-89 -99 -204 0
-90 -100 -205 0
-16 -191 -211 0
-17 -192 -212 0
-18 -193 -213 0
-19 -194 -214 0
-20 -195 -215 0
-46 -111 -161 0
-47 -112 -162 0
-48 -113 -163 0
-49 -114 -164 0
-50 -115 -165 0
-6 -191 -246 0
-7 -192 -247 0
-8 -193 -248 0
-9 -194 -249 0
-10 -195 -250 0
-91 -201 -216 0
-92 -202 -217 0
-93 -203 -218 0
-94 -204 -219 0
-95 -205 -220 0
-61 -91 -136 0
-62 -92 -137 0
-63 -93 -138 0
-64 -94 -139 0
-65 -95 -140 0
-141 -146 -226 0
-142 -147 -227 0
-143 -148 -228 0
-144 -149 -229 0
-145 -150 -230 0
-31 -81 -96 0
-32 -82 -97 0
-33 -83 -98 0
-34 -84 -99 0
-35 -85 -100 0
-11 -121 -156 0
-12 -122 -157 0
-13 -123 -158 0
-14 -124 -159 0
-15 -125 -160 0
-171 -221 -231 0
-172 -222 -232 0
-173 -223 -233 0
-174 -224 -234 0
-175 -225 -235 0
-11 -176 -201 0
-12 -177 -202 0
-13 -178 -203 0
-14 -179 -204 0
-15 -180 -205 0
-26 -46 -241 0
-27 -47 -242 0
-28 -48 -243 0
-29 -49 -244 0
-30 -50 -245 0
-106 -116 -181 0
-107 -117 -182 0
-108 -118 -183 0
-109 -119 -184 0
-110 -120 -185 0
-16 -26 -111 0
-17 -27 -112 0
-18 -28 -113 0
-19 -29 -114 0
-20 -30 -115 0
-26 -176 -211 0
-27 -177 -212 0
-28 -178 -213 0
-29 -179 -214 0
-30 -180 -215 0
-41 -156 -166 0
-42 -157 -167 0
-43 -158 -168 0
-44 -159 -169 0
-45 -160 -170 0
-26 -71 -96 0
-27 -72 -97 0
-28 -73 -98 0
-29 -74 -99 0
-30 -75 -100 0
-31 -211 -246 0
-32 -212 -247 0
-33 -213 -248 0
-34 -214 -249 0
-35 -215 -250 0
-106 -171 -251 0
-107 -172 -252 0
-108 -173 -253 0
-109 -174 -254 0
-110 -175 -255 0
-171 -186 -211 0
-172 -187 -212 0
-173 -188 -213 0
-174 -189 -214 0
-175 -190 -215 0
-41 -61 -96 0
-42 -62 -97 0
-43 -63 -98 0
-44 -64 -99 0
-45 -65 -100 0
-51 -86 -231 0
-52 -87 -232 0
-53 -88 -233 0
-54 -89 -234 0
-55 -90 -235 0
-41 -121 -151 0
-42 -122 -152 0
-43 -123 -153 0
-44 -124 -154 0
-45 -125 -155 0
-71 -76 -136 0
-72 -77 -137 0
-73 -78 -138 0
-74 -79 -139 0
-75 -80 -140 0
-41 -176 -196 0
-42 -177 -197 0
-43 -178 -198 0
-44 -179 -199 0
-45 -180 -200 0
-71 -131 -181 0
-72 -132 -182 0
-73 -133 -183 0
-74 -134 -184 0
-75 -135 -185 0
-106 -136 -236 0
-107 -137 -237 0
-108 -138 -238 0
-109 -139 -239 0
-110 -140 -240 0
-6 -21 -26 0
-7 -22 -27 0
-8 -23 -28 0
-9 -24 -29 0
-10 -25 -30 0
-81 -96 -131 0
-82 -97 -132 0
-83 -98 -133 0
-84 -99 -134 0
-85 -100 -135 0
-51 -66 -241 0
-52 -67 -242 0
-53 -68 -243 0
-54 -69 -244 0
-55 -70 -245 0
-86 -131 -166 0
-87 -132 -167 0
-88 -133 -168 0
-89 -134 -169 0
-90 -135 -170 0
-6 -131 -146 0
-7 -132 -147 0
-8 -133 -148 0
-9 -134 -149 0
-10 -135 -150 0
-1 -111 -141 0
-2 -112 -142 0
-3 -113 -143 0
-4 -114 -144 0
-5 -115 -145 0
-136 -201 -211 0
-137 -202 -212 0
-138 -203 -213 0
-139 -204 -214 0
-140 -205 -215 0
-126 -201 -216 0
-127 -202 -217 0
-128 -203 -218 0
-129 -204 -219 0
-130 -205 -220 0
-101 -166 -191 0
-102 -167 -192 0
-103 -168 -193 0
-104 -169 -194 0
-105 -170 -195 0
-116 -201 -251 0
-117 -202 -252 0
-118 -203 -253 0
-119 -204 -254 0
-120 -205 -255 0
-6 -136 -151 0
-7 -137 -152 0
-8 -138 -153 0
-9 -139 -154 0
-10 -140 -155 0
-46 -176 -206 0
-47 -177 -207 0
-48 -178 -208 0
-49 -179 -209 0
-50 -180 -210 0
-6 -191 -196 0
-7 -192 -197 0
-8 -193 -198 0
-9 -194 -199 0
-10 -195 -200 0
-101 -171 -196 0
-102 -172 -197 0
-103 -173 -198 0
-104 -174 -199 0
-105 -175 -200 0
-1 -131 -171 0
-2 -132 -172 0
-3 -133 -173 0
-4 -134 -174 0
-5 -135 -175 0
-71 -126 -241 0
-72 -127 -242 0
-73 -128 -243 0
-74 -129 -244 0
-75 -130 -245 0
-16 -116 -126 0
-17 -117 -127 0
-18 -118 -128 0
-19 -119 -129 0
-20 -120 -130 0
-61 -106 -111 0
-62 -107 -112 0
-63 -108 -113 0
-64 -109 -114 0
-65 -110 -115 0
-136 -181 -246 0
-137 -182 -247 0
-138 -183 -248 0
-139 -184 -249 0
-140 -185 -250 0
-1 -186 -241 0
-2 -187 -242 0
-3 -188 -243 0
-4 -189 -244 0
-5 -190 -245 0
-46 -141 -186 0
-47 -142 -187 0
-48 -143 -188 0
-49 -144 -189 0
-50 -145 -190 0
-11 -191 -206 0
-12 -192 -207 0
-13 -193 -208 0
-14 -194 -209 0
-15 -195 -210 0
-146 -156 -246 0
-147 -157 -247 0
-148 -158 -248 0
-149 -159 -249 0
-150 -160 -250 0
-16 -91 -156 0
-17 -92 -157 0
-18 -93 -158 0
-19 -94 -159 0
-20 -95 -160 0
-76 -161 -166 0
-77 -162 -167 0
-78 -163 -168 0
-79 -164 -169 0
-80 -165 -170 0
-11 -136 -156 0
-12 -137 -157 0
-13 -138 -158 0
-14 -139 -159 0
-15 -140 -160 0
-51 -81 -176 0
-52 -82 -177 0
-53 -83 -178 0
-54 -84 -179 0
-55 -85 -180 0
-151 -206 -211 0
-152 -207 -212 0
-153 -208 -213 0
-154 -209 -214 0
-155 -210 -215 0
-161 -196 -246 0
-162 -197 -247 0
-163 -198 -248 0
-164 -199 -249 0
-165 -200 -250 0
-96 -171 -236 0
-97 -172 -237 0
-98 -173 -238 0
-99 -174 -239 0
-100 -175 -240 0
-56 -146 -176 0
-57 -147 -177 0
-58 -148 -178 0
-59 -149 -179 0
-60 -150 -180 0
-156 -241 -246 0
-157 -242 -247 0
-158 -243 -248 0
-159 -244 -249 0
-160 -245 -250 0
-56 -106 -156 0
-57 -107 -157 0
-58 -108 -158 0
-59 -109 -159 0
-60 -110 -160 0
-36 -66 -211 0
-37 -67 -212 0
-38 -68 -213 0
-39 -69 -214 0
-40 -70 -215 0
-71 -91 -111 0
-72 -92 -112 0
-73 -93 -113 0
-74 -94 -114 0
-75 -95 -115 0
-31 -186 -226 0
-32 -187 -227 0
-33 -188 -228 0
-34 -189 -229 0
-35 -190 -230 0
-16 -111 -211 0
-17 -112 -212 0
-18 -113 -213 0
-19 -114 -214 0
-20 -115 -215 0
-151 -171 -191 0
-152 -172 -192 0
-153 -173 -193 0
-154 -174 -194 0
-155 -175 -195 0
-86 -181 -186 0
-87 -182 -187 0
-88 -183 -188 0
-89 -184 -189 0
-90 -185 -190 0
-26 -101 -146 0
-27 -102 -147 0
-28 -103 -148 0
-29 -104 -149 0
-30 -105 -150 0
-56 -86 -191 0
-57 -87 -192 0
-58 -88 -193 0
-59 -89 -194 0
-60 -90 -195 0
-166 -181 -226 0
-167 -182 -227 0
-168 -183 -228 0
-169 -184 -229 0
-170 -185 -230 0
-26 -61 -126 0
-27 -62 -127 0
-28 -63 -128 0
-29 -64 -129 0
-30 -65 -130 0
-1 -16 -21 0
-2 -17 -22 0
-3 -18 -23 0
-4 -19 -24 0
-5 -20 -25 0
-76 -161 -231 0
-77 -162 -232 0
-78 -163 -233 0
-79 -164 -234 0
-80 -165 -235 0
-86 -91 -121 0
-87 -92 -122 0
-88 -93 -123 0
-89 -94 -124 0
-90 -95 -125 0
-71 -206 -231 0
-72 -207 -232 0
-73 -208 -233 0
-74 -209 -234 0
-75 -210 -235 0
-71 -166 -211 0
-72 -167 -212 0
-73 -168 -213 0
-74 -169 -214 0
-75 -170 -215 0
-56 -91 -196 0
-57 -92 -197 0
-58 -93 -198 0
-59 -94 -199 0
-60 -95 -200 0
-116 -121 -186 0
-117 -122 -187 0
-118 -123 -188 0
-119 -124 -189 0
-120 -125 -190 0
-126 -176 -196 0
-127 -177 -197 0
-128 -178 -198 0
-129 -179 -199 0
-130 -180 -200 0
-86 -176 -246 0
-87 -177 -247 0
-88 -178 -248 0
-89 -179 -249 0
-90 -180 -250 0
-41 -76 -166 0
-42 -77 -167 0
-43 -78 -168 0
-44 -79 -169 0
-45 -80 -170 0
-1 -186 -191 0
-2 -187 -192 0
-3 -188 -193 0
-4 -189 -194 0
-5 -190 -195 0
-31 -36 -181 0
-32 -37 -182 0
-33 -38 -183 0
-34 -39 -184 0
-35 -40 -185 0
-101 -146 -176 0
-102 -147 -177 0
-103 -148 -178 0
-104 -149 -179 0
-105 -150 -180 0
-101 -201 -221 0
-102 -202 -222 0
-103 -203 -223 0
-104 -204 -224 0
-105 -205 -225 0
-66 -101 -106 0
-67 -102 -107 0
-68 -103 -108 0
-69 -104 -109 0
-70 -105 -110 0
-46 -196 -211 0
-47 -197 -212 0
-48 -198 -213 0
-49 -199 -214 0
-50 -200 -215 0
-56 -81 -251 0
-57 -82 -252 0
-58 -83 -253 0
-59 -84 -254 0
-60 -85 -255 0
-81 -91 -166 0
-82 -92 -167 0
-83 -93 -168 0
-84 -94 -169 0
-85 -95 -170 0
-96 -226 -236 0
-97 -227 -237 0
-98 -228 -238 0
-99 -229 -239 0
-100 -230 -240 0
-1 -111 -156 0
-2 -112 -157 0
-3 -113 -158 0
-4 -114 -159 0
-5 -115 -160 0
-51 -81 -126 0
-52 -82 -127 0
-53 -83 -128 0
-54 -84 -129 0
-55 -85 -130 0
-91 -136 -151 0
-92 -137 -152 0
-93 -138 -153 0
-94 -139 -154 0
-95 -140 -155 0
-6 -181 -226 0
-7 -182 -227 0
-8 -183 -228 0
-9 -184 -229 0
-10 -185 -230 0
-6 -36 -91 0
-7 -37 -92 0
-8 -38 -93 0
-9 -39 -94 0
-10 -40 -95 0
-66 -81 -116 0
-67 -82 -117 0
-68 -83 -118 0
-69 -84 -119 0
-70 -85 -120 0
-21 -41 -186 0
-22 -42 -187 0
-23 -43 -188 0
-24 -44 -189 0
-25 -45 -190 0
-146 -176 -226 0
-147 -177 -227 0
-148 -178 -228 0
-149 -179 -229 0
-150 -180 -230 0
-51 -191 -246 0
-52 -192 -247 0
-53 -193 -248 0
-54 -194 -249 0
-55 -195 -250 0
-46 -66 -126 0
-47 -67 -127 0
-48 -68 -128 0
-49 -69 -129 0
-50 -70 -130 0
-146 -161 -196 0
-147 -162 -197 0
-148 -163 -198 0
-149 -164 -199 0
-150 -165 -200 0
-11 -21 -51 0
-12 -22 -52 0
-13 -23 -53 0
-14 -24 -54 0
-15 -25 -55 0
-16 -201 -221 0
-17 -202 -222 0
-18 -203 -223 0
-19 -204 -224 0
-20 -205 -225 0
-46 -81 -151 0
-47 -82 -152 0
-48 -83 -153 0
-49 -84 -154 0
-50 -85 -155 0
-91 -101 -131 0
-92 -102 -132 0
-93 -103 -133 0
-94 -104 -134 0
-95 -105 -135 0
-11 -226 -236 0
-12 -227 -237 0
-13 -228 -238 0
-14 -229 -239 0
-15 -230 -240 0
-96 -146 -216 0
-97 -147 -217 0
-98 -148 -218 0
-99 -149 -219 0
-100 -150 -220 0
-81 -86 -226 0
-82 -87 -227 0
-83 -88 -228 0
-84 -89 -229 0
-85 -90 -230 0
-31 -36 -246 0
-32 -37 -247 0
-33 -38 -248 0
-34 -39 -249 0
-35 -40 -250 0
-101 -106 -221 0
-102 -107 -222 0
-103 -108 -223 0
-104 -109 -224 0
-105 -110 -225 0
-11 -131 -166 0
-12 -132 -167 0
-13 -133 -168 0
-14 -134 -169 0
-15 -135 -170 0
-26 -41 -226 0
-27 -42 -227 0
-28 -43 -228 0
-29 -44 -229 0
-30 -45 -230 0
-56 -126 -161 0
-57 -127 -162 0
-58 -128 -163 0
-59 -129 -164 0
-60 -130 -165 0
-56 -221 -226 0
-57 -222 -227 0
-58 -223 -228 0
-59 -224 -229 0
-60 -225 -230 0
-156 -181 -211 0
-157 -182 -212 0
-158 -183 -213 0
-159 -184 -214 0
-160 -185 -215 0
-171 -181 -201 0
-172 -182 -202 0
-173 -183 -203 0
-174 -184 -204 0
-175 -185 -205 0
-76 -211 -246 0
-77 -212 -247 0
-78 -213 -248 0
-79 -214 -249 0
-80 -215 -250 0
-151 -221 -251 0
-152 -222 -252 0
-153 -223 -253 0
-154 -224 -254 0
-155 -225 -255 0
-26 -186 -221 0
-27 -187 -222 0
-28 -188 -223 0
-29 -189 -224 0
-30 -190 -225 0
-31 -71 -146 0
-32 -72 -147 0
-33 -73 -148 0
-34 -74 -149 0
-35 -75 -150 0
-66 -131 -246 0
-67 -132 -247 0
-68 -133 -248 0
-69 -134 -249 0
-70 -135 -250 0
-71 -181 -216 0
-72 -182 -217 0
-73 -183 -218 0
-74 -184 -219 0
-75 -185 -220 0
-26 -191 -226 0
-27 -192 -227 0
-28 -193 -228 0
-29 -194 -229 0
-30 -195 -230 0
-21 -71 -146 0
-22 -72 -147 0
-23 -73 -148 0
-24 -74 -149 0
-25 -75 -150 0
-41 -131 -161 0
-42 -132 -162 0
-43 -133 -163 0
-44 -134 -164 0
-45 -135 -165 0
-116 -136 -186 0
-117 -137 -187 0
-118 -138 -188 0
-119 -139 -189 0
-120 -140 -190 0
-116 -191 -231 0
-117 -192 -232 0
-118 -193 -233 0
-119 -194 -234 0
-120 -195 -235 0
-6 -196 -206 0
-7 -197 -207 0
-8 -198 -208 0
-9 -199 -209 0
-10 -200 -210 0
-136 -211 -226 0
-137 -212 -227 0
-138 -213 -228 0
-139 -214 -229 0
-140 -215 -230 0
-1 -216 -221 0
-2 -217 -222 0
-3 -218 -223 0
-4 -219 -224 0
-5 -220 -225 0
-121 -151 -236 0
-122 -152 -237 0
-123 -153 -238 0
-124 -154 -239 0
-125 -155 -240 0
-36 -101 -126 0
-37 -102 -127 0
-38 -103 -128 0
-39 -104 -129 0
-40 -105 -130 0
-41 -146 -211 0
-42 -147 -212 0
-43 -148 -213 0
-44 -149 -214 0
-45 -150 -215 0
-51 -136 -151 0
-52 -137 -152 0
-53 -138 -153 0
-54 -139 -154 0
-55 -140 -155 0
-16 -31 -211 0
-17 -32 -212 0
-18 -33 -213 0
-19 -34 -214 0
-20 -35 -215 0
-51 -96 -131 0
-52 -97 -132 0
-53 -98 -133 0
-54 -99 -134 0
-55 -100 -135 0
-81 -176 -241 0
-82 -177 -242 0
-83 -178 -243 0
-84 -179 -244 0
-85 -180 -245 0
-66 -91 -111 0
-67 -92 -112 0
-68 -93 -113 0
-69 -94 -114 0
-70 -95 -115 0
-46 -131 -171 0
-47 -132 -172 0
-48 -133 -173 0
-49 -134 -174 0
-50 -135 -175 0
-6 -146 -161 0
-7 -147 -162 0
-8 -148 -163 0
-9 -149 -164 0
-10 -150 -165 0
-6 -106 -141 0
-7 -107 -142 0
-8 -108 -143 0
-9 -109 -144 0
-10 -110 -145 0
-21 -51 -181 0
-22 -52 -182 0
-23 -53 -183 0
-24 -54 -184 0
-25 -55 -185 0
-1 -126 -156 0
-2 -127 -157 0
-3 -128 -158 0
-4 -129 -159 0
-5 -130 -160 0
-6 -201 -206 0
-7 -202 -207 0
-8 -203 -208 0
-9 -204 -209 0
-10 -205 -210 0
-36 -186 -251 0
-37 -187 -252 0
-38 -188 -253 0
-39 -189 -254 0
-40 -190 -255 0
-146 -186 -221 0
-147 -187 -222 0
-148 -188 -223 0
-149 -189 -224 0
-150 -190 -225 0
-71 -121 -226 0
-72 -122 -227 0
-73 -123 -228 0
-74 -124 -229 0
-75 -125 -230 0
-131 -191 -236 0
-132 -192 -237 0
-133 -193 -238 0
-134 -194 -239 0
-135 -195 -240 0
-16 -51 -241 0
-17 -52 -242 0
-18 -53 -243 0
-19 -54 -244 0
-20 -55 -245 0
-16 -216 -226 0
-17 -217 -227 0
-18 -218 -228 0
-19 -219 -229 0
-20 -220 -230 0
-21 -56 -186 0
-22 -57 -187 0
-23 -58 -188 0
-24 -59 -189 0
-25 -60 -190 0
-6 -176 -241 0
-7 -177 -242 0
-8 -178 -243 0
-9 -179 -244 0
-10 -180 -245 0
-66 -151 -161 0
-67 -152 -162 0
-68 -153 -163 0
-69 -154 -164 0
-70 -155 -165 0
-96 -221 -246 0
-97 -222 -247 0
-98 -223 -248 0
-99 -224 -249 0
-100 -225 -250 0
-61 -121 -131 0
-62 -122 -132 0
-63 -123 -133 0
-64 -124 -134 0
-65 -125 -135 0
-131 -156 -221 0
-132 -157 -222 0
-133 -158 -223 0
-134 -159 -224 0
-135 -160 -225 0
-56 -66 -241 0
-57 -67 -242 0
-58 -68 -243 0
-59 -69 -244 0
-60 -70 -245 0
-66 -166 -216 0
-67 -167 -217 0
-68 -168 -218 0
-69 -169 -219 0
-70 -170 -220 0
-101 -161 -216 0
-102 -162 -217 0
-103 -163 -218 0
-104 -164 -219 0
-105 -165 -220 0
-41 -86 -226 0
-42 -87 -227 0
-43 -88 -228 0
-44 -89 -229 0
-45 -90 -230 0
-11 -146 -171 0
-12 -147 -172 0
-13 -148 -173 0
-14 -149 -174 0
-15 -150 -175 0
-66 -111 -166 0
-67 -112 -167 0
-68 -113 -168 0
-69 -114 -169 0
-70 -115 -170 0
-11 -106 -151 0
-12 -107 -152 0
-13 -108 -153 0
-14 -109 -154 0
-15 -110 -155 0
-16 -86 -141 0
-17 -87 -142 0
-18 -88 -143 0
-19 -89 -144 0
-20 -90 -145 0
-16 -46 -121 0
-17 -47 -122 0
-18 -48 -123 0
-19 -49 -124 0
-20 -50 -125 0
-11 -56 -81 0
-12 -57 -82 0
-13 -58 -83 0
-14 -59 -84 0
-15 -60 -85 0
-91 -96 -146 0
-92 -97 -147 0
-93 -98 -148 0
-94 -99 -149 0
-95 -100 -150 0
-96 -181 -251 0
-97 -182 -252 0
-98 -183 -253 0
-99 -184 -254 0
-100 -185 -255 0
-56 -211 -236 0
-57 -212 -237 0
-58 -213 -238 0
-59 -214 -239 0
-60 -215 -240 0
-171 -191 -196 0
-172 -192 -197 0
-173 -193 -198 0
-174 -194 -199 0
-175 -195 -200 0
-111 -126 -186 0
-112 -127 -187 0
-113 -128 -188 0
-114 -129 -189 0
-115 -130 -190 0
-66 -91 -176 0
-67 -92 -177 0
-68 -93 -178 0
-69 -94 -179 0
-70 -95 -180 0
-56 -116 -166 0
-57 -117 -167 0
-58 -118 -168 0
-59 -119 -169 0
-60 -120 -170 0
-76 -176 -181 0
-77 -177 -182 0
-78 -178 -183 0
-79 -179 -184 0
-80 -180 -185 0
-11 -16 -86 0
-12 -17 -87 0
-13 -18 -88 0
-14 -19 -89 0
-15 -20 -90 0
-31 -141 -196 0
-32 -142 -197 0
-33 -143 -198 0
-34 -144 -199 0
-35 -145 -200 0
-36 -76 -221 0
-37 -77 -222 0
-38 -78 -223 0
-39 -79 -224 0
-40 -80 -225 0
-96 -106 -211 0
-97 -107 -212 0
-98 -108 -213 0
-99 -109 -214 0
-100 -110 -215 0
-26 -96 -106 0
-27 -97 -107 0
-28 -98 -108 0
-29 -99 -109 0
-30 -100 -110 0
-46 -91 -241 0
-47 -92 -242 0
-48 -93 -243 0
-49 -94 -244 0
-50 -95 -245 0
-11 -181 -251 0
-12 -182 -252 0
-13 -183 -253 0
-14 -184 -254 0
-15 -185 -255 0
-166 -236 -241 0
-167 -237 -242 0
-168 -238 -243 0
-169 -239 -244 0
-170 -240 -245 0
-141 -156 -251 0
-142 -157 -252 0
-143 -158 -253 0
-144 -159 -254 0
-145 -160 -255 0
-16 -121 -221 0
-17 -122 -222 0
-18 -123 -223 0
-19 -124 -224 0
-20 -125 -225 0
-76 -136 -186 0
-77 -137 -187 0
-78 -138 -188 0
-79 -139 -189 0
-80 -140 -190 0
-76 -191 -231 0
-77 -192 -232 0
-78 -193 -233 0
-79 -194 -234 0
-80 -195 -235 0
-121 -146 -206 0
-122 -147 -207 0
-123 -148 -208 0
-124 -149 -209 0
-125 -150 -210 0
-66 -111 -231 0
-67 -112 -232 0
-68 -113 -233 0
-69 -114 -234 0
-70 -115 -235 0
-16 -31 -161 0
-17 -32 -162 0
-18 -33 -163 0
-19 -34 -164 0
-20 -35 -165 0
-21 -201 -246 0
-22 -202 -247 0
-23 -203 -248 0
-24 -204 -249 0
-25 -205 -250 0
-21 -91 -151 0
-22 -92 -152 0
-23 -93 -153 0
-24 -94 -154 0
-25 -95 -155 0
-116 -166 -211 0
-117 -167 -212 0
-118 -168 -213 0
-119 -169 -214 0
-120 -170 -215 0
-31 -121 -231 0
-32 -122 -232 0
-33 -123 -233 0
-34 -124 -234 0
-35 -125 -235 0
-21 -51 -131 0
-22 -52 -132 0
-23 -53 -133 0
-24 -54 -134 0
-25 -55 -135 0
-26 -91 -171 0
-27 -92 -172 0
-28 -93 -173 0
-29 -94 -174 0
-30 -95 -175 0
-1 -46 -66 0
-2 -47 -67 0
-3 -48 -68 0
-4 -49 -69 0
-5 -50 -70 0
-71 -81 -156 0
-72 -82 -157 0
-73 -83 -158 0
-74 -84 -159 0
-75 -85 -160 0
-6 -176 -191 0
-7 -177 -192 0
-8 -178 -193 0
-9 -179 -194 0
-10 -180 -195 0
-41 -181 -246 0
-42 -182 -247 0
-43 -183 -248 0
-44 -184 -249 0
-45 -185 -250 0
-6 -231 -236 0
-7 -232 -237 0
-8 -233 -238 0
-9 -234 -239 0
-10 -235 -240 0
-6 -31 -56 0
-7 -32 -57 0
-8 -33 -58 0
-9 -34 -59 0
-10 -35 -60 0
-21 -71 -161 0
-22 -72 -162 0
-23 -73 -163 0
-24 -74 -164 0
-25 -75 -165 0
-101 -211 -236 0
-102 -212 -237 0
-103 -213 -238 0
-104 -214 -239 0
-105 -215 -240 0
-1 -211 -231 0
-2 -212 -232 0
-3 -213 -233 0
-4 -214 -234 0
-5 -215 -235 0
-16 -21 -216 0
-17 -22 -217 0
-18 -23 -218 0
-19 -24 -219 0
-20 -25 -220 0
-86 -131 -211 0
-87 -132 -212 0
-88 -133 -213 0
-89 -134 -214 0
-90 -135 -215 0
-36 -106 -186 0
-37 -107 -187 0
-38 -108 -188 0
-39 -109 -189 0
-40 -110 -190 0
-41 -86 -176 0
-42 -87 -177 0
-43 -88 -178 0
-44 -89 -179 0
-45 -90 -180 0
-101 -196 -206 0
-102 -197 -207 0
-103 -198 -208 0
-104 -199 -209 0
-105 -200 -210 0
-6 -196 -221 0
-7 -197 -222 0
-8 -198 -223 0
-9 -199 -224 0
-10 -200 -225 0
-116 -146 -246 0
-117 -147 -247 0
-118 -148 -248 0
-119 -149 -249 0
-120 -150 -250 0
-26 -111 -226 0
-27 -112 -227 0
-28 -113 -228 0
-29 -114 -229 0
-30 -115 -230 0
-41 -51 -161 0
-42 -52 -162 0
-43 -53 -163 0
-44 -54 -164 0
-45 -55 -165 0
-141 -231 -241 0
-142 -232 -242 0
-143 -233 -243 0
-144 -234 -244 0
-145 -235 -245 0
-46 -116 -161 0
-47 -117 -162 0
-48 -118 -163 0
-49 -119 -164 0
-50 -120 -165 0
-31 -61 -241 0
-32 -62 -242 0
-33 -63 -243 0
-34 -64 -244 0
-35 -65 -245 0
-41 -81 -241 0
-42 -82 -242 0
-43 -83 -243 0
-44 -84 -244 0
-45 -85 -245 0
-11 -16 -36 0
-12 -17 -37 0
-13 -18 -38 0
-14 -19 -39 0
-15 -20 -40 0
-11 -176 -196 0
-12 -177 -197 0
-13 -178 -198 0
-14 -179 -199 0
-15 -180 -200 0
-11 -71 -81 0
-12 -72 -82 0
-13 -73 -83 0
-14 -74 -84 0
-15 -75 -85 0
-51 -71 -176 0
-52 -72 -177 0
-53 -73 -178 0
-54 -74 -179 0
-55 -75 -180 0
-11 -181 -201 0
-12 -182 -202 0
-13 -183 -203 0
-14 -184 -204 0
-15 -185 -205 0
-16 -161 -191 0
-17 -162 -192 0
-18 -163 -193 0
-19 -164 -194 0
-20 -165 -195 0
-106 -161 -201 0
-107 -162 -202 0
-108 -163 -203 0
-109 -164 -204 0
-110 -165 -205 0
-111 -196 -231 0
-112 -197 -232 0
-113 -198 -233 0
-114 -199 -234 0
-115 -200 -235 0
-16 -81 -151 0
-17 -82 -152 0
-18 -83 -153 0
-19 -84 -154 0
-20 -85 -155 0
-106 -216 -246 0
-107 -217 -247 0
-108 -218 -248 0
-109 -219 -249 0
-110 -220 -250 0
-56 -231 -241 0
-57 -232 -242 0
-58 -233 -243 0
-59 -234 -244 0
-60 -235 -245 0
-156 -191 -226 0
-157 -192 -227 0
-158 -193 -228 0
-159 -194 -229 0
-160 -195 -230 0
-66 -161 -251 0
-67 -162 -252 0
-68 -163 -253 0
-69 -164 -254 0
-70 -165 -255 0
-91 -126 -196 0
-92 -127 -197 0
-93 -128 -198 0
-94 -129 -199 0
-95 -130 -200 0
-16 -136 -226 0
-17 -137 -227 0
-18 -138 -228 0
-19 -139 -229 0
-20 -140 -230 0
-111 -146 -191 0
-112 -147 -192 0
-113 -148 -193 0
-114 -149 -194 0
-115 -150 -195 0
-31 -66 -106 0
-32 -67 -107 0
-33 -68 -108 0
-34 -69 -109 0
-35 -70 -110 0
-66 -71 -161 0
-67 -72 -162 0
-68 -73 -163 0
-69 -74 -164 0
-70 -75 -165 0
-106 -126 -186 0
-107 -127 -187 0
-108 -128 -188 0
-109 -129 -189 0
-110 -130 -190 0
-76 -116 -146 0
-77 -117 -147 0
-78 -118 -148 0
-79 -119 -149 0
-80 -120 -150 0
-66 -86 -216 0
-67 -87 -217 0
-68 -88 -218 0
-69 -89 -219 0
-70 -90 -220 0
-116 -186 -196 0
-117 -187 -197 0
-118 -188 -198 0
-119 -189 -199 0
-120 -190 -200 0
-121 -161 -206 0
-122 -162 -207 0
-123 -163 -208 0
-124 -164 -209 0
-125 -165 -210 0
-41 -141 -176 0
-42 -142 -177 0
-43 -143 -178 0
-44 -144 -179 0
-45 -145 -180 0
-21 -176 -226 0
-22 -177 -227 0
-23 -178 -228 0
-24 -179 -229 0
-25 -180 -230 0
-51 -66 -236 0
-52 -67 -237 0
-53 -68 -238 0
-54 -69 -239 0
-55 -70 -240 0
-106 -116 -241 0
-107 -117 -242 0
-108 -118 -243 0
-109 -119 -244 0
-110 -120 -245 0
-136 -201 -206 0
-137 -202 -207 0
-138 -203 -208 0
-139 -204 -209 0
-140 -205 -210 0
-26 -66 -151 0
-27 -67 -152 0
-28 -68 -153 0
-29 -69 -154 0
-30 -70 -155 0
-31 -86 -161 0
-32 -87 -162 0
-33 -88 -163 0
-34 -89 -164 0
-35 -90 -165 0
-21 -86 -166 0
-22 -87 -167 0
-23 -88 -168 0
-24 -89 -169 0
-25 -90 -170 0
-6 -136 -146 0
-7 -137 -147 0
-8 -138 -148 0
-9 -139 -149 0
-10 -140 -150 0
-1 -66 -71 0
-2 -67 -72 0
-3 -68 -73 0
-4 -69 -74 0
-5 -70 -75 0
-136 -221 -236 0
-137 -222 -237 0
-138 -223 -238 0
-139 -224 -239 0
-140 -225 -240 0
-1 -226 -231 0
-2 -227 -232 0
-3 -228 -233 0
-4 -229 -234 0
-5 -230 -235 0
-51 -201 -211 0
-52 -202 -212 0
-53 -203 -213 0
-54 -204 -214 0
-55 -205 -215 0
-31 -61 -191 0
-32 -62 -192 0
-33 -63 -193 0
-34 -64 -194 0
-35 -65 -195 0
-16 -41 -221 0
-17 -42 -222 0
-18 -43 -223 0
-19 -44 -224 0
-20 -45 -225 0
-36 -46 -151 0
-37 -47 -152 0
-38 -48 -153 0
-39 -49 -154 0
-40 -50 -155 0
-126 -181 -246 0
-127 -182 -247 0
-128 -183 -248 0
-129 -184 -249 0
-130 -185 -250 0
-96 -156 -181 0
-97 -157 -182 0
-98 -158 -183 0
-99 -159 -184 0
-100 -160 -185 0
-136 -141 -221 0
-137 -142 -222 0
-138 -143 -223 0
-139 -144 -224 0
-140 -145 -225 0
-1 -96 -146 0
-2 -97 -147 0
-3 -98 -148 0
-4 -99 -149 0
-5 -100 -150 0
-46 -91 -141 0
-47 -92 -142 0
-48 -93 -143 0
-49 -94 -144 0
-50 -95 -145 0
-116 -126 -231 0
-117 -127 -232 0
-118 -128 -233 0
-119 -129 -234 0
-120 -130 -235 0
-51 -126 -171 0
-52 -127 -172 0
-53 -128 -173 0
-54 -129 -174 0
-55 -130 -175 0
-6 -26 -91 0
-7 -27 -92 0
-8 -28 -93 0
-9 -29 -94 0
-10 -30 -95 0
-96 -161 -186 0
-97 -162 -187 0
-98 -163 -188 0
-99 -164 -189 0
-100 -165 -190 0
-91 -236 -241 0
-92 -237 -242 0
-93 -238 -243 0
-94 -239 -244 0
-95 -240 -245 0
-6 -186 -251 0
-7 -187 -252 0
-8 -188 -253 0
-9 -189 -254 0
-10 -190 -255 0
-91 -126 -146 0
-92 -127 -147 0
-93 -128 -148 0
-94 -129 -149 0
-95 -130 -150 0
-91 -181 -191 0
-92 -182 -192 0
-93 -183 -193 0
-94 -184 -194 0
-95 -185 -195 0
-16 -231 -241 0
-17 -232 -242 0
-18 -233 -243 0
-19 -234 -244 0
-20 -235 -245 0
-66 -176 -226 0
-67 -177 -227 0
-68 -178 -228 0
-69 -179 -229 0
-70 -180 -230 0
-11 -106 -116 0
-12 -107 -117 0
-13 -108 -118 0
-14 -109 -119 0
-15 -110 -120 0
-56 -96 -101 0
-57 -97 -102 0
-58 -98 -103 0
-59 -99 -104 0
-60 -100 -105 0
-11 -101 -136 0
-12 -102 -137 0
-13 -103 -138 0
-14 -104 -139 0
-15 -105 -140 0
-66 -126 -186 0
-67 -127 -187 0
-68 -128 -188 0
-69 -129 -189 0
-70 -130 -190 0
-11 -116 -161 0
-12 -117 -162 0
-13 -118 -163 0
-14 -119 -164 0
-15 -120 -165 0
-91 -106 -156 0
-92 -107 -157 0
-93 -108 -158 0
-94 -109 -159 0
-95 -110 -160 0
-56 -166 -201 0
-57 -167 -202 0
-58 -168 -203 0
-59 -169 -204 0
-60 -170 -205 0
-51 -146 -226 0
-52 -147 -227 0
-53 -148 -228 0
-54 -149 -229 0
-55 -150 -230 0
-141 -146 -236 0
-142 -147 -237 0
-143 -148 -238 0
-144 -149 -239 0
-145 -150 -240 0
-21 -81 -111 0
-22 -82 -112 0
-23 -83 -113 0
-24 -84 -114 0
-25 -85 -115 0
-71 -96 -111 0
-72 -97 -112 0
-73 -98 -113 0
-74 -99 -114 0
-75 -100 -115 0
-36 -86 -236 0
-37 -87 -237 0
-38 -88 -238 0
-39 -89 -239 0
-40 -90 -240 0
-111 -136 -196 0
-112 -137 -197 0
-113 -138 -198 0
-114 -139 -199 0
-115 -140 -200 0
-71 -151 -156 0
-72 -152 -157 0
-73 -153 -158 0
-74 -154 -159 0
-75 -155 -160 0
-36 -46 -216 0
-37 -47 -217 0
-38 -48 -218 0
-39 -49 -219 0
-40 -50 -220 0
-76 -91 -126 0
-77 -92 -127 0
-78 -93 -128 0
-79 -94 -129 0
-80 -95 -130 0
-151 -231 -236 0
-152 -232 -237 0
-153 -233 -238 0
-154 -234 -239 0
-155 -235 -240 0
-16 -91 -216 0
-17 -92 -217 0
-18 -93 -218 0
-19 -94 -219 0
-20 -95 -220 0
-26 -156 -186 0
-27 -157 -187 0
-28 -158 -188 0
-29 -159 -189 0
-30 -160 -190 0
-86 -201 -211 0
-87 -202 -212 0
-88 -203 -213 0
-89 -204 -214 0
-90 -205 -215 0
-71 -101 -111 0
-72 -102 -112 0
-73 -103 -113 0
-74 -104 -114 0
-75 -105 -115 0
-16 -36 -166 0
-17 -37 -167 0
-18 -38 -168 0
-19 -39 -169 0
-20 -40 -170 0
-31 -61 -141 0
-32 -62 -142 0
-33 -63 -143 0
-34 -64 -144 0
-35 -65 -145 0
-81 -131 -156 0
-82 -132 -157 0
-83 -133 -158 0
-84 -134 -159 0
-85 -135 -160 0
-111 -116 -231 0
-112 -117 -232 0
-113 -118 -233 0
-114 -119 -234 0
-115 -120 -235 0
-66 -86 -231 0
-67 -87 -232 0
-68 -88 -233 0
-69 -89 -234 0
-70 -90 -235 0
-131 -161 -181 0
-132 -162 -182 0
-133 -163 -183 0
-134 -164 -184 0
-135 -165 -185 0
-61 -91 -211 0
-62 -92 -212 0
-63 -93 -213 0
-64 -94 -214 0
-65 -95 -215 0
-126 -141 -176 0
-127 -142 -177 0
-128 -143 -178 0
-129 -144 -179 0
-130 -145 -180 0
-31 -81 -171 0
-32 -82 -172 0
-33 -83 -173 0
-34 -84 -174 0
-35 -85 -175 0
-81 -191 -206 0
-82 -192 -207 0
-83 -193 -208 0
-84 -194 -209 0
-85 -195 -210 0
-6 -131 -156 0
-7 -132 -157 0
-8 -133 -158 0
-9 -134 -159 0
-10 -135 -160 0
-126 -186 -201 0
-127 -187 -202 0
-128 -188 -203 0
-129 -189 -204 0
-130 -190 -205 0
-6 -26 -41 0
-7 -27 -42 0
-8 -28 -43 0
-9 -29 -44 0
-10 -30 -45 0
-136 -146 -176 0
-137 -147 -177 0
-138 -148 -178 0
-139 -149 -179 0
-140 -150 -180 0
-1 -111 -151 0
-2 -112 -152 0
-3 -113 -153 0
-4 -114 -154 0
-5 -115 -155 0
-6 -186 -201 0
-7 -187 -202 0
-8 -188 -203 0
-9 -189 -204 0
-10 -190 -205 0
-101 -126 -181 0
-102 -127 -182 0
-103 -128 -183 0
-104 -129 -184 0
-105 -130 -185 0
-96 -171 -181 0
-97 -172 -182 0
-98 -173 -183 0
-99 -174 -184 0
-100 -175 -185 0
-146 -216 -241 0
-147 -217 -242 0
-148 -218 -243 0
-149 -219 -244 0
-150 -220 -245 0
-46 -216 -236 0
-47 -217 -237 0
-48 -218 -238 0
-49 -219 -239 0
-50 -220 -240 0
-21 -41 -181 0
-22 -42 -182 0
-23 -43 -183 0
-24 -44 -184 0
-25 -45 -185 0
-86 -91 -181 0
-87 -92 -182 0
-88 -93 -183 0
-89 -94 -184 0
-90 -95 -185 0
-16 -76 -251 0
-17 -77 -252 0
-18 -78 -253 0
-19 -79 -254 0
-20 -80 -255 0
-66 -126 -136 0
-67 -127 -137 0
-68 -128 -138 0
-69 -129 -139 0
-70 -130 -140 0
-131 -141 -216 0
-132 -142 -217 0
-133 -143 -218 0
-134 -144 -219 0
-135 -145 -220 0
-126 -161 -231 0
-127 -162 -232 0
-128 -163 -233 0
-129 -164 -234 0
-130 -165 -235 0
-1 -21 -86 0
-2 -22 -87 0
-3 -23 -88 0
-4 -24 -89 0
-5 -25 -90 0
-1 -181 -246 0
-2 -182 -247 0
-3 -183 -248 0
-4 -184 -249 0
-5 -185 -250 0
-71 -76 -211 0
-72 -77 -212 0
-73 -78 -213 0
-74 -79 -214 0
-75 -80 -215 0
-11 -26 -51 0
-12 -27 -52 0
-13 -28 -53 0
-14 -29 -54 0
-15 -30 -55 0
-16 -206 -221 0
-17 -207 -222 0
-18 -208 -223 0
-19 -209 -224 0
-20 -210 -225 0
-71 -91 -236 0
-72 -92 -237 0
-73 -93 -238 0
-74 -94 -239 0
-75 -95 -240 0
-126 -141 -241 0
-127 -142 -242 0
-128 -143 -243 0
-129 -144 -244 0
-130 -145 -245 0
-31 -96 -111 0
-32 -97 -112 0
-33 -98 -113 0
-34 -99 -114 0
-35 -100 -115 0
-61 -176 -221 0
-62 -177 -222 0
-63 -178 -223 0
-64 -179 -224 0
-65 -180 -225 0
-61 -71 -106 0
-62 -72 -107 0
-63 -73 -108 0
-64 -74 -109 0
-65 -75 -110 0
-91 -121 -156 0
-92 -122 -157 0
-93 -123 -158 0
-94 -124 -159 0
-95 -125 -160 0
-16 -131 -186 0
-17 -132 -187 0
-18 -133 -188 0
-19 -134 -189 0
-20 -135 -190 0
-56 -181 -201 0
-57 -182 -202 0
-58 -183 -203 0
-59 -184 -204 0
-60 -185 -205 0
-81 -91 -226 0
-82 -92 -227 0
-83 -93 -228 0
-84 -94 -229 0
-85 -95 -230 0
-16 -186 -231 0
-17 -187 -232 0
-18 -188 -233 0
-19 -189 -234 0
-20 -190 -235 0
-21 -36 -241 0
-22 -37 -242 0
-23 -38 -243 0
-24 -39 -244 0
-25 -40 -245 0
-11 -136 -166 0
-12 -137 -167 0
-13 -138 -168 0
-14 -139 -169 0
-15 -140 -170 0
-51 -141 -241 0
-52 -142 -242 0
-53 -143 -243 0
-54 -144 -244 0
-55 -145 -245 0
-121 -211 -216 0
-122 -212 -217 0
-123 -213 -218 0
-124 -214 -219 0
-125 -215 -220 0
-26 -61 -251 0
-27 -62 -252 0
-28 -63 -253 0
-29 -64 -254 0
-30 -65 -255 0
-11 -211 -246 0
-12 -212 -247 0
-13 -213 -248 0
-14 -214 -249 0
-15 -215 -250 0
-61 -126 -176 0
-62 -127 -177 0
-63 -128 -178 0
-64 -129 -179 0
-65 -130 -180 0
-56 -201 -231 0
-57 -202 -232 0
-58 -203 -233 0
-59 -204 -234 0
-60 -205 -235 0
-61 -86 -156 0
-62 -87 -157 0
-63 -88 -158 0
-64 -89 -159 0
-65 -90 -160 0
-76 -216 -246 0
-77 -217 -247 0
-78 -218 -248 0
-79 -219 -249 0
-80 -220 -250 0
-76 -111 -131 0
-77 -112 -132 0
-78 -113 -133 0
-79 -114 -134 0
-80 -115 -135 0
-151 -226 -251 0
-152 -227 -252 0
-153 -228 -253 0
-154 -229 -254 0
-155 -230 -255 0
-31 -76 -146 0
-32 -77 -147 0
-33 -78 -148 0
-34 -79 -149 0
-35 -80 -150 0
-166 -221 -231 0
-167 -222 -232 0
-168 -223 -233 0
-169 -224 -234 0
-170 -225 -235 0
-86 -126 -151 0
-87 -127 -152 0
-88 -128 -153 0
-89 -129 -154 0
-90 -130 -155 0
-76 -181 -231 0
-77 -182 -232 0
-78 -183 -233 0
-79 -184 -234 0
-80 -185 -235 0
-16 -126 -246 0
-17 -127 -247 0
-18 -128 -248 0
-19 -129 -249 0
-20 -130 -250 0
-36 -41 -251 0
-37 -42 -252 0
-38 -43 -253 0
-39 -44 -254 0
-40 -45 -255 0
-86 -106 -161 0
-87 -107 -162 0
-88 -108 -163 0
-89 -109 -164 0
-90 -110 -165 0
-116 -156 -211 0
-117 -157 -212 0
-118 -158 -213 0
-119 -159 -214 0
-120 -160 -215 0
-136 -231 -251 0
-137 -232 -252 0
-138 -233 -253 0
-139 -234 -254 0
-140 -235 -255 0
-86 -91 -131 0
-87 -92 -132 0
-88 -93 -133 0
-89 -94 -134 0
-90 -95 -135 0
-41 -116 -171 0
-42 -117 -172 0
-43 -118 -173 0
-44 -119 -174 0
-45 -120 -175 0
-76 -106 -191 0
-77 -107 -192 0
-78 -108 -193 0
-79 -109 -194 0
-80 -110 -195 0
-126 -216 -226 0
-127 -217 -227 0
-128 -218 -228 0
-129 -219 -229 0
-130 -220 -230 0
-31 -71 -206 0
-32 -72 -207 0
-33 -73 -208 0
-34 -74 -209 0
-35 -75 -210 0
-6 -56 -66 0
-7 -57 -67 0
-8 -58 -68 0
-9 -59 -69 0
-10 -60 -70 0
-126 -176 -206 0
-127 -177 -207 0
-128 -178 -208 0
-129 -179 -209 0
-130 -180 -210 0
-21 -61 -161 0
-22 -62 -162 0
-23 -63 -163 0
-24 -64 -164 0
-25 -65 -165 0
-146 -231 -241 0
-147 -232 -242 0
-148 -233 -243 0
-149 -234 -244 0
-150 -235 -245 0
-6 -221 -231 0
-7 -222 -232 0
-8 -223 -233 0
-9 -224 -234 0
-10 -225 -235 0
-1 -106 -161 0
-2 -107 -162 0
-3 -108 -163 0
-4 -109 -164 0
-5 -110 -165 0
-1 -201 -226 0
-2 -202 -227 0
-3 -203 -228 0
-4 -204 -229 0
-5 -205 -230 0
-6 -16 -71 0
-7 -17 -72 0
-8 -18 -73 0
-9 -19 -74 0
-10 -20 -75 0
-16 -236 -251 0
-17 -237 -252 0
-18 -238 -253 0
-19 -239 -254 0
-20 -240 -255 0
-136 -156 -241 0
-137 -157 -242 0
-138 -158 -243 0
-139 -159 -244 0
-140 -160 -245 0
-21 -76 -211 0
-22 -77 -212 0
-23 -78 -213 0
-24 -79 -214 0
-25 -80 -215 0
-41 -96 -206 0
-42 -97 -207 0
-43 -98 -208 0
-44 -99 -209 0
-45 -100 -210 0
-46 -101 -151 0
-47 -102 -152 0
-48 -103 -153 0
-49 -104 -154 0
-50 -105 -155 0
-6 -181 -236 0
-7 -182 -237 0
-8 -183 -238 0
-9 -184 -239 0
-10 -185 -240 0
-11 -56 -76 0
-12 -57 -77 0
-13 -58 -78 0
-14 -59 -79 0
-15 -60 -80 0
-26 -61 -201 0
-27 -62 -202 0
-28 -63 -203 0
-29 -64 -204 0
-30 -65 -205 0
-146 -176 -236 0
-147 -177 -237 0
-148 -178 -238 0
-149 -179 -239 0
-150 -180 -240 0
-61 -86 -106 0
-62 -87 -107 0
-63 -88 -108 0
-64 -89 -109 0
-65 -90 -110 0
-11 -206 -216 0
-12 -207 -217 0
-13 -208 -218 0
-14 -209 -219 0
-15 -210 -220 0
-11 -61 -81 0
-12 -62 -82 0
-13 -63 -83 0
-14 -64 -84 0
-15 -65 -85 0
-56 -176 -216 0
-57 -177 -217 0
-58 -178 -218 0
-59 -179 -219 0
-60 -180 -220 0
-11 -111 -146 0
-12 -112 -147 0
-13 -113 -148 0
-14 -114 -149 0
-15 -115 -150 0
-101 -141 -246 0
-102 -142 -247 0
-103 -143 -248 0
-104 -144 -249 0
-105 -145 -250 0
-131 -136 -251 0
-132 -137 -252 0
-133 -138 -253 0
-134 -139 -254 0
-135 -140 -255 0
-31 -131 -141 0
-32 -132 -142 0
-33 -133 -143 0
-34 -134 -144 0
-35 -135 -145 0
-11 -226 -246 0
-12 -227 -247 0
-13 -228 -248 0
-14 -229 -249 0
-15 -230 -250 0
-56 -161 -186 0
-57 -162 -187 0
-58 -163 -188 0
-59 -164 -189 0
-60 -165 -190 0
-156 -176 -216 0
-157 -177 -217 0
-158 -178 -218 0
-159 -179 -219 0
-160 -180 -220 0
-21 -76 -96 0
-22 -77 -97 0
-23 -78 -98 0
-24 -79 -99 0
-25 -80 -100 0
-161 -176 -241 0
-162 -177 -242 0
-163 -178 -243 0
-164 -179 -244 0
-165 -180 -245 0
-26 -101 -106 0
-27 -102 -107 0
-28 -103 -108 0
-29 -104 -109 0
-30 -105 -110 0
-31 -146 -191 0
-32 -147 -192 0
-33 -148 -193 0
-34 -149 -194 0
-35 -150 -195 0
-141 -161 -251 0
-142 -162 -252 0
-143 -163 -253 0
-144 -164 -254 0
-145 -165 -255 0
-71 -216 -241 0
-72 -217 -242 0
-73 -218 -243 0
-74 -219 -244 0
-75 -220 -245 0
-76 -156 -211 0
-77 -157 -212 0
-78 -158 -213 0
-79 -159 -214 0
-80 -160 -215 0
-136 -171 -176 0
-137 -172 -177 0
-138 -173 -178 0
-139 -174 -179 0
-140 -175 -180 0
-26 -226 -251 0
-27 -227 -252 0
-28 -228 -253 0
-29 -229 -254 0
-30 -230 -255 0
-31 -206 -241 0
-32 -207 -242 0
-33 -208 -243 0
-34 -209 -244 0
-35 -210 -245 0
-41 -166 -186 0
-42 -167 -187 0
-43 -168 -188 0
-44 -169 -189 0
-45 -170 -190 0
-121 -126 -211 0
-122 -127 -212 0
-123 -128 -213 0
-124 -129 -214 0
-125 -130 -215 0
-16 -51 -186 0
-17 -52 -187 0
-18 -53 -188 0
-19 -54 -189 0
-20 -55 -190 0
-16 -106 -231 0
-17 -107 -232 0
-18 -108 -233 0
-19 -109 -234 0
-20 -110 -235 0
-21 -56 -131 0
-22 -57 -132 0
-23 -58 -133 0
-24 -59 -134 0
-25 -60 -135 0
-86 -176 -206 0
-87 -177 -207 0
-88 -178 -208 0
-89 -179 -209 0
-90 -180 -210 0
-1 -106 -111 0
-2 -107 -112 0
-3 -108 -113 0
-4 -109 -114 0
-5 -110 -115 0
-71 -141 -201 0
-72 -142 -202 0
-73 -143 -203 0
-74 -144 -204 0
-75 -145 -205 0
-86 -141 -191 0
-87 -142 -192 0
-88 -143 -193 0
-89 -144 -194 0
-90 -145 -195 0
-126 -191 -206 0
-127 -192 -207 0
-128 -193 -208 0
-129 -194 -209 0
-130 -195 -210 0
-116 -151 -221 0
-117 -152 -222 0
-118 -153 -223 0
-119 -154 -224 0
-120 -155 -225 0
-46 -206 -216 0
-47 -207 -217 0
-48 -208 -218 0
-49 -209 -219 0
-50 -210 -220 0
-6 -181 -186 0
-7 -182 -187 0
-8 -183 -188 0
-9 -184 -189 0
-10 -185 -190 0
-6 -141 -166 0
-7 -142 -167 0
-8 -143 -168 0
-9 -144 -169 0
-10 -145 -170 0
-6 -101 -146 0
-7 -102 -147 0
-8 -103 -148 0
-9 -104 -149 0
-10 -105 -150 0
-126 -156 -191 0
-127 -157 -192 0
-128 -158 -193 0
-129 -159 -194 0
-130 -160 -195 0
-1 -121 -161 0
-2 -122 -162 0
-3 -123 -163 0
-4 -124 -164 0
-5 -125 -165 0
-31 -66 -216 0
-32 -67 -217 0
-33 -68 -218 0
-34 -69 -219 0
-35 -70 -220 0
-16 -46 -246 0
-17 -47 -247 0
-18 -48 -248 0
-19 -49 -249 0
-20 -50 -250 0
-26 -31 -176 0
-27 -32 -177 0
-28 -33 -178 0
-29 -34 -179 0
-30 -35 -180 0
-26 -131 -251 0
-27 -132 -252 0
-28 -133 -253 0
-29 -134 -254 0
-30 -135 -255 0
-1 -126 -166 0
-2 -127 -167 0
-3 -128 -168 0
-4 -129 -169 0
-5 -130 -170 0
-6 -201 -216 0
-7 -202 -217 0
-8 -203 -218 0
-9 -204 -219 0
-10 -205 -220 0
-26 -91 -231 0
-27 -92 -232 0
-28 -93 -233 0
-29 -94 -234 0
-30 -95 -235 0
-56 -61 -246 0
-57 -62 -247 0
-58 -63 -248 0
-59 -64 -249 0
-60 -65 -250 0
-66 -151 -171 0
-67 -152 -172 0
-68 -153 -173 0
-69 -154 -174 0
-70 -155 -175 0
-76 -81 -241 0
-77 -82 -242 0
-78 -83 -243 0
-79 -84 -244 0
-80 -85 -245 0
-16 -121 -166 0
-17 -122 -167 0
-18 -123 -168 0
-19 -124 -169 0
-20 -125 -170 0
-96 -161 -231 0
-97 -162 -232 0
-98 -163 -233 0
-99 -164 -234 0
-100 -165 -235 0
-126 -136 -226 0
-127 -137 -227 0
-128 -138 -228 0
-129 -139 -229 0
-130 -140 -230 0
-61 -171 -206 0
-62 -172 -207 0
-63 -173 -208 0
-64 -174 -209 0
-65 -175 -210 0
-51 -131 -221 0
-52 -132 -222 0
-53 -133 -223 0
-54 -134 -224 0
-55 -135 -225 0
-111 -146 -186 0
-112 -147 -187 0
-113 -148 -188 0
-114 -149 -189 0
-115 -150 -190 0
-51 -91 -201 0
-52 -92 -202 0
-53 -93 -203 0
-54 -94 -204 0
-55 -95 -205 0
-76 -101 -116 0
-77 -102 -117 0
-78 -103 -118 0
-79 -104 -119 0
-80 -105 -120 0
-36 -71 -231 0
-37 -72 -232 0
-38 -73 -233 0
-39 -74 -234 0
-40 -75 -235 0
-106 -181 -226 0
-107 -182 -227 0
-108 -183 -228 0
-109 -184 -229 0
-110 -185 -230 0
-106 -141 -206 0
-107 -142 -207 0
-108 -143 -208 0
-109 -144 -209 0
-110 -145 -210 0
-16 -156 -251 0
-17 -157 -252 0
-18 -158 -253 0
-19 -159 -254 0
-20 -160 -255 0
-166 -176 -201 0
-167 -177 -202 0
-168 -178 -203 0
-169 -179 -204 0
-170 -180 -205 0
-11 -111 -161 0
-12 -112 -162 0
-13 -113 -163 0
-14 -114 -164 0
-15 -115 -165 0
-121 -171 -186 0
-122 -172 -187 0
-123 -173 -188 0
-124 -174 -189 0
-125 -175 -190 0
-61 -111 -221 0
-62 -112 -222 0
-63 -113 -223 0
-64 -114 -224 0
-65 -115 -225 0
-21 -126 -181 0
-22 -127 -182 0
-23 -128 -183 0
-24 -129 -184 0
-25 -130 -185 0
-26 -201 -231 0
-27 -202 -232 0
-28 -203 -233 0
-29 -204 -234 0
-30 -205 -235 0
-56 -81 -161 0
-57 -82 -162 0
-58 -83 -163 0
-59 -84 -164 0
-60 -85 -165 0
-31 -46 -136 0
-32 -47 -137 0
-33 -48 -138 0
-34 -49 -139 0
-35 -50 -140 0
-46 -91 -251 0
-47 -92 -252 0
-48 -93 -253 0
-49 -94 -254 0
-50 -95 -255 0
-111 -141 -246 0
-112 -142 -247 0
-113 -143 -248 0
-114 -144 -249 0
-115 -145 -250 0
-81 -211 -216 0
-82 -212 -217 0
-83 -213 -218 0
-84 -214 -219 0
-85 -215 -220 0
-26 -111 -171 0
-27 -112 -172 0
-28 -113 -173 0
-29 -114 -174 0
-30 -115 -175 0
-36 -71 -116 0
-37 -72 -117 0
-38 -73 -118 0
-39 -74 -119 0
-40 -75 -120 0
-26 -206 -236 0
-27 -207 -237 0
-28 -208 -238 0
-29 -209 -239 0
-30 -210 -240 0
-71 -101 -156 0
-72 -102 -157 0
-73 -103 -158 0
-74 -104 -159 0
-75 -105 -160 0
-41 -106 -151 0
-42 -107 -152 0
-43 -108 -153 0
-44 -109 -154 0
-45 -110 -155 0
-86 -101 -146 0
-87 -102 -147 0
-88 -103 -148 0
-89 -104 -149 0
-90 -105 -150 0
-56 -136 -231 0
-57 -137 -232 0
-58 -138 -233 0
-59 -139 -234 0
-60 -140 -235 0
-101 -231 -236 0
-102 -232 -237 0
-103 -233 -238 0
-104 -234 -239 0
-105 -235 -240 0
-6 -66 -81 0
-7 -67 -82 0
-8 -68 -83 0
-9 -69 -84 0
-10 -70 -85 0
-1 -46 -76 0
-2 -47 -77 0
-3 -48 -78 0
-4 -49 -79 0
-5 -50 -80 0
-36 -76 -116 0
-37 -77 -117 0
-38 -78 -118 0
-39 -79 -119 0
-40 -80 -120 0
-116 -171 -226 0
-117 -172 -227 0
-118 -173 -228 0
-119 -174 -229 0
-120 -175 -230 0
-46 -96 -116 0
-47 -97 -117 0
-48 -98 -118 0
-49 -99 -119 0
-50 -100 -120 0
-31 -81 -216 0
-32 -82 -217 0
-33 -83 -218 0
-34 -84 -219 0
-35 -85 -220 0
-1 -196 -216 0
-2 -197 -217 0
-3 -198 -218 0
-4 -199 -219 0
-5 -200 -220 0
-51 -111 -141 0
-52 -112 -142 0
-53 -113 -143 0
-54 -114 -144 0
-55 -115 -145 0
-46 -91 -136 0
-47 -92 -137 0
-48 -93 -138 0
-49 -94 -139 0
-50 -95 -140 0
-86 -171 -241 0
-87 -172 -242 0
-88 -173 -243 0
-89 -174 -244 0
-90 -175 -245 0
-36 -91 -171 0
-37 -92 -172 0
-38 -93 -173 0
-39 -94 -174 0
-40 -95 -175 0
-1 -211 -241 0
-2 -212 -242 0
-3 -213 -243 0
-4 -214 -244 0
-5 -215 -245 0
-131 -206 -251 0
-132 -207 -252 0
-133 -208 -253 0
-134 -209 -254 0
-135 -210 -255 0
-36 -146 -216 0
-37 -147 -217 0
-38 -148 -218 0
-39 -149 -219 0
-40 -150 -220 0
-31 -46 -201 0
-32 -47 -202 0
-33 -48 -203 0
-34 -49 -204 0
-35 -50 -205 0
-21 -46 -206 0
-22 -47 -207 0
-23 -48 -208 0
-24 -49 -209 0
-25 -50 -210 0
-51 -171 -191 0
-52 -172 -192 0
-53 -173 -193 0
-54 -174 -194 0
-55 -175 -195 0
-16 -66 -251 0
-17 -67 -252 0
-18 -68 -253 0
-19 -69 -254 0
-20 -70 -255 0
-31 -101 -246 0
-32 -102 -247 0
-33 -103 -248 0
-34 -104 -249 0
-35 -105 -250 0
-16 -26 -231 0
-17 -27 -232 0
-18 -28 -233 0
-19 -29 -234 0
-20 -30 -235 0
-141 -186 -226 0
-142 -187 -227 0
-143 -188 -228 0
-144 -189 -229 0
-145 -190 -230 0
-11 -51 -61 0
-12 -52 -62 0
-13 -53 -63 0
-14 -54 -64 0
-15 -55 -65 0
-61 -151 -166 0
-62 -152 -167 0
-63 -153 -168 0
-64 -154 -169 0
-65 -155 -170 0
-11 -16 -46 0
-12 -17 -47 0
-13 -18 -48 0
-14 -19 -49 0
-15 -20 -50 0
-31 -141 -156 0
-32 -142 -157 0
-33 -143 -158 0
-34 -144 -159 0
-35 -145 -160 0
-11 -176 -206 0
-12 -177 -207 0
-13 -178 -208 0
-14 -179 -209 0
-15 -180 -210 0
-11 -71 -91 0
-12 -72 -92 0
-13 -73 -93 0
-14 -74 -94 0
-15 -75 -95 0
-141 -151 -206 0
-142 -152 -207 0
-143 -153 -208 0
-144 -154 -209 0
-145 -155 -210 0
-26 -46 -246 0
-27 -47 -247 0
-28 -48 -248 0
-29 -49 -249 0
-30 -50 -250 0
-156 -171 -206 0
-157 -172 -207 0
-158 -173 -208 0
-159 -174 -209 0
-160 -175 -210 0
-16 -216 -251 0
-17 -217 -252 0
-18 -218 -253 0
-19 -219 -254 0
-20 -220 -255 0
-106 -211 -251 0
-107 -212 -252 0
-108 -213 -253 0
-109 -214 -254 0
-110 -215 -255 0
-61 -206 -236 0
-62 -207 -237 0
-63 -208 -238 0
-64 -209 -239 0
-65 -210 -240 0
-91 -161 -221 0
-92 -162 -222 0
-93 -163 -223 0
-94 -164 -224 0
-95 -165 -225 0
-21 -86 -111 0
-22 -87 -112 0
-23 -88 -113 0
-24 -89 -114 0
-25 -90 -115 0
-51 -166 -251 0
-52 -167 -252 0
-53 -168 -253 0
-54 -169 -254 0
-55 -170 -255 0
-11 -181 -211 0
-12 -182 -212 0
-13 -183 -213 0
-14 -184 -214 0
-15 -185 -215 0
-16 -66 -136 0
-17 -67 -137 0
-18 -68 -138 0
-19 -69 -139 0
-20 -70 -140 0
-36 -51 -216 0
-37 -52 -217 0
-38 -53 -218 0
-39 -54 -219 0
-40 -55 -220 0
-166 -191 -201 0
-167 -192 -202 0
-168 -193 -203 0
-169 -194 -204 0
-170 -195 -205 0
-26 -71 -101 0
-27 -72 -102 0
-28 -73 -103 0
-29 -74 -104 0
-30 -75 -105 0
-161 -171 -226 0
-162 -172 -227 0
-163 -173 -228 0
-164 -174 -229 0
-165 -175 -230 0
-66 -71 -171 0
-67 -72 -172 0
-68 -73 -173 0
-69 -74 -174 0
-70 -75 -175 0
-76 -101 -131 0
-77 -102 -132 0
-78 -103 -133 0
-79 -104 -134 0
-80 -105 -135 0
-71 -176 -186 0
-72 -177 -187 0
-73 -178 -188 0
-74 -179 -189 0
-75 -180 -190 0
-16 -41 -166 0
-17 -42 -167 0
-18 -43 -168 0
-19 -44 -169 0
-20 -45 -170 0
-41 -176 -201 0
-42 -177 -202 0
-43 -178 -203 0
-44 -179 -204 0
-45 -180 -205 0
-61 -146 -251 0
-62 -147 -252 0
-63 -148 -253 0
-64 -149 -254 0
-65 -150 -255 0
-71 -191 -236 0
-72 -192 -237 0
-73 -193 -238 0
-74 -194 -239 0
-75 -195 -240 0
-16 -61 -196 0
-17 -62 -197 0
-18 -63 -198 0
-19 -64 -199 0
-20 -65 -200 0
-76 -91 -186 0
-77 -92 -187 0
-78 -93 -188 0
-79 -94 -189 0
-80 -95 -190 0
-1 -206 -211 0
-2 -207 -212 0
-3 -208 -213 0
-4 -209 -214 0
-5 -210 -215 0
-41 -86 -136 0
-42 -87 -137 0
-43 -88 -138 0
-44 -89 -139 0
-45 -90 -140 0
-1 -116 -121 0
-2 -117 -122 0
-3 -118 -123 0
-4 -119 -124 0
-5 -120 -125 0
-21 -141 -221 0
-22 -142 -222 0
-23 -143 -223 0
-24 -144 -224 0
-25 -145 -225 0
-81 -116 -166 0
-82 -117 -167 0
-83 -118 -168 0
-84 -119 -169 0
-85 -120 -170 0
-51 -91 -101 0
-52 -92 -102 0
-53 -93 -103 0
-54 -94 -104 0
-55 -95 -105 0
-36 -111 -151 0
-37 -112 -152 0
-38 -113 -153 0
-39 -114 -154 0
-40 -115 -155 0
-36 -176 -246 0
-37 -177 -247 0
-38 -178 -248 0
-39 -179 -249 0
-40 -180 -250 0
-81 -101 -136 0
-82 -102 -137 0
-83 -103 -138 0
-84 -104 -139 0
-85 -105 -140 0
-101 -226 -246 0
-102 -227 -247 0
-103 -228 -248 0
-104 -229 -249 0
-105 -230 -250 0
-6 -41 -86 0
-7 -42 -87 0
-8 -43 -88 0
-9 -44 -89 0
-10 -45 -90 0
-131 -171 -181 0
-132 -172 -182 0
-133 -173 -183 0
-134 -174 -184 0
-135 -175 -185 0
-46 -221 -236 0
-47 -222 -237 0
-48 -223 -238 0
-49 -224 -239 0
-50 -225 -240 0
-1 -21 -81 0
-2 -22 -82 0
-3 -23 -83 0
-4 -24 -84 0
-5 -25 -85 0
-6 -96 -131 0
-7 -97 -132 0
-8 -98 -133 0
-9 -99 -134 0
-10 -100 -135 0
-1 -186 -246 0
-2 -187 -247 0
-3 -188 -248 0
-4 -189 -249 0
-5 -190 -250 0
-66 -106 -141 0
-67 -107 -142 0
-68 -108 -143 0
-69 -109 -144 0
-70 -110 -145 0
-136 -141 -231 0
-137 -142 -232 0
-138 -143 -233 0
-139 -144 -234 0
-140 -145 -235 0
-21 -26 -191 0
-22 -27 -192 0
-23 -28 -193 0
-24 -29 -194 0
-25 -30 -195 0
-1 -96 -156 0
-2 -97 -157 0
-3 -98 -158 0
-4 -99 -159 0
-5 -100 -160 0
-51 -111 -156 0
-52 -112 -157 0
-53 -113 -158 0
-54 -114 -159 0
-55 -115 -160 0
-126 -146 -241 0
-127 -147 -242 0
-128 -148 -243 0
-129 -149 -244 0
-130 -150 -245 0
-106 -176 -186 0
-107 -177 -187 0
-108 -178 -188 0
-109 -179 -189 0
-110 -180 -190 0
-11 -31 -46 0
-12 -32 -47 0
-13 -33 -48 0
-14 -34 -49 0
-15 -35 -50 0
-141 -171 -216 0
-142 -172 -217 0
-143 -173 -218 0
-144 -174 -219 0
-145 -175 -220 0
-111 -211 -246 0
-112 -212 -247 0
-113 -213 -248 0
-114 -214 -249 0
-115 -215 -250 0
-156 -241 -251 0
-157 -242 -252 0
-158 -243 -253 0
-159 -244 -254 0
-160 -245 -255 0
-76 -126 -156 0
-77 -127 -157 0
-78 -128 -158 0
-79 -129 -159 0
-80 -130 -160 0
-46 -66 -181 0
-47 -67 -182 0
-48 -68 -183 0
-49 -69 -184 0
-50 -70 -185 0
-16 -41 -116 0
-17 -42 -117 0
-18 -43 -118 0
-19 -44 -119 0
-20 -45 -120 0
-71 -131 -136 0
-72 -132 -137 0
-73 -133 -138 0
-74 -134 -139 0
-75 -135 -140 0
-46 -81 -206 0
-47 -82 -207 0
-48 -83 -208 0
-49 -84 -209 0
-50 -85 -210 0
-156 -206 -236 0
-157 -207 -237 0
-158 -208 -238 0
-159 -209 -239 0
-160 -210 -240 0
-156 -166 -216 0
-157 -167 -217 0
-158 -168 -218 0
-159 -169 -219 0
-160 -170 -220 0
-21 -66 -96 0
-22 -67 -97 0
-23 -68 -98 0
-24 -69 -99 0
-25 -70 -100 0
-166 -221 -226 0
-167 -222 -227 0
-168 -223 -228 0
-169 -224 -229 0
-170 -225 -230 0
-76 -186 -206 0
-77 -187 -207 0
-78 -188 -208 0
-79 -189 -209 0
-80 -190 -210 0
-21 -121 -141 0
-22 -122 -142 0
-23 -123 -143 0
-24 -124 -144 0
-25 -125 -145 0
-46 -86 -211 0
-47 -87 -212 0
-48 -88 -213 0
-49 -89 -214 0
-50 -90 -215 0
-11 -176 -221 0
-12 -177 -222 0
-13 -178 -223 0
-14 -179 -224 0
-15 -180 -225 0
-76 -171 -176 0
-77 -172 -177 0
-78 -173 -178 0
-79 -174 -179 0
-80 -175 -180 0
-121 -141 -176 0
-122 -142 -177 0
-123 -143 -178 0
-124 -144 -179 0
-125 -145 -180 0
-41 -101 -141 0
-42 -102 -142 0
-43 -103 -143 0
-44 -104 -144 0
-45 -105 -145 0
-36 -176 -196 0
-37 -177 -197 0
-38 -178 -198 0
-39 -179 -199 0
-40 -180 -200 0
-21 -96 -171 0
-22 -97 -172 0
-23 -98 -173 0
-24 -99 -174 0
-25 -100 -175 0
-51 -81 -246 0
-52 -82 -247 0
-53 -83 -248 0
-54 -84 -249 0
-55 -85 -250 0
-36 -66 -101 0
-37 -67 -102 0
-38 -68 -103 0
-39 -69 -104 0
-40 -70 -105 0
-66 -81 -236 0
-67 -82 -237 0
-68 -83 -238 0
-69 -84 -239 0
-70 -85 -240 0
-36 -161 -166 0
-37 -162 -167 0
-38 -163 -168 0
-39 -164 -169 0
-40 -165 -170 0
-36 -121 -146 0
-37 -122 -147 0
-38 -123 -148 0
-39 -124 -149 0
-40 -125 -150 0
-56 -106 -226 0
-57 -107 -227 0
-58 -108 -228 0
-59 -109 -229 0
-60 -110 -230 0
-1 -36 -56 0
-2 -37 -57 0
-3 -38 -58 0
-4 -39 -59 0
-5 -40 -60 0
-46 -86 -96 0
-47 -87 -97 0
-48 -88 -98 0
-49 -89 -99 0
-50 -90 -100 0
-36 -86 -131 0
-37 -87 -132 0
-38 -88 -133 0
-39 -89 -134 0
-40 -90 -135 0
-126 -221 -226 0
-127 -222 -227 0
-128 -223 -228 0
-129 -224 -229 0
-130 -225 -230 0
-6 -61 -66 0
-7 -62 -67 0
-8 -63 -68 0
-9 -64 -69 0
-10 -65 -70 0
-26 -86 -166 0
-27 -87 -167 0
-28 -88 -168 0
-29 -89 -169 0
-30 -90 -170 0
-6 -221 -226 0
-7 -222 -227 0
-8 -223 -228 0
-9 -224 -229 0
-10 -225 -230 0
-6 -21 -46 0
-7 -22 -47 0
-8 -23 -48 0
-9 -24 -49 0
-10 -25 -50 0
-1 -41 -61 0
-2 -42 -62 0
-3 -43 -63 0
-4 -44 -64 0
-5 -45 -65 0
-26 -46 -146 0
-27 -47 -147 0
-28 -48 -148 0
-29 -49 -149 0
-30 -50 -150 0
-1 -201 -221 0
-2 -202 -222 0
-3 -203 -223 0
-4 -204 -224 0
-5 -205 -225 0
-21 -26 -141 0
-22 -27 -142 0
-23 -28 -143 0
-24 -29 -144 0
-25 -30 -145 0
-21 -116 -226 0
-22 -117 -227 0
-23 -118 -228 0
-24 -119 -229 0
-25 -120 -230 0
-21 -76 -206 0
-22 -77 -207 0
-23 -78 -208 0
-24 -79 -209 0
-25 -80 -210 0
-81 -186 -236 0
-82 -187 -237 0
-83 -188 -238 0
-84 -189 -239 0
-85 -190 -240 0
-101 -206 -231 0
-102 -207 -232 0
-103 -208 -233 0
-104 -209 -234 0
-105 -210 -235 0
-1 -206 -226 0
-2 -207 -227 0
-3 -208 -228 0
-4 -209 -229 0
-5 -210 -230 0
-6 -136 -171 0
-7 -137 -172 0
-8 -138 -173 0
-9 -139 -174 0
-10 -140 -175 0
-31 -41 -186 0
-32 -42 -187 0
-33 -43 -188 0
-34 -44 -189 0
-35 -45 -190 0
-1 -16 -91 0
-2 -17 -92 0
-3 -18 -93 0
-4 -19 -94 0
-5 -20 -95 0
-11 -61 -76 0
-12 -62 -77 0
-13 -63 -78 0
-14 -64 -79 0
-15 -65 -80 0
-11 -21 -56 0
-12 -22 -57 0
-13 -23 -58 0
-14 -24 -59 0
-15 -25 -60 0
-36 -66 -166 0
-37 -67 -167 0
-38 -68 -168 0
-39 -69 -169 0
-40 -70 -170 0
-66 -191 -241 0
-67 -192 -242 0
-68 -193 -243 0
-69 -194 -244 0
-70 -195 -245 0
-51 -161 -216 0
-52 -162 -217 0
-53 -163 -218 0
-54 -164 -219 0
-55 -165 -220 0
-111 -226 -246 0
-112 -227 -247 0
-113 -228 -248 0
-114 -229 -249 0
-115 -230 -250 0
-66 -101 -176 0
-67 -102 -177 0
-68 -103 -178 0
-69 -104 -179 0
-70 -105 -180 0
-11 -231 -246 0
-12 -232 -247 0
-13 -233 -248 0
-14 -234 -249 0
-15 -235 -250 0
-31 -56 -101 0
-32 -57 -102 0
-33 -58 -103 0
-34 -59 -104 0
-35 -60 -105 0
-121 -191 -196 0
-122 -192 -197 0
-123 -193 -198 0
-124 -194 -199 0
-125 -195 -200 0
-11 -191 -226 0
-12 -192 -227 0
-13 -193 -228 0
-14 -194 -229 0
-15 -195 -230 0
-16 -171 -216 0
-17 -172 -217 0
-18 -173 -218 0
-19 -174 -219 0
-20 -175 -220 0
-36 -56 -221 0
-37 -57 -222 0
-38 -58 -223 0
-39 -59 -224 0
-40 -60 -225 0
-61 -141 -216 0
-62 -142 -217 0
-63 -143 -218 0
-64 -144 -219 0
-65 -145 -220 0
-16 -76 -146 0
-17 -77 -147 0
-18 -78 -148 0
-19 -79 -149 0
-20 -80 -150 0
-31 -116 -151 0
-32 -117 -152 0
-33 -118 -153 0
-34 -119 -154 0
-35 -120 -155 0
-46 -61 -191 0
-47 -62 -192 0
-48 -63 -193 0
-49 -64 -194 0
-50 -65 -195 0
-16 -36 -126 0
-17 -37 -127 0
-18 -38 -128 0
-19 -39 -129 0
-20 -40 -130 0
-56 -186 -216 0
-57 -187 -217 0
-58 -188 -218 0
-59 -189 -219 0
-60 -190 -220 0
-156 -201 -246 0
-157 -202 -247 0
-158 -203 -248 0
-159 -204 -249 0
-160 -205 -250 0
-41 -226 -236 0
-42 -227 -237 0
-43 -228 -238 0
-44 -229 -239 0
-45 -230 -240 0
-46 -66 -196 0
-47 -67 -197 0
-48 -68 -198 0
-49 -69 -199 0
-50 -70 -200 0
-111 -156 -211 0
-112 -157 -212 0
-113 -158 -213 0
-114 -159 -214 0
-115 -160 -215 0
-171 -201 -236 0
-172 -202 -237 0
-173 -203 -238 0
-174 -204 -239 0
-175 -205 -240 0
-86 -216 -221 0
-87 -217 -222 0
-88 -218 -223 0
-89 -219 -224 0
-90 -220 -225 0
-26 -231 -251 0
-27 -232 -252 0
-28 -233 -253 0
-29 -234 -254 0
-30 -235 -255 0
-76 -176 -236 0
-77 -177 -237 0
-78 -178 -238 0
-79 -179 -239 0
-80 -180 -240 0
-66 -96 -236 0
-67 -97 -237 0
-68 -98 -238 0
-69 -99 -239 0
-70 -100 -240 0
-16 -71 -211 0
-17 -72 -212 0
-18 -73 -213 0
-19 -74 -214 0
-20 -75 -215 0
-26 -96 -161 0
-27 -97 -162 0
-28 -98 -163 0
-29 -99 -164 0
-30 -100 -165 0
-1 -51 -56 0
-2 -52 -57 0
-3 -53 -58 0
-4 -54 -59 0
-5 -55 -60 0
-51 -61 -231 0
-52 -62 -232 0
-53 -63 -233 0
-54 -64 -234 0
-55 -65 -235 0
-31 -96 -186 0
-32 -97 -187 0
-33 -98 -188 0
-34 -99 -189 0
-35 -100 -190 0
-81 -106 -146 0
-82 -107 -147 0
-83 -108 -148 0
-84 -109 -149 0
-85 -110 -150 0
-106 -111 -236 0
-107 -112 -237 0
-108 -113 -238 0
-109 -114 -239 0
-110 -115 -240 0
-36 -61 -111 0
-37 -62 -112 0
-38 -63 -113 0
-39 -64 -114 0
-40 -65 -115 0
-6 -36 -46 0
-7 -37 -47 0
-8 -38 -48 0
-9 -39 -49 0
-10 -40 -50 0
-61 -66 -201 0
-62 -67 -202 0
-63 -68 -203 0
-64 -69 -204 0
-65 -70 -205 0
-1 -56 -61 0
-2 -57 -62 0
-3 -58 -63 0
-4 -59 -64 0
-5 -60 -65 0
-126 -211 -231 0
-127 -212 -232 0
-128 -213 -233 0
-129 -214 -234 0
-130 -215 -235 0
-136 -176 -216 0
-137 -177 -217 0
-138 -178 -218 0
-139 -179 -219 0
-140 -180 -220 0
-131 -181 -196 0
-132 -182 -197 0
-133 -183 -198 0
-134 -184 -199 0
-135 -185 -200 0
-131 -236 -241 0
-132 -237 -242 0
-133 -238 -243 0
-134 -239 -244 0
-135 -240 -245 0
-6 -201 -211 0
-7 -202 -212 0
-8 -203 -213 0
-9 -204 -214 0
-10 -205 -215 0
-26 -91 -226 0
-27 -92 -227 0
-28 -93 -228 0
-29 -94 -229 0
-30 -95 -230 0
-1 -36 -71 0
-2 -37 -72 0
-3 -38 -73 0
-4 -39 -74 0
-5 -40 -75 0
-146 -231 -251 0
-147 -232 -252 0
-148 -233 -253 0
-149 -234 -254 0
-150 -235 -255 0
-1 -31 -91 0
-2 -32 -92 0
-3 -33 -93 0
-4 -34 -94 0
-5 -35 -95 0
-136 -151 -246 0
-137 -152 -247 0
-138 -153 -248 0
-139 -154 -249 0
-140 -155 -250 0
-96 -166 -206 0
-97 -167 -207 0
-98 -168 -208 0
-99 -169 -209 0
-100 -170 -210 0
-141 -196 -211 0
-142 -197 -212 0
-143 -198 -213 0
-144 -199 -214 0
-145 -200 -215 0
-61 -121 -136 0
-62 -122 -137 0
-63 -123 -138 0
-64 -124 -139 0
-65 -125 -140 0
-91 -171 -186 0
-92 -172 -187 0
-93 -173 -188 0
-94 -174 -189 0
-95 -175 -190 0
-51 -216 -236 0
-52 -217 -237 0
-53 -218 -238 0
-54 -219 -239 0
-55 -220 -240 0
-6 -16 -81 0
-7 -17 -82 0
-8 -18 -83 0
-9 -19 -84 0
-10 -20 -85 0
-146 -196 -236 0
-147 -197 -237 0
-148 -198 -238 0
-149 -199 -239 0
-150 -200 -240 0
-81 -91 -186 0
-82 -92 -187 0
-83 -93 -188 0
-84 -94 -189 0
-85 -95 -190 0
-101 -111 -181 0
-102 -112 -182 0
-103 -113 -183 0
-104 -114 -184 0
-105 -115 -185 0
-41 -56 -196 0
-42 -57 -197 0
-43 -58 -198 0
-44 -59 -199 0
-45 -60 -200 0
-141 -176 -221 0
-142 -177 -222 0
-143 -178 -223 0
-144 -179 -224 0
-145 -180 -225 0
-11 -56 -86 0
-12 -57 -87 0
-13 -58 -88 0
-14 -59 -89 0
-15 -60 -90 0
-91 -191 -216 0
-92 -192 -217 0
-93 -193 -218 0
-94 -194 -219 0
-95 -195 -220 0
-36 -61 -176 0
-37 -62 -177 0
-38 -63 -178 0
-39 -64 -179 0
-40 -65 -180 0
-66 -186 -251 0
-67 -187 -252 0
-68 -188 -253 0
-69 -189 -254 0
-70 -190 -255 0
-46 -76 -196 0
-47 -77 -197 0
-48 -78 -198 0
-49 -79 -199 0
-50 -80 -200 0
-41 -71 -246 0
-42 -72 -247 0
-43 -73 -248 0
-44 -74 -249 0
-45 -75 -250 0
-61 -196 -236 0
-62 -197 -237 0
-63 -198 -238 0
-64 -199 -239 0
-65 -200 -240 0
-66 -136 -206 0
-67 -137 -207 0
-68 -138 -208 0
-69 -139 -209 0
-70 -140 -210 0
-21 -131 -156 0
-22 -132 -157 0
-23 -133 -158 0
-24 -134 -159 0
-25 -135 -160 0
-31 -91 -131 0
-32 -92 -132 0
-33 -93 -133 0
-34 -94 -134 0
-35 -95 -135 0
-91 -166 -246 0
-92 -167 -247 0
-93 -168 -248 0
-94 -169 -249 0
-95 -170 -250 0
-46 -136 -246 0
-47 -137 -247 0
-48 -138 -248 0
-49 -139 -249 0
-50 -140 -250 0
-121 -186 -206 0
-122 -187 -207 0
-123 -188 -208 0
-124 -189 -209 0
-125 -190 -210 0
-26 -36 -241 0
-27 -37 -242 0
-28 -38 -243 0
-29 -39 -244 0
-30 -40 -245 0
-11 -186 -236 0
-12 -187 -237 0
-13 -188 -238 0
-14 -189 -239 0
-15 -190 -240 0
-21 -116 -126 0
-22 -117 -127 0
-23 -118 -128 0
-24 -119 -129 0
-25 -120 -130 0
-111 -171 -211 0
-112 -172 -212 0
-113 -173 -213 0
-114 -174 -214 0
-115 -175 -215 0
-31 -56 -116 0
-32 -57 -117 0
-33 -58 -118 0
-34 -59 -119 0
-35 -60 -120 0
-121 -151 -191 0
-122 -152 -192 0
-123 -153 -193 0
-124 -154 -194 0
-125 -155 -195 0
-71 -161 -176 0
-72 -162 -177 0
-73 -163 -178 0
-74 -164 -179 0
-75 -165 -180 0
-36 -56 -236 0
-37 -57 -237 0
-38 -58 -238 0
-39 -59 -239 0
-40 -60 -240 0
-86 -211 -236 0
-87 -212 -237 0
-88 -213 -238 0
-89 -214 -239 0
-90 -215 -240 0
-21 -186 -226 0
-22 -187 -227 0
-23 -188 -228 0
-24 -189 -229 0
-25 -190 -230 0
-71 -176 -231 0
-72 -177 -232 0
-73 -178 -233 0
-74 -179 -234 0
-75 -180 -235 0
-36 -171 -181 0
-37 -172 -182 0
-38 -173 -183 0
-39 -174 -184 0
-40 -175 -185 0
-1 -86 -91 0
-2 -87 -92 0
-3 -88 -93 0
-4 -89 -94 0
-5 -90 -95 0
-51 -56 -246 0
-52 -57 -247 0
-53 -58 -248 0
-54 -59 -249 0
-55 -60 -250 0
-121 -166 -241 0
-122 -167 -242 0
-123 -168 -243 0
-124 -169 -244 0
-125 -170 -245 0
-81 -141 -181 0
-82 -142 -182 0
-83 -143 -183 0
-84 -144 -184 0
-85 -145 -185 0
-131 -211 -226 0
-132 -212 -227 0
-133 -213 -228 0
-134 -214 -229 0
-135 -215 -230 0
-116 -131 -201 0
-117 -132 -202 0
-118 -133 -203 0
-119 -134 -204 0
-120 -135 -205 0
-31 -36 -151 0
-32 -37 -152 0
-33 -38 -153 0
-34 -39 -154 0
-35 -40 -155 0
-36 -41 -96 0
-37 -42 -97 0
-38 -43 -98 0
-39 -44 -99 0
-40 -45 -100 0
-6 -16 -31 0
-7 -17 -32 0
-8 -18 -33 0
-9 -19 -34 0
-10 -20 -35 0
-26 -41 -131 0
-27 -42 -132 0
-28 -43 -133 0
-29 -44 -134 0
-30 -45 -135 0
-36 -96 -141 0
-37 -97 -142 0
-38 -98 -143 0
-39 -99 -144 0
-40 -100 -145 0
-101 -196 -211 0
-102 -197 -212 0
-103 -198 -213 0
-104 -199 -214 0
-105 -200 -215 0
-6 -236 -246 0
-7 -237 -247 0
-8 -238 -248 0
-9 -239 -249 0
-10 -240 -250 0
-26 -56 -156 0
-27 -57 -157 0
-28 -58 -158 0
-29 -59 -159 0
-30 -60 -160 0
-1 -51 -71 0
-2 -52 -72 0
-3 -53 -73 0
-4 -54 -74 0
-5 -55 -75 0
-116 -191 -251 0
-117 -192 -252 0
-118 -193 -253 0
-119 -194 -254 0
-120 -195 -255 0
-121 -131 -221 0
-122 -132 -222 0
-123 -133 -223 0
-124 -134 -224 0
-125 -135 -225 0
-51 -226 -231 0
-52 -227 -232 0
-53 -228 -233 0
-54 -229 -234 0
-55 -230 -235 0
-36 -166 -241 0
-37 -167 -242 0
-38 -168 -243 0
-39 -169 -244 0
-40 -170 -245 0
-6 -101 -156 0
-7 -102 -157 0
-8 -103 -158 0
-9 -104 -159 0
-10 -105 -160 0
-1 -121 -171 0
-2 -122 -172 0
-3 -123 -173 0
-4 -124 -174 0
-5 -125 -175 0
-101 -216 -241 0
-102 -217 -242 0
-103 -218 -243 0
-104 -219 -244 0
-105 -220 -245 0
-16 -31 -231 0
-17 -32 -232 0
-18 -33 -233 0
-19 -34 -234 0
-20 -35 -235 0
-31 -66 -226 0
-32 -67 -227 0
-33 -68 -228 0
-34 -69 -229 0
-35 -70 -230 0
-1 -176 -216 0
-2 -177 -217 0
-3 -178 -218 0
-4 -179 -219 0
-5 -180 -220 0
-51 -96 -151 0
-52 -97 -152 0
-53 -98 -153 0
-54 -99 -154 0
-55 -100 -155 0
-66 -76 -106 0
-67 -77 -107 0
-68 -78 -108 0
-69 -79 -109 0
-70 -80 -110 0
-61 -151 -161 0
-62 -152 -162 0
-63 -153 -163 0
-64 -154 -164 0
-65 -155 -165 0
-141 -231 -246 0
-142 -232 -247 0
-143 -233 -248 0
-144 -234 -249 0
-145 -235 -250 0
-11 -16 -41 0
-12 -17 -42 0
-13 -18 -43 0
-14 -19 -44 0
-15 -20 -45 0
-11 -71 -86 0
-12 -72 -87 0
-13 -73 -88 0
-14 -74 -89 0
-15 -75 -90 0
-86 -121 -236 0
-87 -122 -237 0
-88 -123 -238 0
-89 -124 -239 0
-90 -125 -240 0
-146 -191 -246 0
-147 -192 -247 0
-148 -193 -248 0
-149 -194 -249 0
-150 -195 -250 0
-56 -121 -126 0
-57 -122 -127 0
-58 -123 -128 0
-59 -124 -129 0
-60 -125 -130 0
-21 -71 -231 0
-22 -72 -232 0
-23 -73 -233 0
-24 -74 -234 0
-25 -75 -235 0
-51 -61 -131 0
-52 -62 -132 0
-53 -63 -133 0
-54 -64 -134 0
-55 -65 -135 0
-76 -136 -141 0
-77 -137 -142 0
-78 -138 -143 0
-79 -139 -144 0
-80 -140 -145 0
-31 -161 -181 0
-32 -162 -182 0
-33 -163 -183 0
-34 -164 -184 0
-35 -165 -185 0
-51 -76 -186 0
-52 -77 -187 0
-53 -78 -188 0
-54 -79 -189 0
-55 -80 -190 0
-26 -126 -141 0
-27 -127 -142 0
-28 -128 -143 0
-29 -129 -144 0
-30 -130 -145 0
-101 -116 -236 0
-102 -117 -237 0
-103 -118 -238 0
-104 -119 -239 0
-105 -120 -240 0
-161 -186 -246 0
-162 -187 -247 0
-163 -188 -248 0
-164 -189 -249 0
-165 -190 -250 0
-31 -66 -111 0
-32 -67 -112 0
-33 -68 -113 0
-34 -69 -114 0
-35 -70 -115 0
-111 -201 -241 0
-112 -202 -242 0
-113 -203 -243 0
-114 -204 -244 0
-115 -205 -245 0
-11 -201 -236 0
-12 -202 -237 0
-13 -203 -238 0
-14 -204 -239 0
-15 -205 -240 0
-16 -181 -226 0
-17 -182 -227 0
-18 -183 -228 0
-19 -184 -229 0
-20 -185 -230 0
-16 -46 -141 0
-17 -47 -142 0
-18 -48 -143 0
-19 -49 -144 0
-20 -50 -145 0
-16 -141 -206 0
-17 -142 -207 0
-18 -143 -208 0
-19 -144 -209 0
-20 -145 -210 0
-26 -91 -126 0
-27 -92 -127 0
-28 -93 -128 0
-29 -94 -129 0
-30 -95 -130 0
-31 -111 -136 0
-32 -112 -137 0
-33 -113 -138 0
-34 -114 -139 0
-35 -115 -140 0
-171 -191 -216 0
-172 -192 -217 0
-173 -193 -218 0
-174 -194 -219 0
-175 -195 -220 0
-61 -191 -246 0
-62 -192 -247 0
-63 -193 -248 0
-64 -194 -249 0
-65 -195 -250 0
-91 -146 -231 0
-92 -147 -232 0
-93 -148 -233 0
-94 -149 -234 0
-95 -150 -235 0
-56 -61 -141 0
-57 -62 -142 0
-58 -63 -143 0
-59 -64 -144 0
-60 -65 -145 0
-71 -141 -161 0
-72 -142 -162 0
-73 -143 -163 0
-74 -144 -164 0
-75 -145 -165 0
-121 -181 -241 0
-122 -182 -242 0
-123 -183 -243 0
-124 -184 -244 0
-125 -185 -245 0
-81 -196 -201 0
-82 -197 -202 0
-83 -198 -203 0
-84 -199 -204 0
-85 -200 -205 0
-41 -241 -251 0
-42 -242 -252 0
-43 -243 -253 0
-44 -244 -254 0
-45 -245 -255 0
-71 -196 -236 0
-72 -197 -237 0
-73 -198 -238 0
-74 -199 -239 0
-75 -200 -240 0
-56 -76 -191 0
-57 -77 -192 0
-58 -78 -193 0
-59 -79 -194 0
-60 -80 -195 0
-131 -186 -206 0
-132 -187 -207 0
-133 -188 -208 0
-134 -189 -209 0
-135 -190 -210 0
-21 -31 -121 0
-22 -32 -122 0
-23 -33 -123 0
-24 -34 -124 0
-25 -35 -125 0
-36 -206 -211 0
-37 -207 -212 0
-38 -208 -213 0
-39 -209 -214 0
-40 -210 -215 0
-26 -206 -246 0
-27 -207 -247 0
-28 -208 -248 0
-29 -209 -249 0
-30 -210 -250 0
-21 -186 -241 0
-22 -187 -242 0
-23 -188 -243 0
-24 -189 -244 0
-25 -190 -245 0
-1 -26 -56 0
-2 -27 -57 0
-3 -28 -58 0
-4 -29 -59 0
-5 -30 -60 0
-6 -101 -106 0
-7 -102 -107 0
-8 -103 -108 0
-9 -104 -109 0
-10 -105 -110 0
-6 -51 -66 0
-7 -52 -67 0
-8 -53 -68 0
-9 -54 -69 0
-10 -55 -70 0
-6 -211 -226 0
-7 -212 -227 0
-8 -213 -228 0
-9 -214 -229 0
-10 -215 -230 0
-21 -51 -151 0
-22 -52 -152 0
-23 -53 -153 0
-24 -54 -154 0
-25 -55 -155 0
-101 -191 -226 0
-102 -192 -227 0
-103 -193 -228 0
-104 -194 -229 0
-105 -195 -230 0
-1 -191 -221 0
-2 -192 -222 0
-3 -193 -223 0
-4 -194 -224 0
-5 -195 -225 0
-1 -46 -86 0
-2 -47 -87 0
-3 -48 -88 0
-4 -49 -89 0
-5 -50 -90 0
-26 -86 -211 0
-27 -87 -212 0
-28 -88 -213 0
-29 -89 -214 0
-30 -90 -215 0
-96 -196 -206 0
-97 -197 -207 0
-98 -198 -208 0
-99 -199 -209 0
-100 -200 -210 0
-46 -201 -241 0
-47 -202 -242 0
-48 -203 -243 0
-49 -204 -244 0
-50 -205 -245 0
-6 -216 -231 0
-7 -217 -232 0
-8 -218 -233 0
-9 -219 -234 0
-10 -220 -235 0
-96 -211 -231 0
-97 -212 -232 0
-98 -213 -233 0
-99 -214 -234 0
-100 -215 -235 0
-6 -176 -211 0
-7 -177 -212 0
-8 -178 -213 0
-9 -179 -214 0
-10 -180 -215 0
-21 -81 -231 0
-22 -82 -232 0
-23 -83 -233 0
-24 -84 -234 0
-25 -85 -235 0
-141 -206 -226 0
-142 -207 -227 0
-143 -208 -228 0
-144 -209 -229 0
-145 -210 -230 0
-1 -211 -251 0
-2 -212 -252 0
-3 -213 -253 0
-4 -214 -254 0
-5 -215 -255 0
-16 -21 -236 0
-17 -22 -237 0
-18 -23 -238 0
-19 -24 -239 0
-20 -25 -240 0
-46 -51 -126 0
-47 -52 -127 0
-48 -53 -128 0
-49 -54 -129 0
-50 -55 -130 0
-16 -121 -126 0
-17 -122 -127 0
-18 -123 -128 0
-19 -124 -129 0
-20 -125 -130 0
-76 -91 -246 0
-77 -92 -247 0
-78 -93 -248 0
-79 -94 -249 0
-80 -95 -250 0
-16 -81 -106 0
-17 -82 -107 0
-18 -83 -108 0
-19 -84 -109 0
-20 -85 -110 0
-41 -126 -216 0
-42 -127 -217 0
-43 -128 -218 0
-44 -129 -219 0
-45 -130 -220 0
-96 -216 -236 0
-97 -217 -237 0
-98 -218 -238 0
-99 -219 -239 0
-100 -220 -240 0
-11 -31 -41 0
-12 -32 -42 0
-13 -33 -43 0
-14 -34 -44 0
-15 -35 -45 0
-41 -46 -176 0
-42 -47 -177 0
-43 -48 -178 0
-44 -49 -179 0
-45 -50 -180 0
-21 -86 -236 0
-22 -87 -237 0
-23 -88 -238 0
-24 -89 -239 0
-25 -90 -240 0
-106 -181 -186 0
-107 -182 -187 0
-108 -183 -188 0
-109 -184 -189 0
-110 -185 -190 0
-96 -141 -201 0
-97 -142 -202 0
-98 -143 -203 0
-99 -144 -204 0
-100 -145 -205 0
-161 -191 -201 0
-162 -192 -202 0
-163 -193 -203 0
-164 -194 -204 0
-165 -195 -205 0
-56 -116 -136 0
-57 -117 -137 0
-58 -118 -138 0
-59 -119 -139 0
-60 -120 -140 0
-46 -126 -226 0
-47 -127 -227 0
-48 -128 -228 0
-49 -129 -229 0
-50 -130 -230 0
-11 -216 -236 0
-12 -217 -237 0
-13 -218 -238 0
-14 -219 -239 0
-15 -220 -240 0
-21 -176 -181 0
-22 -177 -182 0
-23 -178 -183 0
-24 -179 -184 0
-25 -180 -185 0
-56 -131 -191 0
-57 -132 -192 0
-58 -133 -193 0
-59 -134 -194 0
-60 -135 -195 0
-21 -26 -251 0
-22 -27 -252 0
-23 -28 -253 0
-24 -29 -254 0
-25 -30 -255 0
-31 -86 -116 0
-32 -87 -117 0
-33 -88 -118 0
-34 -89 -119 0
-35 -90 -120 0
-61 -166 -226 0
-62 -167 -227 0
-63 -168 -228 0
-64 -169 -229 0
-65 -170 -230 0
-21 -46 -101 0
-22 -47 -102 0
-23 -48 -103 0
-24 -49 -104 0
-25 -50 -105 0
-36 -91 -246 0
-37 -92 -247 0
-38 -93 -248 0
-39 -94 -249 0
-40 -95 -250 0
-46 -51 -191 0
-47 -52 -192 0
-48 -53 -193 0
-49 -54 -194 0
-50 -55 -195 0
-71 -116 -146 0
-72 -117 -147 0
-73 -118 -148 0
-74 -119 -149 0
-75 -120 -150 0
-76 -96 -136 0
-77 -97 -137 0
-78 -98 -138 0
-79 -99 -139 0
-80 -100 -140 0
-166 -191 -211 0
-167 -192 -212 0
-168 -193 -213 0
-169 -194 -214 0
-170 -195 -215 0
-151 -196 -226 0
-152 -197 -227 0
-153 -198 -228 0
-154 -199 -229 0
-155 -200 -230 0
-151 -156 -206 0
-152 -157 -207 0
-153 -158 -208 0
-154 -159 -209 0
-155 -160 -210 0
-76 -166 -236 0
-77 -167 -237 0
-78 -168 -238 0
-79 -169 -239 0
-80 -170 -240 0
-41 -216 -231 0
-42 -217 -232 0
-43 -218 -233 0
-44 -219 -234 0
-45 -220 -235 0
-86 -226 -251 0
-87 -227 -252 0
-88 -228 -253 0
-89 -229 -254 0
-90 -230 -255 0
-116 -181 -236 0
-117 -182 -237 0
-118 -183 -238 0
-119 -184 -239 0
-120 -185 -240 0
-1 -96 -101 0
-2 -97 -102 0
-3 -98 -103 0
-4 -99 -104 0
-5 -100 -105 0
-16 -61 -206 0
-17 -62 -207 0
-18 -63 -208 0
-19 -64 -209 0
-20 -65 -210 0
-36 -51 -111 0
-37 -52 -112 0
-38 -53 -113 0
-39 -54 -114 0
-40 -55 -115 0
-26 -51 -146 0
-27 -52 -147 0
-28 -53 -148 0
-29 -54 -149 0
-30 -55 -150 0
-46 -106 -121 0
-47 -107 -122 0
-48 -108 -123 0
-49 -109 -124 0
-50 -110 -125 0
-1 -206 -221 0
-2 -207 -222 0
-3 -208 -223 0
-4 -209 -224 0
-5 -210 -225 0
-6 -81 -91 0
-7 -82 -92 0
-8 -83 -93 0
-9 -84 -94 0
-10 -85 -95 0
-81 -196 -216 0
-82 -197 -217 0
-83 -198 -218 0
-84 -199 -219 0
-85 -200 -220 0
-86 -96 -166 0
-87 -97 -167 0
-88 -98 -168 0
-89 -99 -169 0
-90 -100 -170 0
-46 -111 -126 0
-47 -112 -127 0
-48 -113 -128 0
-49 -114 -129 0
-50 -115 -130 0
-46 -176 -221 0
-47 -177 -222 0
-48 -178 -223 0
-49 -179 -224 0
-50 -180 -225 0
-36 -71 -141 0
-37 -72 -142 0
-38 -73 -143 0
-39 -74 -144 0
-40 -75 -145 0
-36 -161 -226 0
-37 -162 -227 0
-38 -163 -228 0
-39 -164 -229 0
-40 -165 -230 0
-66 -181 -186 0
-67 -182 -187 0
-68 -183 -188 0
-69 -184 -189 0
-70 -185 -190 0
-66 -141 -166 0
-67 -142 -167 0
-68 -143 -168 0
-69 -144 -169 0
-70 -145 -170 0
-26 -81 -221 0
-27 -82 -222 0
-28 -83 -223 0
-29 -84 -224 0
-30 -85 -225 0
-16 -116 -141 0
-17 -117 -142 0
-18 -118 -143 0
-19 -119 -144 0
-20 -120 -145 0
-21 -61 -216 0
-22 -62 -217 0
-23 -63 -218 0
-24 -64 -219 0
-25 -65 -220 0
-71 -76 -216 0
-72 -77 -217 0
-73 -78 -218 0
-74 -79 -219 0
-75 -80 -220 0
-11 -66 -76 0
-12 -67 -77 0
-13 -68 -78 0
-14 -69 -79 0
-15 -70 -80 0
-101 -191 -241 0
-102 -192 -242 0
-103 -193 -243 0
-104 -194 -244 0
-105 -195 -245 0
-76 -111 -251 0
-77 -112 -252 0
-78 -113 -253 0
-79 -114 -254 0
-80 -115 -255 0
-36 -126 -211 0
-37 -127 -212 0
-38 -128 -213 0
-39 -129 -214 0
-40 -130 -215 0
-96 -196 -221 0
-97 -197 -222 0
-98 -198 -223 0
-99 -199 -224 0
-100 -200 -225 0
-36 -46 -171 0
-37 -47 -172 0
-38 -48 -173 0
-39 -49 -174 0
-40 -50 -175 0
-6 -116 -171 0
-7 -117 -172 0
-8 -118 -173 0
-9 -119 -174 0
-10 -120 -175 0
-21 -66 -221 0
-22 -67 -222 0
-23 -68 -223 0
-24 -69 -224 0
-25 -70 -225 0
-11 -231 -241 0
-12 -232 -242 0
-13 -233 -243 0
-14 -234 -244 0
-15 -235 -245 0
-21 -81 -246 0
-22 -82 -247 0
-23 -83 -248 0
-24 -84 -249 0
-25 -85 -250 0
-81 -96 -211 0
-82 -97 -212 0
-83 -98 -213 0
-84 -99 -214 0
-85 -100 -215 0
-116 -126 -251 0
-117 -127 -252 0
-118 -128 -253 0
-119 -129 -254 0
-120 -130 -255 0
-111 -196 -201 0
-112 -197 -202 0
-113 -198 -203 0
-114 -199 -204 0
-115 -200 -205 0
-61 -221 -251 0
-62 -222 -252 0
-63 -223 -253 0
-64 -224 -254 0
-65 -225 -255 0
-101 -126 -251 0
-102 -127 -252 0
-103 -128 -253 0
-104 -129 -254 0
-105 -130 -255 0
-56 -151 -171 0
-57 -152 -172 0
-58 -153 -173 0
-59 -154 -174 0
-60 -155 -175 0
-91 -126 -166 0
-92 -127 -167 0
-93 -128 -168 0
-94 -129 -169 0
-95 -130 -170 0
-66 -121 -201 0
-67 -122 -202 0
-68 -123 -203 0
-69 -124 -204 0
-70 -125 -205 0
-16 -96 -176 0
-17 -97 -177 0
-18 -98 -178 0
-19 -99 -179 0
-20 -100 -180 0
-16 -191 -241 0
-17 -192 -242 0
-18 -193 -243 0
-19 -194 -244 0
-20 -195 -245 0
-36 -66 -226 0
-37 -67 -227 0
-38 -68 -228 0
-39 -69 -229 0
-40 -70 -230 0
-96 -136 -236 0
-97 -137 -237 0
-98 -138 -238 0
-99 -139 -239 0
-100 -140 -240 0
-41 -61 -241 0
-42 -62 -242 0
-43 -63 -243 0
-44 -64 -244 0
-45 -65 -245 0
-111 -121 -191 0
-112 -122 -192 0
-113 -123 -193 0
-114 -124 -194 0
-115 -125 -195 0
-121 -216 -221 0
-122 -217 -222 0
-123 -218 -223 0
-124 -219 -224 0
-125 -220 -225 0
-121 -176 -201 0
-122 -177 -202 0
-123 -178 -203 0
-124 -179 -204 0
-125 -180 -205 0
-16 -21 -136 0
-17 -22 -137 0
-18 -23 -138 0
-19 -24 -139 0
-20 -25 -140 0
-26 -51 -96 0
-27 -52 -97 0
-28 -53 -98 0
-29 -54 -99 0
-30 -55 -100 0
-96 -116 -246 0
-97 -117 -247 0
-98 -118 -248 0
-99 -119 -249 0
-100 -120 -250 0
-76 -146 -221 0
-77 -147 -222 0
-78 -148 -223 0
-79 -149 -224 0
-80 -150 -225 0
-21 -136 -201 0
-22 -137 -202 0
-23 -138 -203 0
-24 -139 -204 0
-25 -140 -205 0
-1 -131 -136 0
-2 -132 -137 0
-3 -133 -138 0
-4 -134 -139 0
-5 -135 -140 0
-31 -116 -211 0
-32 -117 -212 0
-33 -118 -213 0
-34 -119 -214 0
-35 -120 -215 0
-81 -166 -191 0
-82 -167 -192 0
-83 -168 -193 0
-84 -169 -194 0
-85 -170 -195 0
-6 -41 -46 0
-7 -42 -47 0
-8 -43 -48 0
-9 -44 -49 0
-10 -45 -50 0
-6 -56 -71 0
-7 -57 -72 0
-8 -58 -73 0
-9 -59 -74 0
-10 -60 -75 0
-21 -61 -166 0
-22 -62 -167 0
-23 -63 -168 0
-24 -64 -169 0
-25 -65 -170 0
-71 -171 -231 0
-72 -172 -232 0
-73 -173 -233 0
-74 -174 -234 0
-75 -175 -235 0
-131 -201 -221 0
-132 -202 -222 0
-133 -203 -223 0
-134 -204 -224 0
-135 -205 -225 0
-41 -76 -181 0
-42 -77 -182 0
-43 -78 -183 0
-44 -79 -184 0
-45 -80 -185 0
-66 -211 -216 0
-67 -212 -217 0
-68 -213 -218 0
-69 -214 -219 0
-70 -215 -220 0
-41 -171 -246 0
-42 -172 -247 0
-43 -173 -248 0
-44 -174 -249 0
-45 -175 -250 0
-41 -91 -206 0
-42 -92 -207 0
-43 -93 -208 0
-44 -94 -209 0
-45 -95 -210 0
-1 -106 -166 0
-2 -107 -167 0
-3 -108 -168 0
-4 -109 -169 0
-5 -110 -170 0
-51 -176 -211 0
-52 -177 -212 0
-53 -178 -213 0
-54 -179 -214 0
-55 -180 -215 0
-81 -96 -161 0
-82 -97 -162 0
-83 -98 -163 0
-84 -99 -164 0
-85 -100 -165 0
-6 -226 -241 0
-7 -227 -242 0
-8 -228 -243 0
-9 -229 -244 0
-10 -230 -245 0
-96 -226 -251 0
-97 -227 -252 0
-98 -228 -253 0
-99 -229 -254 0
-100 -230 -255 0
-1 -111 -171 0
-2 -112 -172 0
-3 -113 -173 0
-4 -114 -174 0
-5 -115 -175 0
-6 -186 -221 0
-7 -187 -222 0
-8 -188 -223 0
-9 -189 -224 0
-10 -190 -225 0
-1 -206 -236 0
-2 -207 -237 0
-3 -208 -238 0
-4 -209 -239 0
-5 -210 -240 0
-51 -121 -161 0
-52 -122 -162 0
-53 -123 -163 0
-54 -124 -164 0
-55 -125 -165 0
-61 -141 -161 0
-62 -142 -162 0
-63 -143 -163 0
-64 -144 -164 0
-65 -145 -165 0
-56 -91 -96 0
-57 -92 -97 0
-58 -93 -98 0
-59 -94 -99 0
-60 -95 -100 0
-51 -196 -241 0
-52 -197 -242 0
-53 -198 -243 0
-54 -199 -244 0
-55 -200 -245 0
-51 -86 -146 0
-52 -87 -147 0
-53 -88 -148 0
-54 -89 -149 0
-55 -90 -150 0
-86 -91 -201 0
-87 -92 -202 0
-88 -93 -203 0
-89 -94 -204 0
-90 -95 -205 0
-46 -81 -166 0
-47 -82 -167 0
-48 -83 -168 0
-49 -84 -169 0
-50 -85 -170 0
-91 -211 -241 0
-92 -212 -242 0
-93 -213 -243 0
-94 -214 -244 0
-95 -215 -245 0
-36 -81 -201 0
-37 -82 -202 0
-38 -83 -203 0
-39 -84 -204 0
-40 -85 -205 0
-61 -196 -231 0
-62 -197 -232 0
-63 -198 -233 0
-64 -199 -234 0
-65 -200 -235 0
-96 -191 -231 0
-97 -192 -232 0
-98 -193 -233 0
-99 -194 -234 0
-100 -195 -235 0
-61 -91 -116 0
-62 -92 -117 0
-63 -93 -118 0
-64 -94 -119 0
-65 -95 -120 0
-96 -151 -211 0
-97 -152 -212 0
-98 -153 -213 0
-99 -154 -214 0
-100 -155 -215 0
-106 -151 -176 0
-107 -152 -177 0
-108 -153 -178 0
-109 -154 -179 0
-110 -155 -180 0
-11 -66 -91 0
-12 -67 -92 0
-13 -68 -93 0
-14 -69 -94 0
-15 -70 -95 0
-11 -26 -71 0
-12 -27 -72 0
-13 -28 -73 0
-14 -29 -74 0
-15 -30 -75 0
-11 -226 -251 0
-12 -227 -252 0
-13 -228 -253 0
-14 -229 -254 0
-15 -230 -255 0
-11 -186 -231 0
-12 -187 -232 0
-13 -188 -233 0
-14 -189 -234 0
-15 -190 -235 0
-51 -66 -156 0
-52 -67 -157 0
-53 -68 -158 0
-54 -69 -159 0
-55 -70 -160 0
-171 -216 -231 0
-172 -217 -232 0
-173 -218 -233 0
-174 -219 -234 0
-175 -220 -235 0
-31 -191 -196 0
-32 -192 -197 0
-33 -193 -198 0
-34 -194 -199 0
-35 -195 -200 0
-66 -196 -251 0
-67 -197 -252 0
-68 -198 -253 0
-69 -199 -254 0
-70 -200 -255 0
-61 -66 -146 0
-62 -67 -147 0
-63 -68 -148 0
-64 -69 -149 0
-65 -70 -150 0
-61 -81 -171 0
-62 -82 -172 0
-63 -83 -173 0
-64 -84 -174 0
-65 -85 -175 0
-11 -96 -166 0
-12 -97 -167 0
-13 -98 -168 0
-14 -99 -169 0
-15 -100 -170 0
-21 -206 -251 0
-22 -207 -252 0
-23 -208 -253 0
-24 -209 -254 0
-25 -210 -255 0
-26 -81 -121 0
-27 -82 -122 0
-28 -83 -123 0
-29 -84 -124 0
-30 -85 -125 0
-61 -86 -176 0
-62 -87 -177 0
-63 -88 -178 0
-64 -89 -179 0
-65 -90 -180 0
-21 -166 -231 0
-22 -167 -232 0
-23 -168 -233 0
-24 -169 -234 0
-25 -170 -235 0
-116 -176 -196 0
-117 -177 -197 0
-118 -178 -198 0
-119 -179 -199 0
-120 -180 -200 0
-111 -116 -201 0
-112 -117 -202 0
-113 -118 -203 0
-114 -119 -204 0
-115 -120 -205 0
-6 -71 -76 0
-7 -72 -77 0
-8 -73 -78 0
-9 -74 -79 0
-10 -75 -80 0
-31 -91 -191 0
-32 -92 -192 0
-33 -93 -193 0
-34 -94 -194 0
-35 -95 -195 0
-81 -241 -246 0
-82 -242 -247 0
-83 -243 -248 0
-84 -244 -249 0
-85 -245 -250 0
-6 -16 -26 0
-7 -17 -27 0
-8 -18 -28 0
-9 -19 -29 0
-10 -20 -30 0
-56 -81 -216 0
-57 -82 -217 0
-58 -83 -218 0
-59 -84 -219 0
-60 -85 -220 0
-26 -56 -151 0
-27 -57 -152 0
-28 -58 -153 0
-29 -59 -154 0
-30 -60 -155 0
-106 -111 -246 0
-107 -112 -247 0
-108 -113 -248 0
-109 -114 -249 0
-110 -115 -250 0
-6 -181 -191 0
-7 -182 -192 0
-8 -183 -193 0
-9 -184 -194 0
-10 -185 -195 0
-126 -156 -196 0
-127 -157 -197 0
-128 -158 -198 0
-129 -159 -199 0
-130 -160 -200 0
-46 -211 -226 0
-47 -212 -227 0
-48 -213 -228 0
-49 -214 -229 0
-50 -215 -230 0
-71 -111 -196 0
-72 -112 -197 0
-73 -113 -198 0
-74 -114 -199 0
-75 -115 -200 0
-136 -171 -246 0
-137 -172 -247 0
-138 -173 -248 0
-139 -174 -249 0
-140 -175 -250 0
-66 -191 -201 0
-67 -192 -202 0
-68 -193 -203 0
-69 -194 -204 0
-70 -195 -205 0
-46 -121 -136 0
-47 -122 -137 0
-48 -123 -138 0
-49 -124 -139 0
-50 -125 -140 0
-41 -71 -191 0
-42 -72 -192 0
-43 -73 -193 0
-44 -74 -194 0
-45 -75 -195 0
-101 -181 -221 0
-102 -182 -222 0
-103 -183 -223 0
-104 -184 -224 0
-105 -185 -225 0
-51 -156 -196 0
-52 -157 -197 0
-53 -158 -198 0
-54 -159 -199 0
-55 -160 -200 0
-16 -71 -106 0
-17 -72 -107 0
-18 -73 -108 0
-19 -74 -109 0
-20 -75 -110 0
-66 -211 -231 0
-67 -212 -232 0
-68 -213 -233 0
-69 -214 -234 0
-70 -215 -235 0
-141 -156 -201 0
-142 -157 -202 0
-143 -158 -203 0
-144 -159 -204 0
-145 -160 -205 0
-11 -36 -66 0
-12 -37 -67 0
-13 -38 -68 0
-14 -39 -69 0
-15 -40 -70 0
-101 -201 -251 0
-102 -202 -252 0
-103 -203 -253 0
-104 -204 -254 0
-105 -205 -255 0
-131 -156 -236 0
-132 -157 -237 0
-133 -158 -238 0
-134 -159 -239 0
-135 -160 -240 0
-11 -151 -166 0
-12 -152 -167 0
-13 -153 -168 0
-14 -154 -169 0
-15 -155 -170 0
-11 -41 -71 0
-12 -42 -72 0
-13 -43 -73 0
-14 -44 -74 0
-15 -45 -75 0
-11 -201 -231 0
-12 -202 -232 0
-13 -203 -233 0
-14 -204 -234 0
-15 -205 -235 0
-141 -216 -251 0
-142 -217 -252 0
-143 -218 -253 0
-144 -219 -254 0
-145 -220 -255 0
-11 -96 -116 0
-12 -97 -117 0
-13 -98 -118 0
-14 -99 -119 0
-15 -100 -120 0
-101 -121 -236 0
-102 -122 -237 0
-103 -123 -238 0
-104 -124 -239 0
-105 -125 -240 0
-61 -136 -196 0
-62 -137 -197 0
-63 -138 -198 0
-64 -139 -199 0
-65 -140 -200 0
-21 -151 -156 0
-22 -152 -157 0
-23 -153 -158 0
-24 -154 -159 0
-25 -155 -160 0
-66 -76 -166 0
-67 -77 -167 0
-68 -78 -168 0
-69 -79 -169 0
-70 -80 -170 0
-106 -146 -216 0
-107 -147 -217 0
-108 -148 -218 0
-109 -149 -219 0
-110 -150 -220 0
-41 -91 -106 0
-42 -92 -107 0
-43 -93 -108 0
-44 -94 -109 0
-45 -95 -110 0
-111 -186 -251 0
-112 -187 -252 0
-113 -188 -253 0
-114 -189 -254 0
-115 -190 -255 0
-21 -221 -251 0
-22 -222 -252 0
-23 -223 -253 0
-24 -224 -254 0
-25 -225 -255 0
-86 -141 -146 0
-87 -142 -147 0
-88 -143 -148 0
-89 -144 -149 0
-90 -145 -150 0
-106 -166 -246 0
-107 -167 -247 0
-108 -168 -248 0
-109 -169 -249 0
-110 -170 -250 0
-51 -101 -211 0
-52 -102 -212 0
-53 -103 -213 0
-54 -104 -214 0
-55 -105 -215 0
-156 -176 -236 0
-157 -177 -237 0
-158 -178 -238 0
-159 -179 -239 0
-160 -180 -240 0
-171 -176 -226 0
-172 -177 -227 0
-173 -178 -228 0
-174 -179 -229 0
-175 -180 -230 0
-96 -111 -231 0
-97 -112 -232 0
-98 -113 -233 0
-99 -114 -234 0
-100 -115 -235 0
-166 -181 -206 0
-167 -182 -207 0
-168 -183 -208 0
-169 -184 -209 0
-170 -185 -210 0
-26 -166 -221 0
-27 -167 -222 0
-28 -168 -223 0
-29 -169 -224 0
-30 -170 -225 0
-41 -206 -231 0
-42 -207 -232 0
-43 -208 -233 0
-44 -209 -234 0
-45 -210 -235 0
-21 -106 -196 0
-22 -107 -197 0
-23 -108 -198 0
-24 -109 -199 0
-25 -110 -200 0
-16 -86 -221 0
-17 -87 -222 0
-18 -88 -223 0
-19 -89 -224 0
-20 -90 -225 0
-86 -196 -216 0
-87 -197 -217 0
-88 -198 -218 0
-89 -199 -219 0
-90 -200 -220 0
-16 -46 -201 0
-17 -47 -202 0
-18 -48 -203 0
-19 -49 -204 0
-20 -50 -205 0
-86 -116 -176 0
-87 -117 -177 0
-88 -118 -178 0
-89 -119 -179 0
-90 -120 -180 0
-136 -226 -241 0
-137 -227 -242 0
-138 -228 -243 0
-139 -229 -244 0
-140 -230 -245 0
-31 -71 -176 0
-32 -72 -177 0
-33 -73 -178 0
-34 -74 -179 0
-35 -75 -180 0
-66 -76 -231 0
-67 -77 -232 0
-68 -78 -233 0
-69 -79 -234 0
-70 -80 -235 0
-81 -221 -231 0
-82 -222 -232 0
-83 -223 -233 0
-84 -224 -234 0
-85 -225 -235 0
-6 -216 -226 0
-7 -217 -227 0
-8 -218 -228 0
-9 -219 -229 0
-10 -220 -230 0
-36 -41 -106 0
-37 -42 -107 0
-38 -43 -108 0
-39 -44 -109 0
-40 -45 -110 0
-26 -41 -141 0
-27 -42 -142 0
-28 -43 -143 0
-29 -44 -144 0
-30 -45 -145 0
-1 -101 -151 0
-2 -102 -152 0
-3 -103 -153 0
-4 -104 -154 0
-5 -105 -155 0
-81 -91 -146 0
-82 -92 -147 0
-83 -93 -148 0
-84 -94 -149 0
-85 -95 -150 0
-146 -166 -221 0
-147 -167 -222 0
-148 -168 -223 0
-149 -169 -224 0
-150 -170 -225 0
-36 -71 -186 0
-37 -72 -187 0
-38 -73 -188 0
-39 -74 -189 0
-40 -75 -190 0
-6 -181 -206 0
-7 -182 -207 0
-8 -183 -208 0
-9 -184 -209 0
-10 -185 -210 0
-66 -226 -231 0
-67 -227 -232 0
-68 -228 -233 0
-69 -229 -234 0
-70 -230 -235 0
-96 -181 -216 0
-97 -182 -217 0
-98 -183 -218 0
-99 -184 -219 0
-100 -185 -220 0
-96 -141 -196 0
-97 -142 -197 0
-98 -143 -198 0
-99 -144 -199 0
-100 -145 -200 0
-46 -56 -121 0
-47 -57 -122 0
-48 -58 -123 0
-49 -59 -124 0
-50 -60 -125 0
-51 -136 -181 0
-52 -137 -182 0
-53 -138 -183 0
-54 -139 -184 0
-55 -140 -185 0
-1 -176 -226 0
-2 -177 -227 0
-3 -178 -228 0
-4 -179 -229 0
-5 -180 -230 0
-141 -191 -236 0
-142 -192 -237 0
-143 -193 -238 0
-144 -194 -239 0
-145 -195 -240 0
-51 -151 -206 0
-52 -152 -207 0
-53 -153 -208 0
-54 -154 -209 0
-55 -155 -210 0
-16 -146 -156 0
-17 -147 -157 0
-18 -148 -158 0
-19 -149 -159 0
-20 -150 -160 0
-66 -91 -141 0
-67 -92 -142 0
-68 -93 -143 0
-69 -94 -144 0
-70 -95 -145 0
-26 -31 -196 0
-27 -32 -197 0
-28 -33 -198 0
-29 -34 -199 0
-30 -35 -200 0
-6 -106 -171 0
-7 -107 -172 0
-8 -108 -173 0
-9 -109 -174 0
-10 -110 -175 0
-96 -201 -246 0
-97 -202 -247 0
-98 -203 -248 0
-99 -204 -249 0
-100 -205 -250 0
-31 -196 -206 0
-32 -197 -207 0
-33 -198 -208 0
-34 -199 -209 0
-35 -200 -210 0
-11 -126 -171 0
-12 -127 -172 0
-13 -128 -173 0
-14 -129 -174 0
-15 -130 -175 0
-11 -221 -236 0
-12 -222 -237 0
-13 -223 -238 0
-14 -224 -239 0
-15 -225 -240 0
-81 -86 -206 0
-82 -87 -207 0
-83 -88 -208 0
-84 -89 -209 0
-85 -90 -210 0
-11 -181 -216 0
-12 -182 -217 0
-13 -183 -218 0
-14 -184 -219 0
-15 -185 -220 0
-106 -161 -216 0
-107 -162 -217 0
-108 -163 -218 0
-109 -164 -219 0
-110 -165 -220 0
-11 -36 -81 0
-12 -37 -82 0
-13 -38 -83 0
-14 -39 -84 0
-15 -40 -85 0
-106 -176 -241 0
-107 -177 -242 0
-108 -178 -243 0
-109 -179 -244 0
-110 -180 -245 0
-41 -46 -236 0
-42 -47 -237 0
-43 -48 -238 0
-44 -49 -239 0
-45 -50 -240 0
-31 -51 -96 0
-32 -52 -97 0
-33 -53 -98 0
-34 -54 -99 0
-35 -55 -100 0
-21 -146 -166 0
-22 -147 -167 0
-23 -148 -168 0
-24 -149 -169 0
-25 -150 -170 0
-91 -141 -236 0
-92 -142 -237 0
-93 -143 -238 0
-94 -144 -239 0
-95 -145 -240 0
-46 -71 -216 0
-47 -72 -217 0
-48 -73 -218 0
-49 -74 -219 0
-50 -75 -220 0
-56 -196 -241 0
-57 -197 -242 0
-58 -198 -243 0
-59 -199 -244 0
-60 -200 -245 0
-21 -91 -116 0
-22 -92 -117 0
-23 -93 -118 0
-24 -94 -119 0
-25 -95 -120 0
-116 -166 -176 0
-117 -167 -177 0
-118 -168 -178 0
-119 -169 -179 0
-120 -170 -180 0
-46 -56 -186 0
-47 -57 -187 0
-48 -58 -188 0
-49 -59 -189 0
-50 -60 -190 0
-31 -176 -241 0
-32 -177 -242 0
-33 -178 -243 0
-34 -179 -244 0
-35 -180 -245 0
-116 -226 -231 0
-117 -227 -232 0
-118 -228 -233 0
-119 -229 -234 0
-120 -230 -235 0
-116 -186 -211 0
-117 -187 -212 0
-118 -188 -213 0
-119 -189 -214 0
-120 -190 -215 0
-121 -126 -181 0
-122 -127 -182 0
-123 -128 -183 0
-124 -129 -184 0
-125 -130 -185 0
-86 -226 -246 0
-87 -227 -247 0
-88 -228 -248 0
-89 -229 -249 0
-90 -230 -250 0
-111 -126 -216 0
-112 -127 -217 0
-113 -128 -218 0
-114 -129 -219 0
-115 -130 -220 0
-26 -76 -106 0
-27 -77 -107 0
-28 -78 -108 0
-29 -79 -109 0
-30 -80 -110 0
-56 -61 -151 0
-57 -62 -152 0
-58 -63 -153 0
-59 -64 -154 0
-60 -65 -155 0
-106 -146 -231 0
-107 -147 -232 0
-108 -148 -233 0
-109 -149 -234 0
-110 -150 -235 0
-151 -176 -231 0
-152 -177 -232 0
-153 -178 -233 0
-154 -179 -234 0
-155 -180 -235 0
-56 -116 -196 0
-57 -117 -197 0
-58 -118 -198 0
-59 -119 -199 0
-60 -120 -200 0
-71 -141 -171 0
-72 -142 -172 0
-73 -143 -173 0
-74 -144 -174 0
-75 -145 -175 0
-151 -181 -236 0
-152 -182 -237 0
-153 -183 -238 0
-154 -184 -239 0
-155 -185 -240 0
-6 -81 -86 0
-7 -82 -87 0
-8 -83 -88 0
-9 -84 -89 0
-10 -85 -90 0
-61 -71 -221 0
-62 -72 -222 0
-63 -73 -223 0
-64 -74 -224 0
-65 -75 -225 0
-71 -196 -246 0
-72 -197 -247 0
-73 -198 -248 0
-74 -199 -249 0
-75 -200 -250 0
-121 -141 -231 0
-122 -142 -232 0
-123 -143 -233 0
-124 -144 -234 0
-125 -145 -235 0
-51 -91 -106 0
-52 -92 -107 0
-53 -93 -108 0
-54 -94 -109 0
-55 -95 -110 0
-71 -116 -206 0
-72 -117 -207 0
-73 -118 -208 0
-74 -119 -209 0
-75 -120 -210 0
-126 -246 -251 0
-127 -247 -252 0
-128 -248 -253 0
-129 -249 -254 0
-130 -250 -255 0
-136 -166 -206 0
-137 -167 -207 0
-138 -168 -208 0
-139 -169 -209 0
-140 -170 -210 0
-6 -46 -71 0
-7 -47 -72 0
-8 -48 -73 0
-9 -49 -74 0
-10 -50 -75 0
-136 -221 -251 0
-137 -222 -252 0
-138 -223 -253 0
-139 -224 -254 0
-140 -225 -255 0
-1 -26 -66 0
-2 -27 -67 0
-3 -28 -68 0
-4 -29 -69 0
-5 -30 -70 0
-81 -161 -196 0
-82 -162 -197 0
-83 -163 -198 0
-84 -164 -199 0
-85 -165 -200 0
-131 -171 -186 0
-132 -172 -187 0
-133 -173 -188 0
-134 -174 -189 0
-135 -175 -190 0
-101 -176 -181 0
-102 -177 -182 0
-103 -178 -183 0
-104 -179 -184 0
-105 -180 -185 0
-46 -131 -151 0
-47 -132 -152 0
-48 -133 -153 0
-49 -134 -154 0
-50 -135 -155 0
-6 -211 -236 0
-7 -212 -237 0
-8 -213 -238 0
-9 -214 -239 0
-10 -215 -240 0
-1 -191 -231 0
-2 -192 -232 0
-3 -193 -233 0
-4 -194 -234 0
-5 -195 -235 0
-36 -86 -186 0
-37 -87 -187 0
-38 -88 -188 0
-39 -89 -189 0
-40 -90 -190 0
-131 -151 -196 0
-132 -152 -197 0
-133 -153 -198 0
-134 -154 -199 0
-135 -155 -200 0
-46 -201 -251 0
-47 -202 -252 0
-48 -203 -253 0
-49 -204 -254 0
-50 -205 -255 0
-96 -211 -241 0
-97 -212 -242 0
-98 -213 -243 0
-99 -214 -244 0
-100 -215 -245 0
-1 -196 -236 0
-2 -197 -237 0
-3 -198 -238 0
-4 -199 -239 0
-5 -200 -240 0
-51 -206 -226 0
-52 -207 -227 0
-53 -208 -228 0
-54 -209 -229 0
-55 -210 -230 0
-141 -206 -236 0
-142 -207 -237 0
-143 -208 -238 0
-144 -209 -239 0
-145 -210 -240 0
-46 -146 -201 0
-47 -147 -202 0
-48 -148 -203 0
-49 -149 -204 0
-50 -150 -205 0
-26 -51 -206 0
-27 -52 -207 0
-28 -53 -208 0
-29 -54 -209 0
-30 -55 -210 0
-1 -101 -166 0
-2 -102 -167 0
-3 -103 -168 0
-4 -104 -169 0
-5 -105 -170 0
-11 -31 -51 0
-12 -32 -52 0
-13 -33 -53 0
-14 -34 -54 0
-15 -35 -55 0
-91 -181 -206 0
-92 -182 -207 0
-93 -183 -208 0
-94 -184 -209 0
-95 -185 -210 0
-11 -106 -131 0
-12 -107 -132 0
-13 -108 -133 0
-14 -109 -134 0
-15 -110 -135 0
-46 -71 -166 0
-47 -72 -167 0
-48 -73 -168 0
-49 -74 -169 0
-50 -75 -170 0
-76 -221 -226 0
-77 -222 -227 0
-78 -223 -228 0
-79 -224 -229 0
-80 -225 -230 0
-31 -176 -191 0
-32 -177 -192 0
-33 -178 -193 0
-34 -179 -194 0
-35 -180 -195 0
-61 -96 -141 0
-62 -97 -142 0
-63 -98 -143 0
-64 -99 -144 0
-65 -100 -145 0
-66 -141 -226 0
-67 -142 -227 0
-68 -143 -228 0
-69 -144 -229 0
-70 -145 -230 0
-126 -151 -246 0
-127 -152 -247 0
-128 -153 -248 0
-129 -154 -249 0
-130 -155 -250 0
-16 -116 -201 0
-17 -117 -202 0
-18 -118 -203 0
-19 -119 -204 0
-20 -120 -205 0
-76 -186 -211 0
-77 -187 -212 0
-78 -188 -213 0
-79 -189 -214 0
-80 -190 -215 0
-111 -216 -251 0
-112 -217 -252 0
-113 -218 -253 0
-114 -219 -254 0
-115 -220 -255 0
-11 -216 -246 0
-12 -217 -247 0
-13 -218 -248 0
-14 -219 -249 0
-15 -220 -250 0
-16 -101 -171 0
-17 -102 -172 0
-18 -103 -173 0
-19 -104 -174 0
-20 -105 -175 0
-96 -101 -216 0
-97 -102 -217 0
-98 -103 -218 0
-99 -104 -219 0
-100 -105 -220 0
-21 -236 -246 0
-22 -237 -247 0
-23 -238 -248 0
-24 -239 -249 0
-25 -240 -250 0
-66 -106 -211 0
-67 -107 -212 0
-68 -108 -213 0
-69 -109 -214 0
-70 -110 -215 0
-56 -171 -221 0
-57 -172 -222 0
-58 -173 -223 0
-59 -174 -224 0
-60 -175 -225 0
-166 -186 -216 0
-167 -187 -217 0
-168 -188 -218 0
-169 -189 -219 0
-170 -190 -220 0
-171 -206 -226 0
-172 -207 -227 0
-173 -208 -228 0
-174 -209 -229 0
-175 -210 -230 0
-21 -126 -151 0
-22 -127 -152 0
-23 -128 -153 0
-24 -129 -154 0
-25 -130 -155 0
-156 -186 -251 0
-157 -187 -252 0
-158 -188 -253 0
-159 -189 -254 0
-160 -190 -255 0
-31 -46 -106 0
-32 -47 -107 0
-33 -48 -108 0
-34 -49 -109 0
-35 -50 -110 0
-31 -101 -151 0
-32 -102 -152 0
-33 -103 -153 0
-34 -104 -154 0
-35 -105 -155 0
-121 -236 -246 0
-122 -237 -247 0
-123 -238 -248 0
-124 -239 -249 0
-125 -240 -250 0
-106 -121 -211 0
-107 -122 -212 0
-108 -123 -213 0
-109 -124 -214 0
-110 -125 -215 0
-71 -211 -221 0
-72 -212 -222 0
-73 -213 -223 0
-74 -214 -224 0
-75 -215 -225 0
-96 -121 -246 0
-97 -122 -247 0
-98 -123 -248 0
-99 -124 -249 0
-100 -125 -250 0
-171 -186 -236 0
-172 -187 -237 0
-173 -188 -238 0
-174 -189 -239 0
-175 -190 -240 0
-151 -156 -216 0
-152 -157 -217 0
-153 -158 -218 0
-154 -159 -219 0
-155 -160 -220 0
-1 -76 -81 0
-2 -77 -82 0
-3 -78 -83 0
-4 -79 -84 0
-5 -80 -85 0
-56 -96 -181 0
-57 -97 -182 0
-58 -98 -183 0
-59 -99 -184 0
-60 -100 -185 0
-121 -196 -251 0
-122 -197 -252 0
-123 -198 -253 0
-124 -199 -254 0
-125 -200 -255 0
-36 -236 -251 0
-37 -237 -252 0
-38 -238 -253 0
-39 -239 -254 0
-40 -240 -255 0
-81 -226 -236 0
-82 -227 -237 0
-83 -228 -238 0
-84 -229 -239 0
-85 -230 -240 0
-6 -61 -71 0
-7 -62 -72 0
-8 -63 -73 0
-9 -64 -74 0
-10 -65 -75 0
-41 -66 -126 0
-42 -67 -127 0
-43 -68 -128 0
-44 -69 -129 0
-45 -70 -130 0
-46 -141 -146 0
-47 -142 -147 0
-48 -143 -148 0
-49 -144 -149 0
-50 -145 -150 0
-1 -41 -66 0
-2 -42 -67 0
-3 -43 -68 0
-4 -44 -69 0
-5 -45 -70 0
-116 -141 -226 0
-117 -142 -227 0
-118 -143 -228 0
-119 -144 -229 0
-120 -145 -230 0
-111 -121 -251 0
-112 -122 -252 0
-113 -123 -253 0
-114 -124 -254 0
-115 -125 -255 0
-71 -96 -191 0
-72 -97 -192 0
-73 -98 -193 0
-74 -99 -194 0
-75 -100 -195 0
-36 -51 -121 0
-37 -52 -122 0
-38 -53 -123 0
-39 -54 -124 0
-40 -55 -125 0
-76 -131 -226 0
-77 -132 -227 0
-78 -133 -228 0
-79 -134 -229 0
-80 -135 -230 0
-1 -246 -251 0
-2 -247 -252 0
-3 -248 -253 0
-4 -249 -254 0
-5 -250 -255 0
-66 -121 -146 0
-67 -122 -147 0
-68 -123 -148 0
-69 -124 -149 0
-70 -125 -150 0
-81 -116 -186 0
-82 -117 -187 0
-83 -118 -188 0
-84 -119 -189 0
-85 -120 -190 0
-131 -181 -251 0
-132 -182 -252 0
-133 -183 -253 0
-134 -184 -254 0
-135 -185 -255 0
-126 -161 -246 0
-127 -162 -247 0
-128 -163 -248 0
-129 -164 -249 0
-130 -165 -250 0
-6 -96 -151 0
-7 -97 -152 0
-8 -98 -153 0
-9 -99 -154 0
-10 -100 -155 0
-11 -66 -86 0
-12 -67 -87 0
-13 -68 -88 0
-14 -69 -89 0
-15 -70 -90 0
-131 -146 -236 0
-132 -147 -237 0
-133 -148 -238 0
-134 -149 -239 0
-135 -150 -240 0
-71 -91 -251 0
-72 -92 -252 0
-73 -93 -253 0
-74 -94 -254 0
-75 -95 -255 0
-156 -171 -176 0
-157 -172 -177 0
-158 -173 -178 0
-159 -174 -179 0
-160 -175 -180 0
-81 -136 -241 0
-82 -137 -242 0
-83 -138 -243 0
-84 -139 -244 0
-85 -140 -245 0
-11 -231 -251 0
-12 -232 -252 0
-13 -233 -253 0
-14 -234 -254 0
-15 -235 -255 0
-156 -186 -201 0
-157 -187 -202 0
-158 -188 -203 0
-159 -189 -204 0
-160 -190 -205 0
-16 -91 -181 0
-17 -92 -182 0
-18 -93 -183 0
-19 -94 -184 0
-20 -95 -185 0
-171 -181 -211 0
-172 -182 -212 0
-173 -183 -213 0
-174 -184 -214 0
-175 -185 -215 0
-26 -176 -186 0
-27 -177 -187 0
-28 -178 -188 0
-29 -179 -189 0
-30 -180 -190 0
-11 -31 -66 0
-12 -32 -67 0
-13 -33 -68 0
-14 -34 -69 0
-15 -35 -70 0
-46 -101 -216 0
-47 -102 -217 0
-48 -103 -218 0
-49 -104 -219 0
-50 -105 -220 0
-66 -81 -191 0
-67 -82 -192 0
-68 -83 -193 0
-69 -84 -194 0
-70 -85 -195 0
-96 -131 -241 0
-97 -132 -242 0
-98 -133 -243 0
-99 -134 -244 0
-100 -135 -245 0
-76 -206 -216 0
-77 -207 -217 0
-78 -208 -218 0
-79 -209 -219 0
-80 -210 -220 0
-21 -156 -176 0
-22 -157 -177 0
-23 -158 -178 0
-24 -159 -179 0
-25 -160 -180 0
-31 -121 -161 0
-32 -122 -162 0
-33 -123 -163 0
-34 -124 -164 0
-35 -125 -165 0
-76 -111 -146 0
-77 -112 -147 0
-78 -113 -148 0
-79 -114 -149 0
-80 -115 -150 0
-71 -186 -201 0
-72 -187 -202 0
-73 -188 -203 0
-74 -189 -204 0
-75 -190 -205 0
-151 -186 -246 0
-152 -187 -247 0
-153 -188 -248 0
-154 -189 -249 0
-155 -190 -250 0
-26 -86 -121 0
-27 -87 -122 0
-28 -88 -123 0
-29 -89 -124 0
-30 -90 -125 0
-31 -171 -226 0
-32 -172 -227 0
-33 -173 -228 0
-34 -174 -229 0
-35 -175 -230 0
-56 -71 -166 0
-57 -72 -167 0
-58 -73 -168 0
-59 -74 -169 0
-60 -75 -170 0
-156 -166 -236 0
-157 -167 -237 0
-158 -168 -238 0
-159 -169 -239 0
-160 -170 -240 0
-91 -101 -206 0
-92 -102 -207 0
-93 -103 -208 0
-94 -104 -209 0
-95 -105 -210 0
-61 -106 -201 0
-62 -107 -202 0
-63 -108 -203 0
-64 -109 -204 0
-65 -110 -205 0
-16 -21 -146 0
-17 -22 -147 0
-18 -23 -148 0
-19 -24 -149 0
-20 -25 -150 0
-36 -106 -116 0
-37 -107 -117 0
-38 -108 -118 0
-39 -109 -119 0
-40 -110 -120 0
-41 -191 -221 0
-42 -192 -222 0
-43 -193 -223 0
-44 -194 -224 0
-45 -195 -225 0
-41 -56 -136 0
-42 -57 -137 0
-43 -58 -138 0
-44 -59 -139 0
-45 -60 -140 0
-86 -146 -196 0
-87 -147 -197 0
-88 -148 -198 0
-89 -149 -199 0
-90 -150 -200 0
-56 -86 -216 0
-57 -87 -217 0
-58 -88 -218 0
-59 -89 -219 0
-60 -90 -220 0
-6 -36 -51 0
-7 -37 -52 0
-8 -38 -53 0
-9 -39 -54 0
-10 -40 -55 0
-41 -101 -161 0
-42 -102 -162 0
-43 -103 -163 0
-44 -104 -164 0
-45 -105 -165 0
-121 -136 -216 0
-122 -137 -217 0
-123 -138 -218 0
-124 -139 -219 0
-125 -140 -220 0
-6 -41 -56 0
-7 -42 -57 0
-8 -43 -58 0
-9 -44 -59 0
-10 -45 -60 0
-1 -36 -76 0
-2 -37 -77 0
-3 -38 -78 0
-4 -39 -79 0
-5 -40 -80 0
-121 -156 -246 0
-122 -157 -247 0
-123 -158 -248 0
-124 -159 -249 0
-125 -160 -250 0
-41 -76 -191 0
-42 -77 -192 0
-43 -78 -193 0
-44 -79 -194 0
-45 -80 -195 0
-146 -181 -186 0
-147 -182 -187 0
-148 -183 -188 0
-149 -184 -189 0
-150 -185 -190 0
-1 -186 -216 0
-2 -187 -217 0
-3 -188 -218 0
-4 -189 -219 0
-5 -190 -220 0
-101 -146 -201 0
-102 -147 -202 0
-103 -148 -203 0
-104 -149 -204 0
-105 -150 -205 0
-6 -221 -246 0
-7 -222 -247 0
-8 -223 -248 0
-9 -224 -249 0
-10 -225 -250 0
-6 -21 -66 0
-7 -22 -67 0
-8 -23 -68 0
-9 -24 -69 0
-10 -25 -70 0
-41 -91 -216 0
-42 -92 -217 0
-43 -93 -218 0
-44 -94 -219 0
-45 -95 -220 0
-1 -201 -241 0
-2 -202 -242 0
-3 -203 -243 0
-4 -204 -244 0
-5 -205 -245 0
-86 -126 -231 0
-87 -127 -232 0
-88 -128 -233 0
-89 -129 -234 0
-90 -130 -235 0
-51 -216 -241 0
-52 -217 -242 0
-53 -218 -243 0
-54 -219 -244 0
-55 -220 -245 0
-11 -151 -161 0
-12 -152 -162 0
-13 -153 -163 0
-14 -154 -164 0
-15 -155 -165 0
-66 -116 -156 0
-67 -117 -157 0
-68 -118 -158 0
-69 -119 -159 0
-70 -120 -160 0
-16 -131 -151 0
-17 -132 -152 0
-18 -133 -153 0
-19 -134 -154 0
-20 -135 -155 0
-26 -56 -211 0
-27 -57 -212 0
-28 -58 -213 0
-29 -59 -214 0
-30 -60 -215 0
-96 -186 -241 0
-97 -187 -242 0
-98 -188 -243 0
-99 -189 -244 0
-100 -190 -245 0
-41 -56 -201 0
-42 -57 -202 0
-43 -58 -203 0
-44 -59 -204 0
-45 -60 -205 0
-91 -136 -176 0
-92 -137 -177 0
-93 -138 -178 0
-94 -139 -179 0
-95 -140 -180 0
-46 -101 -166 0
-47 -102 -167 0
-48 -103 -168 0
-49 -104 -169 0
-50 -105 -170 0
-16 -76 -101 0
-17 -77 -102 0
-18 -78 -103 0
-19 -79 -104 0
-20 -80 -105 0
-36 -101 -201 0
-37 -102 -202 0
-38 -103 -203 0
-39 -104 -204 0
-40 -105 -205 0
-36 -61 -181 0
-37 -62 -182 0
-38 -63 -183 0
-39 -64 -184 0
-40 -65 -185 0
-96 -131 -191 0
-97 -132 -192 0
-98 -133 -193 0
-99 -134 -194 0
-100 -135 -195 0
-156 -161 -181 0
-157 -162 -182 0
-158 -163 -183 0
-159 -164 -184 0
-160 -165 -185 0
-11 -101 -116 0
-12 -102 -117 0
-13 -103 -118 0
-14 -104 -119 0
-15 -105 -120 0
-91 -196 -226 0
-92 -197 -227 0
-93 -198 -228 0
-94 -199 -229 0
-95 -200 -230 0
-91 -211 -251 0
-92 -212 -252 0
-93 -213 -253 0
-94 -214 -254 0
-95 -215 -255 0
-36 -81 -211 0
-37 -82 -212 0
-38 -83 -213 0
-39 -84 -214 0
-40 -85 -215 0
-26 -151 -166 0
-27 -152 -167 0
-28 -153 -168 0
-29 -154 -169 0
-30 -155 -170 0
-71 -201 -206 0
-72 -202 -207 0
-73 -203 -208 0
-74 -204 -209 0
-75 -205 -210 0
-21 -116 -131 0
-22 -117 -132 0
-23 -118 -133 0
-24 -119 -134 0
-25 -120 -135 0
-76 -196 -221 0
-77 -197 -222 0
-78 -198 -223 0
-79 -199 -224 0
-80 -200 -225 0
-21 -191 -211 0
-22 -192 -212 0
-23 -193 -213 0
-24 -194 -214 0
-25 -195 -215 0
-71 -106 -136 0
-72 -107 -137 0
-73 -108 -138 0
-74 -109 -139 0
-75 -110 -140 0
-66 -116 -221 0
-67 -117 -222 0
-68 -118 -223 0
-69 -119 -224 0
-70 -120 -225 0
-61 -66 -156 0
-62 -67 -157 0
-63 -68 -158 0
-64 -69 -159 0
-65 -70 -160 0
-56 -141 -211 0
-57 -142 -212 0
-58 -143 -213 0
-59 -144 -214 0
-60 -145 -215 0
-21 -136 -161 0
-22 -137 -162 0
-23 -138 -163 0
-24 -139 -164 0
-25 -140 -165 0
-116 -211 -221 0
-117 -212 -222 0
-118 -213 -223 0
-119 -214 -224 0
-120 -215 -225 0
-111 -151 -226 0
-112 -152 -227 0
-113 -153 -228 0
-114 -154 -229 0
-115 -155 -230 0
-71 -126 -166 0
-72 -127 -167 0
-73 -128 -168 0
-74 -129 -169 0
-75 -130 -170 0
-151 -166 -231 0
-152 -167 -232 0
-153 -168 -233 0
-154 -169 -234 0
-155 -170 -235 0
-71 -76 -126 0
-72 -77 -127 0
-73 -78 -128 0
-74 -79 -129 0
-75 -80 -130 0
-36 -231 -236 0
-37 -232 -237 0
-38 -233 -238 0
-39 -234 -239 0
-40 -235 -240 0
-71 -91 -151 0
-72 -92 -152 0
-73 -93 -153 0
-74 -94 -154 0
-75 -95 -155 0
-36 -151 -196 0
-37 -152 -197 0
-38 -153 -198 0
-39 -154 -199 0
-40 -155 -200 0
-56 -66 -201 0
-57 -67 -202 0
-58 -68 -203 0
-59 -69 -204 0
-60 -70 -205 0
-6 -236 -251 0
-7 -237 -252 0
-8 -238 -253 0
-9 -239 -254 0
-10 -240 -255 0
-81 -186 -206 0
-82 -187 -207 0
-83 -188 -208 0
-84 -189 -209 0
-85 -190 -210 0
-21 -36 -156 0
-22 -37 -157 0
-23 -38 -158 0
-24 -39 -159 0
-25 -40 -160 0
